<?xml version="1.0"?>
<VTKFile type="UnstructuredGrid" version="0.1" byte_order="LittleEndian">
<UnstructuredGrid>
<Piece NumberOfPoints="28800" NumberOfCells="10071">
<Points>
<DataArray type="Float64" NumberOfComponents="3" format="ascii">
-0.48845978519967392 -0.49999999999999878 0 -0.5 -0.5 0 -0.48847524721005109 -0.48113855282930679 0 -0.5 -0.5 0 -0.48847524721005109 -0.48113855282930679 0 -0.5 -0.44533905111250399 0 -0.47399116852550238 -0.47906591784546038 0 -0.47399889953069058 -0.4696351942601148 0 -0.45952255185133017 -0.45813183569092247 0 -0.48847524721005109 -0.48113855282930679 0 -0.47399889953069058 -0.4696351942601148 0 -0.48847524721005109 -0.48113855282930679 0 -0.47399116852550238 -0.47906591784546038 0 -0.47399889953069058 -0.4696351942601148 0 -0.48845978519967392 -0.49999999999999878 0 -0.48847524721005109 -0.48113855282930679 0 -0.47399116852550238 -0.47906591784546038 0 -0.48845978519967392 -0.49999999999999878 0 -0.47399116852550238 -0.47906591784546038 0 -0.48845978519967392 -0.49999999999999878 0 -0.47399116852550238 -0.47906591784546038 0 -0.47240354374103682 -0.5 0 -0.47240354374103682 -0.5 0 -0.4563473022823995 -0.49999999999999889 0 -0.45859955168969169 -0.48399583434959709 0 -0.47399116852550238 -0.47906591784546038 0 -0.47240354374103682 -0.5 0 -0.45859955168969169 -0.48399583434959709 0 -0.47399116852550238 -0.47906591784546038 0 -0.4595840785933013 -0.47021189552928999 0 -0.45859955168969169 -0.48399583434959709 0 -0.47399116852550238 -0.47906591784546038 0 -0.4595840785933013 -0.47021189552928999 0 -0.45952255185133017 -0.45813183569092247 0 -0.4595840785933013 -0.47021189552928999 0 -0.45859955168969169 -0.48399583434959709 0 -0.4472434753811072 -0.47249603102815779 0 -0.4472434753811072 -0.47249603102815779 0 -0.43592330524333922 -0.48762220332400369 0 -0.43274165805303699 -0.47110944383739001 0 -0.45859955168969169 -0.48399583434959709 0 -0.4472434753811072 -0.47249603102815779 0 -0.43592330524333922 -0.48762220332400369 0 -0.4472434753811072 -0.47249603102815779 0 -0.43592330524333922 -0.48762220332400369 0 -0.4563473022823995 -0.49999999999999889 0 -0.43592330524333922 -0.48762220332400369 0 -0.4563473022823995 -0.49999999999999889 0 -0.42665997268554218 -0.49999999999999939 0 -0.43592330524333922 -0.48762220332400369 0 -0.4563473022823995 -0.49999999999999889 0 -0.45859955168969169 -0.48399583434959709 0 -0.43592330524333922 -0.48762220332400369 0 -0.44947514693095081 -0.44359463391277298 0 -0.45952255185133017 -0.45813183569092247 0 -0.43566714521728023 -0.43917558357516279 0 -0.43926643517818781 -0.45814775152321707 0 -0.45952255185133017 -0.45813183569092247 0 -0.43566714521728023 -0.43917558357516279 0 -0.45952255185133017 -0.45813183569092247 0 -0.43566714521728023 -0.43917558357516279 0 -0.4472434753811072 -0.47249603102815779 0 -0.43926643517818781 -0.45814775152321707 0 -0.45952255185133017 -0.45813183569092247 0 -0.4472434753811072 -0.47249603102815779 0 -0.43926643517818781 -0.45814775152321707 0 -0.43274165805303699 -0.47110944383739001 0 -0.47399116852550238 -0.47906591784546038 0 -0.45952255185133017 -0.45813183569092247 0 -0.4472434753811072 -0.47249603102815779 0 -0.45952255185133017 -0.45813183569092247 0 -0.4595840785933013 -0.47021189552928999 0 -0.4472434753811072 -0.47249603102815779 0 -0.45952255185133017 -0.45813183569092247 0 -0.47399889953069058 -0.4696351942601148 0 -0.45952255185133017 -0.45813183569092247 0 -0.47399889953069058 -0.4696351942601148 0 -0.45952255185133017 -0.45813183569092247 0 -0.47256434925375629 -0.4543160115402386 0 -0.45952255185133017 -0.45813183569092247 0 -0.4705119240481388 -0.44140439907288298 0 -0.45952255185133017 -0.45813183569092247 0 -0.4705119240481388 -0.44140439907288298 0 -0.47256434925375629 -0.4543160115402386 0 -0.45952255185133017 -0.45813183569092247 0 -0.46020884415810842 -0.44270473187900439 0 -0.4705119240481388 -0.44140439907288298 0 -0.44947514693095081 -0.44359463391277298 0 -0.45952255185133017 -0.45813183569092247 0 -0.46020884415810842 -0.44270473187900439 0 -0.44947514693095081 -0.44359463391277298 0 -0.45952255185133017 -0.45813183569092247 0 -0.44947514693095081 -0.44359463391277298 0 -0.46020884415810842 -0.44270473187900439 0 -0.46152098141980358 -0.43010050424306501 0 -0.46020884415810842 -0.44270473187900439 0 -0.4705119240481388 -0.44140439907288298 0 -0.46152098141980358 -0.43010050424306501 0 -0.4705119240481388 -0.44140439907288298 0 -0.5 -0.44533905111250399 0 -0.4792605511723772 -0.42821039908633651 0 -0.4705119240481388 -0.44140439907288298 0 -0.47256434925375629 -0.4543160115402386 0 -0.5 -0.44533905111250399 0 -0.48847524721005109 -0.48113855282930679 0 -0.47399889953069058 -0.4696351942601148 0 -0.5 -0.44533905111250399 0 -0.47399889953069058 -0.4696351942601148 0 -0.47256434925375629 -0.4543160115402386 0 -0.5 -0.44533905111250399 0 -0.5 -0.44533905111250399 0 -0.49309399373994639 -0.41203070099268269 0 -0.50000000000000111 -0.37443756057980321 0 -0.5 -0.44533905111250399 0 -0.49309399373994639 -0.41203070099268269 0 -0.4792605511723772 -0.42821039908633651 0 -0.49309399373994639 -0.41203070099268269 0 -0.47117585665399719 -0.41217734001054768 0 -0.4792605511723772 -0.42821039908633651 0 -0.49309399373994639 -0.41203070099268269 0 -0.47117585665399719 -0.41217734001054768 0 -0.47977652772236101 -0.39824576647622578 0 -0.4705119240481388 -0.44140439907288298 0 -0.4792605511723772 -0.42821039908633651 0 -0.46152098141980358 -0.43010050424306501 0 -0.47117585665399719 -0.41217734001054768 0 -0.4792605511723772 -0.42821039908633651 0 -0.46152098141980358 -0.43010050424306501 0 -0.49309399373994639 -0.41203070099268269 0 -0.48974847569938162 -0.38740747336048043 0 -0.50000000000000111 -0.37443756057980321 0 -0.48974847569938162 -0.38740747336048043 0 -0.48642312672438037 -0.36278150539002052 0 -0.49309399373994639 -0.41203070099268269 0 -0.48974847569938162 -0.38740747336048043 0 -0.49309399373994639 -0.41203070099268269 0 -0.48974847569938162 -0.38740747336048043 0 -0.47977652772236101 -0.39824576647622578 0 -0.47117585665399719 -0.41217734001054768 0 -0.46888544292523088 -0.39635475194215308 0 -0.47977652772236101 -0.39824576647622578 0 -0.46888544292523088 -0.39635475194215308 0 -0.47977652772236101 -0.39824576647622578 0 -0.47597886959324831 -0.38325856607526532 0 -0.48974847569938162 -0.38740747336048043 0 -0.47597886959324831 -0.38325856607526532 0 -0.48642312672438037 -0.36278150539002052 0 -0.48974847569938162 -0.38740747336048043 0 -0.47977652772236101 -0.39824576647622578 0 -0.47597886959324831 -0.38325856607526532 0 -0.46047226212004638 -0.38263127002788261 0 -0.45901914900730112 -0.37110511580400812 0 -0.44873199880990072 -0.37273943711263691 0 -0.46047226212004638 -0.38263127002788261 0 -0.46822743030822173 -0.37194584080839632 0 -0.45901914900730112 -0.37110511580400812 0 -0.47597886959324831 -0.38325856607526532 0 -0.46047226212004638 -0.38263127002788261 0 -0.46822743030822173 -0.37194584080839632 0 -0.46888544292523088 -0.39635475194215308 0 -0.47597886959324831 -0.38325856607526532 0 -0.46047226212004638 -0.38263127002788261 0 -0.46047226212004638 -0.38263127002788261 0 -0.45468813848504092 -0.39440257360107378 0 -0.44847238099986392 -0.38642364760353781 0 -0.47117585665399719 -0.41217734001054768 0 -0.46888544292523088 -0.39635475194215308 0 -0.45833632796015239 -0.40493197539091069 0 -0.46888544292523088 -0.39635475194215308 0 -0.46047226212004638 -0.38263127002788261 0 -0.45468813848504092 -0.39440257360107378 0 -0.46888544292523088 -0.39635475194215308 0 -0.45468813848504092 -0.39440257360107378 0 -0.45833632796015239 -0.40493197539091069 0 -0.45468813848504092 -0.39440257360107378 0 -0.45833632796015239 -0.40493197539091069 0 -0.44886706629917839 -0.40168544137085299 0 -0.45833632796015239 -0.40493197539091069 0 -0.44886706629917839 -0.40168544137085299 0 -0.44725281353906732 -0.41125260250332968 0 -0.44886706629917839 -0.40168544137085299 0 -0.43925595896224251 -0.40336051013321089 0 -0.44353535399930538 -0.395049807548084 0 -0.44886706629917839 -0.40168544137085299 0 -0.43925595896224251 -0.40336051013321089 0 -0.44725281353906732 -0.41125260250332968 0 -0.44353535399930538 -0.395049807548084 0 -0.4388190928287643 -0.38837495895815549 0 -0.43548642635465801 -0.39363153856849992 0 -0.43925595896224251 -0.40336051013321089 0 -0.44353535399930538 -0.395049807548084 0 -0.43548642635465801 -0.39363153856849992 0 -0.45468813848504092 -0.39440257360107378 0 -0.44886706629917839 -0.40168544137085299 0 -0.44353535399930538 -0.395049807548084 0 -0.45468813848504092 -0.39440257360107378 0 -0.44353535399930538 -0.395049807548084 0 -0.44847238099986392 -0.38642364760353781 0 -0.4388190928287643 -0.38837495895815549 0 -0.44873199880990072 -0.37273943711263691 0 -0.4388190928287643 -0.38837495895815549 0 -0.43442955601071059 -0.38033021618326229 0 -0.44873199880990072 -0.37273943711263691 0 -0.44847238099986392 -0.38642364760353781 0 -0.4388190928287643 -0.38837495895815549 0 -0.44873199880990072 -0.37273943711263691 0 -0.44847238099986392 -0.38642364760353781 0 -0.4388190928287643 -0.38837495895815549 0 -0.44353535399930538 -0.395049807548084 0 -0.44847238099986392 -0.38642364760353781 0 -0.4388190928287643 -0.38837495895815549 0 -0.46047226212004638 -0.38263127002788261 0 -0.44847238099986392 -0.38642364760353781 0 -0.44873199880990072 -0.37273943711263691 0 -0.46152098141980358 -0.43010050424306501 0 -0.45713073400600129 -0.41668745731737777 0 -0.44582116554119428 -0.42576176157496959 0 -0.47117585665399719 -0.41217734001054768 0 -0.46152098141980358 -0.43010050424306501 0 -0.45713073400600129 -0.41668745731737777 0 -0.47117585665399719 -0.41217734001054768 0 -0.45833632796015239 -0.40493197539091069 0 -0.45713073400600129 -0.41668745731737777 0 -0.45833632796015239 -0.40493197539091069 0 -0.45713073400600129 -0.41668745731737777 0 -0.44725281353906732 -0.41125260250332968 0 -0.45713073400600129 -0.41668745731737777 0 -0.44725281353906732 -0.41125260250332968 0 -0.44582116554119428 -0.42576176157496959 0 -0.43925595896224251 -0.40336051013321089 0 -0.44725281353906732 -0.41125260250332968 0 -0.43634191419794938 -0.41460369128059499 0 -0.44725281353906732 -0.41125260250332968 0 -0.44582116554119428 -0.42576176157496959 0 -0.43634191419794938 -0.41460369128059499 0 -0.44582116554119428 -0.42576176157496959 0 -0.43238159931351711 -0.42480731061578469 0 -0.43634191419794938 -0.41460369128059499 0 -0.44947514693095081 -0.44359463391277298 0 -0.46152098141980358 -0.43010050424306501 0 -0.44582116554119428 -0.42576176157496959 0 -0.44947514693095081 -0.44359463391277298 0 -0.44582116554119428 -0.42576176157496959 0 -0.43566714521728023 -0.43917558357516279 0 -0.44582116554119428 -0.42576176157496959 0 -0.43238159931351711 -0.42480731061578469 0 -0.43566714521728023 -0.43917558357516279 0 -0.43238159931351711 -0.42480731061578469 0 -0.4127706449156861 -0.42098130841801301 0 -0.43566714521728023 -0.43917558357516279 0 -0.4127706449156861 -0.42098130841801301 0 -0.43566714521728023 -0.43917558357516279 0 -0.4203172351126776 -0.43867124063479979 0 -0.4127706449156861 -0.42098130841801301 0 -0.43566714521728023 -0.43917558357516279 0 -0.43238159931351711 -0.42480731061578469 0 -0.43634191419794938 -0.41460369128059499 0 -0.42582475225701222 -0.41420990865210178 0 -0.43238159931351711 -0.42480731061578469 0 -0.42582475225701222 -0.41420990865210178 0 -0.4127706449156861 -0.42098130841801301 0 -0.43925595896224251 -0.40336051013321089 0 -0.43634191419794938 -0.41460369128059499 0 -0.42946145518722217 -0.4044374372444971 0 -0.43634191419794938 -0.41460369128059499 0 -0.42582475225701222 -0.41420990865210178 0 -0.42946145518722217 -0.4044374372444971 0 -0.42582475225701222 -0.41420990865210178 0 -0.42946145518722217 -0.4044374372444971 0 -0.41816814767068611 -0.40621979570161909 0 -0.4127706449156861 -0.42098130841801301 0 -0.41816814767068611 -0.40621979570161909 0 -0.42582475225701222 -0.41420990865210178 0 -0.4127706449156861 -0.42098130841801301 0 -0.41816814767068611 -0.40621979570161909 0 -0.4127706449156861 -0.42098130841801301 0 -0.4074812620055045 -0.41679519124696451 0 -0.41816814767068611 -0.40621979570161909 0 -0.4074812620055045 -0.41679519124696451 0 -0.41221541287031632 -0.42249980044484631 0 -0.40315384805195958 -0.4238225789287664 0 -0.4127706449156861 -0.42098130841801301 0 -0.4074812620055045 -0.41679519124696451 0 -0.41221541287031632 -0.42249980044484631 0 -0.4127706449156861 -0.42098130841801301 0 -0.41221541287031632 -0.42249980044484631 0 -0.4127706449156861 -0.42098130841801301 0 -0.4074812620055045 -0.41679519124696451 0 -0.41221541287031632 -0.42249980044484631 0 -0.40784647257069351 -0.42723346218710923 0 -0.41173716542107702 -0.4324017223950099 0 -0.41221541287031632 -0.42249980044484631 0 -0.40784647257069351 -0.42723346218710923 0 -0.40315384805195958 -0.4238225789287664 0 -0.4127706449156861 -0.42098130841801301 0 -0.41221541287031632 -0.42249980044484631 0 -0.4203172351126776 -0.43867124063479979 0 -0.41221541287031632 -0.42249980044484631 0 -0.41173716542107702 -0.4324017223950099 0 -0.4203172351126776 -0.43867124063479979 0 -0.41173716542107702 -0.4324017223950099 0 -0.4203172351126776 -0.43867124063479979 0 -0.40900197421096562 -0.43938790500116792 0 -0.40784647257069351 -0.42723346218710923 0 -0.40686393041660079 -0.43405734705029753 0 -0.41173716542107702 -0.4324017223950099 0 -0.40686393041660079 -0.43405734705029753 0 -0.41173716542107702 -0.4324017223950099 0 -0.40900197421096562 -0.43938790500116792 0 -0.42617725314406918 -0.38431586759657638 0 -0.41081736975277888 -0.38569903686225993 0 -0.43014838870240141 -0.37345529545725659 0 -0.42617725314406918 -0.38431586759657638 0 -0.43014838870240141 -0.37345529545725659 0 -0.42617725314406918 -0.38431586759657638 0 -0.43372600619628748 -0.37118932988372272 0 -0.42617725314406918 -0.38431586759657638 0 -0.43014838870240141 -0.37345529545725659 0 -0.43372600619628748 -0.37118932988372272 0 -0.43442955601071059 -0.38033021618326229 0 -0.42617725314406918 -0.38431586759657638 0 -0.43372600619628748 -0.37118932988372272 0 -0.4388190928287643 -0.38837495895815549 0 -0.42356565042568511 -0.39145828298522489 0 -0.4388190928287643 -0.38837495895815549 0 -0.43442955601071059 -0.38033021618326229 0 -0.42617725314406918 -0.38431586759657638 0 -0.4388190928287643 -0.38837495895815549 0 -0.42617725314406918 -0.38431586759657638 0 -0.42356565042568511 -0.39145828298522489 0 -0.42617725314406918 -0.38431586759657638 0 -0.42186839489242178 -0.39180136545981947 0 -0.42617725314406918 -0.38431586759657638 0 -0.42356565042568511 -0.39145828298522489 0 -0.42186839489242178 -0.39180136545981947 0 -0.42617725314406918 -0.38431586759657638 0 -0.42356565042568511 -0.39145828298522489 0 -0.42356565042568511 -0.39145828298522489 0 -0.43548642635465801 -0.39363153856849992 0 -0.42946145518722217 -0.4044374372444971 0 -0.42356565042568511 -0.39145828298522489 0 -0.42186839489242178 -0.39180136545981947 0 -0.4388190928287643 -0.38837495895815549 0 -0.42356565042568511 -0.39145828298522489 0 -0.43548642635465801 -0.39363153856849992 0 -0.4388190928287643 -0.38837495895815549 0 -0.43548642635465801 -0.39363153856849992 0 -0.43925595896224251 -0.40336051013321089 0 -0.43548642635465801 -0.39363153856849992 0 -0.42946145518722217 -0.4044374372444971 0 -0.42356565042568511 -0.39145828298522489 0 -0.42946145518722217 -0.4044374372444971 0 -0.41816814767068611 -0.40621979570161909 0 -0.4074812620055045 -0.41679519124696451 0 -0.41816814767068611 -0.40621979570161909 0 -0.42186839489242178 -0.39180136545981947 0 -0.4074812620055045 -0.41679519124696451 0 -0.42186839489242178 -0.39180136545981947 0 -0.4074812620055045 -0.41679519124696451 0 -0.40667737284778899 -0.39487207186354162 0 -0.42186839489242178 -0.39180136545981947 0 -0.42356565042568511 -0.39145828298522489 0 -0.41816814767068611 -0.40621979570161909 0 -0.40667737284778899 -0.39487207186354162 0 -0.42186839489242178 -0.39180136545981947 0 -0.41081736975277888 -0.38569903686225993 0 -0.40667737284778899 -0.39487207186354162 0 -0.42186839489242178 -0.39180136545981947 0 -0.42356565042568511 -0.39145828298522489 0 -0.41816814767068611 -0.40621979570161909 0 -0.42186839489242178 -0.39180136545981947 0 -0.41081736975277888 -0.38569903686225993 0 -0.43014838870240141 -0.37345529545725659 0 -0.41464914056493901 -0.37036657366972348 0 -0.41081736975277888 -0.38569903686225993 0 -0.43014838870240141 -0.37345529545725659 0 -0.42617725314406918 -0.38431586759657638 0 -0.42186839489242178 -0.39180136545981947 0 -0.41081736975277888 -0.38569903686225993 0 -0.41081736975277888 -0.38569903686225993 0 -0.40032241467460888 -0.37743921825103088 0 -0.41464914056493901 -0.37036657366972348 0 -0.41081736975277888 -0.38569903686225993 0 -0.40032241467460888 -0.37743921825103088 0 -0.39466510850498382 -0.38530859383598393 0 -0.41081736975277888 -0.38569903686225993 0 -0.39466510850498382 -0.38530859383598393 0 -0.3914863508031563 -0.39794277826726299 0 -0.40032241467460888 -0.37743921825103088 0 -0.39466510850498382 -0.38530859383598393 0 -0.38541451285061151 -0.38194298952601652 0 -0.41081736975277888 -0.38569903686225993 0 -0.3914863508031563 -0.39794277826726299 0 -0.40667737284778899 -0.39487207186354162 0 -0.41081736975277888 -0.38569903686225993 0 -0.3914863508031563 -0.39794277826726299 0 -0.4074812620055045 -0.41679519124696451 0 -0.40667737284778899 -0.39487207186354162 0 -0.3914863508031563 -0.39794277826726299 0 -0.4074812620055045 -0.41679519124696451 0 -0.3914863508031563 -0.39794277826726299 0 -0.38719689210223263 -0.40065960469211509 0 -0.39466510850498382 -0.38530859383598393 0 -0.3914863508031563 -0.39794277826726299 0 -0.38703127914215679 -0.39062156086861383 0 -0.40667737284778899 -0.39487207186354162 0 -0.3914863508031563 -0.39794277826726299 0 -0.38534114240029099 -0.39918496794610059 0 -0.36951815348444478 -0.38661152613834032 0 -0.38534114240029099 -0.39918496794610059 0 -0.37998209480888118 -0.38660935768327748 0 -0.36951815348444478 -0.38661152613834032 0 -0.3914863508031563 -0.39794277826726299 0 -0.38534114240029099 -0.39918496794610059 0 -0.3914863508031563 -0.39794277826726299 0 -0.38719689210223263 -0.40065960469211509 0 -0.38534114240029099 -0.39918496794610059 0 -0.3914863508031563 -0.39794277826726299 0 -0.38719689210223263 -0.40065960469211509 0 -0.38719689210223263 -0.40065960469211509 0 -0.38534114240029099 -0.39918496794610059 0 -0.38719689210223263 -0.40065960469211509 0 -0.37287618229732461 -0.40972995261553652 0 -0.38719689210223263 -0.40065960469211509 0 -0.38534114240029099 -0.39918496794610059 0 -0.37287618229732461 -0.40972995261553652 0 -0.38534114240029099 -0.39918496794610059 0 -0.38703127914215679 -0.39062156086861383 0 -0.37998209480888118 -0.38660935768327748 0 -0.3914863508031563 -0.39794277826726299 0 -0.38534114240029099 -0.39918496794610059 0 -0.38703127914215679 -0.39062156086861383 0 -0.39466510850498382 -0.38530859383598393 0 -0.38703127914215679 -0.39062156086861383 0 -0.38541451285061151 -0.38194298952601652 0 -0.38703127914215679 -0.39062156086861383 0 -0.37998209480888118 -0.38660935768327748 0 -0.38541451285061151 -0.38194298952601652 0 -0.37998209480888118 -0.38660935768327748 0 -0.38541451285061151 -0.38194298952601652 0 -0.37260538616690148 -0.37468574393731691 0 -0.39533047062786703 -0.42747417617781941 0 -0.39292891156109899 -0.41974182414701189 0 -0.38665311239275918 -0.42833715266220762 0 -0.39533047062786703 -0.42747417617781941 0 -0.40315384805195958 -0.4238225789287664 0 -0.39292891156109899 -0.41974182414701189 0 -0.39533047062786703 -0.42747417617781941 0 -0.39372836990177279 -0.43521173572503241 0 -0.40239390321924001 -0.42993319576648947 0 -0.39533047062786703 -0.42747417617781941 0 -0.39372836990177279 -0.43521173572503241 0 -0.38665311239275918 -0.42833715266220762 0 -0.39372836990177279 -0.43521173572503241 0 -0.40189520666832917 -0.43693794831523708 0 -0.40239390321924001 -0.42993319576648947 0 -0.40686393041660079 -0.43405734705029753 0 -0.40189520666832917 -0.43693794831523708 0 -0.40239390321924001 -0.42993319576648947 0 -0.40686393041660079 -0.43405734705029753 0 -0.40189520666832917 -0.43693794831523708 0 -0.40900197421096562 -0.43938790500116792 0 -0.40784647257069351 -0.42723346218710923 0 -0.40686393041660079 -0.43405734705029753 0 -0.40239390321924001 -0.42993319576648947 0 -0.39533047062786703 -0.42747417617781941 0 -0.40239390321924001 -0.42993319576648947 0 -0.40315384805195958 -0.4238225789287664 0 -0.40784647257069351 -0.42723346218710923 0 -0.40239390321924001 -0.42993319576648947 0 -0.40315384805195958 -0.4238225789287664 0 -0.4074812620055045 -0.41679519124696451 0 -0.40315384805195958 -0.4238225789287664 0 -0.39292891156109899 -0.41974182414701189 0 -0.4074812620055045 -0.41679519124696451 0 -0.38719689210223263 -0.40065960469211509 0 -0.4074812620055045 -0.41679519124696451 0 -0.38719689210223263 -0.40065960469211509 0 -0.38696160447142097 -0.41190236511297512 0 -0.4074812620055045 -0.41679519124696451 0 -0.39292891156109899 -0.41974182414701189 0 -0.38696160447142097 -0.41190236511297512 0 -0.39292891156109899 -0.41974182414701189 0 -0.38696160447142097 -0.41190236511297512 0 -0.38043392001616971 -0.41976943550850199 0 -0.38719689210223263 -0.40065960469211509 0 -0.38696160447142097 -0.41190236511297512 0 -0.37287618229732461 -0.40972995261553652 0 -0.38696160447142097 -0.41190236511297512 0 -0.38043392001616971 -0.41976943550850199 0 -0.37287618229732461 -0.40972995261553652 0 -0.38043392001616971 -0.41976943550850199 0 -0.38665311239275918 -0.42833715266220762 0 -0.37479732898604168 -0.43006389527844202 0 -0.39292891156109899 -0.41974182414701189 0 -0.38043392001616971 -0.41976943550850199 0 -0.38665311239275918 -0.42833715266220762 0 -0.39372836990177279 -0.43521173572503241 0 -0.38665311239275918 -0.42833715266220762 0 -0.38269967326360532 -0.43776184913643879 0 -0.38269967326360532 -0.43776184913643879 0 -0.37370687752839121 -0.43962503310188339 0 -0.37479732898604168 -0.43006389527844202 0 -0.38665311239275918 -0.42833715266220762 0 -0.38269967326360532 -0.43776184913643879 0 -0.37479732898604168 -0.43006389527844202 0 -0.38269967326360532 -0.43776184913643879 0 -0.38215026660067403 -0.4485121527510163 0 -0.37370687752839121 -0.43962503310188339 0 -0.38215026660067403 -0.4485121527510163 0 -0.37939535056879342 -0.45972483942586939 0 -0.36680784563055258 -0.44861298435318192 0 -0.38215026660067403 -0.4485121527510163 0 -0.38972925251197438 -0.44280596008374751 0 -0.39220550819171512 -0.44932504586571381 0 -0.38215026660067403 -0.4485121527510163 0 -0.39220550819171512 -0.44932504586571381 0 -0.38869501033092457 -0.45666122956233468 0 -0.39372836990177279 -0.43521173572503241 0 -0.38269967326360532 -0.43776184913643879 0 -0.38972925251197438 -0.44280596008374751 0 -0.38269967326360532 -0.43776184913643879 0 -0.38215026660067403 -0.4485121527510163 0 -0.38972925251197438 -0.44280596008374751 0 -0.39372836990177279 -0.43521173572503241 0 -0.38972925251197438 -0.44280596008374751 0 -0.39932731965901208 -0.44397732619216868 0 -0.39372836990177279 -0.43521173572503241 0 -0.40189520666832917 -0.43693794831523708 0 -0.39932731965901208 -0.44397732619216868 0 -0.38972925251197438 -0.44280596008374751 0 -0.39220550819171512 -0.44932504586571381 0 -0.39932731965901208 -0.44397732619216868 0 -0.39220550819171512 -0.44932504586571381 0 -0.39932731965901208 -0.44397732619216868 0 -0.40112569185599029 -0.4546685607393019 0 -0.39932731965901208 -0.44397732619216868 0 -0.40112569185599029 -0.4546685607393019 0 -0.41101694556852109 -0.44955091850826268 0 -0.40189520666832917 -0.43693794831523708 0 -0.39932731965901208 -0.44397732619216868 0 -0.40900197421096562 -0.43938790500116792 0 -0.39997452056343052 -0.46583573583352339 0 -0.40112569185599029 -0.4546685607393019 0 -0.41084853834464391 -0.4607280444742502 0 -0.39220550819171512 -0.44932504586571381 0 -0.40112569185599029 -0.4546685607393019 0 -0.38869501033092457 -0.45666122956233468 0 -0.40112569185599029 -0.4546685607393019 0 -0.38869501033092457 -0.45666122956233468 0 -0.38711851342307702 -0.46977904049286801 0 -0.40112569185599029 -0.4546685607393019 0 -0.38711851342307702 -0.46977904049286801 0 -0.39997452056343052 -0.46583573583352339 0 -0.40112569185599029 -0.4546685607393019 0 -0.38711851342307702 -0.46977904049286801 0 -0.38869501033092457 -0.45666122956233468 0 -0.37939535056879342 -0.45972483942586939 0 -0.38711851342307702 -0.46977904049286801 0 -0.37939535056879342 -0.45972483942586939 0 -0.38711851342307702 -0.46977904049286801 0 -0.36903871912645969 -0.46624442400022459 0 -0.38215026660067403 -0.4485121527510163 0 -0.38869501033092457 -0.45666122956233468 0 -0.37939535056879342 -0.45972483942586939 0 -0.38711851342307702 -0.46977904049286801 0 -0.37311133499016358 -0.48488952024643422 0 -0.36903871912645969 -0.46624442400022459 0 -0.38561402583703142 -0.48243186158574158 0 -0.38711851342307702 -0.46977904049286801 0 -0.37311133499016358 -0.48488952024643422 0 -0.38711851342307702 -0.46977904049286801 0 -0.37311133499016358 -0.48488952024643422 0 -0.38561402583703142 -0.48243186158574158 0 -0.38711851342307702 -0.46977904049286801 0 -0.39883153885245848 -0.48367491228441117 0 -0.38561402583703142 -0.48243186158574158 0 -0.38162276193334749 -0.5 0 -0.39883153885245848 -0.48367491228441117 0 -0.38561402583703142 -0.48243186158574158 0 -0.38162276193334749 -0.5 0 -0.37311133499016358 -0.48488952024643422 0 -0.38162276193334749 -0.5 0 -0.40414136730944478 -0.5 0 -0.39883153885245848 -0.48367491228441117 0 -0.39997452056343052 -0.46583573583352339 0 -0.39883153885245848 -0.48367491228441117 0 -0.41794891290338537 -0.47672896957876248 0 -0.39997452056343052 -0.46583573583352339 0 -0.38711851342307702 -0.46977904049286801 0 -0.39883153885245848 -0.48367491228441117 0 -0.39883153885245848 -0.48367491228441117 0 -0.41794891290338537 -0.47672896957876248 0 -0.41587455826328779 -0.4904591423984716 0 -0.39997452056343052 -0.46583573583352339 0 -0.41794891290338537 -0.47672896957876248 0 -0.40414136730944478 -0.5 0 -0.41587455826328779 -0.4904591423984716 0 -0.42665997268554218 -0.49999999999999939 0 -0.40414136730944478 -0.5 0 -0.39883153885245848 -0.48367491228441117 0 -0.41587455826328779 -0.4904591423984716 0 -0.41794891290338537 -0.47672896957876248 0 -0.41587455826328779 -0.4904591423984716 0 -0.43592330524333922 -0.48762220332400369 0 -0.41587455826328779 -0.4904591423984716 0 -0.42665997268554218 -0.49999999999999939 0 -0.43592330524333922 -0.48762220332400369 0 -0.42665997268554218 -0.49999999999999939 0 -0.43592330524333922 -0.48762220332400369 0 -0.41794891290338537 -0.47672896957876248 0 -0.43592330524333922 -0.48762220332400369 0 -0.43274165805303699 -0.47110944383739001 0 -0.41794891290338537 -0.47672896957876248 0 -0.43592330524333922 -0.48762220332400369 0 -0.43926643517818781 -0.45814775152321707 0 -0.43274165805303699 -0.47110944383739001 0 -0.42417662083189228 -0.45685603771140049 0 -0.41794891290338537 -0.47672896957876248 0 -0.43274165805303699 -0.47110944383739001 0 -0.42417662083189228 -0.45685603771140049 0 -0.43926643517818781 -0.45814775152321707 0 -0.42417662083189228 -0.45685603771140049 0 -0.43566714521728023 -0.43917558357516279 0 -0.42417662083189228 -0.45685603771140049 0 -0.43566714521728023 -0.43917558357516279 0 -0.4203172351126776 -0.43867124063479979 0 -0.42417662083189228 -0.45685603771140049 0 -0.4203172351126776 -0.43867124063479979 0 -0.41101694556852109 -0.44955091850826268 0 -0.4203172351126776 -0.43867124063479979 0 -0.40900197421096562 -0.43938790500116792 0 -0.41101694556852109 -0.44955091850826268 0 -0.39932731965901208 -0.44397732619216868 0 -0.40900197421096562 -0.43938790500116792 0 -0.41101694556852109 -0.44955091850826268 0 -0.39997452056343052 -0.46583573583352339 0 -0.41794891290338537 -0.47672896957876248 0 -0.41084853834464391 -0.4607280444742502 0 -0.40112569185599029 -0.4546685607393019 0 -0.41101694556852109 -0.44955091850826268 0 -0.41084853834464391 -0.4607280444742502 0 -0.41794891290338537 -0.47672896957876248 0 -0.42417662083189228 -0.45685603771140049 0 -0.41084853834464391 -0.4607280444742502 0 -0.42417662083189228 -0.45685603771140049 0 -0.41101694556852109 -0.44955091850826268 0 -0.41084853834464391 -0.4607280444742502 0 -0.45960331814471778 -0.2696725928628243 0 -0.43134695993872568 -0.26996010416178029 0 -0.44458406038942538 -0.24975118405773991 0 -0.45960331814471778 -0.2696725928628243 0 -0.44454833476856898 -0.28822414621500292 0 -0.43134695993872568 -0.26996010416178029 0 -0.45960331814471778 -0.2696725928628243 0 -0.47068923944738839 -0.24265942556915759 0 -0.44458406038942538 -0.24975118405773991 0 -0.45960331814471778 -0.2696725928628243 0 -0.48191371264785599 -0.25951362480925638 0 -0.47068923944738839 -0.24265942556915759 0 -0.48191371264785599 -0.25951362480925638 0 -0.5 -0.26594391814948398 0 -0.5 -0.24001287566872481 0 -0.48191371264785599 -0.25951362480925638 0 -0.5 -0.26594391814948398 0 -0.47927600564717399 -0.27927931179609122 0 -0.5 -0.26594391814948398 0 -0.47927600564717399 -0.27927931179609122 0 -0.49999999999999889 -0.29187496063024337 0 -0.45960331814471778 -0.2696725928628243 0 -0.48191371264785599 -0.25951362480925638 0 -0.47927600564717399 -0.27927931179609122 0 -0.47927600564717399 -0.27927931179609122 0 -0.48344945723454502 -0.29582167784803381 0 -0.46607014546550041 -0.29961990098006869 0 -0.47927600564717399 -0.27927931179609122 0 -0.48344945723454502 -0.29582167784803381 0 -0.49999999999999889 -0.29187496063024337 0 -0.48344945723454502 -0.29582167784803381 0 -0.49999999999999889 -0.29187496063024337 0 -0.48870628830018648 -0.30968841274361991 0 -0.49999999999999889 -0.29187496063024337 0 -0.48870628830018648 -0.30968841274361991 0 -0.5 -0.31644302299947491 0 -0.49999999999999889 -0.29187496063024337 0 -0.48870628830018648 -0.30968841274361991 0 -0.48344945723454502 -0.29582167784803381 0 -0.48870628830018648 -0.30968841274361991 0 -0.47596210028752889 -0.31108969625008109 0 -0.48344945723454502 -0.29582167784803381 0 -0.47596210028752889 -0.31108969625008109 0 -0.46607014546550041 -0.29961990098006869 0 -0.47596210028752889 -0.31108969625008109 0 -0.46607014546550041 -0.29961990098006869 0 -0.46334259043424669 -0.32424367678956922 0 -0.46607014546550041 -0.29961990098006869 0 -0.44302128024271598 -0.30870393661996998 0 -0.46334259043424669 -0.32424367678956922 0 -0.45960331814471778 -0.2696725928628243 0 -0.47927600564717399 -0.27927931179609122 0 -0.46607014546550041 -0.29961990098006869 0 -0.45960331814471778 -0.2696725928628243 0 -0.46607014546550041 -0.29961990098006869 0 -0.44454833476856898 -0.28822414621500292 0 -0.46607014546550041 -0.29961990098006869 0 -0.44454833476856898 -0.28822414621500292 0 -0.44302128024271598 -0.30870393661996998 0 -0.44302128024271598 -0.30870393661996998 0 -0.44086315861216141 -0.32781208875622109 0 -0.46334259043424669 -0.32424367678956922 0 -0.44086315861216141 -0.32781208875622109 0 -0.45067019388313428 -0.33552650664513001 0 -0.46334259043424669 -0.32424367678956922 0 -0.44086315861216141 -0.32781208875622109 0 -0.44161213910241842 -0.3392683395567353 0 -0.45067019388313428 -0.33552650664513001 0 -0.45067019388313428 -0.33552650664513001 0 -0.45901233461427721 -0.33920695886466812 0 -0.44815297607007298 -0.346138880237364 0 -0.44161213910241842 -0.3392683395567353 0 -0.45067019388313428 -0.33552650664513001 0 -0.44815297607007298 -0.346138880237364 0 -0.45067019388313428 -0.33552650664513001 0 -0.45901233461427721 -0.33920695886466812 0 -0.46334259043424669 -0.32424367678956922 0 -0.45901233461427721 -0.33920695886466812 0 -0.46334259043424669 -0.32424367678956922 0 -0.47741257660037489 -0.32750186485699673 0 -0.45901233461427721 -0.33920695886466812 0 -0.47741257660037489 -0.32750186485699673 0 -0.46611886490056359 -0.34531531697037382 0 -0.45901233461427721 -0.33920695886466812 0 -0.46611886490056359 -0.34531531697037382 0 -0.44302128024271598 -0.30870393661996998 0 -0.46334259043424669 -0.32424367678956922 0 -0.48870628830018648 -0.30968841274361991 0 -0.47741257660037489 -0.32750186485699673 0 -0.47596210028752889 -0.31108969625008109 0 -0.46334259043424669 -0.32424367678956922 0 -0.47741257660037489 -0.32750186485699673 0 -0.48870628830018648 -0.30968841274361991 0 -0.47596210028752889 -0.31108969625008109 0 -0.47741257660037489 -0.32750186485699673 0 -0.5 -0.31644302299947491 0 -0.48973238262793328 -0.32580389009588978 0 -0.5 -0.34101108536870628 0 -0.48870628830018648 -0.30968841274361991 0 -0.47741257660037489 -0.32750186485699673 0 -0.48973238262793328 -0.32580389009588978 0 -0.48870628830018648 -0.30968841274361991 0 -0.5 -0.31644302299947491 0 -0.48973238262793328 -0.32580389009588978 0 -0.48973238262793328 -0.32580389009588978 0 -0.5 -0.34101108536870628 0 -0.48254304823910499 -0.33437506451065108 0 -0.47741257660037489 -0.32750186485699673 0 -0.46611886490056359 -0.34531531697037382 0 -0.47741257660037489 -0.32750186485699673 0 -0.48254304823910499 -0.33437506451065108 0 -0.46611886490056359 -0.34531531697037382 0 -0.47741257660037489 -0.32750186485699673 0 -0.48973238262793328 -0.32580389009588978 0 -0.48254304823910499 -0.33437506451065108 0 -0.48642312672438037 -0.36278150539002052 0 -0.46611886490056359 -0.34531531697037382 0 -0.45864490479103559 -0.35710391526711732 0 -0.48254304823910499 -0.33437506451065108 0 -0.48642312672438037 -0.36278150539002052 0 -0.46611886490056359 -0.34531531697037382 0 -0.48642312672438037 -0.36278150539002052 0 -0.46611886490056359 -0.34531531697037382 0 -0.48254304823910499 -0.33437506451065108 0 -0.48642312672438037 -0.36278150539002052 0 -0.5 -0.34101108536870628 0 -0.48254304823910499 -0.33437506451065108 0 -0.48642312672438037 -0.36278150539002052 0 -0.5 -0.34101108536870628 0 -0.49999999999999939 -0.36557914773793782 0 -0.48642312672438037 -0.36278150539002052 0 -0.48974847569938162 -0.38740747336048043 0 -0.50000000000000111 -0.37443756057980321 0 -0.48642312672438037 -0.36278150539002052 0 -0.50000000000000111 -0.37443756057980321 0 -0.49999999999999939 -0.36557914773793782 0 -0.48642312672438037 -0.36278150539002052 0 -0.50000000000000111 -0.37443756057980321 0 -0.48642312672438037 -0.36278150539002052 0 -0.49999999999999939 -0.36557914773793782 0 -0.48642312672438037 -0.36278150539002052 0 -0.47597886959324831 -0.38325856607526532 0 -0.48642312672438037 -0.36278150539002052 0 -0.46822743030822173 -0.37194584080839632 0 -0.48642312672438037 -0.36278150539002052 0 -0.46822743030822173 -0.37194584080839632 0 -0.45864490479103559 -0.35710391526711732 0 -0.48642312672438037 -0.36278150539002052 0 -0.45864490479103559 -0.35710391526711732 0 -0.45864490479103559 -0.35710391526711732 0 -0.44873199880990072 -0.37273943711263691 0 -0.45901914900730112 -0.37110511580400812 0 -0.45864490479103559 -0.35710391526711732 0 -0.44873199880990072 -0.37273943711263691 0 -0.46822743030822173 -0.37194584080839632 0 -0.45901914900730112 -0.37110511580400812 0 -0.45864490479103559 -0.35710391526711732 0 -0.46611886490056359 -0.34531531697037382 0 -0.45864490479103559 -0.35710391526711732 0 -0.46611886490056359 -0.34531531697037382 0 -0.45679591932856439 -0.34837098766528551 0 -0.45864490479103559 -0.35710391526711732 0 -0.45901233461427721 -0.33920695886466812 0 -0.46611886490056359 -0.34531531697037382 0 -0.45679591932856439 -0.34837098766528551 0 -0.45901233461427721 -0.33920695886466812 0 -0.45679591932856439 -0.34837098766528551 0 -0.44815297607007298 -0.346138880237364 0 -0.45679591932856439 -0.34837098766528551 0 -0.45864490479103559 -0.35710391526711732 0 -0.45166084340871049 -0.35567261536303918 0 -0.45864490479103559 -0.35710391526711732 0 -0.45166084340871049 -0.35567261536303918 0 -0.44815297607007298 -0.346138880237364 0 -0.43372600619628748 -0.37118932988372272 0 -0.45166084340871049 -0.35567261536303918 0 -0.44815297607007298 -0.346138880237364 0 -0.43372600619628748 -0.37118932988372272 0 -0.44815297607007298 -0.346138880237364 0 -0.43932687719213709 -0.34835324721226141 0 -0.43372600619628748 -0.37118932988372272 0 -0.45679591932856439 -0.34837098766528551 0 -0.45166084340871049 -0.35567261536303918 0 -0.44815297607007298 -0.346138880237364 0 -0.44161213910241842 -0.3392683395567353 0 -0.44815297607007298 -0.346138880237364 0 -0.43932687719213709 -0.34835324721226141 0 -0.45864490479103559 -0.35710391526711732 0 -0.45166084340871049 -0.35567261536303918 0 -0.44873199880990072 -0.37273943711263691 0 -0.45166084340871049 -0.35567261536303918 0 -0.44873199880990072 -0.37273943711263691 0 -0.43372600619628748 -0.37118932988372272 0 -0.43442955601071059 -0.38033021618326229 0 -0.44873199880990072 -0.37273943711263691 0 -0.43372600619628748 -0.37118932988372272 0 -0.43932687719213709 -0.34835324721226141 0 -0.43014838870240141 -0.37345529545725659 0 -0.43932687719213709 -0.34835324721226141 0 -0.43014838870240141 -0.37345529545725659 0 -0.43372600619628748 -0.37118932988372272 0 -0.43014838870240141 -0.37345529545725659 0 -0.43372600619628748 -0.37118932988372272 0 -0.43932687719213709 -0.34835324721226141 0 -0.43014838870240141 -0.37345529545725659 0 -0.42020431636816441 -0.35504277821081659 0 -0.43932687719213709 -0.34835324721226141 0 -0.42020431636816441 -0.35504277821081659 0 -0.42904748975458618 -0.33851097493269999 0 -0.42020431636816441 -0.35504277821081659 0 -0.40969114981139121 -0.33919103591880878 0 -0.42904748975458618 -0.33851097493269999 0 -0.42020431636816441 -0.35504277821081659 0 -0.40086101032464122 -0.35672008907106928 0 -0.40969114981139121 -0.33919103591880878 0 -0.43014838870240141 -0.37345529545725659 0 -0.42020431636816441 -0.35504277821081659 0 -0.41464914056493901 -0.37036657366972348 0 -0.42020431636816441 -0.35504277821081659 0 -0.41464914056493901 -0.37036657366972348 0 -0.40086101032464122 -0.35672008907106928 0 -0.40032241467460888 -0.37743921825103088 0 -0.38096030279580673 -0.35781363430366991 0 -0.40032241467460888 -0.37743921825103088 0 -0.41464914056493901 -0.37036657366972348 0 -0.40086101032464122 -0.35672008907106928 0 -0.40032241467460888 -0.37743921825103088 0 -0.38096030279580673 -0.35781363430366991 0 -0.40086101032464122 -0.35672008907106928 0 -0.40032241467460888 -0.37743921825103088 0 -0.38541451285061151 -0.38194298952601652 0 -0.38096030279580673 -0.35781363430366991 0 -0.38541451285061151 -0.38194298952601652 0 -0.38096030279580673 -0.35781363430366991 0 -0.37260538616690148 -0.37468574393731691 0 -0.38096030279580673 -0.35781363430366991 0 -0.40086101032464122 -0.35672008907106928 0 -0.38495955404970827 -0.33017636663068167 0 -0.38495955404970827 -0.33017636663068167 0 -0.40969114981139121 -0.33919103591880878 0 -0.40086101032464122 -0.35672008907106928 0 -0.38495955404970827 -0.33017636663068167 0 -0.40969114981139121 -0.33919103591880878 0 -0.38096030279580673 -0.35781363430366991 0 -0.38495955404970827 -0.33017636663068167 0 -0.3615981909170044 -0.33818805035630878 0 -0.38495955404970827 -0.33017636663068167 0 -0.38327646090688727 -0.30165176109286579 0 -0.36871615313004252 -0.30814517172231148 0 -0.38495955404970827 -0.33017636663068167 0 -0.40436157312481691 -0.31328474101608639 0 -0.38327646090688727 -0.30165176109286579 0 -0.38495955404970827 -0.33017636663068167 0 -0.40436157312481691 -0.31328474101608639 0 -0.40969114981139121 -0.33919103591880878 0 -0.40436157312481691 -0.31328474101608639 0 -0.40969114981139121 -0.33919103591880878 0 -0.42494743693280951 -0.32011116228235947 0 -0.40969114981139121 -0.33919103591880878 0 -0.42904748975458618 -0.33851097493269999 0 -0.42494743693280951 -0.32011116228235947 0 -0.44086315861216141 -0.32781208875622109 0 -0.42904748975458618 -0.33851097493269999 0 -0.42494743693280951 -0.32011116228235947 0 -0.44161213910241842 -0.3392683395567353 0 -0.43932687719213709 -0.34835324721226141 0 -0.42904748975458618 -0.33851097493269999 0 -0.44086315861216141 -0.32781208875622109 0 -0.44161213910241842 -0.3392683395567353 0 -0.42904748975458618 -0.33851097493269999 0 -0.44302128024271598 -0.30870393661996998 0 -0.44086315861216141 -0.32781208875622109 0 -0.42494743693280951 -0.32011116228235947 0 -0.44302128024271598 -0.30870393661996998 0 -0.42494743693280951 -0.32011116228235947 0 -0.42269997005118531 -0.29316419645037101 0 -0.44302128024271598 -0.30870393661996998 0 -0.42269997005118531 -0.29316419645037101 0 -0.44454833476856898 -0.28822414621500292 0 -0.42269997005118531 -0.29316419645037101 0 -0.43134695993872568 -0.26996010416178029 0 -0.44454833476856898 -0.28822414621500292 0 -0.44302128024271598 -0.30870393661996998 0 -0.42269997005118531 -0.29316419645037101 0 -0.42269997005118531 -0.29316419645037101 0 -0.4023786598596546 -0.27762445628077193 0 -0.42269997005118531 -0.29316419645037101 0 -0.39881529637066399 -0.29497113156167121 0 -0.4023786598596546 -0.27762445628077193 0 -0.40436157312481691 -0.31328474101608639 0 -0.42269997005118531 -0.29316419645037101 0 -0.39881529637066399 -0.29497113156167121 0 -0.40436157312481691 -0.31328474101608639 0 -0.42494743693280951 -0.32011116228235947 0 -0.42269997005118531 -0.29316419645037101 0 -0.40436157312481691 -0.31328474101608639 0 -0.38327646090688727 -0.30165176109286579 0 -0.39881529637066399 -0.29497113156167121 0 -0.38327646090688727 -0.30165176109286579 0 -0.39881529637066399 -0.29497113156167121 0 -0.38346966333345112 -0.27743155248598272 0 -0.38327646090688727 -0.30165176109286579 0 -0.38346966333345112 -0.27743155248598272 0 -0.36290489734808989 -0.2864719217311365 0 -0.39881529637066399 -0.29497113156167121 0 -0.4023786598596546 -0.27762445628077193 0 -0.38346966333345112 -0.27743155248598272 0 -0.4023786598596546 -0.27762445628077193 0 -0.38346966333345112 -0.27743155248598272 0 -0.39590049598208632 -0.25781182944124797 0 -0.38346966333345112 -0.27743155248598272 0 -0.37688579422835178 -0.25516175044890282 0 -0.39590049598208632 -0.25781182944124797 0 -0.4023786598596546 -0.27762445628077193 0 -0.39590049598208632 -0.25781182944124797 0 -0.41492216845380259 -0.24917435442157229 0 -0.4023786598596546 -0.27762445628077193 0 -0.43134695993872568 -0.26996010416178029 0 -0.41492216845380259 -0.24917435442157229 0 -0.42269997005118531 -0.29316419645037101 0 -0.4023786598596546 -0.27762445628077193 0 -0.43134695993872568 -0.26996010416178029 0 -0.43134695993872568 -0.26996010416178029 0 -0.41492216845380259 -0.24917435442157229 0 -0.44458406038942538 -0.24975118405773991 0 -0.31325064770974448 -0.2666492680069405 0 -0.32814209364500441 -0.25840828646874381 0 -0.3084490109222261 -0.2499478765489658 0 -0.31325064770974448 -0.2666492680069405 0 -0.33020666610898142 -0.27535491352893282 0 -0.32814209364500441 -0.25840828646874381 0 -0.31325064770974448 -0.2666492680069405 0 -0.33020666610898142 -0.27535491352893282 0 -0.32003438176939292 -0.2889277394515834 0 -0.31325064770974448 -0.2666492680069405 0 -0.32003438176939292 -0.2889277394515834 0 -0.30579038965811101 -0.27844667836127812 0 -0.33020666610898142 -0.27535491352893282 0 -0.32814209364500441 -0.25840828646874381 0 -0.34817679997198842 -0.26748020169082493 0 -0.33020666610898142 -0.27535491352893282 0 -0.34817679997198842 -0.26748020169082493 0 -0.34573724499066733 -0.28280838663197028 0 -0.32814209364500441 -0.25840828646874381 0 -0.34409706512831129 -0.2509088056791956 0 -0.34817679997198842 -0.26748020169082493 0 -0.34409706512831129 -0.2509088056791956 0 -0.36366254865999831 -0.26535977012690648 0 -0.36291602693514158 -0.24235010539063789 0 -0.34409706512831129 -0.2509088056791956 0 -0.36366254865999831 -0.26535977012690648 0 -0.34817679997198842 -0.26748020169082493 0 -0.37688579422835178 -0.25516175044890282 0 -0.36366254865999831 -0.26535977012690648 0 -0.36291602693514158 -0.24235010539063789 0 -0.38346966333345112 -0.27743155248598272 0 -0.36366254865999831 -0.26535977012690648 0 -0.36290489734808989 -0.2864719217311365 0 -0.38346966333345112 -0.27743155248598272 0 -0.37688579422835178 -0.25516175044890282 0 -0.36366254865999831 -0.26535977012690648 0 -0.36366254865999831 -0.26535977012690648 0 -0.34817679997198842 -0.26748020169082493 0 -0.36290489734808989 -0.2864719217311365 0 -0.34817679997198842 -0.26748020169082493 0 -0.34573724499066733 -0.28280838663197028 0 -0.36290489734808989 -0.2864719217311365 0 -0.34573724499066733 -0.28280838663197028 0 -0.36290489734808989 -0.2864719217311365 0 -0.35221189505750139 -0.30126411181431922 0 -0.34573724499066733 -0.28280838663197028 0 -0.35221189505750139 -0.30126411181431922 0 -0.33670252660125422 -0.29190694595226441 0 -0.38327646090688727 -0.30165176109286579 0 -0.36290489734808989 -0.2864719217311365 0 -0.36871615313004252 -0.30814517172231148 0 -0.36871615313004252 -0.30814517172231148 0 -0.35221189505750139 -0.30126411181431922 0 -0.36022795828802529 -0.32116169734255462 0 -0.36290489734808989 -0.2864719217311365 0 -0.36871615313004252 -0.30814517172231148 0 -0.35221189505750139 -0.30126411181431922 0 -0.35221189505750139 -0.30126411181431922 0 -0.33549636252634241 -0.31214702805442762 0 -0.36022795828802529 -0.32116169734255462 0 -0.33549636252634241 -0.31214702805442762 0 -0.33670252660125422 -0.29190694595226441 0 -0.32003438176939292 -0.2889277394515834 0 -0.35221189505750139 -0.30126411181431922 0 -0.33549636252634241 -0.31214702805442762 0 -0.33670252660125422 -0.29190694595226441 0 -0.33020666610898142 -0.27535491352893282 0 -0.34573724499066733 -0.28280838663197028 0 -0.33670252660125422 -0.29190694595226441 0 -0.33020666610898142 -0.27535491352893282 0 -0.33670252660125422 -0.29190694595226441 0 -0.32003438176939292 -0.2889277394515834 0 -0.33549636252634241 -0.31214702805442762 0 -0.31076476676465947 -0.30313235876630051 0 -0.33549636252634241 -0.31214702805442762 0 -0.32618829594786047 -0.3203089651191724 0 -0.31076476676465947 -0.30313235876630051 0 -0.33549636252634241 -0.31214702805442762 0 -0.32003438176939292 -0.2889277394515834 0 -0.31076476676465947 -0.30313235876630051 0 -0.32618829594786047 -0.3203089651191724 0 -0.30458258457760728 -0.32212332769774932 0 -0.31076476676465947 -0.30313235876630051 0 -0.32618829594786047 -0.3203089651191724 0 -0.32455846157309948 -0.3367659209128227 0 -0.30458258457760728 -0.32212332769774932 0 -0.32455846157309948 -0.3367659209128227 0 -0.32018773600082268 -0.35028961191089492 0 -0.29849942393407669 -0.34242807986207319 0 -0.32455846157309948 -0.3367659209128227 0 -0.34325147459440902 -0.34171615173142 0 -0.33462319138082619 -0.35002235843481239 0 -0.32618829594786047 -0.3203089651191724 0 -0.32455846157309948 -0.3367659209128227 0 -0.33956650041411512 -0.33110831090573428 0 -0.32455846157309948 -0.3367659209128227 0 -0.34325147459440902 -0.34171615173142 0 -0.33956650041411512 -0.33110831090573428 0 -0.32618829594786047 -0.3203089651191724 0 -0.33956650041411512 -0.33110831090573428 0 -0.34223607903820202 -0.3185624664089477 0 -0.33549636252634241 -0.31214702805442762 0 -0.32618829594786047 -0.3203089651191724 0 -0.34223607903820202 -0.3185624664089477 0 -0.33549636252634241 -0.31214702805442762 0 -0.36022795828802529 -0.32116169734255462 0 -0.34223607903820202 -0.3185624664089477 0 -0.36022795828802529 -0.32116169734255462 0 -0.3615981909170044 -0.33818805035630878 0 -0.33549636252634241 -0.31214702805442762 0 -0.34223607903820202 -0.3185624664089477 0 -0.36022795828802529 -0.32116169734255462 0 -0.38495955404970827 -0.33017636663068167 0 -0.36871615313004252 -0.30814517172231148 0 -0.36022795828802529 -0.32116169734255462 0 -0.38495955404970827 -0.33017636663068167 0 -0.36022795828802529 -0.32116169734255462 0 -0.38495955404970827 -0.33017636663068167 0 -0.36022795828802529 -0.32116169734255462 0 -0.3615981909170044 -0.33818805035630878 0 -0.34223607903820202 -0.3185624664089477 0 -0.3615981909170044 -0.33818805035630878 0 -0.34325147459440902 -0.34171615173142 0 -0.33956650041411512 -0.33110831090573428 0 -0.3615981909170044 -0.33818805035630878 0 -0.33956650041411512 -0.33110831090573428 0 -0.34223607903820202 -0.3185624664089477 0 -0.3615981909170044 -0.33818805035630878 0 -0.34325147459440902 -0.34171615173142 0 -0.35364385007712951 -0.35546789834417469 0 -0.33462319138082619 -0.35002235843481239 0 -0.34325147459440902 -0.34171615173142 0 -0.3615981909170044 -0.33818805035630878 0 -0.35364385007712951 -0.35546789834417469 0 -0.38096030279580673 -0.35781363430366991 0 -0.3615981909170044 -0.33818805035630878 0 -0.35364385007712951 -0.35546789834417469 0 -0.38096030279580673 -0.35781363430366991 0 -0.3615981909170044 -0.33818805035630878 0 -0.38096030279580673 -0.35781363430366991 0 -0.36522617590210887 -0.36550134022893549 0 -0.37260538616690148 -0.37468574393731691 0 -0.38096030279580673 -0.35781363430366991 0 -0.35364385007712951 -0.35546789834417469 0 -0.36522617590210887 -0.36550134022893549 0 -0.36522617590210887 -0.36550134022893549 0 -0.37260538616690148 -0.37468574393731691 0 -0.35369516456859801 -0.37403808433058072 0 -0.35364385007712951 -0.35546789834417469 0 -0.35369516456859801 -0.37403808433058072 0 -0.33787217565275113 -0.36146464252282101 0 -0.35369516456859801 -0.37403808433058072 0 -0.33787217565275113 -0.36146464252282101 0 -0.35364385007712951 -0.35546789834417469 0 -0.36522617590210887 -0.36550134022893549 0 -0.35369516456859801 -0.37403808433058072 0 -0.33787217565275113 -0.36146464252282101 0 -0.32637005865666469 -0.36091971954817098 0 -0.33421282257862828 -0.37770259522389399 0 -0.35369516456859801 -0.37403808433058072 0 -0.33787217565275113 -0.36146464252282101 0 -0.33421282257862828 -0.37770259522389399 0 -0.35364385007712951 -0.35546789834417469 0 -0.33787217565275113 -0.36146464252282101 0 -0.33462319138082619 -0.35002235843481239 0 -0.33787217565275113 -0.36146464252282101 0 -0.33462319138082619 -0.35002235843481239 0 -0.32637005865666469 -0.36091971954817098 0 -0.33462319138082619 -0.35002235843481239 0 -0.32018773600082268 -0.35028961191089492 0 -0.32637005865666469 -0.36091971954817098 0 -0.32018773600082268 -0.35028961191089492 0 -0.31548717489582317 -0.35639477043633527 0 -0.32637005865666469 -0.36091971954817098 0 -0.32455846157309948 -0.3367659209128227 0 -0.33462319138082619 -0.35002235843481239 0 -0.32018773600082268 -0.35028961191089492 0 -0.31360737042798931 -0.36746932481513711 0 -0.30803392148088388 -0.37180697277304742 0 -0.33421282257862828 -0.37770259522389399 0 -0.30803392148088388 -0.37180697277304742 0 -0.33421282257862828 -0.37770259522389399 0 -0.31360737042798931 -0.36746932481513711 0 -0.32637005865666469 -0.36091971954817098 0 -0.33421282257862828 -0.37770259522389399 0 -0.31548717489582317 -0.35639477043633527 0 -0.31360737042798931 -0.36746932481513711 0 -0.32637005865666469 -0.36091971954817098 0 -0.31360737042798931 -0.36746932481513711 0 -0.30803392148088388 -0.37180697277304742 0 -0.29849942393407669 -0.34242807986207319 0 -0.31360737042798931 -0.36746932481513711 0 -0.29849942393407669 -0.34242807986207319 0 -0.32018773600082268 -0.35028961191089492 0 -0.31548717489582317 -0.35639477043633527 0 -0.29849942393407669 -0.34242807986207319 0 -0.31548717489582317 -0.35639477043633527 0 -0.31360737042798931 -0.36746932481513711 0 -0.29849942393407669 -0.34242807986207319 0 -0.28185502038313942 -0.36591135032220068 0 -0.27084505610259679 -0.34271631739309177 0 -0.29849942393407669 -0.34242807986207319 0 -0.30803392148088388 -0.37180697277304742 0 -0.28185502038313942 -0.36591135032220068 0 -0.30803392148088388 -0.37180697277304742 0 -0.28185502038313942 -0.36591135032220068 0 -0.29849942393407669 -0.34242807986207319 0 -0.30803392148088388 -0.37180697277304742 0 -0.28185502038313942 -0.36591135032220068 0 -0.29546233195630611 -0.37722678484790229 0 -0.28185502038313942 -0.36591135032220068 0 -0.25567611928539491 -0.360015727871354 0 -0.26739651117423102 -0.3819832328055115 0 -0.28185502038313942 -0.36591135032220068 0 -0.25567611928539491 -0.360015727871354 0 -0.25567611928539491 -0.360015727871354 0 -0.26739651117423102 -0.3819832328055115 0 -0.24330094490370491 -0.37758715578424529 0 -0.25567611928539491 -0.360015727871354 0 -0.27084505610259679 -0.34271631739309177 0 -0.2475774867555009 -0.34164320394308861 0 -0.28185502038313942 -0.36591135032220068 0 -0.25567611928539491 -0.360015727871354 0 -0.27084505610259679 -0.34271631739309177 0 -0.27084505610259679 -0.34271631739309177 0 -0.26153677555610388 -0.32819118811387782 0 -0.28339147744016402 -0.31738683490900921 0 -0.26153677555610388 -0.32819118811387782 0 -0.2475774867555009 -0.34164320394308861 0 -0.24749233914880131 -0.32573633236841087 0 -0.27084505610259679 -0.34271631739309177 0 -0.26153677555610388 -0.32819118811387782 0 -0.2475774867555009 -0.34164320394308861 0 -0.26153677555610388 -0.32819118811387782 0 -0.25837751833345662 -0.31347325195578862 0 -0.24749233914880131 -0.32573633236841087 0 -0.26153677555610388 -0.32819118811387782 0 -0.25837751833345662 -0.31347325195578862 0 -0.28339147744016402 -0.31738683490900921 0 -0.28339147744016402 -0.31738683490900921 0 -0.29849942393407669 -0.34242807986207319 0 -0.30458258457760728 -0.32212332769774932 0 -0.28339147744016402 -0.31738683490900921 0 -0.30458258457760728 -0.32212332769774932 0 -0.29484596446379552 -0.30501409909945232 0 -0.28339147744016402 -0.31738683490900921 0 -0.29849942393407669 -0.34242807986207319 0 -0.27084505610259679 -0.34271631739309177 0 -0.28339147744016402 -0.31738683490900921 0 -0.29849942393407669 -0.34242807986207319 0 -0.32455846157309948 -0.3367659209128227 0 -0.29849942393407669 -0.34242807986207319 0 -0.30458258457760728 -0.32212332769774932 0 -0.31076476676465947 -0.30313235876630051 0 -0.2950490247060723 -0.28908315792002731 0 -0.29484596446379552 -0.30501409909945232 0 -0.30458258457760728 -0.32212332769774932 0 -0.31076476676465947 -0.30313235876630051 0 -0.29484596446379552 -0.30501409909945232 0 -0.32003438176939292 -0.2889277394515834 0 -0.2950490247060723 -0.28908315792002731 0 -0.30579038965811101 -0.27844667836127812 0 -0.32003438176939292 -0.2889277394515834 0 -0.31076476676465947 -0.30313235876630051 0 -0.2950490247060723 -0.28908315792002731 0 -0.2950490247060723 -0.28908315792002731 0 -0.29484596446379552 -0.30501409909945232 0 -0.28044196883047412 -0.29334481620417491 0 -0.2950490247060723 -0.28908315792002731 0 -0.28044196883047412 -0.29334481620417491 0 -0.28190208301640829 -0.28105093535340259 0 -0.28339147744016402 -0.31738683490900921 0 -0.29484596446379552 -0.30501409909945232 0 -0.28044196883047412 -0.29334481620417491 0 -0.28339147744016402 -0.31738683490900921 0 -0.26828353094625151 -0.29234558995594551 0 -0.28044196883047412 -0.29334481620417491 0 -0.25837751833345662 -0.31347325195578862 0 -0.28339147744016402 -0.31738683490900921 0 -0.26279182115308469 -0.30356118846579339 0 -0.28339147744016402 -0.31738683490900921 0 -0.26828353094625151 -0.29234558995594551 0 -0.28339147744016402 -0.31738683490900921 0 -0.26279182115308469 -0.30356118846579339 0 -0.26828353094625151 -0.29234558995594551 0 -0.26279182115308469 -0.30356118846579339 0 -0.25623285980846072 -0.29159464945779051 0 -0.24936687953946449 -0.3028130127809735 0 -0.25837751833345662 -0.31347325195578862 0 -0.26279182115308469 -0.30356118846579339 0 -0.24936687953946449 -0.3028130127809735 0 -0.25623285980846072 -0.29159464945779051 0 -0.25995038722907993 -0.28421754993415099 0 -0.23938939996446321 -0.27211331721768572 0 -0.25623285980846072 -0.29159464945779051 0 -0.25995038722907993 -0.28421754993415099 0 -0.26828353094625151 -0.29234558995594551 0 -0.26279182115308469 -0.30356118846579339 0 -0.25623285980846072 -0.29159464945779051 0 -0.26828353094625151 -0.29234558995594551 0 -0.25995038722907993 -0.28421754993415099 0 -0.26960192681767442 -0.28727507562946969 0 -0.26624421860854952 -0.2777591174098657 0 -0.26960192681767442 -0.28727507562946969 0 -0.26624421860854952 -0.2777591174098657 0 -0.26960192681767442 -0.28727507562946969 0 -0.26624421860854952 -0.2777591174098657 0 -0.28190208301640829 -0.28105093535340259 0 -0.25995038722907993 -0.28421754993415099 0 -0.26960192681767442 -0.28727507562946969 0 -0.26828353094625151 -0.29234558995594551 0 -0.26960192681767442 -0.28727507562946969 0 -0.26828353094625151 -0.29234558995594551 0 -0.28044196883047412 -0.29334481620417491 0 -0.26960192681767442 -0.28727507562946969 0 -0.28044196883047412 -0.29334481620417491 0 -0.28190208301640829 -0.28105093535340259 0 -0.27952445275785742 -0.26962034066251561 0 -0.26624421860854952 -0.2777591174098657 0 -0.27180343357439379 -0.26073861407713789 0 -0.27952445275785742 -0.26962034066251561 0 -0.26624421860854952 -0.2777591174098657 0 -0.28190208301640829 -0.28105093535340259 0 -0.26624421860854952 -0.2777591174098657 0 -0.28190208301640829 -0.28105093535340259 0 -0.26624421860854952 -0.2777591174098657 0 -0.23938939996446321 -0.27211331721768572 0 -0.26624421860854952 -0.2777591174098657 0 -0.23938939996446321 -0.27211331721768572 0 -0.25633655175195141 -0.24968016057706971 0 -0.25995038722907993 -0.28421754993415099 0 -0.26624421860854952 -0.2777591174098657 0 -0.23938939996446321 -0.27211331721768572 0 -0.26624421860854952 -0.2777591174098657 0 -0.27180343357439379 -0.26073861407713789 0 -0.25633655175195141 -0.24968016057706971 0 -0.26624421860854952 -0.2777591174098657 0 -0.25633655175195141 -0.24968016057706971 0 -0.27180343357439379 -0.26073861407713789 0 -0.2738665099760702 -0.24983163637103131 0 -0.25633655175195141 -0.24968016057706971 0 -0.27952445275785742 -0.26962034066251561 0 -0.27180343357439379 -0.26073861407713789 0 -0.28410807240321551 -0.25720713578207971 0 -0.27180343357439379 -0.26073861407713789 0 -0.28410807240321551 -0.25720713578207971 0 -0.2738665099760702 -0.24983163637103131 0 -0.28410807240321551 -0.25720713578207971 0 -0.29680462018245141 -0.2579840328949719 0 -0.28882037556936779 -0.24227958441945091 0 -0.28410807240321551 -0.25720713578207971 0 -0.29680462018245141 -0.2579840328949719 0 -0.29356445618671972 -0.27134590069009201 0 -0.27952445275785742 -0.26962034066251561 0 -0.28410807240321551 -0.25720713578207971 0 -0.29356445618671972 -0.27134590069009201 0 -0.2950490247060723 -0.28908315792002731 0 -0.28190208301640829 -0.28105093535340259 0 -0.29356445618671972 -0.27134590069009201 0 -0.27952445275785742 -0.26962034066251561 0 -0.28190208301640829 -0.28105093535340259 0 -0.29356445618671972 -0.27134590069009201 0 -0.31325064770974448 -0.2666492680069405 0 -0.29356445618671972 -0.27134590069009201 0 -0.30579038965811101 -0.27844667836127812 0 -0.2950490247060723 -0.28908315792002731 0 -0.29356445618671972 -0.27134590069009201 0 -0.30579038965811101 -0.27844667836127812 0 -0.31325064770974448 -0.2666492680069405 0 -0.29680462018245141 -0.2579840328949719 0 -0.3084490109222261 -0.2499478765489658 0 -0.29680462018245141 -0.2579840328949719 0 -0.3084490109222261 -0.2499478765489658 0 -0.28882037556936779 -0.24227958441945091 0 -0.31325064770974448 -0.2666492680069405 0 -0.29680462018245141 -0.2579840328949719 0 -0.29356445618671972 -0.27134590069009201 0 -0.34000071813088539 -0.46087942065967952 0 -0.3321348815735447 -0.47337570590824418 0 -0.35140024861250568 -0.46839888643370609 0 -0.32858430235422831 -0.45540900847808852 0 -0.34000071813088539 -0.46087942065967952 0 -0.3321348815735447 -0.47337570590824418 0 -0.32858430235422831 -0.45540900847808852 0 -0.34000071813088539 -0.46087942065967952 0 -0.33543393658017218 -0.44394316039574011 0 -0.34000071813088539 -0.46087942065967952 0 -0.33543393658017218 -0.44394316039574011 0 -0.34976661196432701 -0.45304057381695489 0 -0.33543393658017218 -0.44394316039574011 0 -0.31407758057878021 -0.44296429398946319 0 -0.32352239231211111 -0.4296639300502319 0 -0.32858430235422831 -0.45540900847808852 0 -0.33543393658017218 -0.44394316039574011 0 -0.31407758057878021 -0.44296429398946319 0 -0.32858430235422831 -0.45540900847808852 0 -0.31312085023793229 -0.46186435466738529 0 -0.3321348815735447 -0.47337570590824418 0 -0.32858430235422831 -0.45540900847808852 0 -0.31407758057878021 -0.44296429398946319 0 -0.31312085023793229 -0.46186435466738529 0 -0.31312085023793229 -0.46186435466738529 0 -0.3321348815735447 -0.47337570590824418 0 -0.31107553136216332 -0.48034149462877301 0 -0.32939150603541001 -0.5 0 -0.3321348815735447 -0.47337570590824418 0 -0.31107553136216332 -0.48034149462877301 0 -0.32939150603541001 -0.5 0 -0.29967885551356999 -0.5 0 -0.31107553136216332 -0.48034149462877301 0 -0.32939150603541001 -0.5 0 -0.3321348815735447 -0.47337570590824418 0 -0.34617836159446991 -0.48499595588201821 0 -0.3321348815735447 -0.47337570590824418 0 -0.34617836159446991 -0.48499595588201821 0 -0.35140024861250568 -0.46839888643370609 0 -0.34617836159446991 -0.48499595588201821 0 -0.35976656417616981 -0.48090575731247659 0 -0.35140024861250568 -0.46839888643370609 0 -0.32939150603541001 -0.5 0 -0.34617836159446991 -0.48499595588201821 0 -0.35910415655725009 -0.50000000000000022 0 -0.34617836159446991 -0.48499595588201821 0 -0.35910415655725009 -0.50000000000000022 0 -0.35976656417616981 -0.48090575731247659 0 -0.35910415655725009 -0.50000000000000022 0 -0.37311133499016358 -0.48488952024643422 0 -0.35976656417616981 -0.48090575731247659 0 -0.38162276193334749 -0.5 0 -0.35910415655725009 -0.50000000000000022 0 -0.37311133499016358 -0.48488952024643422 0 -0.35910415655725009 -0.50000000000000022 0 -0.37311133499016358 -0.48488952024643422 0 -0.37311133499016358 -0.48488952024643422 0 -0.35976656417616981 -0.48090575731247659 0 -0.36903871912645969 -0.46624442400022459 0 -0.35976656417616981 -0.48090575731247659 0 -0.36903871912645969 -0.46624442400022459 0 -0.35140024861250568 -0.46839888643370609 0 -0.36903871912645969 -0.46624442400022459 0 -0.35922605953767239 -0.45661025453143972 0 -0.35140024861250568 -0.46839888643370609 0 -0.36903871912645969 -0.46624442400022459 0 -0.35922605953767239 -0.45661025453143972 0 -0.36680784563055258 -0.44861298435318192 0 -0.37939535056879342 -0.45972483942586939 0 -0.36903871912645969 -0.46624442400022459 0 -0.36680784563055258 -0.44861298435318192 0 -0.35922605953767239 -0.45661025453143972 0 -0.35140024861250568 -0.46839888643370609 0 -0.34976661196432701 -0.45304057381695489 0 -0.34000071813088539 -0.46087942065967952 0 -0.35140024861250568 -0.46839888643370609 0 -0.34976661196432701 -0.45304057381695489 0 -0.33543393658017218 -0.44394316039574011 0 -0.34976661196432701 -0.45304057381695489 0 -0.34667995845711969 -0.43713685561702942 0 -0.34976661196432701 -0.45304057381695489 0 -0.35569776367616718 -0.44353975845291871 0 -0.34667995845711969 -0.43713685561702942 0 -0.35922605953767239 -0.45661025453143972 0 -0.34976661196432701 -0.45304057381695489 0 -0.35569776367616718 -0.44353975845291871 0 -0.35569776367616718 -0.44353975845291871 0 -0.36207927316108229 -0.43317428399033819 0 -0.34667995845711969 -0.43713685561702942 0 -0.35569776367616718 -0.44353975845291871 0 -0.36680784563055258 -0.44861298435318192 0 -0.36207927316108229 -0.43317428399033819 0 -0.35922605953767239 -0.45661025453143972 0 -0.35569776367616718 -0.44353975845291871 0 -0.36680784563055258 -0.44861298435318192 0 -0.38215026660067403 -0.4485121527510163 0 -0.36680784563055258 -0.44861298435318192 0 -0.37370687752839121 -0.43962503310188339 0 -0.36680784563055258 -0.44861298435318192 0 -0.37370687752839121 -0.43962503310188339 0 -0.36207927316108229 -0.43317428399033819 0 -0.37370687752839121 -0.43962503310188339 0 -0.37479732898604168 -0.43006389527844202 0 -0.36207927316108229 -0.43317428399033819 0 -0.36207927316108229 -0.43317428399033819 0 -0.36966227139812119 -0.42175248130805909 0 -0.35855547249241831 -0.41880030053896061 0 -0.37479732898604168 -0.43006389527844202 0 -0.36207927316108229 -0.43317428399033819 0 -0.36966227139812119 -0.42175248130805909 0 -0.38043392001616971 -0.41976943550850199 0 -0.37479732898604168 -0.43006389527844202 0 -0.36966227139812119 -0.42175248130805909 0 -0.38043392001616971 -0.41976943550850199 0 -0.36966227139812119 -0.42175248130805909 0 -0.37287618229732461 -0.40972995261553652 0 -0.37287618229732461 -0.40972995261553652 0 -0.35855547249241831 -0.41880030053896061 0 -0.35944235839433369 -0.40442013656490922 0 -0.36966227139812119 -0.42175248130805909 0 -0.37287618229732461 -0.40972995261553652 0 -0.35855547249241831 -0.41880030053896061 0 -0.37287618229732461 -0.40972995261553652 0 -0.35855547249241831 -0.41880030053896061 0 -0.3440317427725495 -0.4218094519980341 0 -0.35944235839433369 -0.40442013656490922 0 -0.33354357438837612 -0.4096553051837164 0 -0.35944235839433369 -0.40442013656490922 0 -0.33354357438837612 -0.4096553051837164 0 -0.35855547249241831 -0.41880030053896061 0 -0.3440317427725495 -0.4218094519980341 0 -0.35944235839433369 -0.40442013656490922 0 -0.3440317427725495 -0.4218094519980341 0 -0.34667995845711969 -0.43713685561702942 0 -0.35283661172079239 -0.42773022303609048 0 -0.36207927316108229 -0.43317428399033819 0 -0.34667995845711969 -0.43713685561702942 0 -0.35283661172079239 -0.42773022303609048 0 -0.35855547249241831 -0.41880030053896061 0 -0.3440317427725495 -0.4218094519980341 0 -0.35283661172079239 -0.42773022303609048 0 -0.36207927316108229 -0.43317428399033819 0 -0.35855547249241831 -0.41880030053896061 0 -0.35283661172079239 -0.42773022303609048 0 -0.35369516456859801 -0.37403808433058072 0 -0.36951815348444478 -0.38661152613834032 0 -0.35369516456859801 -0.37403808433058072 0 -0.36951815348444478 -0.38661152613834032 0 -0.36040262698090147 -0.38795991027880622 0 -0.37260538616690148 -0.37468574393731691 0 -0.35369516456859801 -0.37403808433058072 0 -0.36951815348444478 -0.38661152613834032 0 -0.37998209480888118 -0.38660935768327748 0 -0.37260538616690148 -0.37468574393731691 0 -0.36951815348444478 -0.38661152613834032 0 -0.36951815348444478 -0.38661152613834032 0 -0.36040262698090147 -0.38795991027880622 0 -0.36650974452478191 -0.39484906669777242 0 -0.38534114240029099 -0.39918496794610059 0 -0.35944235839433369 -0.40442013656490922 0 -0.38534114240029099 -0.39918496794610059 0 -0.36951815348444478 -0.38661152613834032 0 -0.36650974452478191 -0.39484906669777242 0 -0.38534114240029099 -0.39918496794610059 0 -0.36650974452478191 -0.39484906669777242 0 -0.35944235839433369 -0.40442013656490922 0 -0.38534114240029099 -0.39918496794610059 0 -0.37287618229732461 -0.40972995261553652 0 -0.35944235839433369 -0.40442013656490922 0 -0.36040262698090147 -0.38795991027880622 0 -0.33233416389021281 -0.39806709628167553 0 -0.36040262698090147 -0.38795991027880622 0 -0.34498071721738288 -0.38596192306377453 0 -0.33233416389021281 -0.39806709628167553 0 -0.35944235839433369 -0.40442013656490922 0 -0.35044649363572122 -0.39899030300137589 0 -0.33354357438837612 -0.4096553051837164 0 -0.36040262698090147 -0.38795991027880622 0 -0.36650974452478191 -0.39484906669777242 0 -0.35044649363572122 -0.39899030300137589 0 -0.36650974452478191 -0.39484906669777242 0 -0.35944235839433369 -0.40442013656490922 0 -0.35044649363572122 -0.39899030300137589 0 -0.36040262698090147 -0.38795991027880622 0 -0.35044649363572122 -0.39899030300137589 0 -0.33233416389021281 -0.39806709628167553 0 -0.35369516456859801 -0.37403808433058072 0 -0.34498071721738288 -0.38596192306377453 0 -0.33421282257862828 -0.37770259522389399 0 -0.35369516456859801 -0.37403808433058072 0 -0.36040262698090147 -0.38795991027880622 0 -0.34498071721738288 -0.38596192306377453 0 -0.34498071721738288 -0.38596192306377453 0 -0.33421282257862828 -0.37770259522389399 0 -0.33438710088504769 -0.38763424250291889 0 -0.34498071721738288 -0.38596192306377453 0 -0.33438710088504769 -0.38763424250291889 0 -0.33233416389021281 -0.39806709628167553 0 -0.33421282257862828 -0.37770259522389399 0 -0.33438710088504769 -0.38763424250291889 0 -0.32602069985396692 -0.38880535544233169 0 -0.35044649363572122 -0.39899030300137589 0 -0.33233416389021281 -0.39806709628167553 0 -0.33354357438837612 -0.4096553051837164 0 -0.33438710088504769 -0.38763424250291889 0 -0.33233416389021281 -0.39806709628167553 0 -0.32602069985396692 -0.38880535544233169 0 -0.33233416389021281 -0.39806709628167553 0 -0.30426570079952397 -0.40817428228454472 0 -0.33233416389021281 -0.39806709628167553 0 -0.32219113121659532 -0.39672755681671751 0 -0.30426570079952397 -0.40817428228454472 0 -0.32219113121659532 -0.39672755681671751 0 -0.30426570079952397 -0.40817428228454472 0 -0.31168504910059469 -0.39842923365833161 0 -0.31385958143428672 -0.39078948002189923 0 -0.32219113121659532 -0.39672755681671751 0 -0.31168504910059469 -0.39842923365833161 0 -0.33233416389021281 -0.39806709628167553 0 -0.32219113121659532 -0.39672755681671751 0 -0.32602069985396692 -0.38880535544233169 0 -0.31385958143428672 -0.39078948002189923 0 -0.32219113121659532 -0.39672755681671751 0 -0.32602069985396692 -0.38880535544233169 0 -0.30803392148088388 -0.37180697277304742 0 -0.33421282257862828 -0.37770259522389399 0 -0.31785197647725699 -0.38231461993721427 0 -0.33421282257862828 -0.37770259522389399 0 -0.32602069985396692 -0.38880535544233169 0 -0.31785197647725699 -0.38231461993721427 0 -0.31385958143428672 -0.39078948002189923 0 -0.31785197647725699 -0.38231461993721427 0 -0.30713285703851911 -0.38246869622489882 0 -0.31385958143428672 -0.39078948002189923 0 -0.32602069985396692 -0.38880535544233169 0 -0.31785197647725699 -0.38231461993721427 0 -0.33638283944204489 -0.43063021346784058 0 -0.3322461670882722 -0.4205976692781675 0 -0.32352239231211111 -0.4296639300502319 0 -0.33543393658017218 -0.44394316039574011 0 -0.33638283944204489 -0.43063021346784058 0 -0.32352239231211111 -0.4296639300502319 0 -0.3440317427725495 -0.4218094519980341 0 -0.34667995845711969 -0.43713685561702942 0 -0.33638283944204489 -0.43063021346784058 0 -0.33543393658017218 -0.44394316039574011 0 -0.34667995845711969 -0.43713685561702942 0 -0.33638283944204489 -0.43063021346784058 0 -0.3440317427725495 -0.4218094519980341 0 -0.33638283944204489 -0.43063021346784058 0 -0.3322461670882722 -0.4205976692781675 0 -0.3440317427725495 -0.4218094519980341 0 -0.33354357438837612 -0.4096553051837164 0 -0.3322461670882722 -0.4205976692781675 0 -0.33354357438837612 -0.4096553051837164 0 -0.3322461670882722 -0.4205976692781675 0 -0.32214434169795658 -0.41914261512861761 0 -0.33354357438837612 -0.4096553051837164 0 -0.32214434169795658 -0.41914261512861761 0 -0.30764479038241849 -0.41489047380252347 0 -0.33354357438837612 -0.4096553051837164 0 -0.30764479038241849 -0.41489047380252347 0 -0.33233416389021281 -0.39806709628167553 0 -0.30764479038241849 -0.41489047380252347 0 -0.30426570079952397 -0.40817428228454472 0 -0.33233416389021281 -0.39806709628167553 0 -0.33354357438837612 -0.4096553051837164 0 -0.30764479038241849 -0.41489047380252347 0 -0.32214434169795658 -0.41914261512861761 0 -0.31432315552886458 -0.42325298884471563 0 -0.30764479038241849 -0.41489047380252347 0 -0.32214434169795658 -0.41914261512861761 0 -0.31432315552886458 -0.42325298884471563 0 -0.32352239231211111 -0.4296639300502319 0 -0.31432315552886458 -0.42325298884471563 0 -0.32352239231211111 -0.4296639300502319 0 -0.31207034820491431 -0.4301210855914499 0 -0.3322461670882722 -0.4205976692781675 0 -0.32214434169795658 -0.41914261512861761 0 -0.32352239231211111 -0.4296639300502319 0 -0.31407758057878021 -0.44296429398946319 0 -0.32352239231211111 -0.4296639300502319 0 -0.31207034820491431 -0.4301210855914499 0 -0.31407758057878021 -0.44296429398946319 0 -0.31207034820491431 -0.4301210855914499 0 -0.30317129420478722 -0.4322153528450654 0 -0.30317129420478722 -0.4322153528450654 0 -0.29695469287871518 -0.42503807624171808 0 -0.29297782441373399 -0.43269832567583227 0 -0.30317129420478722 -0.4322153528450654 0 -0.29297782441373399 -0.43269832567583227 0 -0.29822126842214319 -0.44061375144656079 0 -0.30317129420478722 -0.4322153528450654 0 -0.29695469287871518 -0.42503807624171808 0 -0.30683285623993989 -0.42510359546509452 0 -0.31207034820491431 -0.4301210855914499 0 -0.30317129420478722 -0.4322153528450654 0 -0.30683285623993989 -0.42510359546509452 0 -0.31432315552886458 -0.42325298884471563 0 -0.31207034820491431 -0.4301210855914499 0 -0.30683285623993989 -0.42510359546509452 0 -0.29695469287871518 -0.42503807624171808 0 -0.30764479038241849 -0.41489047380252347 0 -0.29160063219187948 -0.42239526462565852 0 -0.30764479038241849 -0.41489047380252347 0 -0.30426570079952397 -0.40817428228454472 0 -0.28174600637646091 -0.42012564242133071 0 -0.31432315552886458 -0.42325298884471563 0 -0.30683285623993989 -0.42510359546509452 0 -0.30764479038241849 -0.41489047380252347 0 -0.29695469287871518 -0.42503807624171808 0 -0.30683285623993989 -0.42510359546509452 0 -0.30764479038241849 -0.41489047380252347 0 -0.30426570079952397 -0.40817428228454472 0 -0.28919545713414407 -0.40839010057273062 0 -0.28267102535982219 -0.41274788659911321 0 -0.30426570079952397 -0.40817428228454472 0 -0.27619723770883481 -0.41828146828741247 0 -0.30764479038241849 -0.41489047380252347 0 -0.28174600637646091 -0.42012564242133071 0 -0.30426570079952397 -0.40817428228454472 0 -0.28174600637646091 -0.42012564242133071 0 -0.27619723770883481 -0.41828146828741247 0 -0.30426570079952397 -0.40817428228454472 0 -0.28267102535982219 -0.41274788659911321 0 -0.27619723770883481 -0.41828146828741247 0 -0.30764479038241849 -0.41489047380252347 0 -0.28174600637646091 -0.42012564242133071 0 -0.29160063219187948 -0.42239526462565852 0 -0.30426570079952397 -0.40817428228454472 0 -0.28919545713414407 -0.40839010057273062 0 -0.29563681616971882 -0.403651863401295 0 -0.28267102535982219 -0.41274788659911321 0 -0.28380285983780068 -0.40449232922826678 0 -0.27822172776593568 -0.40533857131683632 0 -0.28919545713414407 -0.40839010057273062 0 -0.28267102535982219 -0.41274788659911321 0 -0.28380285983780068 -0.40449232922826678 0 -0.28174600637646091 -0.42012564242133071 0 -0.28270147991191608 -0.42402978652163231 0 -0.29160063219187948 -0.42239526462565852 0 -0.28270147991191608 -0.42402978652163231 0 -0.28832002402846912 -0.42768090922643731 0 -0.29160063219187948 -0.42239526462565852 0 -0.28270147991191608 -0.42402978652163231 0 -0.28832002402846912 -0.42768090922643731 0 -0.28295875387678138 -0.43182503795223082 0 -0.28832002402846912 -0.42768090922643731 0 -0.28295875387678138 -0.43182503795223082 0 -0.29297782441373399 -0.43269832567583227 0 -0.28295875387678138 -0.43182503795223082 0 -0.29297782441373399 -0.43269832567583227 0 -0.28768020097304031 -0.44178426054334458 0 -0.29695469287871518 -0.42503807624171808 0 -0.28832002402846912 -0.42768090922643731 0 -0.29297782441373399 -0.43269832567583227 0 -0.29695469287871518 -0.42503807624171808 0 -0.28832002402846912 -0.42768090922643731 0 -0.29160063219187948 -0.42239526462565852 0 -0.30803392148088388 -0.37180697277304742 0 -0.30713285703851911 -0.38246869622489882 0 -0.29546233195630611 -0.37722678484790229 0 -0.30713285703851911 -0.38246869622489882 0 -0.29690399170540649 -0.38560789645586252 0 -0.29546233195630611 -0.37722678484790229 0 -0.30803392148088388 -0.37180697277304742 0 -0.31785197647725699 -0.38231461993721427 0 -0.30713285703851911 -0.38246869622489882 0 -0.31385958143428672 -0.39078948002189923 0 -0.30713285703851911 -0.38246869622489882 0 -0.30606119501303852 -0.39021446978538621 0 -0.30713285703851911 -0.38246869622489882 0 -0.30606119501303852 -0.39021446978538621 0 -0.29690399170540649 -0.38560789645586252 0 -0.30606119501303852 -0.39021446978538621 0 -0.29690399170540649 -0.38560789645586252 0 -0.30027867779784367 -0.3944601553284553 0 -0.30027867779784367 -0.3944601553284553 0 -0.30642378295197298 -0.3980256155101653 0 -0.30142135069998888 -0.40226565207179987 0 -0.30606119501303852 -0.39021446978538621 0 -0.30027867779784367 -0.3944601553284553 0 -0.30642378295197298 -0.3980256155101653 0 -0.31385958143428672 -0.39078948002189923 0 -0.30606119501303852 -0.39021446978538621 0 -0.30642378295197298 -0.3980256155101653 0 -0.31385958143428672 -0.39078948002189923 0 -0.31168504910059469 -0.39842923365833161 0 -0.30642378295197298 -0.3980256155101653 0 -0.30426570079952397 -0.40817428228454472 0 -0.31168504910059469 -0.39842923365833161 0 -0.30642378295197298 -0.3980256155101653 0 -0.30426570079952397 -0.40817428228454472 0 -0.30642378295197298 -0.3980256155101653 0 -0.30142135069998888 -0.40226565207179987 0 -0.30426570079952397 -0.40817428228454472 0 -0.30142135069998888 -0.40226565207179987 0 -0.29563681616971882 -0.403651863401295 0 -0.30027867779784367 -0.3944601553284553 0 -0.30142135069998888 -0.40226565207179987 0 -0.29539125391587512 -0.39901100517962867 0 -0.30142135069998888 -0.40226565207179987 0 -0.29563681616971882 -0.403651863401295 0 -0.29539125391587512 -0.39901100517962867 0 -0.29563681616971882 -0.403651863401295 0 -0.29539125391587512 -0.39901100517962867 0 -0.28891602539904387 -0.40092760171970782 0 -0.28919545713414407 -0.40839010057273062 0 -0.29563681616971882 -0.403651863401295 0 -0.28891602539904387 -0.40092760171970782 0 -0.28380285983780068 -0.40449232922826678 0 -0.28891602539904387 -0.40092760171970782 0 -0.28001006353005747 -0.39505748593294632 0 -0.28919545713414407 -0.40839010057273062 0 -0.28380285983780068 -0.40449232922826678 0 -0.28891602539904387 -0.40092760171970782 0 -0.28891602539904387 -0.40092760171970782 0 -0.29067267246173961 -0.39222347835494697 0 -0.28001006353005747 -0.39505748593294632 0 -0.30027867779784367 -0.3944601553284553 0 -0.29539125391587512 -0.39901100517962867 0 -0.29067267246173961 -0.39222347835494697 0 -0.29690399170540649 -0.38560789645586252 0 -0.30027867779784367 -0.3944601553284553 0 -0.29067267246173961 -0.39222347835494697 0 -0.29539125391587512 -0.39901100517962867 0 -0.28891602539904387 -0.40092760171970782 0 -0.29067267246173961 -0.39222347835494697 0 -0.28185502038313942 -0.36591135032220068 0 -0.284749731256775 -0.38216272553546871 0 -0.29546233195630611 -0.37722678484790229 0 -0.29690399170540649 -0.38560789645586252 0 -0.29067267246173961 -0.39222347835494697 0 -0.284749731256775 -0.38216272553546871 0 -0.29067267246173961 -0.39222347835494697 0 -0.284749731256775 -0.38216272553546871 0 -0.28001006353005747 -0.39505748593294632 0 -0.29690399170540649 -0.38560789645586252 0 -0.284749731256775 -0.38216272553546871 0 -0.29546233195630611 -0.37722678484790229 0 -0.284749731256775 -0.38216272553546871 0 -0.26739651117423102 -0.3819832328055115 0 -0.28001006353005747 -0.39505748593294632 0 -0.28185502038313942 -0.36591135032220068 0 -0.284749731256775 -0.38216272553546871 0 -0.26739651117423102 -0.3819832328055115 0 -0.26739651117423102 -0.3819832328055115 0 -0.27190295893722921 -0.4011847469010893 0 -0.2576742116903179 -0.39724471051377119 0 -0.27190295893722921 -0.4011847469010893 0 -0.2576742116903179 -0.39724471051377119 0 -0.27204747847693039 -0.41690226524329738 0 -0.26739651117423102 -0.3819832328055115 0 -0.28001006353005747 -0.39505748593294632 0 -0.27190295893722921 -0.4011847469010893 0 -0.28380285983780068 -0.40449232922826678 0 -0.28001006353005747 -0.39505748593294632 0 -0.27822172776593568 -0.40533857131683632 0 -0.28001006353005747 -0.39505748593294632 0 -0.27822172776593568 -0.40533857131683632 0 -0.27190295893722921 -0.4011847469010893 0 -0.27822172776593568 -0.40533857131683632 0 -0.27190295893722921 -0.4011847469010893 0 -0.2760677609859028 -0.41058221559417302 0 -0.2576742116903179 -0.39724471051377119 0 -0.25109305212649419 -0.40993790731429341 0 -0.2434516529263086 -0.39792330430020739 0 -0.2576742116903179 -0.39724471051377119 0 -0.24330094490370491 -0.37758715578424529 0 -0.26739651117423102 -0.3819832328055115 0 -0.2576742116903179 -0.39724471051377119 0 -0.24330094490370491 -0.37758715578424529 0 -0.27534973213043129 -0.42141858243744668 0 -0.25742051992969078 -0.42504278537499429 0 -0.2661870113315245 -0.43113995837606101 0 -0.27534973213043129 -0.42141858243744668 0 -0.25742051992969078 -0.42504278537499429 0 -0.27371063152831909 -0.41917687147002408 0 -0.27534973213043129 -0.42141858243744668 0 -0.25742051992969078 -0.42504278537499429 0 -0.2661870113315245 -0.43113995837606101 0 -0.27393688050930209 -0.43079777311103618 0 -0.27534973213043129 -0.42141858243744668 0 -0.2661870113315245 -0.43113995837606101 0 -0.26875091413728502 -0.43576571838887163 0 -0.26403157549729939 -0.43916716896872421 0 -0.26875091413728502 -0.43576571838887163 0 -0.27393688050930209 -0.43079777311103618 0 -0.27364914444683902 -0.44144142443240592 0 -0.2661870113315245 -0.43113995837606101 0 -0.26875091413728502 -0.43576571838887163 0 -0.27393688050930209 -0.43079777311103618 0 -0.28295875387678138 -0.43182503795223082 0 -0.27393688050930209 -0.43079777311103618 0 -0.27364914444683902 -0.44144142443240592 0 -0.28270147991191608 -0.42402978652163231 0 -0.28295875387678138 -0.43182503795223082 0 -0.27534973213043129 -0.42141858243744668 0 -0.28295875387678138 -0.43182503795223082 0 -0.27534973213043129 -0.42141858243744668 0 -0.28295875387678138 -0.43182503795223082 0 -0.27393688050930209 -0.43079777311103618 0 -0.27534973213043129 -0.42141858243744668 0 -0.28174600637646091 -0.42012564242133071 0 -0.27619723770883481 -0.41828146828741247 0 -0.28174600637646091 -0.42012564242133071 0 -0.27534973213043129 -0.42141858243744668 0 -0.27371063152831909 -0.41917687147002408 0 -0.27204747847693039 -0.41690226524329738 0 -0.25742051992969078 -0.42504278537499429 0 -0.28174600637646091 -0.42012564242133071 0 -0.28270147991191608 -0.42402978652163231 0 -0.27534973213043129 -0.42141858243744668 0 -0.27190295893722921 -0.4011847469010893 0 -0.2760677609859028 -0.41058221559417302 0 -0.27204747847693039 -0.41690226524329738 0 -0.28174600637646091 -0.42012564242133071 0 -0.27534973213043129 -0.42141858243744668 0 -0.27619723770883481 -0.41828146828741247 0 -0.28267102535982219 -0.41274788659911321 0 -0.27767759114863722 -0.41421631318256669 0 -0.27619723770883481 -0.41828146828741247 0 -0.27767759114863722 -0.41421631318256669 0 -0.27577434053998873 -0.4152536822495691 0 -0.27619723770883481 -0.41828146828741247 0 -0.27577434053998873 -0.4152536822495691 0 -0.2760677609859028 -0.41058221559417302 0 -0.27204747847693039 -0.41690226524329738 0 -0.27619723770883481 -0.41828146828741247 0 -0.27204747847693039 -0.41690226524329738 0 -0.27577434053998873 -0.4152536822495691 0 -0.27619723770883481 -0.41828146828741247 0 -0.27204747847693039 -0.41690226524329738 0 -0.27371063152831909 -0.41917687147002408 0 -0.27619723770883481 -0.41828146828741247 0 -0.27204747847693039 -0.41690226524329738 0 -0.27371063152831909 -0.41917687147002408 0 -0.27619723770883481 -0.41828146828741247 0 -0.27371063152831909 -0.41917687147002408 0 -0.27534973213043129 -0.42141858243744668 0 -0.27619723770883481 -0.41828146828741247 0 -0.27371063152831909 -0.41917687147002408 0 -0.27534973213043129 -0.42141858243744668 0 -0.28267102535982219 -0.41274788659911321 0 -0.27822172776593568 -0.40533857131683632 0 -0.2760677609859028 -0.41058221559417302 0 -0.28267102535982219 -0.41274788659911321 0 -0.27767759114863722 -0.41421631318256669 0 -0.2760677609859028 -0.41058221559417302 0 -0.27767759114863722 -0.41421631318256669 0 -0.27577434053998873 -0.4152536822495691 0 -0.2760677609859028 -0.41058221559417302 0 -0.27371063152831909 -0.41917687147002408 0 -0.27204747847693039 -0.41690226524329738 0 -0.2576742116903179 -0.39724471051377119 0 -0.27204747847693039 -0.41690226524329738 0 -0.25109305212649419 -0.40993790731429341 0 -0.2576742116903179 -0.39724471051377119 0 -0.27204747847693039 -0.41690226524329738 0 -0.27204747847693039 -0.41690226524329738 0 -0.25109305212649419 -0.40993790731429341 0 -0.27204747847693039 -0.41690226524329738 0 -0.2524429019861385 -0.41825018649880258 0 -0.25742051992969078 -0.42504278537499429 0 -0.27204747847693039 -0.41690226524329738 0 -0.25109305212649419 -0.40993790731429341 0 -0.2524429019861385 -0.41825018649880258 0 -0.2524429019861385 -0.41825018649880258 0 -0.25742051992969078 -0.42504278537499429 0 -0.24452795042479381 -0.42112381624322442 0 -0.27371063152831909 -0.41917687147002408 0 -0.25742051992969078 -0.42504278537499429 0 -0.25197813267442171 -0.42700253714732772 0 -0.25742051992969078 -0.42504278537499429 0 -0.25752733637273922 -0.4342997820608433 0 -0.25197813267442171 -0.42700253714732772 0 -0.25742051992969078 -0.42504278537499429 0 -0.2661870113315245 -0.43113995837606101 0 -0.25742051992969078 -0.42504278537499429 0 -0.25752733637273922 -0.4342997820608433 0 -0.2661870113315245 -0.43113995837606101 0 -0.25752733637273922 -0.4342997820608433 0 -0.26403157549729939 -0.43916716896872421 0 -0.25752733637273922 -0.4342997820608433 0 -0.25116971564846252 -0.43460217329565831 0 -0.25494059216976878 -0.44232201366954621 0 -0.25197813267442171 -0.42700253714732772 0 -0.25752733637273922 -0.4342997820608433 0 -0.25116971564846252 -0.43460217329565831 0 -0.25116971564846252 -0.43460217329565831 0 -0.25494059216976878 -0.44232201366954621 0 -0.24621421255866971 -0.44270785729789203 0 -0.25494059216976878 -0.44232201366954621 0 -0.25241092314773228 -0.45212153287018703 0 -0.24621421255866971 -0.44270785729789203 0 -0.25494059216976878 -0.44232201366954621 0 -0.25241092314773228 -0.45212153287018703 0 -0.26203458963429599 -0.44639327361983311 0 -0.25752733637273922 -0.4342997820608433 0 -0.25494059216976878 -0.44232201366954621 0 -0.26403157549729939 -0.43916716896872421 0 -0.25494059216976878 -0.44232201366954621 0 -0.26203458963429599 -0.44639327361983311 0 -0.26403157549729939 -0.43916716896872421 0 -0.25241092314773228 -0.45212153287018703 0 -0.25013988009879179 -0.4634133777829611 0 -0.26380198372740482 -0.46120837755114008 0 -0.26203458963429599 -0.44639327361983311 0 -0.26380198372740482 -0.46120837755114008 0 -0.2705035070156524 -0.45382533156215382 0 -0.25241092314773228 -0.45212153287018703 0 -0.26203458963429599 -0.44639327361983311 0 -0.26380198372740482 -0.46120837755114008 0 -0.25013988009879179 -0.4634133777829611 0 -0.26380198372740482 -0.46120837755114008 0 -0.26006475172855242 -0.47001476573547118 0 -0.26380198372740482 -0.46120837755114008 0 -0.2705035070156524 -0.45382533156215382 0 -0.27376019241333682 -0.46799992805156609 0 -0.26380198372740482 -0.46120837755114008 0 -0.27376019241333682 -0.46799992805156609 0 -0.26006475172855242 -0.47001476573547118 0 -0.2705035070156524 -0.45382533156215382 0 -0.27376019241333682 -0.46799992805156609 0 -0.28191444169702712 -0.45336953119987872 0 -0.26875091413728502 -0.43576571838887163 0 -0.26403157549729939 -0.43916716896872421 0 -0.27364914444683902 -0.44144142443240592 0 -0.26203458963429599 -0.44639327361983311 0 -0.26403157549729939 -0.43916716896872421 0 -0.27364914444683902 -0.44144142443240592 0 -0.26203458963429599 -0.44639327361983311 0 -0.2705035070156524 -0.45382533156215382 0 -0.27364914444683902 -0.44144142443240592 0 -0.27364914444683902 -0.44144142443240592 0 -0.28768020097304031 -0.44178426054334458 0 -0.28191444169702712 -0.45336953119987872 0 -0.2705035070156524 -0.45382533156215382 0 -0.27364914444683902 -0.44144142443240592 0 -0.28191444169702712 -0.45336953119987872 0 -0.28768020097304031 -0.44178426054334458 0 -0.28191444169702712 -0.45336953119987872 0 -0.29786762729820287 -0.45134774807854672 0 -0.28295875387678138 -0.43182503795223082 0 -0.27364914444683902 -0.44144142443240592 0 -0.28768020097304031 -0.44178426054334458 0 -0.29297782441373399 -0.43269832567583227 0 -0.28768020097304031 -0.44178426054334458 0 -0.29822126842214319 -0.44061375144656079 0 -0.28768020097304031 -0.44178426054334458 0 -0.29822126842214319 -0.44061375144656079 0 -0.29786762729820287 -0.45134774807854672 0 -0.29498517826067461 -0.46774787692119629 0 -0.28191444169702712 -0.45336953119987872 0 -0.29786762729820287 -0.45134774807854672 0 -0.27376019241333682 -0.46799992805156609 0 -0.29498517826067461 -0.46774787692119629 0 -0.28191444169702712 -0.45336953119987872 0 -0.31312085023793229 -0.46186435466738529 0 -0.29498517826067461 -0.46774787692119629 0 -0.29786762729820287 -0.45134774807854672 0 -0.31407758057878021 -0.44296429398946319 0 -0.31312085023793229 -0.46186435466738529 0 -0.29786762729820287 -0.45134774807854672 0 -0.31407758057878021 -0.44296429398946319 0 -0.29822126842214319 -0.44061375144656079 0 -0.29786762729820287 -0.45134774807854672 0 -0.31407758057878021 -0.44296429398946319 0 -0.30317129420478722 -0.4322153528450654 0 -0.29822126842214319 -0.44061375144656079 0 -0.29967885551356999 -0.5 0 -0.31107553136216332 -0.48034149462877301 0 -0.28600764534184647 -0.48402226433311413 0 -0.29498517826067461 -0.46774787692119629 0 -0.31107553136216332 -0.48034149462877301 0 -0.28600764534184647 -0.48402226433311413 0 -0.31312085023793229 -0.46186435466738529 0 -0.29498517826067461 -0.46774787692119629 0 -0.31107553136216332 -0.48034149462877301 0 -0.27376019241333682 -0.46799992805156609 0 -0.29498517826067461 -0.46774787692119629 0 -0.28600764534184647 -0.48402226433311413 0 -0.29967885551356999 -0.5 0 -0.28600764534184647 -0.48402226433311413 0 -0.26996620499172991 -0.5 0 -0.28600764534184647 -0.48402226433311413 0 -0.26996620499172991 -0.5 0 -0.26308972487571031 -0.48169994440923652 0 -0.27376019241333682 -0.46799992805156609 0 -0.28600764534184647 -0.48402226433311413 0 -0.26308972487571031 -0.48169994440923652 0 -0.27376019241333682 -0.46799992805156609 0 -0.26006475172855242 -0.47001476573547118 0 -0.26308972487571031 -0.48169994440923652 0 -0.26308972487571031 -0.48169994440923652 0 -0.24962771366494729 -0.48804849123724459 0 -0.2495319775275181 -0.47575220088245262 0 -0.26006475172855242 -0.47001476573547118 0 -0.26308972487571031 -0.48169994440923652 0 -0.2495319775275181 -0.47575220088245262 0 -0.25013988009879179 -0.4634133777829611 0 -0.26006475172855242 -0.47001476573547118 0 -0.2495319775275181 -0.47575220088245262 0 -0.26996620499172991 -0.5 0 -0.2402535544698898 -0.5 0 -0.24962771366494729 -0.48804849123724459 0 -0.26996620499172991 -0.5 0 -0.26308972487571031 -0.48169994440923652 0 -0.24962771366494729 -0.48804849123724459 0 -0.2402535544698898 -0.5 0 -0.23617438021414111 -0.48966112806064988 0 -0.24962771366494729 -0.48804849123724459 0 -0.23617438021414111 -0.48966112806064988 0 -0.24962771366494729 -0.48804849123724459 0 -0.23948613414693959 -0.48025551010113487 0 -0.24962771366494729 -0.48804849123724459 0 -0.2495319775275181 -0.47575220088245262 0 -0.23948613414693959 -0.48025551010113487 0 -0.25013988009879179 -0.4634133777829611 0 -0.2495319775275181 -0.47575220088245262 0 -0.23677418382105511 -0.467813735919554 0 -0.2495319775275181 -0.47575220088245262 0 -0.23948613414693959 -0.48025551010113487 0 -0.23677418382105511 -0.467813735919554 0 -0.23948613414693959 -0.48025551010113487 0 -0.22908264598767361 -0.48031407346031602 0 -0.23677418382105511 -0.467813735919554 0 -0.23617438021414111 -0.48966112806064988 0 -0.23948613414693959 -0.48025551010113487 0 -0.22908264598767361 -0.48031407346031602 0 -0.22908264598767361 -0.48031407346031602 0 -0.23677418382105511 -0.467813735919554 0 -0.22082222785412359 -0.46699885743698633 0 -0.22908264598767361 -0.48031407346031602 0 -0.22082222785412359 -0.46699885743698633 0 -0.21602145899079581 -0.48097186682499299 0 -0.22908264598767361 -0.48031407346031602 0 -0.22595318513523219 -0.49526117844858442 0 -0.21602145899079581 -0.48097186682499299 0 -0.2402535544698898 -0.5 0 -0.22595318513523219 -0.49526117844858442 0 -0.21054090394804981 -0.5 0 -0.2402535544698898 -0.5 0 -0.23617438021414111 -0.48966112806064988 0 -0.22595318513523219 -0.49526117844858442 0 -0.23617438021414111 -0.48966112806064988 0 -0.22908264598767361 -0.48031407346031602 0 -0.22595318513523219 -0.49526117844858442 0 -0.24621421255866971 -0.44270785729789203 0 -0.23279382651643851 -0.44227035402668469 0 -0.24355154952949179 -0.43508496178659778 0 -0.25241092314773228 -0.45212153287018703 0 -0.24621421255866971 -0.44270785729789203 0 -0.2417245898866503 -0.45326827087157012 0 -0.2417245898866503 -0.45326827087157012 0 -0.23018386510256511 -0.45568092104389041 0 -0.23279382651643851 -0.44227035402668469 0 -0.24621421255866971 -0.44270785729789203 0 -0.2417245898866503 -0.45326827087157012 0 -0.23279382651643851 -0.44227035402668469 0 -0.2417245898866503 -0.45326827087157012 0 -0.23677418382105511 -0.467813735919554 0 -0.23018386510256511 -0.45568092104389041 0 -0.25241092314773228 -0.45212153287018703 0 -0.25013988009879179 -0.4634133777829611 0 -0.2417245898866503 -0.45326827087157012 0 -0.25013988009879179 -0.4634133777829611 0 -0.2417245898866503 -0.45326827087157012 0 -0.23677418382105511 -0.467813735919554 0 -0.22082222785412359 -0.46699885743698633 0 -0.23018386510256511 -0.45568092104389041 0 -0.21809683822627871 -0.45076981829590179 0 -0.23677418382105511 -0.467813735919554 0 -0.22082222785412359 -0.46699885743698633 0 -0.23018386510256511 -0.45568092104389041 0 -0.23279382651643851 -0.44227035402668469 0 -0.21809683822627871 -0.45076981829590179 0 -0.2134587154960004 -0.43392920486652131 0 -0.23018386510256511 -0.45568092104389041 0 -0.23279382651643851 -0.44227035402668469 0 -0.21809683822627871 -0.45076981829590179 0 -0.21809683822627871 -0.45076981829590179 0 -0.202515319805365 -0.44999154432616789 0 -0.2134587154960004 -0.43392920486652131 0 -0.22082222785412359 -0.46699885743698633 0 -0.2084636109711594 -0.46092062539408579 0 -0.205049577666477 -0.47378125342462168 0 -0.22082222785412359 -0.46699885743698633 0 -0.21809683822627871 -0.45076981829590179 0 -0.2084636109711594 -0.46092062539408579 0 -0.21809683822627871 -0.45076981829590179 0 -0.2084636109711594 -0.46092062539408579 0 -0.202515319805365 -0.44999154432616789 0 -0.2084636109711594 -0.46092062539408579 0 -0.19583409130355281 -0.46306165348675121 0 -0.205049577666477 -0.47378125342462168 0 -0.19583409130355281 -0.46306165348675121 0 -0.19177648112505519 -0.47387740783992222 0 -0.18119602741982721 -0.46499314041059159 0 -0.19583409130355281 -0.46306165348675121 0 -0.202515319805365 -0.44999154432616789 0 -0.18693718246977231 -0.45177651494198268 0 -0.19583409130355281 -0.46306165348675121 0 -0.18119602741982721 -0.46499314041059159 0 -0.18693718246977231 -0.45177651494198268 0 -0.2084636109711594 -0.46092062539408579 0 -0.19583409130355281 -0.46306165348675121 0 -0.202515319805365 -0.44999154432616789 0 -0.202515319805365 -0.44999154432616789 0 -0.1914778132791552 -0.43837241461228482 0 -0.2134587154960004 -0.43392920486652131 0 -0.202515319805365 -0.44999154432616789 0 -0.1914778132791552 -0.43837241461228482 0 -0.18693718246977231 -0.45177651494198268 0 -0.22595318513523219 -0.49526117844858442 0 -0.21602145899079581 -0.48097186682499299 0 -0.20101900550617299 -0.48769765710746138 0 -0.22595318513523219 -0.49526117844858442 0 -0.20101900550617299 -0.48769765710746138 0 -0.22595318513523219 -0.49526117844858442 0 -0.21054090394804981 -0.5 0 -0.20101900550617299 -0.48769765710746138 0 -0.22082222785412359 -0.46699885743698633 0 -0.21602145899079581 -0.48097186682499299 0 -0.205049577666477 -0.47378125342462168 0 -0.21602145899079581 -0.48097186682499299 0 -0.205049577666477 -0.47378125342462168 0 -0.20101900550617299 -0.48769765710746138 0 -0.19177648112505519 -0.47387740783992222 0 -0.20101900550617299 -0.48769765710746138 0 -0.17608482587711391 -0.48013413576633851 0 -0.20101900550617299 -0.48769765710746138 0 -0.17608482587711391 -0.48013413576633851 0 -0.205049577666477 -0.47378125342462168 0 -0.19177648112505519 -0.47387740783992222 0 -0.20101900550617299 -0.48769765710746138 0 -0.19583409130355281 -0.46306165348675121 0 -0.205049577666477 -0.47378125342462168 0 -0.19177648112505519 -0.47387740783992222 0 -0.21054090394804981 -0.5 0 -0.20101900550617299 -0.48769765710746138 0 -0.1808282534262097 -0.5 0 -0.20101900550617299 -0.48769765710746138 0 -0.1808282534262097 -0.5 0 -0.17608482587711391 -0.48013413576633851 0 -0.1808282534262097 -0.5 0 -0.16095295929919889 -0.48552831894672532 0 -0.17608482587711391 -0.48013413576633851 0 -0.1808282534262097 -0.5 0 -0.16095295929919889 -0.48552831894672532 0 -0.15111560290436959 -0.5 0 -0.17608482587711391 -0.48013413576633851 0 -0.1667608212017769 -0.46555587399297371 0 -0.15115064624805469 -0.47257061442521547 0 -0.17608482587711391 -0.48013413576633851 0 -0.15115064624805469 -0.47257061442521547 0 -0.16095295929919889 -0.48552831894672532 0 -0.17608482587711391 -0.48013413576633851 0 -0.15115064624805469 -0.47257061442521547 0 -0.17608482587711391 -0.48013413576633851 0 -0.18119602741982721 -0.46499314041059159 0 -0.1667608212017769 -0.46555587399297371 0 -0.19177648112505519 -0.47387740783992222 0 -0.17608482587711391 -0.48013413576633851 0 -0.18119602741982721 -0.46499314041059159 0 -0.18119602741982721 -0.46499314041059159 0 -0.18693718246977231 -0.45177651494198268 0 -0.16984154297353199 -0.45215409417312491 0 -0.18119602741982721 -0.46499314041059159 0 -0.16984154297353199 -0.45215409417312491 0 -0.1667608212017769 -0.46555587399297371 0 -0.17925476857811951 -0.44041668993284883 0 -0.16984154297353199 -0.45215409417312491 0 -0.16813012458603641 -0.43271608857928678 0 -0.18693718246977231 -0.45177651494198268 0 -0.17925476857811951 -0.44041668993284883 0 -0.16984154297353199 -0.45215409417312491 0 -0.1914778132791552 -0.43837241461228482 0 -0.18693718246977231 -0.45177651494198268 0 -0.17925476857811951 -0.44041668993284883 0 -0.15662962182168991 -0.43779485418814013 0 -0.16984154297353199 -0.45215409417312491 0 -0.15553106349035681 -0.45792738518959769 0 -0.15662962182168991 -0.43779485418814013 0 -0.16984154297353199 -0.45215409417312491 0 -0.16813012458603641 -0.43271608857928678 0 -0.16984154297353199 -0.45215409417312491 0 -0.1667608212017769 -0.46555587399297371 0 -0.15553106349035681 -0.45792738518959769 0 -0.1667608212017769 -0.46555587399297371 0 -0.15553106349035681 -0.45792738518959769 0 -0.15115064624805469 -0.47257061442521547 0 -0.15553106349035681 -0.45792738518959769 0 -0.1442419696923628 -0.46105656766557163 0 -0.15115064624805469 -0.47257061442521547 0 -0.15553106349035681 -0.45792738518959769 0 -0.1442419696923628 -0.46105656766557163 0 -0.14406970241204101 -0.44872117796338767 0 -0.15662962182168991 -0.43779485418814013 0 -0.15553106349035681 -0.45792738518959769 0 -0.14406970241204101 -0.44872117796338767 0 -0.14406970241204101 -0.44872117796338767 0 -0.12968308686813451 -0.43980573006081197 0 -0.1262164666189976 -0.46500709308408522 0 -0.12968308686813451 -0.43980573006081197 0 -0.1262164666189976 -0.46500709308408522 0 -0.1442419696923628 -0.46105656766557163 0 -0.14406970241204101 -0.44872117796338767 0 -0.1262164666189976 -0.46500709308408522 0 -0.1442419696923628 -0.46105656766557163 0 -0.1262164666189976 -0.46500709308408522 0 -0.15115064624805469 -0.47257061442521547 0 -0.1262164666189976 -0.46500709308408522 0 -0.125215324738535 -0.47228511552500119 0 -0.1262164666189976 -0.46500709308408522 0 -0.125215324738535 -0.47228511552500119 0 -0.13323046542304959 -0.47797595886654493 0 -0.125215324738535 -0.47228511552500119 0 -0.13323046542304959 -0.47797595886654493 0 -0.1262164666189976 -0.46500709308408522 0 -0.13323046542304959 -0.47797595886654493 0 -0.15115064624805469 -0.47257061442521547 0 -0.1262164666189976 -0.46500709308408522 0 -0.15115064624805469 -0.47257061442521547 0 -0.125215324738535 -0.47228511552500119 0 -0.13323046542304959 -0.47797595886654493 0 -0.1214029523825295 -0.50000000000001799 0 -0.15111560290436959 -0.5 0 -0.14359849502918631 -0.48704454349620319 0 -0.1214029523825295 -0.50000000000001799 0 -0.13323046542304959 -0.47797595886654493 0 -0.14359849502918631 -0.48704454349620319 0 -0.1214029523825295 -0.50000000000001799 0 -0.16095295929919889 -0.48552831894672532 0 -0.15111560290436959 -0.5 0 -0.14359849502918631 -0.48704454349620319 0 -0.13323046542304959 -0.47797595886654493 0 -0.14359849502918631 -0.48704454349620319 0 -0.15115064624805469 -0.47257061442521547 0 -0.16095295929919889 -0.48552831894672532 0 -0.14359849502918631 -0.48704454349620319 0 -0.15115064624805469 -0.47257061442521547 0 -0.15108420573096579 -0.39320302287547348 0 -0.14559373452583549 -0.3780629033030618 0 -0.15459145739042829 -0.36544394533151642 0 -0.14559373452583549 -0.3780629033030618 0 -0.136616327366406 -0.38940300401426542 0 -0.1400829476155418 -0.36420164099099189 0 -0.15108420573096579 -0.39320302287547348 0 -0.15459145739042829 -0.36544394533151642 0 -0.15108420573096579 -0.39320302287547348 0 -0.14559373452583549 -0.3780629033030618 0 -0.136616327366406 -0.38940300401426542 0 -0.136616327366406 -0.38940300401426542 0 -0.12354017240737181 -0.37313133386911829 0 -0.1200190036265157 -0.39157850375754072 0 -0.136616327366406 -0.38940300401426542 0 -0.1400829476155418 -0.36420164099099189 0 -0.12354017240737181 -0.37313133386911829 0 -0.136616327366406 -0.38940300401426542 0 -0.1400829476155418 -0.36420164099099189 0 -0.15108420573096579 -0.39320302287547348 0 -0.136616327366406 -0.38940300401426542 0 -0.13314970711727031 -0.41460436703753872 0 -0.136616327366406 -0.38940300401426542 0 -0.13314970711727031 -0.41460436703753872 0 -0.136616327366406 -0.38940300401426542 0 -0.13314970711727031 -0.41460436703753872 0 -0.1200190036265157 -0.39157850375754072 0 -0.12968308686813451 -0.43980573006081197 0 -0.13314970711727031 -0.41460436703753872 0 -0.1475769540715034 -0.42096210041943061 0 -0.12968308686813451 -0.43980573006081197 0 -0.13314970711727031 -0.41460436703753872 0 -0.14406970241204101 -0.44872117796338767 0 -0.12968308686813451 -0.43980573006081197 0 -0.1475769540715034 -0.42096210041943061 0 -0.12968308686813451 -0.43980573006081197 0 -0.13314970711727031 -0.41460436703753872 0 -0.1175061369569224 -0.42073635583615671 0 -0.15662962182168991 -0.43779485418814013 0 -0.14406970241204101 -0.44872117796338767 0 -0.1475769540715034 -0.42096210041943061 0 -0.14406970241204101 -0.44872117796338767 0 -0.1475769540715034 -0.42096210041943061 0 -0.15108420573096579 -0.39320302287547348 0 -0.1475769540715034 -0.42096210041943061 0 -0.15108420573096579 -0.39320302287547348 0 -0.13314970711727031 -0.41460436703753872 0 -0.1475769540715034 -0.42096210041943061 0 -0.15108420573096579 -0.39320302287547348 0 -0.1475769540715034 -0.42096210041943061 0 -0.16085039360750791 -0.40710429437442519 0 -0.1475769540715034 -0.42096210041943061 0 -0.16085039360750791 -0.40710429437442519 0 -0.1648575644466185 -0.42063316343187351 0 -0.16085039360750791 -0.40710429437442519 0 -0.1648575644466185 -0.42063316343187351 0 -0.1740348484702165 -0.41020385005471849 0 -0.15662962182168991 -0.43779485418814013 0 -0.1648575644466185 -0.42063316343187351 0 -0.16813012458603641 -0.43271608857928678 0 -0.15662962182168991 -0.43779485418814013 0 -0.1475769540715034 -0.42096210041943061 0 -0.1648575644466185 -0.42063316343187351 0 -0.1648575644466185 -0.42063316343187351 0 -0.16813012458603641 -0.43271608857928678 0 -0.18305459034535401 -0.42410343959063329 0 -0.17925476857811951 -0.44041668993284883 0 -0.16813012458603641 -0.43271608857928678 0 -0.18305459034535401 -0.42410343959063329 0 -0.1914778132791552 -0.43837241461228482 0 -0.17925476857811951 -0.44041668993284883 0 -0.18305459034535401 -0.42410343959063329 0 -0.1648575644466185 -0.42063316343187351 0 -0.18305459034535401 -0.42410343959063329 0 -0.1740348484702165 -0.41020385005471849 0 -0.18305459034535401 -0.42410343959063329 0 -0.1740348484702165 -0.41020385005471849 0 -0.1852705800765265 -0.40965478621034512 0 -0.1740348484702165 -0.41020385005471849 0 -0.1852705800765265 -0.40965478621034512 0 -0.18318654133782361 -0.39862871508869668 0 -0.18318654133782361 -0.39862871508869668 0 -0.18305989870720049 -0.38755768967558551 0 -0.19562149244704929 -0.39150152590126802 0 -0.18318654133782361 -0.39862871508869668 0 -0.17258243844231461 -0.39963845850886942 0 -0.17244332533272549 -0.3896197956996213 0 -0.18318654133782361 -0.39862871508869668 0 -0.17244332533272549 -0.3896197956996213 0 -0.18305989870720049 -0.38755768967558551 0 -0.1740348484702165 -0.41020385005471849 0 -0.18318654133782361 -0.39862871508869668 0 -0.17258243844231461 -0.39963845850886942 0 -0.16085039360750791 -0.40710429437442519 0 -0.17258243844231461 -0.39963845850886942 0 -0.16380810085492989 -0.39488036322449188 0 -0.16085039360750791 -0.40710429437442519 0 -0.1740348484702165 -0.41020385005471849 0 -0.17258243844231461 -0.39963845850886942 0 -0.17258243844231461 -0.39963845850886942 0 -0.16380810085492989 -0.39488036322449188 0 -0.17244332533272549 -0.3896197956996213 0 -0.15108420573096579 -0.39320302287547348 0 -0.16085039360750791 -0.40710429437442519 0 -0.16380810085492989 -0.39488036322449188 0 -0.15108420573096579 -0.39320302287547348 0 -0.16465104402462899 -0.38049410113716642 0 -0.15459145739042829 -0.36544394533151642 0 -0.15108420573096579 -0.39320302287547348 0 -0.16380810085492989 -0.39488036322449188 0 -0.16465104402462899 -0.38049410113716642 0 -0.16465104402462899 -0.38049410113716642 0 -0.17622660655668329 -0.37974183800052808 0 -0.17244332533272549 -0.3896197956996213 0 -0.16380810085492989 -0.39488036322449188 0 -0.16465104402462899 -0.38049410113716642 0 -0.17244332533272549 -0.3896197956996213 0 -0.17622660655668329 -0.37974183800052808 0 -0.17244332533272549 -0.3896197956996213 0 -0.18305989870720049 -0.38755768967558551 0 -0.17622660655668329 -0.37974183800052808 0 -0.18305989870720049 -0.38755768967558551 0 -0.19014306516209001 -0.3790441764008789 0 -0.19014306516209001 -0.3790441764008789 0 -0.20918419942562219 -0.39600919145628388 0 -0.19014306516209001 -0.3790441764008789 0 -0.19562149244704929 -0.39150152590126802 0 -0.20918419942562219 -0.39600919145628388 0 -0.19014306516209001 -0.3790441764008789 0 -0.20918419942562219 -0.39600919145628388 0 -0.20455055984192441 -0.38010430057236011 0 -0.19014306516209001 -0.3790441764008789 0 -0.20455055984192441 -0.38010430057236011 0 -0.1988457493992043 -0.36740609137735292 0 -0.18305989870720049 -0.38755768967558551 0 -0.19014306516209001 -0.3790441764008789 0 -0.19562149244704929 -0.39150152590126802 0 -0.18318654133782361 -0.39862871508869668 0 -0.19721819708667501 -0.40289379140332449 0 -0.19562149244704929 -0.39150152590126802 0 -0.1852705800765265 -0.40965478621034512 0 -0.18318654133782361 -0.39862871508869668 0 -0.19721819708667501 -0.40289379140332449 0 -0.19562149244704929 -0.39150152590126802 0 -0.20918419942562219 -0.39600919145628388 0 -0.19721819708667501 -0.40289379140332449 0 -0.19562149244704929 -0.39150152590126802 0 -0.20918419942562219 -0.39600919145628388 0 -0.19721819708667501 -0.40289379140332449 0 -0.20918419942562219 -0.39600919145628388 0 -0.20860206436924991 -0.40942225232644669 0 -0.20918419942562219 -0.39600919145628388 0 -0.20860206436924991 -0.40942225232644669 0 -0.2218593227189635 -0.40730230322812089 0 -0.20918419942562219 -0.39600919145628388 0 -0.2218593227189635 -0.40730230322812089 0 -0.20918419942562219 -0.39600919145628388 0 -0.21235453904041449 -0.3846342199611425 0 -0.22396526125645369 -0.38563991531635211 0 -0.20918419942562219 -0.39600919145628388 0 -0.21235453904041449 -0.3846342199611425 0 -0.20455055984192441 -0.38010430057236011 0 -0.21235453904041449 -0.3846342199611425 0 -0.22396526125645369 -0.38563991531635211 0 -0.21222524618229069 -0.3734278236661423 0 -0.21235453904041449 -0.3846342199611425 0 -0.20455055984192441 -0.38010430057236011 0 -0.21222524618229069 -0.3734278236661423 0 -0.1914778132791552 -0.43837241461228482 0 -0.18305459034535401 -0.42410343959063329 0 -0.2021618479483123 -0.42348363642938291 0 -0.1914778132791552 -0.43837241461228482 0 -0.2021618479483123 -0.42348363642938291 0 -0.2134587154960004 -0.43392920486652131 0 -0.1914778132791552 -0.43837241461228482 0 -0.2134587154960004 -0.43392920486652131 0 -0.18305459034535401 -0.42410343959063329 0 -0.2021618479483123 -0.42348363642938291 0 -0.1958253285185553 -0.41354585562115531 0 -0.2021618479483123 -0.42348363642938291 0 -0.1958253285185553 -0.41354585562115531 0 -0.20860206436924991 -0.40942225232644669 0 -0.18305459034535401 -0.42410343959063329 0 -0.1852705800765265 -0.40965478621034512 0 -0.1958253285185553 -0.41354585562115531 0 -0.1852705800765265 -0.40965478621034512 0 -0.19721819708667501 -0.40289379140332449 0 -0.1958253285185553 -0.41354585562115531 0 -0.19721819708667501 -0.40289379140332449 0 -0.1958253285185553 -0.41354585562115531 0 -0.20860206436924991 -0.40942225232644669 0 -0.2021618479483123 -0.42348363642938291 0 -0.20860206436924991 -0.40942225232644669 0 -0.2205525756815592 -0.42152865155925628 0 -0.20860206436924991 -0.40942225232644669 0 -0.2205525756815592 -0.42152865155925628 0 -0.2218593227189635 -0.40730230322812089 0 -0.2021618479483123 -0.42348363642938291 0 -0.2134587154960004 -0.43392920486652131 0 -0.2205525756815592 -0.42152865155925628 0 -0.23279382651643851 -0.44227035402668469 0 -0.2134587154960004 -0.43392920486652131 0 -0.23543961771284561 -0.42948599512075769 0 -0.2134587154960004 -0.43392920486652131 0 -0.2205525756815592 -0.42152865155925628 0 -0.23543961771284561 -0.42948599512075769 0 -0.2134587154960004 -0.43392920486652131 0 -0.23543961771284561 -0.42948599512075769 0 -0.2205525756815592 -0.42152865155925628 0 -0.23453444601230439 -0.41859541499995839 0 -0.23543961771284561 -0.42948599512075769 0 -0.2205525756815592 -0.42152865155925628 0 -0.2218593227189635 -0.40730230322812089 0 -0.23453444601230439 -0.41859541499995839 0 -0.2218593227189635 -0.40730230322812089 0 -0.23453444601230439 -0.41859541499995839 0 -0.2218593227189635 -0.40730230322812089 0 -0.23619570383295921 -0.41080058208455489 0 -0.23453444601230439 -0.41859541499995839 0 -0.2218593227189635 -0.40730230322812089 0 -0.23619570383295921 -0.41080058208455489 0 -0.2301386257760582 -0.40297354938528879 0 -0.25109305212649419 -0.40993790731429341 0 -0.2301386257760582 -0.40297354938528879 0 -0.25109305212649419 -0.40993790731429341 0 -0.23619570383295921 -0.41080058208455489 0 -0.2301386257760582 -0.40297354938528879 0 -0.25109305212649419 -0.40993790731429341 0 -0.23619570383295921 -0.41080058208455489 0 -0.2433530725309756 -0.41519373549511318 0 -0.2524429019861385 -0.41825018649880258 0 -0.2433530725309756 -0.41519373549511318 0 -0.24452795042479381 -0.42112381624322442 0 -0.25109305212649419 -0.40993790731429341 0 -0.2524429019861385 -0.41825018649880258 0 -0.2433530725309756 -0.41519373549511318 0 -0.2433530725309756 -0.41519373549511318 0 -0.24452795042479381 -0.42112381624322442 0 -0.23453444601230439 -0.41859541499995839 0 -0.23619570383295921 -0.41080058208455489 0 -0.2433530725309756 -0.41519373549511318 0 -0.23453444601230439 -0.41859541499995839 0 -0.25742051992969078 -0.42504278537499429 0 -0.24452795042479381 -0.42112381624322442 0 -0.23543961771284561 -0.42948599512075769 0 -0.25197813267442171 -0.42700253714732772 0 -0.25742051992969078 -0.42504278537499429 0 -0.23543961771284561 -0.42948599512075769 0 -0.25742051992969078 -0.42504278537499429 0 -0.23543961771284561 -0.42948599512075769 0 -0.25197813267442171 -0.42700253714732772 0 -0.23543961771284561 -0.42948599512075769 0 -0.24355154952949179 -0.43508496178659778 0 -0.24452795042479381 -0.42112381624322442 0 -0.23453444601230439 -0.41859541499995839 0 -0.23543961771284561 -0.42948599512075769 0 -0.25116971564846252 -0.43460217329565831 0 -0.24621421255866971 -0.44270785729789203 0 -0.24355154952949179 -0.43508496178659778 0 -0.25197813267442171 -0.42700253714732772 0 -0.25116971564846252 -0.43460217329565831 0 -0.24355154952949179 -0.43508496178659778 0 -0.23279382651643851 -0.44227035402668469 0 -0.23543961771284561 -0.42948599512075769 0 -0.24355154952949179 -0.43508496178659778 0 -0.22396526125645369 -0.38563991531635211 0 -0.23368847385038971 -0.39225889911448142 0 -0.24330094490370491 -0.37758715578424529 0 -0.22396526125645369 -0.38563991531635211 0 -0.24330094490370491 -0.37758715578424529 0 -0.22668076064216899 -0.37225731383213639 0 -0.22396526125645369 -0.38563991531635211 0 -0.22668076064216899 -0.37225731383213639 0 -0.21222524618229069 -0.3734278236661423 0 -0.20918419942562219 -0.39600919145628388 0 -0.2218593227189635 -0.40730230322812089 0 -0.2301386257760582 -0.40297354938528879 0 -0.22396526125645369 -0.38563991531635211 0 -0.2301386257760582 -0.40297354938528879 0 -0.23368847385038971 -0.39225889911448142 0 -0.20918419942562219 -0.39600919145628388 0 -0.22396526125645369 -0.38563991531635211 0 -0.2301386257760582 -0.40297354938528879 0 -0.20918419942562219 -0.39600919145628388 0 -0.2301386257760582 -0.40297354938528879 0 -0.2301386257760582 -0.40297354938528879 0 -0.23368847385038971 -0.39225889911448142 0 -0.2434516529263086 -0.39792330430020739 0 -0.25109305212649419 -0.40993790731429341 0 -0.2301386257760582 -0.40297354938528879 0 -0.2434516529263086 -0.39792330430020739 0 -0.2576742116903179 -0.39724471051377119 0 -0.2434516529263086 -0.39792330430020739 0 -0.24330094490370491 -0.37758715578424529 0 -0.23368847385038971 -0.39225889911448142 0 -0.2434516529263086 -0.39792330430020739 0 -0.24330094490370491 -0.37758715578424529 0 -0.24330094490370491 -0.37758715578424529 0 -0.22892767811709189 -0.35792960105471938 0 -0.25567611928539491 -0.360015727871354 0 -0.24330094490370491 -0.37758715578424529 0 -0.22892767811709189 -0.35792960105471938 0 -0.22668076064216899 -0.37225731383213639 0 -0.22892767811709189 -0.35792960105471938 0 -0.21112454320659599 -0.35718289339346088 0 -0.24330094490370491 -0.37758715578424529 0 -0.22668076064216899 -0.37225731383213639 0 -0.22892767811709189 -0.35792960105471938 0 -0.22892767811709189 -0.35792960105471938 0 -0.21455441133047881 -0.33827204632519342 0 -0.25567611928539491 -0.360015727871354 0 -0.22892767811709189 -0.35792960105471938 0 -0.2475774867555009 -0.34164320394308861 0 -0.22892767811709189 -0.35792960105471938 0 -0.2475774867555009 -0.34164320394308861 0 -0.23182564493982549 -0.33129132133704109 0 -0.2475774867555009 -0.34164320394308861 0 -0.24749233914880131 -0.32573633236841087 0 -0.23182564493982549 -0.33129132133704109 0 -0.25837751833345662 -0.31347325195578862 0 -0.24008269080971931 -0.31544236024077932 0 -0.24749233914880131 -0.32573633236841087 0 -0.24008269080971931 -0.31544236024077932 0 -0.24749233914880131 -0.32573633236841087 0 -0.23182564493982549 -0.33129132133704109 0 -0.24008269080971931 -0.31544236024077932 0 -0.21994568049785129 -0.31677254139140171 0 -0.23182564493982549 -0.33129132133704109 0 -0.21994568049785129 -0.31677254139140171 0 -0.23182564493982549 -0.33129132133704109 0 -0.21455441133047881 -0.33827204632519342 0 -0.22892767811709189 -0.35792960105471938 0 -0.23182564493982549 -0.33129132133704109 0 -0.21455441133047881 -0.33827204632519342 0 -0.21455441133047881 -0.33827204632519342 0 -0.20212621451851781 -0.3229031153826567 0 -0.1976888455752506 -0.33643643187041589 0 -0.21994568049785129 -0.31677254139140171 0 -0.20212621451851781 -0.3229031153826567 0 -0.20013272142443581 -0.3074689068554603 0 -0.21994568049785129 -0.31677254139140171 0 -0.21455441133047881 -0.33827204632519342 0 -0.20212621451851781 -0.3229031153826567 0 -0.20212621451851781 -0.3229031153826567 0 -0.18948798945719941 -0.317231175593853 0 -0.20013272142443581 -0.3074689068554603 0 -0.20212621451851781 -0.3229031153826567 0 -0.18948798945719941 -0.317231175593853 0 -0.1866560110662849 -0.32816962803759331 0 -0.1976888455752506 -0.33643643187041589 0 -0.1918314286057867 -0.35260898220344378 0 -0.18468197500345021 -0.34047905318975707 0 -0.20212621451851781 -0.3229031153826567 0 -0.1976888455752506 -0.33643643187041589 0 -0.1866560110662849 -0.32816962803759331 0 -0.1976888455752506 -0.33643643187041589 0 -0.18468197500345021 -0.34047905318975707 0 -0.1866560110662849 -0.32816962803759331 0 -0.1918314286057867 -0.35260898220344378 0 -0.1988457493992043 -0.36740609137735292 0 -0.21112454320659599 -0.35718289339346088 0 -0.1976888455752506 -0.33643643187041589 0 -0.1918314286057867 -0.35260898220344378 0 -0.21112454320659599 -0.35718289339346088 0 -0.1918314286057867 -0.35260898220344378 0 -0.1988457493992043 -0.36740609137735292 0 -0.18579862454122831 -0.36247788882758658 0 -0.19014306516209001 -0.3790441764008789 0 -0.1988457493992043 -0.36740609137735292 0 -0.18579862454122831 -0.36247788882758658 0 -0.1988457493992043 -0.36740609137735292 0 -0.21222524618229069 -0.3734278236661423 0 -0.21112454320659599 -0.35718289339346088 0 -0.22668076064216899 -0.37225731383213639 0 -0.21222524618229069 -0.3734278236661423 0 -0.21112454320659599 -0.35718289339346088 0 -0.20455055984192441 -0.38010430057236011 0 -0.1988457493992043 -0.36740609137735292 0 -0.21222524618229069 -0.3734278236661423 0 -0.22892767811709189 -0.35792960105471938 0 -0.21455441133047881 -0.33827204632519342 0 -0.21112454320659599 -0.35718289339346088 0 -0.21455441133047881 -0.33827204632519342 0 -0.1976888455752506 -0.33643643187041589 0 -0.21112454320659599 -0.35718289339346088 0 -0.2262781706312966 -0.25694872413044523 0 -0.22880046871826021 -0.26988716217053421 0 -0.2122898985161423 -0.25490922675953331 0 -0.2262781706312966 -0.25694872413044523 0 -0.22880046871826021 -0.26988716217053421 0 -0.2262781706312966 -0.25694872413044523 0 -0.23563854950404581 -0.26777504202487962 0 -0.2262781706312966 -0.25694872413044523 0 -0.2393493786546918 -0.25469325497439688 0 -0.23563854950404581 -0.26777504202487962 0 -0.2262781706312966 -0.25694872413044523 0 -0.23563854950404581 -0.26777504202487962 0 -0.22880046871826021 -0.26988716217053421 0 -0.2262781706312966 -0.25694872413044523 0 -0.2393493786546918 -0.25469325497439688 0 -0.23914424273147569 -0.2443690931651924 0 -0.23563854950404581 -0.26777504202487962 0 -0.23938939996446321 -0.27211331721768572 0 -0.25633655175195141 -0.24968016057706971 0 -0.23563854950404581 -0.26777504202487962 0 -0.25633655175195141 -0.24968016057706971 0 -0.2393493786546918 -0.25469325497439688 0 -0.23563854950404581 -0.26777504202487962 0 -0.25633655175195141 -0.24968016057706971 0 -0.23563854950404581 -0.26777504202487962 0 -0.23938939996446321 -0.27211331721768572 0 -0.23938939996446321 -0.27211331721768572 0 -0.23236531295661231 -0.27063661419822288 0 -0.23563854950404581 -0.26777504202487962 0 -0.23938939996446321 -0.27211331721768572 0 -0.23236531295661231 -0.27063661419822288 0 -0.23938939996446321 -0.27211331721768572 0 -0.2313722855073487 -0.28089257775467091 0 -0.2399214861778369 -0.28599833990026557 0 -0.23938939996446321 -0.27211331721768572 0 -0.2313722855073487 -0.28089257775467091 0 -0.23236531295661231 -0.27063661419822288 0 -0.23236531295661231 -0.27063661419822288 0 -0.22922907107317389 -0.27208573062741648 0 -0.2144597954731903 -0.28629021265876731 0 -0.2313722855073487 -0.28089257775467091 0 -0.23236531295661231 -0.27063661419822288 0 -0.2144597954731903 -0.28629021265876731 0 -0.23236531295661231 -0.27063661419822288 0 -0.2144597954731903 -0.28629021265876731 0 -0.23236531295661231 -0.27063661419822288 0 -0.22880046871826021 -0.26988716217053421 0 -0.23563854950404581 -0.26777504202487962 0 -0.23236531295661231 -0.27063661419822288 0 -0.22880046871826021 -0.26988716217053421 0 -0.23563854950404581 -0.26777504202487962 0 -0.23236531295661231 -0.27063661419822288 0 -0.23236531295661231 -0.27063661419822288 0 -0.22922907107317389 -0.27208573062741648 0 -0.22880046871826021 -0.26988716217053421 0 -0.22922907107317389 -0.27208573062741648 0 -0.22880046871826021 -0.26988716217053421 0 -0.22922907107317389 -0.27208573062741648 0 -0.22880046871826021 -0.26988716217053421 0 -0.21633406366325361 -0.27345850067419769 0 -0.22922907107317389 -0.27208573062741648 0 -0.2144597954731903 -0.28629021265876731 0 -0.21633406366325361 -0.27345850067419769 0 -0.2306659374310481 -0.29091153336148129 0 -0.21632569122957801 -0.30033208628897839 0 -0.2144597954731903 -0.28629021265876731 0 -0.2313722855073487 -0.28089257775467091 0 -0.2306659374310481 -0.29091153336148129 0 -0.2144597954731903 -0.28629021265876731 0 -0.2313722855073487 -0.28089257775467091 0 -0.2306659374310481 -0.29091153336148129 0 -0.2399214861778369 -0.28599833990026557 0 -0.25623285980846072 -0.29159464945779051 0 -0.23938939996446321 -0.27211331721768572 0 -0.2399214861778369 -0.28599833990026557 0 -0.25623285980846072 -0.29159464945779051 0 -0.2399214861778369 -0.28599833990026557 0 -0.24194694817786391 -0.29447962170970099 0 -0.25623285980846072 -0.29159464945779051 0 -0.23938939996446321 -0.27211331721768572 0 -0.25623285980846072 -0.29159464945779051 0 -0.24194694817786391 -0.29447962170970099 0 -0.24936687953946449 -0.3028130127809735 0 -0.2306659374310481 -0.29091153336148129 0 -0.24194694817786391 -0.29447962170970099 0 -0.23348808239891661 -0.30256770161106039 0 -0.2306659374310481 -0.29091153336148129 0 -0.2399214861778369 -0.28599833990026557 0 -0.24194694817786391 -0.29447962170970099 0 -0.24194694817786391 -0.29447962170970099 0 -0.24936687953946449 -0.3028130127809735 0 -0.23348808239891661 -0.30256770161106039 0 -0.25837751833345662 -0.31347325195578862 0 -0.24008269080971931 -0.31544236024077932 0 -0.24936687953946449 -0.3028130127809735 0 -0.24008269080971931 -0.31544236024077932 0 -0.24936687953946449 -0.3028130127809735 0 -0.23348808239891661 -0.30256770161106039 0 -0.21994568049785129 -0.31677254139140171 0 -0.23348808239891661 -0.30256770161106039 0 -0.21632569122957801 -0.30033208628897839 0 -0.2306659374310481 -0.29091153336148129 0 -0.23348808239891661 -0.30256770161106039 0 -0.21632569122957801 -0.30033208628897839 0 -0.24008269080971931 -0.31544236024077932 0 -0.21994568049785129 -0.31677254139140171 0 -0.23348808239891661 -0.30256770161106039 0 -0.21994568049785129 -0.31677254139140171 0 -0.21632569122957801 -0.30033208628897839 0 -0.20013272142443581 -0.3074689068554603 0 -0.21632569122957801 -0.30033208628897839 0 -0.20013272142443581 -0.3074689068554603 0 -0.19584902105325969 -0.2944908909540046 0 -0.20013272142443581 -0.3074689068554603 0 -0.19584902105325969 -0.2944908909540046 0 -0.18292284544075349 -0.30732841294412711 0 -0.18948798945719941 -0.317231175593853 0 -0.20013272142443581 -0.3074689068554603 0 -0.18292284544075349 -0.30732841294412711 0 -0.19584902105325969 -0.2944908909540046 0 -0.2144597954731903 -0.28629021265876731 0 -0.19486940049009749 -0.2803430166044163 0 -0.19584902105325969 -0.2944908909540046 0 -0.19486940049009749 -0.2803430166044163 0 -0.18525115420299659 -0.28749720218160463 0 -0.21632569122957801 -0.30033208628897839 0 -0.19584902105325969 -0.2944908909540046 0 -0.2144597954731903 -0.28629021265876731 0 -0.22880046871826021 -0.26988716217053421 0 -0.21633406366325361 -0.27345850067419769 0 -0.20161032103075691 -0.2641708643591793 0 -0.22880046871826021 -0.26988716217053421 0 -0.20161032103075691 -0.2641708643591793 0 -0.2144597954731903 -0.28629021265876731 0 -0.2054307749105419 -0.27408605284224158 0 -0.19486940049009749 -0.2803430166044163 0 -0.2144597954731903 -0.28629021265876731 0 -0.21633406366325361 -0.27345850067419769 0 -0.2054307749105419 -0.27408605284224158 0 -0.21633406366325361 -0.27345850067419769 0 -0.2054307749105419 -0.27408605284224158 0 -0.20161032103075691 -0.2641708643591793 0 -0.2054307749105419 -0.27408605284224158 0 -0.19486940049009749 -0.2803430166044163 0 -0.19695287432767089 -0.27249231882188402 0 -0.19695287432767089 -0.27249231882188402 0 -0.20161032103075691 -0.2641708643591793 0 -0.18590100087928749 -0.27136934148169872 0 -0.19486940049009749 -0.2803430166044163 0 -0.19695287432767089 -0.27249231882188402 0 -0.18590100087928749 -0.27136934148169872 0 -0.2054307749105419 -0.27408605284224158 0 -0.19695287432767089 -0.27249231882188402 0 -0.20161032103075691 -0.2641708643591793 0 -0.20161032103075691 -0.2641708643591793 0 -0.19476493527325819 -0.25936091702199632 0 -0.2122898985161423 -0.25490922675953331 0 -0.20161032103075691 -0.2641708643591793 0 -0.19476493527325819 -0.25936091702199632 0 -0.1744201733432538 -0.25845456654782362 0 -0.19476493527325819 -0.25936091702199632 0 -0.19196627711766559 -0.24868088879022979 0 -0.19909052487695861 -0.242132382142454 0 -0.20161032103075691 -0.2641708643591793 0 -0.1744201733432538 -0.25845456654782362 0 -0.19476493527325819 -0.25936091702199632 0 -0.1851647614308066 -0.25125861257519921 0 -0.19196627711766559 -0.24868088879022979 0 -0.22880046871826021 -0.26988716217053421 0 -0.20161032103075691 -0.2641708643591793 0 -0.2122898985161423 -0.25490922675953331 0 -0.19476493527325819 -0.25936091702199632 0 -0.2122898985161423 -0.25490922675953331 0 -0.21229277179239081 -0.2407730569091879 0 -0.19476493527325819 -0.25936091702199632 0 -0.21229277179239081 -0.2407730569091879 0 -0.2262781706312966 -0.25694872413044523 0 -0.2122898985161423 -0.25490922675953331 0 -0.21229277179239081 -0.2407730569091879 0 -0.159219531005483 -0.26884666880024288 0 -0.15487598597578189 -0.25666037510628409 0 -0.1623302184605562 -0.24287034996170889 0 -0.159219531005483 -0.26884666880024288 0 -0.1623302184605562 -0.24287034996170889 0 -0.1744201733432538 -0.25845456654782362 0 -0.159219531005483 -0.26884666880024288 0 -0.1623302184605562 -0.24287034996170889 0 -0.1744201733432538 -0.25845456654782362 0 -0.1851647614308066 -0.25125861257519921 0 -0.17698627427966371 -0.2424323866290648 0 -0.19476493527325819 -0.25936091702199632 0 -0.1744201733432538 -0.25845456654782362 0 -0.1851647614308066 -0.25125861257519921 0 -0.20161032103075691 -0.2641708643591793 0 -0.1744201733432538 -0.25845456654782362 0 -0.18590100087928749 -0.27136934148169872 0 -0.1744201733432538 -0.25845456654782362 0 -0.18590100087928749 -0.27136934148169872 0 -0.1724504669798643 -0.27416692014702659 0 -0.19486940049009749 -0.2803430166044163 0 -0.18590100087928749 -0.27136934148169872 0 -0.18138213448428681 -0.27941208413604079 0 -0.18590100087928749 -0.27136934148169872 0 -0.18138213448428681 -0.27941208413604079 0 -0.1724504669798643 -0.27416692014702659 0 -0.18138213448428681 -0.27941208413604079 0 -0.1724504669798643 -0.27416692014702659 0 -0.1739252078825865 -0.28580720169257778 0 -0.1724504669798643 -0.27416692014702659 0 -0.163323543277092 -0.28117815457830969 0 -0.1739252078825865 -0.28580720169257778 0 -0.1744201733432538 -0.25845456654782362 0 -0.1724504669798643 -0.27416692014702659 0 -0.159219531005483 -0.26884666880024288 0 -0.159219531005483 -0.26884666880024288 0 -0.163323543277092 -0.28117815457830969 0 -0.15094608704479759 -0.28522964502536469 0 -0.1724504669798643 -0.27416692014702659 0 -0.159219531005483 -0.26884666880024288 0 -0.163323543277092 -0.28117815457830969 0 -0.16561650727488469 -0.2929768192898291 0 -0.16154455873088641 -0.31041177255884689 0 -0.15094608704479759 -0.28522964502536469 0 -0.163323543277092 -0.28117815457830969 0 -0.16561650727488469 -0.2929768192898291 0 -0.15094608704479759 -0.28522964502536469 0 -0.163323543277092 -0.28117815457830969 0 -0.16561650727488469 -0.2929768192898291 0 -0.1739252078825865 -0.28580720169257778 0 -0.19584902105325969 -0.2944908909540046 0 -0.18525115420299659 -0.28749720218160463 0 -0.17741401999034831 -0.29663577858268741 0 -0.19486940049009749 -0.2803430166044163 0 -0.18138213448428681 -0.27941208413604079 0 -0.18525115420299659 -0.28749720218160463 0 -0.18138213448428681 -0.27941208413604079 0 -0.1739252078825865 -0.28580720169257778 0 -0.18525115420299659 -0.28749720218160463 0 -0.1739252078825865 -0.28580720169257778 0 -0.18525115420299659 -0.28749720218160463 0 -0.17741401999034831 -0.29663577858268741 0 -0.16561650727488469 -0.2929768192898291 0 -0.1739252078825865 -0.28580720169257778 0 -0.17741401999034831 -0.29663577858268741 0 -0.17741401999034831 -0.29663577858268741 0 -0.18292284544075349 -0.30732841294412711 0 -0.16154455873088641 -0.31041177255884689 0 -0.19584902105325969 -0.2944908909540046 0 -0.17741401999034831 -0.29663577858268741 0 -0.18292284544075349 -0.30732841294412711 0 -0.16561650727488469 -0.2929768192898291 0 -0.17741401999034831 -0.29663577858268741 0 -0.16154455873088641 -0.31041177255884689 0 -0.16154455873088641 -0.31041177255884689 0 -0.15094608704479759 -0.28522964502536469 0 -0.14701618811382139 -0.31379891494444639 0 -0.13518423503312749 -0.28829772483091071 0 -0.14701618811382139 -0.31379891494444639 0 -0.15094608704479759 -0.28522964502536469 0 -0.14701618811382139 -0.31379891494444639 0 -0.13098110346399941 -0.30524561336809058 0 -0.13518423503312749 -0.28829772483091071 0 -0.14701618811382139 -0.31379891494444639 0 -0.13098110346399941 -0.30524561336809058 0 -0.13518423503312749 -0.28829772483091071 0 -0.11449122581316561 -0.29590201568704783 0 -0.13518423503312749 -0.28829772483091071 0 -0.15094608704479759 -0.28522964502536469 0 -0.14701618811382139 -0.31379891494444639 0 -0.15094608704479759 -0.28522964502536469 0 -0.15487598597578189 -0.25666037510628409 0 -0.13518423503312749 -0.28829772483091071 0 -0.15094608704479759 -0.28522964502536469 0 -0.14000372416302051 -0.27008057350313253 0 -0.159219531005483 -0.26884666880024288 0 -0.15094608704479759 -0.28522964502536469 0 -0.15487598597578189 -0.25666037510628409 0 -0.15094608704479759 -0.28522964502536469 0 -0.14000372416302051 -0.27008057350313253 0 -0.15487598597578189 -0.25666037510628409 0 -0.13518423503312749 -0.28829772483091071 0 -0.14000372416302051 -0.27008057350313253 0 -0.1233522819524247 -0.2627965347173789 0 -0.13518423503312749 -0.28829772483091071 0 -0.1233522819524247 -0.2627965347173789 0 -0.13518423503312749 -0.28829772483091071 0 -0.1233522819524247 -0.2627965347173789 0 -0.1165934306933134 -0.27667872469321259 0 -0.14000372416302051 -0.27008057350313253 0 -0.1233522819524247 -0.2627965347173789 0 -0.13685178126956929 -0.24996691480950431 0 -0.14000372416302051 -0.27008057350313253 0 -0.15487598597578189 -0.25666037510628409 0 -0.13685178126956929 -0.24996691480950431 0 -0.1580987090498901 -0.33768486778755918 0 -0.16052038332908181 -0.34290425766896881 0 -0.15459145739042829 -0.36544394533151642 0 -0.1580987090498901 -0.33768486778755918 0 -0.15459145739042829 -0.36544394533151642 0 -0.1661161616364317 -0.35302814846826491 0 -0.16052038332908181 -0.34290425766896881 0 -0.15459145739042829 -0.36544394533151642 0 -0.1661161616364317 -0.35302814846826491 0 -0.1711019308985573 -0.36207916134547419 0 -0.17677464793650541 -0.35045020405159638 0 -0.1661161616364317 -0.35302814846826491 0 -0.16808950944296391 -0.34399120600641991 0 -0.17677464793650541 -0.35045020405159638 0 -0.1661161616364317 -0.35302814846826491 0 -0.16808950944296391 -0.34399120600641991 0 -0.16052038332908181 -0.34290425766896881 0 -0.16465104402462899 -0.38049410113716642 0 -0.1711019308985573 -0.36207916134547419 0 -0.15459145739042829 -0.36544394533151642 0 -0.1661161616364317 -0.35302814846826491 0 -0.1711019308985573 -0.36207916134547419 0 -0.15459145739042829 -0.36544394533151642 0 -0.16465104402462899 -0.38049410113716642 0 -0.17622660655668329 -0.37974183800052808 0 -0.1711019308985573 -0.36207916134547419 0 -0.17622660655668329 -0.37974183800052808 0 -0.19014306516209001 -0.3790441764008789 0 -0.1711019308985573 -0.36207916134547419 0 -0.19014306516209001 -0.3790441764008789 0 -0.1711019308985573 -0.36207916134547419 0 -0.18579862454122831 -0.36247788882758658 0 -0.19014306516209001 -0.3790441764008789 0 -0.1711019308985573 -0.36207916134547419 0 -0.1918314286057867 -0.35260898220344378 0 -0.18579862454122831 -0.36247788882758658 0 -0.17677464793650541 -0.35045020405159638 0 -0.1711019308985573 -0.36207916134547419 0 -0.18579862454122831 -0.36247788882758658 0 -0.17677464793650541 -0.35045020405159638 0 -0.1918314286057867 -0.35260898220344378 0 -0.17677464793650541 -0.35045020405159638 0 -0.18468197500345021 -0.34047905318975707 0 -0.18468197500345021 -0.34047905318975707 0 -0.1866560110662849 -0.32816962803759331 0 -0.17364824219258251 -0.33497290120308287 0 -0.17677464793650541 -0.35045020405159638 0 -0.18468197500345021 -0.34047905318975707 0 -0.17364824219258251 -0.33497290120308287 0 -0.16808950944296391 -0.34399120600641991 0 -0.17677464793650541 -0.35045020405159638 0 -0.17364824219258251 -0.33497290120308287 0 -0.18292284544075349 -0.30732841294412711 0 -0.16154455873088641 -0.31041177255884689 0 -0.1756021548360048 -0.32028581474942752 0 -0.18948798945719941 -0.317231175593853 0 -0.18292284544075349 -0.30732841294412711 0 -0.1756021548360048 -0.32028581474942752 0 -0.18948798945719941 -0.317231175593853 0 -0.1866560110662849 -0.32816962803759331 0 -0.1756021548360048 -0.32028581474942752 0 -0.17364824219258251 -0.33497290120308287 0 -0.1756021548360048 -0.32028581474942752 0 -0.1669335913686795 -0.32813008576796571 0 -0.1866560110662849 -0.32816962803759331 0 -0.17364824219258251 -0.33497290120308287 0 -0.1756021548360048 -0.32028581474942752 0 -0.16154455873088641 -0.31041177255884689 0 -0.1669335913686795 -0.32813008576796571 0 -0.1580987090498901 -0.33768486778755918 0 -0.16154455873088641 -0.31041177255884689 0 -0.1580987090498901 -0.33768486778755918 0 -0.16154455873088641 -0.31041177255884689 0 -0.1756021548360048 -0.32028581474942752 0 -0.1669335913686795 -0.32813008576796571 0 -0.16808950944296391 -0.34399120600641991 0 -0.17364824219258251 -0.33497290120308287 0 -0.1657742920340336 -0.33729507254091212 0 -0.16808950944296391 -0.34399120600641991 0 -0.1657742920340336 -0.33729507254091212 0 -0.16052038332908181 -0.34290425766896881 0 -0.17364824219258251 -0.33497290120308287 0 -0.1657742920340336 -0.33729507254091212 0 -0.1669335913686795 -0.32813008576796571 0 -0.1657742920340336 -0.33729507254091212 0 -0.1669335913686795 -0.32813008576796571 0 -0.1580987090498901 -0.33768486778755918 0 -0.1657742920340336 -0.33729507254091212 0 -0.1580987090498901 -0.33768486778755918 0 -0.16052038332908181 -0.34290425766896881 0 -0.1580987090498901 -0.33768486778755918 0 -0.16052038332908181 -0.34290425766896881 0 -0.1580987090498901 -0.33768486778755918 0 -0.14354956786467751 -0.33900027796771848 0 -0.1490806704801344 -0.35158268301944651 0 -0.1580987090498901 -0.33768486778755918 0 -0.14354956786467751 -0.33900027796771848 0 -0.14701618811382139 -0.31379891494444639 0 -0.16154455873088641 -0.31041177255884689 0 -0.1580987090498901 -0.33768486778755918 0 -0.14701618811382139 -0.31379891494444639 0 -0.1580987090498901 -0.33768486778755918 0 -0.14701618811382139 -0.31379891494444639 0 -0.14354956786467751 -0.33900027796771848 0 -0.14701618811382139 -0.31379891494444639 0 -0.14354956786467751 -0.33900027796771848 0 -0.14701618811382139 -0.31379891494444639 0 -0.12723276489589139 -0.3229837980099588 0 -0.13098110346399941 -0.30524561336809058 0 -0.14701618811382139 -0.31379891494444639 0 -0.12723276489589139 -0.3229837980099588 0 -0.12723276489589139 -0.3229837980099588 0 -0.13997430397861721 -0.35006558033286977 0 -0.120374995741394 -0.34262810225356688 0 -0.14354956786467751 -0.33900027796771848 0 -0.12723276489589139 -0.3229837980099588 0 -0.13997430397861721 -0.35006558033286977 0 -0.12723276489589139 -0.3229837980099588 0 -0.13997430397861721 -0.35006558033286977 0 -0.1266290614468176 -0.35756532227537091 0 -0.13997430397861721 -0.35006558033286977 0 -0.120374995741394 -0.34262810225356688 0 -0.1266290614468176 -0.35756532227537091 0 -0.13997430397861721 -0.35006558033286977 0 -0.1400829476155418 -0.36420164099099189 0 -0.14354956786467751 -0.33900027796771848 0 -0.1400829476155418 -0.36420164099099189 0 -0.14354956786467751 -0.33900027796771848 0 -0.13997430397861721 -0.35006558033286977 0 -0.1400829476155418 -0.36420164099099189 0 -0.1580987090498901 -0.33768486778755918 0 -0.1490806704801344 -0.35158268301944651 0 -0.15459145739042829 -0.36544394533151642 0 -0.14354956786467751 -0.33900027796771848 0 -0.1490806704801344 -0.35158268301944651 0 -0.1400829476155418 -0.36420164099099189 0 -0.1490806704801344 -0.35158268301944651 0 -0.15459145739042829 -0.36544394533151642 0 -0.1400829476155418 -0.36420164099099189 0 -0.14559373452583549 -0.3780629033030618 0 -0.15459145739042829 -0.36544394533151642 0 -0.1400829476155418 -0.36420164099099189 0 -0.1266290614468176 -0.35756532227537091 0 -0.1400829476155418 -0.36420164099099189 0 -0.12354017240737181 -0.37313133386911829 0 -0.1266290614468176 -0.35756532227537091 0 -0.12354017240737181 -0.37313133386911829 0 -0.1094917257123649 -0.35791641378277189 0 -0.12354017240737181 -0.37313133386911829 0 -0.1094917257123649 -0.35791641378277189 0 -0.1077498584230588 -0.3783393321963705 0 -0.1094917257123649 -0.35791641378277189 0 -0.090561765043487258 -0.36472420484649842 0 -0.1077498584230588 -0.3783393321963705 0 -0.094229628422437789 -0.35045754050191319 0 -0.1094917257123649 -0.35791641378277189 0 -0.102682444537833 -0.33915856310768211 0 -0.094229628422437789 -0.35045754050191319 0 -0.1094917257123649 -0.35791641378277189 0 -0.090561765043487258 -0.36472420484649842 0 -0.1266290614468176 -0.35756532227537091 0 -0.1094917257123649 -0.35791641378277189 0 -0.120374995741394 -0.34262810225356688 0 -0.1094917257123649 -0.35791641378277189 0 -0.120374995741394 -0.34262810225356688 0 -0.102682444537833 -0.33915856310768211 0 -0.1139203582616522 -0.32949683109458933 0 -0.120374995741394 -0.34262810225356688 0 -0.102682444537833 -0.33915856310768211 0 -0.12723276489589139 -0.3229837980099588 0 -0.1139203582616522 -0.32949683109458933 0 -0.120374995741394 -0.34262810225356688 0 -0.12723276489589139 -0.3229837980099588 0 -0.1139203582616522 -0.32949683109458933 0 -0.10928627296244731 -0.31525791011702259 0 -0.094067087561964455 -0.32204947612028129 0 -0.10928627296244731 -0.31525791011702259 0 -0.09671992827956255 -0.30585742967323609 0 -0.1139203582616522 -0.32949683109458933 0 -0.094067087561964455 -0.32204947612028129 0 -0.10928627296244731 -0.31525791011702259 0 -0.1139203582616522 -0.32949683109458933 0 -0.094067087561964455 -0.32204947612028129 0 -0.102682444537833 -0.33915856310768211 0 -0.094229628422437789 -0.35045754050191319 0 -0.102682444537833 -0.33915856310768211 0 -0.084256458725096975 -0.33484977203071381 0 -0.094067087561964455 -0.32204947612028129 0 -0.102682444537833 -0.33915856310768211 0 -0.084256458725096975 -0.33484977203071381 0 -0.094067087561964455 -0.32204947612028129 0 -0.073484156704235859 -0.3135210734240233 0 -0.09671992827956255 -0.30585742967323609 0 -0.094067087561964455 -0.32204947612028129 0 -0.084256458725096975 -0.33484977203071381 0 -0.073484156704235859 -0.3135210734240233 0 -0.084256458725096975 -0.33484977203071381 0 -0.073484156704235859 -0.3135210734240233 0 -0.062493266686405077 -0.33224403083001591 0 -0.07711543694936332 -0.3506230006894373 0 -0.062493266686405077 -0.33224403083001591 0 -0.084256458725096975 -0.33484977203071381 0 -0.07711543694936332 -0.3506230006894373 0 -0.062493266686405077 -0.33224403083001591 0 -0.07711543694936332 -0.3506230006894373 0 -0.057498269510954762 -0.35109908882707952 0 -0.062493266686405077 -0.33224403083001591 0 -0.07711543694936332 -0.3506230006894373 0 -0.070077979718519728 -0.3695093081274694 0 -0.057498269510954762 -0.35109908882707952 0 -0.070077979718519728 -0.3695093081274694 0 -0.090561765043487258 -0.36472420484649842 0 -0.089068081027734294 -0.38240435672717871 0 -0.07711543694936332 -0.3506230006894373 0 -0.070077979718519728 -0.3695093081274694 0 -0.090561765043487258 -0.36472420484649842 0 -0.094229628422437789 -0.35045754050191319 0 -0.084256458725096975 -0.33484977203071381 0 -0.07711543694936332 -0.3506230006894373 0 -0.094229628422437789 -0.35045754050191319 0 -0.07711543694936332 -0.3506230006894373 0 -0.090561765043487258 -0.36472420484649842 0 -0.097528990332044985 -0.25412766534568998 0 -0.11014894371598891 -0.25994370054485311 0 -0.1115203288717217 -0.23729534460384721 0 -0.097528990332044985 -0.25412766534568998 0 -0.10174968673043989 -0.26882023336413691 0 -0.089008147647712865 -0.24173845104122649 0 -0.10174968673043989 -0.26882023336413691 0 -0.089008147647712865 -0.24173845104122649 0 -0.097528990332044985 -0.25412766534568998 0 -0.11014894371598891 -0.25994370054485311 0 -0.10174968673043989 -0.26882023336413691 0 -0.1233522819524247 -0.2627965347173789 0 -0.1115203288717217 -0.23729534460384721 0 -0.1233522819524247 -0.2627965347173789 0 -0.1115203288717217 -0.23729534460384721 0 -0.13685178126956929 -0.24996691480950431 0 -0.1233522819524247 -0.2627965347173789 0 -0.11014894371598891 -0.25994370054485311 0 -0.1115203288717217 -0.23729534460384721 0 -0.1233522819524247 -0.2627965347173789 0 -0.11014894371598891 -0.25994370054485311 0 -0.1165934306933134 -0.27667872469321259 0 -0.11014894371598891 -0.25994370054485311 0 -0.1165934306933134 -0.27667872469321259 0 -0.10174968673043989 -0.26882023336413691 0 -0.1165934306933134 -0.27667872469321259 0 -0.10174968673043989 -0.26882023336413691 0 -0.11449122581316561 -0.29590201568704783 0 -0.10174968673043989 -0.26882023336413691 0 -0.11449122581316561 -0.29590201568704783 0 -0.092623159509985481 -0.27889402259257429 0 -0.10174968673043989 -0.26882023336413691 0 -0.092623159509985481 -0.27889402259257429 0 -0.088203789785602338 -0.2658757782308695 0 -0.10174968673043989 -0.26882023336413691 0 -0.11449122581316561 -0.29590201568704783 0 -0.11449122581316561 -0.29590201568704783 0 -0.089608075350364066 -0.29107089931856311 0 -0.092623159509985481 -0.27889402259257429 0 -0.13518423503312749 -0.28829772483091071 0 -0.1165934306933134 -0.27667872469321259 0 -0.11449122581316561 -0.29590201568704783 0 -0.12723276489589139 -0.3229837980099588 0 -0.11449122581316561 -0.29590201568704783 0 -0.13098110346399941 -0.30524561336809058 0 -0.12723276489589139 -0.3229837980099588 0 -0.11449122581316561 -0.29590201568704783 0 -0.12723276489589139 -0.3229837980099588 0 -0.10928627296244731 -0.31525791011702259 0 -0.11449122581316561 -0.29590201568704783 0 -0.10928627296244731 -0.31525791011702259 0 -0.11449122581316561 -0.29590201568704783 0 -0.09671992827956255 -0.30585742967323609 0 -0.11449122581316561 -0.29590201568704783 0 -0.09671992827956255 -0.30585742967323609 0 -0.089608075350364066 -0.29107089931856311 0 -0.09671992827956255 -0.30585742967323609 0 -0.074503486278637066 -0.29627120827950881 0 -0.089608075350364066 -0.29107089931856311 0 -0.073484156704235859 -0.3135210734240233 0 -0.09671992827956255 -0.30585742967323609 0 -0.074503486278637066 -0.29627120827950881 0 -0.073484156704235859 -0.3135210734240233 0 -0.074503486278637066 -0.29627120827950881 0 -0.058589619925992882 -0.29487812464052621 0 -0.074503486278637066 -0.29627120827950881 0 -0.069308143428541372 -0.27589118831045711 0 -0.058589619925992882 -0.29487812464052621 0 -0.074503486278637066 -0.29627120827950881 0 -0.089608075350364066 -0.29107089931856311 0 -0.069308143428541372 -0.27589118831045711 0 -0.069308143428541372 -0.27589118831045711 0 -0.058589619925992882 -0.29487812464052621 0 -0.089608075350364066 -0.29107089931856311 0 -0.092623159509985481 -0.27889402259257429 0 -0.069308143428541372 -0.27589118831045711 0 -0.092623159509985481 -0.27889402259257429 0 -0.088203789785602338 -0.2658757782308695 0 -0.069308143428541372 -0.27589118831045711 0 -0.088203789785602338 -0.2658757782308695 0 -0.069308143428541372 -0.27589118831045711 0 -0.080026666931089882 -0.25690425198038791 0 -0.069308143428541372 -0.27589118831045711 0 -0.080026666931089882 -0.25690425198038791 0 -0.069308143428541372 -0.27589118831045711 0 -0.069062654262053561 -0.25284322283179189 0 -0.080026666931089882 -0.25690425198038791 0 -0.069308143428541372 -0.27589118831045711 0 -0.069062654262053561 -0.25284322283179189 0 -0.057728055221172539 -0.2609311721485813 0 -0.069062654262053561 -0.25284322283179189 0 -0.080026666931089882 -0.25690425198038791 0 -0.080128595710807951 -0.2495590409187248 0 -0.10174968673043989 -0.26882023336413691 0 -0.086402414537331718 -0.2530982417260294 0 -0.089008147647712865 -0.24173845104122649 0 -0.10174968673043989 -0.26882023336413691 0 -0.088203789785602338 -0.2658757782308695 0 -0.086402414537331718 -0.2530982417260294 0 -0.080026666931089882 -0.25690425198038791 0 -0.086402414537331718 -0.2530982417260294 0 -0.080128595710807951 -0.2495590409187248 0 -0.088203789785602338 -0.2658757782308695 0 -0.080026666931089882 -0.25690425198038791 0 -0.086402414537331718 -0.2530982417260294 0 -0.034133504294437428 -0.26390548040600292 0 -0.045729757362561567 -0.25659706683429062 0 -0.04915469382411608 -0.27378252688236382 0 -0.032420232802132729 -0.25026067283641712 0 -0.034133504294437428 -0.26390548040600292 0 -0.045729757362561567 -0.25659706683429062 0 -0.032420232802132729 -0.25026067283641712 0 -0.045729757362561567 -0.25659706683429062 0 -0.041314610074040407 -0.24427023327604239 0 -0.045729757362561567 -0.25659706683429062 0 -0.057728055221172539 -0.2609311721485813 0 -0.04915469382411608 -0.27378252688236382 0 -0.045729757362561567 -0.25659706683429062 0 -0.057728055221172539 -0.2609311721485813 0 -0.054124271495336648 -0.244260718842536 0 -0.069062654262053561 -0.25284322283179189 0 -0.057728055221172539 -0.2609311721485813 0 -0.054124271495336648 -0.244260718842536 0 -0.069308143428541372 -0.27589118831045711 0 -0.057728055221172539 -0.2609311721485813 0 -0.04915469382411608 -0.27378252688236382 0 -0.04915469382411608 -0.27378252688236382 0 -0.034718118773913849 -0.27698617875241371 0 -0.043919839646689253 -0.28598680849262242 0 -0.034133504294437428 -0.26390548040600292 0 -0.04915469382411608 -0.27378252688236382 0 -0.034718118773913849 -0.27698617875241371 0 -0.034125634338991372 -0.29658804744860062 0 -0.043919839646689253 -0.28598680849262242 0 -0.058589619925992882 -0.29487812464052621 0 -0.034718118773913849 -0.27698617875241371 0 -0.034125634338991372 -0.29658804744860062 0 -0.043919839646689253 -0.28598680849262242 0 -0.04915469382411608 -0.27378252688236382 0 -0.043919839646689253 -0.28598680849262242 0 -0.058589619925992882 -0.29487812464052621 0 -0.069308143428541372 -0.27589118831045711 0 -0.04915469382411608 -0.27378252688236382 0 -0.058589619925992882 -0.29487812464052621 0 -0.058589619925992882 -0.29487812464052621 0 -0.047871096423445093 -0.31386506097059569 0 -0.073484156704235859 -0.3135210734240233 0 -0.058589619925992882 -0.29487812464052621 0 -0.047871096423445093 -0.31386506097059569 0 -0.034125634338991372 -0.29658804744860062 0 -0.047871096423445093 -0.31386506097059569 0 -0.034125634338991372 -0.29658804744860062 0 -0.047871096423445093 -0.31386506097059569 0 -0.01701940184229923 -0.31766558262710998 0 -0.034125634338991372 -0.29658804744860062 0 -0.058589619925992882 -0.29487812464052621 0 -0.047871096423445093 -0.31386506097059569 0 -0.034125634338991372 -0.29658804744860062 0 -0.011827056006189661 -0.28984980151586159 0 -0.01701940184229923 -0.31766558262710998 0 -0.011827056006189661 -0.28984980151586159 0 -0.01701940184229923 -0.31766558262710998 0 -0.001504200419740815 -0.30232164797886207 0 -0.011827056006189661 -0.28984980151586159 0 -0.01701940184229923 -0.31766558262710998 0 -0.001504200419740815 -0.30232164797886207 0 -0.011827056006189661 -0.28984980151586159 0 0.0059911154865208227 -0.28204989981844369 0 -0.034125634338991372 -0.29658804744860062 0 -0.011827056006189661 -0.28984980151586159 0 -0.02038017225453596 -0.27931103392660672 0 -0.034125634338991372 -0.29658804744860062 0 -0.02038017225453596 -0.27931103392660672 0 -0.034718118773913849 -0.27698617875241371 0 -0.034125634338991372 -0.29658804744860062 0 -0.02038017225453596 -0.27931103392660672 0 -0.023467197492903082 -0.26779744995700849 0 -0.02038017225453596 -0.27931103392660672 0 -0.0066347101700803546 -0.26203402040461299 0 -0.034718118773913849 -0.27698617875241371 0 -0.023467197492903082 -0.26779744995700849 0 -0.02038017225453596 -0.27931103392660672 0 -0.034133504294437428 -0.26390548040600292 0 -0.034718118773913849 -0.27698617875241371 0 -0.023467197492903082 -0.26779744995700849 0 -0.011827056006189661 -0.28984980151586159 0 -0.02038017225453596 -0.27931103392660672 0 -0.0066347101700803546 -0.26203402040461299 0 -0.011827056006189661 -0.28984980151586159 0 -0.0066347101700803546 -0.26203402040461299 0 0.0059911154865208227 -0.28204989981844369 0 -0.011827056006189661 -0.28984980151586159 0 -0.0066347101700803546 -0.26203402040461299 0 -0.02038017225453596 -0.27931103392660672 0 -0.0066347101700803546 -0.26203402040461299 0 -0.0066347101700803546 -0.26203402040461299 0 -0.0022667461226881808 -0.2386345135768688 0 0.002133627569713394 -0.25101287838952202 0 -0.0066347101700803546 -0.26203402040461299 0 -0.0022667461226881808 -0.2386345135768688 0 -0.0066347101700803546 -0.26203402040461299 0 0.002133627569713394 -0.25101287838952202 0 -0.0066347101700803546 -0.26203402040461299 0 -0.021469481971547799 -0.25675053629540662 0 -0.012108815734419069 -0.2492138465212094 0 -0.021469481971547799 -0.25675053629540662 0 -0.020707525259693049 -0.24492552647519869 0 -0.012108815734419069 -0.2492138465212094 0 -0.023467197492903082 -0.26779744995700849 0 -0.0066347101700803546 -0.26203402040461299 0 -0.021469481971547799 -0.25675053629540662 0 -0.034133504294437428 -0.26390548040600292 0 -0.023467197492903082 -0.26779744995700849 0 -0.021469481971547799 -0.25675053629540662 0 -0.032420232802132729 -0.25026067283641712 0 -0.034133504294437428 -0.26390548040600292 0 -0.021469481971547799 -0.25675053629540662 0 -0.032420232802132729 -0.25026067283641712 0 -0.021469481971547799 -0.25675053629540662 0 -0.020707525259693049 -0.24492552647519869 0 -0.044371264766826887 -0.36367891337680092 0 -0.033433399433658778 -0.33944019111167423 0 -0.018995702443873119 -0.36501532125275321 0 -0.044371264766826887 -0.36367891337680092 0 -0.057498269510954762 -0.35109908882707952 0 -0.033433399433658778 -0.33944019111167423 0 -0.044371264766826887 -0.36367891337680092 0 -0.018995702443873119 -0.36501532125275321 0 -0.033584156834896357 -0.37816677438850371 0 -0.044371264766826887 -0.36367891337680092 0 -0.033584156834896357 -0.37816677438850371 0 -0.053939121517020898 -0.38221543914429063 0 -0.070077979718519728 -0.3695093081274694 0 -0.044371264766826887 -0.36367891337680092 0 -0.053939121517020898 -0.38221543914429063 0 -0.070077979718519728 -0.3695093081274694 0 -0.044371264766826887 -0.36367891337680092 0 -0.057498269510954762 -0.35109908882707952 0 -0.057498269510954762 -0.35109908882707952 0 -0.062493266686405077 -0.33224403083001591 0 -0.033433399433658778 -0.33944019111167423 0 -0.062493266686405077 -0.33224403083001591 0 -0.047871096423445093 -0.31386506097059569 0 -0.033433399433658778 -0.33944019111167423 0 -0.062493266686405077 -0.33224403083001591 0 -0.047871096423445093 -0.31386506097059569 0 -0.073484156704235859 -0.3135210734240233 0 -0.062493266686405077 -0.33224403083001591 0 -0.047871096423445093 -0.31386506097059569 0 -0.047871096423445093 -0.31386506097059569 0 -0.033433399433658778 -0.33944019111167423 0 -0.047871096423445093 -0.31386506097059569 0 -0.033433399433658778 -0.33944019111167423 0 -0.01701940184229923 -0.31766558262710998 0 -0.033433399433658778 -0.33944019111167423 0 -0.01701940184229923 -0.31766558262710998 0 -0.0045987494092564144 -0.34478868756049103 0 -0.01701940184229923 -0.31766558262710998 0 -0.0045987494092564144 -0.34478868756049103 0 0.0025675676883719391 -0.31926859205911717 0 -0.001504200419740815 -0.30232164797886207 0 -0.01701940184229923 -0.31766558262710998 0 0.0025675676883719391 -0.31926859205911717 0 -0.033433399433658778 -0.33944019111167423 0 -0.018995702443873119 -0.36501532125275321 0 -0.033433399433658778 -0.33944019111167423 0 -0.0045987494092564144 -0.34478868756049103 0 -0.018995702443873119 -0.36501532125275321 0 -0.0045987494092564144 -0.34478868756049103 0 -0.018995702443873119 -0.36501532125275321 0 0.00027428580365272681 -0.36892463324439351 0 -0.018995702443873119 -0.36501532125275321 0 -0.016780136547702749 -0.38294961047102227 0 0.00027428580365272681 -0.36892463324439351 0 -0.016780136547702749 -0.38294961047102227 0 0.0047232380292418791 -0.38267049908728129 0 0.00027428580365272681 -0.36892463324439351 0 -0.0015752445019280509 -0.39584212530132401 0 -0.016780136547702749 -0.38294961047102227 0 0.0047232380292418791 -0.38267049908728129 0 -0.016780136547702749 -0.38294961047102227 0 0.00027428580365272681 -0.36892463324439351 0 -0.0015752445019280509 -0.39584212530132401 0 -0.01525732859512541 -0.4106124920368775 0 0.0089749178656362196 -0.4085379017589601 0 -0.0015752445019280509 -0.39584212530132401 0 -0.01686181713595359 -0.39659470387671869 0 -0.016780136547702749 -0.38294961047102227 0 -0.0015752445019280509 -0.39584212530132401 0 -0.01686181713595359 -0.39659470387671869 0 -0.01525732859512541 -0.4106124920368775 0 -0.01686181713595359 -0.39659470387671869 0 -0.033834558899058127 -0.39697458769765132 0 -0.01525732859512541 -0.4106124920368775 0 -0.033834558899058127 -0.39697458769765132 0 -0.01525732859512541 -0.4106124920368775 0 -0.01686181713595359 -0.39659470387671869 0 -0.016780136547702749 -0.38294961047102227 0 -0.033834558899058127 -0.39697458769765132 0 -0.016780136547702749 -0.38294961047102227 0 -0.033584156834896357 -0.37816677438850371 0 -0.033834558899058127 -0.39697458769765132 0 -0.018995702443873119 -0.36501532125275321 0 -0.016780136547702749 -0.38294961047102227 0 -0.033584156834896357 -0.37816677438850371 0 -0.016780136547702749 -0.38294961047102227 0 -0.033834558899058127 -0.39697458769765132 0 -0.033834558899058127 -0.39697458769765132 0 -0.053939121517020898 -0.38221543914429063 0 -0.033584156834896357 -0.37816677438850371 0 -0.033834558899058127 -0.39697458769765132 0 -0.053939121517020898 -0.38221543914429063 0 -0.033834558899058127 -0.39697458769765132 0 -0.053939121517020898 -0.38221543914429063 0 -0.047133431472408782 -0.40791112844576127 0 -0.033834558899058127 -0.39697458769765132 0 -0.047133431472408782 -0.40791112844576127 0 -0.061754305595674783 -0.39535323011754558 0 -0.053939121517020898 -0.38221543914429063 0 -0.047133431472408782 -0.40791112844576127 0 -0.061401786383497102 -0.4061377466697263 0 -0.061754305595674783 -0.39535323011754558 0 -0.047133431472408782 -0.40791112844576127 0 -0.048375577289943343 -0.42409889221566732 0 -0.051823318574934878 -0.43640759083931568 0 -0.062395649253079763 -0.42768241346077063 0 -0.051823318574934878 -0.43640759083931568 0 -0.062395649253079763 -0.42768241346077063 0 -0.064417878391925351 -0.44221579998122629 0 -0.048375577289943343 -0.42409889221566732 0 -0.062395649253079763 -0.42768241346077063 0 -0.060432304045759368 -0.41884766919387151 0 -0.048375577289943343 -0.42409889221566732 0 -0.060432304045759368 -0.41884766919387151 0 -0.047133431472408782 -0.40791112844576127 0 -0.061401786383497102 -0.4061377466697263 0 -0.060432304045759368 -0.41884766919387151 0 -0.047133431472408782 -0.40791112844576127 0 -0.060432304045759368 -0.41884766919387151 0 -0.047133431472408782 -0.40791112844576127 0 -0.033834558899058127 -0.39697458769765132 0 -0.047133431472408782 -0.40791112844576127 0 -0.032186244207305793 -0.41809059320144731 0 -0.048375577289943343 -0.42409889221566732 0 -0.047133431472408782 -0.40791112844576127 0 -0.032186244207305793 -0.41809059320144731 0 -0.048375577289943343 -0.42409889221566732 0 -0.032186244207305793 -0.41809059320144731 0 -0.034065198265193851 -0.43765316125202491 0 -0.048375577289943343 -0.42409889221566732 0 -0.051823318574934878 -0.43640759083931568 0 -0.034065198265193851 -0.43765316125202491 0 -0.032186244207305793 -0.41809059320144731 0 -0.013843172529558309 -0.4320632142900922 0 -0.034065198265193851 -0.43765316125202491 0 -0.032186244207305793 -0.41809059320144731 0 -0.01525732859512541 -0.4106124920368775 0 -0.013843172529558309 -0.4320632142900922 0 -0.033834558899058127 -0.39697458769765132 0 -0.032186244207305793 -0.41809059320144731 0 -0.01525732859512541 -0.4106124920368775 0 -0.01525732859512541 -0.4106124920368775 0 0.0089749178656362196 -0.4085379017589601 0 0.003319901708807629 -0.42425039637610329 0 -0.01525732859512541 -0.4106124920368775 0 0.003319901708807629 -0.42425039637610329 0 -0.013843172529558309 -0.4320632142900922 0 0.003319901708807629 -0.42425039637610329 0 0.0059891361194842896 -0.44518073930204333 0 -0.01525732859512541 -0.4106124920368775 0 -0.013843172529558309 -0.4320632142900922 0 0.003319901708807629 -0.42425039637610329 0 -0.013843172529558309 -0.4320632142900922 0 -0.01176977653683204 -0.45315375861559798 0 0.0059891361194842896 -0.44518073930204333 0 -0.01176977653683204 -0.45315375861559798 0 -0.01017086125060777 -0.4771211151146702 0 0.0097387781098224185 -0.46684003122232343 0 -0.01176977653683204 -0.45315375861559798 0 -0.01017086125060777 -0.4771211151146702 0 -0.031762841950006671 -0.46265326935817619 0 -0.01176977653683204 -0.45315375861559798 0 -0.034065198265193851 -0.43765316125202491 0 -0.031762841950006671 -0.46265326935817619 0 -0.013843172529558309 -0.4320632142900922 0 -0.01176977653683204 -0.45315375861559798 0 -0.034065198265193851 -0.43765316125202491 0 -0.01210138392995614 -0.50000000000000155 0 -0.01017086125060777 -0.4771211151146702 0 0.0062221922340855986 -0.48444841357399271 0 -0.01017086125060777 -0.4771211151146702 0 0.0097387781098224185 -0.46684003122232343 0 -0.01017086125060777 -0.4771211151146702 0 -0.030080500611038369 -0.48740219900701609 0 -0.031762841950006671 -0.46265326935817619 0 -0.01017086125060777 -0.4771211151146702 0 -0.030080500611038369 -0.48740219900701609 0 -0.01210138392995614 -0.50000000000000155 0 -0.030080500611038369 -0.48740219900701609 0 -0.01210138392995614 -0.50000000000000155 0 -0.01017086125060777 -0.4771211151146702 0 -0.030080500611038369 -0.48740219900701609 0 -0.01210138392995614 -0.50000000000000155 0 -0.030080500611038369 -0.48740219900701609 0 -0.033288959382846817 -0.5 0 -0.030080500611038369 -0.48740219900701609 0 -0.033288959382846817 -0.5 0 -0.0544765348357375 -0.49999999999999839 0 -0.030080500611038369 -0.48740219900701609 0 -0.054628425361836333 -0.47020169487285712 0 -0.0544765348357375 -0.49999999999999839 0 -0.030080500611038369 -0.48740219900701609 0 -0.0544765348357375 -0.49999999999999839 0 -0.030080500611038369 -0.48740219900701609 0 -0.054628425361836333 -0.47020169487285712 0 -0.031762841950006671 -0.46265326935817619 0 -0.030080500611038369 -0.48740219900701609 0 -0.054628425361836333 -0.47020169487285712 0 -0.054628425361836333 -0.47020169487285712 0 -0.0544765348357375 -0.49999999999999839 0 -0.076672340323472268 -0.48337599687788679 0 -0.034065198265193851 -0.43765316125202491 0 -0.031762841950006671 -0.46265326935817619 0 -0.049862289674532143 -0.45038768728688949 0 -0.051823318574934878 -0.43640759083931568 0 -0.034065198265193851 -0.43765316125202491 0 -0.049862289674532143 -0.45038768728688949 0 -0.054628425361836333 -0.47020169487285712 0 -0.031762841950006671 -0.46265326935817619 0 -0.049862289674532143 -0.45038768728688949 0 -0.054628425361836333 -0.47020169487285712 0 -0.049862289674532143 -0.45038768728688949 0 -0.067046375078511133 -0.45623488283435348 0 -0.049862289674532143 -0.45038768728688949 0 -0.064417878391925351 -0.44221579998122629 0 -0.067046375078511133 -0.45623488283435348 0 -0.051823318574934878 -0.43640759083931568 0 -0.049862289674532143 -0.45038768728688949 0 -0.064417878391925351 -0.44221579998122629 0 -0.062395649253079763 -0.42768241346077063 0 -0.064417878391925351 -0.44221579998122629 0 -0.084483840621934703 -0.44336528687820592 0 -0.064417878391925351 -0.44221579998122629 0 -0.074747953540230547 -0.44939466055740052 0 -0.084483840621934703 -0.44336528687820592 0 -0.064417878391925351 -0.44221579998122629 0 -0.074747953540230547 -0.44939466055740052 0 -0.067046375078511133 -0.45623488283435348 0 -0.054628425361836333 -0.47020169487285712 0 -0.067046375078511133 -0.45623488283435348 0 -0.077554587170249517 -0.46800529706897298 0 -0.074747953540230547 -0.44939466055740052 0 -0.067046375078511133 -0.45623488283435348 0 -0.080833163819046081 -0.45818374562010322 0 -0.067046375078511133 -0.45623488283435348 0 -0.077554587170249517 -0.46800529706897298 0 -0.080833163819046081 -0.45818374562010322 0 -0.074747953540230547 -0.44939466055740052 0 -0.080833163819046081 -0.45818374562010322 0 -0.090659992765510053 -0.45422141042652098 0 -0.077554587170249517 -0.46800529706897298 0 -0.080833163819046081 -0.45818374562010322 0 -0.093689005514235341 -0.46502165397592432 0 -0.080833163819046081 -0.45818374562010322 0 -0.093689005514235341 -0.46502165397592432 0 -0.090659992765510053 -0.45422141042652098 0 -0.074747953540230547 -0.44939466055740052 0 -0.090659992765510053 -0.45422141042652098 0 -0.084483840621934703 -0.44336528687820592 0 -0.074747953540230547 -0.44939466055740052 0 -0.090659992765510053 -0.45422141042652098 0 -0.084483840621934703 -0.44336528687820592 0 -0.1016206577635944 -0.44248300109788569 0 -0.092489492777398902 -0.43085440467568858 0 -0.0544765348357375 -0.49999999999999839 0 -0.076785340684668191 -0.5 0 -0.076672340323472268 -0.48337599687788679 0 -0.054628425361836333 -0.47020169487285712 0 -0.077554587170249517 -0.46800529706897298 0 -0.076672340323472268 -0.48337599687788679 0 -0.077554587170249517 -0.46800529706897298 0 -0.093689005514235341 -0.46502165397592432 0 -0.093879460693847477 -0.47836441866334672 0 -0.077554587170249517 -0.46800529706897298 0 -0.076672340323472268 -0.48337599687788679 0 -0.093879460693847477 -0.47836441866334672 0 -0.076785340684668191 -0.5 0 -0.076672340323472268 -0.48337599687788679 0 -0.099094146533598881 -0.5 0 -0.076672340323472268 -0.48337599687788679 0 -0.099094146533598881 -0.5 0 -0.093879460693847477 -0.47836441866334672 0 -0.099094146533598881 -0.5 0 -0.093879460693847477 -0.47836441866334672 0 -0.1102485494580642 -0.48435104301414539 0 -0.093879460693847477 -0.47836441866334672 0 -0.1071056524983152 -0.47188916603299769 0 -0.1102485494580642 -0.48435104301414539 0 -0.093689005514235341 -0.46502165397592432 0 -0.093879460693847477 -0.47836441866334672 0 -0.1071056524983152 -0.47188916603299769 0 -0.125215324738535 -0.47228511552500119 0 -0.1071056524983152 -0.47188916603299769 0 -0.1102485494580642 -0.48435104301414539 0 -0.125215324738535 -0.47228511552500119 0 -0.1214029523825295 -0.50000000000001799 0 -0.125215324738535 -0.47228511552500119 0 -0.1102485494580642 -0.48435104301414539 0 -0.1214029523825295 -0.50000000000001799 0 -0.099094146533598881 -0.5 0 -0.1102485494580642 -0.48435104301414539 0 -0.1214029523825295 -0.50000000000001799 0 -0.1016206577635944 -0.44248300109788569 0 -0.1065720319907897 -0.45904816029564138 0 -0.114843615636553 -0.44735259674187899 0 -0.090659992765510053 -0.45422141042652098 0 -0.084483840621934703 -0.44336528687820592 0 -0.1065720319907897 -0.45904816029564138 0 -0.084483840621934703 -0.44336528687820592 0 -0.1065720319907897 -0.45904816029564138 0 -0.084483840621934703 -0.44336528687820592 0 -0.1016206577635944 -0.44248300109788569 0 -0.1065720319907897 -0.45904816029564138 0 -0.1016206577635944 -0.44248300109788569 0 -0.114843615636553 -0.44735259674187899 0 -0.10930278064134059 -0.43317011462506472 0 -0.090659992765510053 -0.45422141042652098 0 -0.1065720319907897 -0.45904816029564138 0 -0.093689005514235341 -0.46502165397592432 0 -0.090659992765510053 -0.45422141042652098 0 -0.1065720319907897 -0.45904816029564138 0 -0.093689005514235341 -0.46502165397592432 0 -0.1071056524983152 -0.47188916603299769 0 -0.1065720319907897 -0.45904816029564138 0 -0.1262164666189976 -0.46500709308408522 0 -0.125215324738535 -0.47228511552500119 0 -0.1065720319907897 -0.45904816029564138 0 -0.125215324738535 -0.47228511552500119 0 -0.1065720319907897 -0.45904816029564138 0 -0.1262164666189976 -0.46500709308408522 0 -0.1065720319907897 -0.45904816029564138 0 -0.114843615636553 -0.44735259674187899 0 -0.125215324738535 -0.47228511552500119 0 -0.1071056524983152 -0.47188916603299769 0 -0.1065720319907897 -0.45904816029564138 0 -0.1262164666189976 -0.46500709308408522 0 -0.1065720319907897 -0.45904816029564138 0 -0.12968308686813451 -0.43980573006081197 0 -0.1262164666189976 -0.46500709308408522 0 -0.114843615636553 -0.44735259674187899 0 -0.12968308686813451 -0.43980573006081197 0 -0.114843615636553 -0.44735259674187899 0 -0.10930278064134059 -0.43317011462506472 0 -0.12968308686813451 -0.43980573006081197 0 -0.10930278064134059 -0.43317011462506472 0 -0.1175061369569224 -0.42073635583615671 0 -0.10930278064134059 -0.43317011462506472 0 -0.10082491682243019 -0.41798666898170872 0 -0.092489492777398902 -0.43085440467568858 0 -0.1016206577635944 -0.44248300109788569 0 -0.10930278064134059 -0.43317011462506472 0 -0.092489492777398902 -0.43085440467568858 0 -0.10930278064134059 -0.43317011462506472 0 -0.10082491682243019 -0.41798666898170872 0 -0.1175061369569224 -0.42073635583615671 0 -0.10082491682243019 -0.41798666898170872 0 -0.109943076624752 -0.40474585722739709 0 -0.089355071086143462 -0.4010847590165435 0 -0.10082491682243019 -0.41798666898170872 0 -0.1175061369569224 -0.42073635583615671 0 -0.109943076624752 -0.40474585722739709 0 -0.13314970711727031 -0.41460436703753872 0 -0.1175061369569224 -0.42073635583615671 0 -0.109943076624752 -0.40474585722739709 0 -0.109943076624752 -0.40474585722739709 0 -0.1200190036265157 -0.39157850375754072 0 -0.1022911981273406 -0.3915095894309723 0 -0.13314970711727031 -0.41460436703753872 0 -0.109943076624752 -0.40474585722739709 0 -0.1200190036265157 -0.39157850375754072 0 -0.1200190036265157 -0.39157850375754072 0 -0.1077498584230588 -0.3783393321963705 0 -0.1022911981273406 -0.3915095894309723 0 -0.12354017240737181 -0.37313133386911829 0 -0.1200190036265157 -0.39157850375754072 0 -0.1077498584230588 -0.3783393321963705 0 -0.090561765043487258 -0.36472420484649842 0 -0.1077498584230588 -0.3783393321963705 0 -0.089068081027734294 -0.38240435672717871 0 -0.1077498584230588 -0.3783393321963705 0 -0.1022911981273406 -0.3915095894309723 0 -0.089068081027734294 -0.38240435672717871 0 -0.109943076624752 -0.40474585722739709 0 -0.1022911981273406 -0.3915095894309723 0 -0.089355071086143462 -0.4010847590165435 0 -0.089355071086143462 -0.4010847590165435 0 -0.073550169920140615 -0.38590795886105939 0 -0.072483577747809447 -0.40017387792360187 0 -0.1022911981273406 -0.3915095894309723 0 -0.089355071086143462 -0.4010847590165435 0 -0.089068081027734294 -0.38240435672717871 0 -0.089355071086143462 -0.4010847590165435 0 -0.072483577747809447 -0.40017387792360187 0 -0.076879540019463594 -0.41075610934726109 0 -0.089355071086143462 -0.4010847590165435 0 -0.089068081027734294 -0.38240435672717871 0 -0.073550169920140615 -0.38590795886105939 0 -0.070077979718519728 -0.3695093081274694 0 -0.053939121517020898 -0.38221543914429063 0 -0.073550169920140615 -0.38590795886105939 0 -0.061754305595674783 -0.39535323011754558 0 -0.053939121517020898 -0.38221543914429063 0 -0.073550169920140615 -0.38590795886105939 0 -0.070077979718519728 -0.3695093081274694 0 -0.089068081027734294 -0.38240435672717871 0 -0.073550169920140615 -0.38590795886105939 0 -0.061754305595674783 -0.39535323011754558 0 -0.073550169920140615 -0.38590795886105939 0 -0.072483577747809447 -0.40017387792360187 0 -0.061401786383497102 -0.4061377466697263 0 -0.072483577747809447 -0.40017387792360187 0 -0.068639779972292411 -0.41104721136337341 0 -0.061401786383497102 -0.4061377466697263 0 -0.061754305595674783 -0.39535323011754558 0 -0.072483577747809447 -0.40017387792360187 0 -0.061401786383497102 -0.4061377466697263 0 -0.060432304045759368 -0.41884766919387151 0 -0.068639779972292411 -0.41104721136337341 0 -0.068639779972292411 -0.41104721136337341 0 -0.076879540019463594 -0.41075610934726109 0 -0.07200169166493256 -0.41932065368240651 0 -0.072483577747809447 -0.40017387792360187 0 -0.068639779972292411 -0.41104721136337341 0 -0.076879540019463594 -0.41075610934726109 0 -0.060432304045759368 -0.41884766919387151 0 -0.068639779972292411 -0.41104721136337341 0 -0.07200169166493256 -0.41932065368240651 0 -0.062395649253079763 -0.42768241346077063 0 -0.084483840621934703 -0.44336528687820592 0 -0.079109502840100446 -0.42818268907256007 0 -0.062395649253079763 -0.42768241346077063 0 -0.060432304045759368 -0.41884766919387151 0 -0.07200169166493256 -0.41932065368240651 0 -0.062395649253079763 -0.42768241346077063 0 -0.07200169166493256 -0.41932065368240651 0 -0.079109502840100446 -0.42818268907256007 0 -0.062395649253079763 -0.42768241346077063 0 -0.084483840621934703 -0.44336528687820592 0 -0.079109502840100446 -0.42818268907256007 0 -0.092489492777398902 -0.43085440467568858 0 -0.086027273034490134 -0.41779522850262613 0 -0.084483840621934703 -0.44336528687820592 0 -0.079109502840100446 -0.42818268907256007 0 -0.092489492777398902 -0.43085440467568858 0 -0.10082491682243019 -0.41798666898170872 0 -0.092489492777398902 -0.43085440467568858 0 -0.086027273034490134 -0.41779522850262613 0 -0.089355071086143462 -0.4010847590165435 0 -0.076879540019463594 -0.41075610934726109 0 -0.086027273034490134 -0.41779522850262613 0 -0.10082491682243019 -0.41798666898170872 0 -0.089355071086143462 -0.4010847590165435 0 -0.086027273034490134 -0.41779522850262613 0 -0.07200169166493256 -0.41932065368240651 0 -0.079109502840100446 -0.42818268907256007 0 -0.086027273034490134 -0.41779522850262613 0 -0.076879540019463594 -0.41075610934726109 0 -0.07200169166493256 -0.41932065368240651 0 -0.086027273034490134 -0.41779522850262613 0 -0.078909177494655106 -0.079824463906044529 0 -0.090907048222274536 -0.090475644224650556 0 -0.091754603440079893 -0.074727908373024093 0 -0.078909177494655106 -0.079824463906044529 0 -0.090907048222274536 -0.090475644224650556 0 -0.076065191873354476 -0.095701922088152133 0 -0.091754603440079893 -0.074727908373024093 0 -0.080789179685183982 -0.066336439457981677 0 -0.09070822643717516 -0.061330986114851743 0 -0.078909177494655106 -0.079824463906044529 0 -0.091754603440079893 -0.074727908373024093 0 -0.080789179685183982 -0.066336439457981677 0 -0.078909177494655106 -0.079824463906044529 0 -0.080789179685183982 -0.066336439457981677 0 -0.069278635655356552 -0.070775254153583642 0 -0.080789179685183982 -0.066336439457981677 0 -0.069278635655356552 -0.070775254153583642 0 -0.071633582984976019 -0.058733830921356263 0 -0.069278635655356552 -0.070775254153583642 0 -0.058302988231959868 -0.073180908837623848 0 -0.061092019852602417 -0.06304677651486415 0 -0.069278635655356552 -0.070775254153583642 0 -0.071633582984976019 -0.058733830921356263 0 -0.061092019852602417 -0.06304677651486415 0 -0.069278635655356552 -0.070775254153583642 0 -0.065368897988019842 -0.084375278271266063 0 -0.058302988231959868 -0.073180908837623848 0 -0.078909177494655106 -0.079824463906044529 0 -0.065368897988019842 -0.084375278271266063 0 -0.076065191873354476 -0.095701922088152133 0 -0.065368897988019842 -0.084375278271266063 0 -0.076065191873354476 -0.095701922088152133 0 -0.057392982886191393 -0.098638337895988693 0 -0.078909177494655106 -0.079824463906044529 0 -0.069278635655356552 -0.070775254153583642 0 -0.065368897988019842 -0.084375278271266063 0 -0.076065191873354476 -0.095701922088152133 0 -0.06985470665528784 -0.11573341780121919 0 -0.057392982886191393 -0.098638337895988693 0 -0.06985470665528784 -0.11573341780121919 0 -0.088992218803362624 -0.1074464957298354 0 -0.088184978474185521 -0.12801040578135511 0 -0.088992218803362624 -0.1074464957298354 0 -0.10344028973991599 -0.1181431917005573 0 -0.088184978474185521 -0.12801040578135511 0 -0.076065191873354476 -0.095701922088152133 0 -0.06985470665528784 -0.11573341780121919 0 -0.088992218803362624 -0.1074464957298354 0 -0.090907048222274536 -0.090475644224650556 0 -0.076065191873354476 -0.095701922088152133 0 -0.088992218803362624 -0.1074464957298354 0 -0.090907048222274536 -0.090475644224650556 0 -0.088992218803362624 -0.1074464957298354 0 -0.10617661954943571 -0.1002546588035578 0 -0.088992218803362624 -0.1074464957298354 0 -0.10617661954943571 -0.1002546588035578 0 -0.10344028973991599 -0.1181431917005573 0 -0.10617661954943571 -0.1002546588035578 0 -0.10344028973991599 -0.1181431917005573 0 -0.12851450449001681 -0.11924487819625119 0 -0.10344028973991599 -0.1181431917005573 0 -0.10533312738257949 -0.13575951999178679 0 -0.12851450449001681 -0.11924487819625119 0 -0.10617661954943571 -0.1002546588035578 0 -0.1179758307051904 -0.090776103889588344 0 -0.1252383608340073 -0.1006862309174674 0 -0.10617661954943571 -0.1002546588035578 0 -0.1252383608340073 -0.1006862309174674 0 -0.12851450449001681 -0.11924487819625119 0 -0.1179758307051904 -0.090776103889588344 0 -0.13126100535961199 -0.091287272183990895 0 -0.1252383608340073 -0.1006862309174674 0 -0.1179758307051904 -0.090776103889588344 0 -0.1228932107768848 -0.084455829188282927 0 -0.13126100535961199 -0.091287272183990895 0 -0.1228932107768848 -0.084455829188282927 0 -0.11526731012696451 -0.080286044565867798 0 -0.1237656298583286 -0.076797543623831926 0 -0.1179758307051904 -0.090776103889588344 0 -0.1228932107768848 -0.084455829188282927 0 -0.11526731012696451 -0.080286044565867798 0 -0.1179758307051904 -0.090776103889588344 0 -0.11526731012696451 -0.080286044565867798 0 -0.1035444781727594 -0.084898416447289446 0 -0.10617661954943571 -0.1002546588035578 0 -0.1179758307051904 -0.090776103889588344 0 -0.1035444781727594 -0.084898416447289446 0 -0.090907048222274536 -0.090475644224650556 0 -0.091754603440079893 -0.074727908373024093 0 -0.1035444781727594 -0.084898416447289446 0 -0.11526731012696451 -0.080286044565867798 0 -0.1035444781727594 -0.084898416447289446 0 -0.1056608666332534 -0.07369114776498395 0 -0.090907048222274536 -0.090475644224650556 0 -0.10617661954943571 -0.1002546588035578 0 -0.1035444781727594 -0.084898416447289446 0 -0.091754603440079893 -0.074727908373024093 0 -0.099504416801456982 -0.066299234524975811 0 -0.09070822643717516 -0.061330986114851743 0 -0.091754603440079893 -0.074727908373024093 0 -0.099504416801456982 -0.066299234524975811 0 -0.1056608666332534 -0.07369114776498395 0 -0.091754603440079893 -0.074727908373024093 0 -0.1035444781727594 -0.084898416447289446 0 -0.1056608666332534 -0.07369114776498395 0 -0.099504416801456982 -0.066299234524975811 0 -0.1056608666332534 -0.07369114776498395 0 -0.10947780003793479 -0.063210368513015647 0 -0.099504416801456982 -0.066299234524975811 0 -0.10947780003793479 -0.063210368513015647 0 -0.099920587458841692 -0.058535761859003679 0 -0.10947780003793479 -0.063210368513015647 0 -0.11753937714757411 -0.071695732989920422 0 -0.1219731292675155 -0.063965478385432345 0 -0.1219731292675155 -0.063965478385432345 0 -0.1157688171284371 -0.053460403974267677 0 -0.12909152696144771 -0.072223815086390947 0 -0.1056608666332534 -0.07369114776498395 0 -0.10947780003793479 -0.063210368513015647 0 -0.11753937714757411 -0.071695732989920422 0 -0.1157688171284371 -0.053460403974267677 0 -0.12909152696144771 -0.072223815086390947 0 -0.11526731012696451 -0.080286044565867798 0 -0.1056608666332534 -0.07369114776498395 0 -0.11753937714757411 -0.071695732989920422 0 -0.11526731012696451 -0.080286044565867798 0 -0.11753937714757411 -0.071695732989920422 0 -0.1237656298583286 -0.076797543623831926 0 -0.11753937714757411 -0.071695732989920422 0 -0.1237656298583286 -0.076797543623831926 0 -0.12909152696144771 -0.072223815086390947 0 -0.11753937714757411 -0.071695732989920422 0 -0.1219731292675155 -0.063965478385432345 0 -0.12909152696144771 -0.072223815086390947 0 -0.1157688171284371 -0.053460403974267677 0 -0.12909152696144771 -0.072223815086390947 0 -0.12684415044118569 -0.057704858544417578 0 -0.10947780003793479 -0.063210368513015647 0 -0.1157688171284371 -0.053460403974267677 0 -0.1042531562579478 -0.051788456207740668 0 -0.10947780003793479 -0.063210368513015647 0 -0.1219731292675155 -0.063965478385432345 0 -0.1157688171284371 -0.053460403974267677 0 -0.1157688171284371 -0.053460403974267677 0 -0.12684415044118569 -0.057704858544417578 0 -0.12882854372584659 -0.049605510972314922 0 -0.1157688171284371 -0.053460403974267677 0 -0.1199422827605305 -0.02965683450943497 0 -0.12882854372584659 -0.049605510972314922 0 -0.1157688171284371 -0.053460403974267677 0 -0.10244610729542659 -0.034696992862144532 0 -0.1199422827605305 -0.02965683450943497 0 -0.10244610729542659 -0.034696992862144532 0 -0.1042531562579478 -0.051788456207740668 0 -0.093652469369098573 -0.049038753830271772 0 -0.1157688171284371 -0.053460403974267677 0 -0.10244610729542659 -0.034696992862144532 0 -0.1157688171284371 -0.053460403974267677 0 -0.10244610729542659 -0.034696992862144532 0 -0.1042531562579478 -0.051788456207740668 0 -0.10244610729542659 -0.034696992862144532 0 -0.093652469369098573 -0.049038753830271772 0 -0.088147131431357897 -0.037134779112761543 0 -0.099920587458841692 -0.058535761859003679 0 -0.1042531562579478 -0.051788456207740668 0 -0.093652469369098573 -0.049038753830271772 0 -0.099504416801456982 -0.066299234524975811 0 -0.099920587458841692 -0.058535761859003679 0 -0.09070822643717516 -0.061330986114851743 0 -0.099920587458841692 -0.058535761859003679 0 -0.09070822643717516 -0.061330986114851743 0 -0.093652469369098573 -0.049038753830271772 0 -0.10947780003793479 -0.063210368513015647 0 -0.099920587458841692 -0.058535761859003679 0 -0.1042531562579478 -0.051788456207740668 0 -0.1163652103361735 -0.011197960187411361 0 -0.1032354106369943 -0.00021445640766098919 0 -0.119440435482564 0.0034978936377945791 0 -0.1163652103361735 -0.011197960187411361 0 -0.1267834157359943 -0.0026565814049187282 0 -0.1307068980664256 -0.020727785816144269 0 -0.1163652103361735 -0.011197960187411361 0 -0.1267834157359943 -0.0026565814049187282 0 -0.119440435482564 0.0034978936377945791 0 -0.1163652103361735 -0.011197960187411361 0 -0.1199422827605305 -0.02965683450943497 0 -0.098985010871781715 -0.018071479866519011 0 -0.1163652103361735 -0.011197960187411361 0 -0.1199422827605305 -0.02965683450943497 0 -0.1307068980664256 -0.020727785816144269 0 -0.1199422827605305 -0.02965683450943497 0 -0.098985010871781715 -0.018071479866519011 0 -0.10244610729542659 -0.034696992862144532 0 -0.089123397462415849 -0.015933581750021599 0 -0.090216952536541634 -0.02957479346763121 0 -0.1199422827605305 -0.02965683450943497 0 -0.098261975414807717 -0.02110913792928636 0 -0.098985010871781715 -0.018071479866519011 0 -0.10244610729542659 -0.034696992862144532 0 -0.089123397462415849 -0.015933581750021599 0 -0.10244610729542659 -0.034696992862144532 0 -0.098261975414807717 -0.02110913792928636 0 -0.089123397462415849 -0.015933581750021599 0 -0.10244610729542659 -0.034696992862144532 0 -0.1199422827605305 -0.02965683450943497 0 -0.098261975414807717 -0.02110913792928636 0 -0.098985010871781715 -0.018071479866519011 0 -0.091111578959914563 -0.01371898105655953 0 -0.098261975414807717 -0.02110913792928636 0 -0.098985010871781715 -0.018071479866519011 0 -0.089123397462415849 -0.015933581750021599 0 -0.098261975414807717 -0.02110913792928636 0 -0.098985010871781715 -0.018071479866519011 0 -0.1032354106369943 -0.00021445640766098919 0 -0.091111578959914563 -0.01371898105655953 0 -0.08860203887846485 0.0020081847372806711 0 -0.098985010871781715 -0.018071479866519011 0 -0.1032354106369943 -0.00021445640766098919 0 -0.1163652103361735 -0.011197960187411361 0 -0.098985010871781715 -0.018071479866519011 0 -0.1032354106369943 -0.00021445640766098919 0 -0.098985010871781715 -0.018071479866519011 0 -0.1032354106369943 -0.00021445640766098919 0 -0.091111578959914563 -0.01371898105655953 0 -0.1032354106369943 -0.00021445640766098919 0 -0.091111578959914563 -0.01371898105655953 0 -0.091111578959914563 -0.01371898105655953 0 -0.085250324067708549 -0.01047883048070402 0 -0.08860203887846485 0.0020081847372806711 0 -0.085250324067708549 -0.01047883048070402 0 -0.075598923906003951 0.003113988946536814 0 -0.085250324067708549 -0.01047883048070402 0 -0.08860203887846485 0.0020081847372806711 0 -0.075598923906003951 0.003113988946536814 0 -0.091111578959914563 -0.01371898105655953 0 -0.089123397462415849 -0.015933581750021599 0 -0.091111578959914563 -0.01371898105655953 0 -0.085250324067708549 -0.01047883048070402 0 -0.085250324067708549 -0.01047883048070402 0 -0.089123397462415849 -0.015933581750021599 0 -0.091111578959914563 -0.01371898105655953 0 -0.085250324067708549 -0.01047883048070402 0 -0.089123397462415849 -0.015933581750021599 0 -0.085250324067708549 -0.01047883048070402 0 -0.089123397462415849 -0.015933581750021599 0 -0.078040155144820073 -0.019700702461377399 0 -0.089123397462415849 -0.015933581750021599 0 -0.074472587469430931 -0.030849779535556988 0 -0.078040155144820073 -0.019700702461377399 0 -0.089123397462415849 -0.015933581750021599 0 -0.074472587469430931 -0.030849779535556988 0 -0.098985010871781715 -0.018071479866519011 0 -0.091111578959914563 -0.01371898105655953 0 -0.089123397462415849 -0.015933581750021599 0 -0.089123397462415849 -0.015933581750021599 0 -0.090216952536541634 -0.02957479346763121 0 -0.081151173956965958 -0.03053382014559736 0 -0.089123397462415849 -0.015933581750021599 0 -0.081151173956965958 -0.03053382014559736 0 -0.074472587469430931 -0.030849779535556988 0 -0.074472587469430931 -0.030849779535556988 0 -0.069241940666184471 -0.0016292626576147871 0 -0.059745304116449488 -0.018138219989554848 0 -0.074472587469430931 -0.030849779535556988 0 -0.069241940666184471 -0.0016292626576147871 0 -0.074472587469430931 -0.030849779535556988 0 -0.078040155144820073 -0.019700702461377399 0 -0.069241940666184471 -0.0016292626576147871 0 -0.074472587469430931 -0.030849779535556988 0 -0.057035190023512872 -0.031945325615395127 0 -0.059745304116449488 -0.018138219989554848 0 -0.085250324067708549 -0.01047883048070402 0 -0.069241940666184471 -0.0016292626576147871 0 -0.075598923906003951 0.003113988946536814 0 -0.085250324067708549 -0.01047883048070402 0 -0.078040155144820073 -0.019700702461377399 0 -0.069241940666184471 -0.0016292626576147871 0 -0.085250324067708549 -0.01047883048070402 0 -0.069241940666184471 -0.0016292626576147871 0 -0.08287181627605239 -0.054920175474687229 0 -0.083713118227395356 -0.045355288265741839 0 -0.075878246119287576 -0.051081301476981297 0 -0.080789179685183982 -0.066336439457981677 0 -0.08287181627605239 -0.054920175474687229 0 -0.09070822643717516 -0.061330986114851743 0 -0.080789179685183982 -0.066336439457981677 0 -0.08287181627605239 -0.054920175474687229 0 -0.071633582984976019 -0.058733830921356263 0 -0.08287181627605239 -0.054920175474687229 0 -0.09070822643717516 -0.061330986114851743 0 -0.093652469369098573 -0.049038753830271772 0 -0.08287181627605239 -0.054920175474687229 0 -0.093652469369098573 -0.049038753830271772 0 -0.083713118227395356 -0.045355288265741839 0 -0.093652469369098573 -0.049038753830271772 0 -0.088147131431357897 -0.037134779112761543 0 -0.083713118227395356 -0.045355288265741839 0 -0.10244610729542659 -0.034696992862144532 0 -0.090216952536541634 -0.02957479346763121 0 -0.088147131431357897 -0.037134779112761543 0 -0.090216952536541634 -0.02957479346763121 0 -0.081151173956965958 -0.03053382014559736 0 -0.088147131431357897 -0.037134779112761543 0 -0.081151173956965958 -0.03053382014559736 0 -0.088147131431357897 -0.037134779112761543 0 -0.080876926519636225 -0.036518512813609627 0 -0.081151173956965958 -0.03053382014559736 0 -0.080876926519636225 -0.036518512813609627 0 -0.078571702801242371 -0.032794091810257907 0 -0.080876926519636225 -0.036518512813609627 0 -0.078571702801242371 -0.032794091810257907 0 -0.077492899038300991 -0.034584573891420688 0 -0.080876926519636225 -0.036518512813609627 0 -0.083713118227395356 -0.045355288265741839 0 -0.077098380177364659 -0.043130254536700739 0 -0.088147131431357897 -0.037134779112761543 0 -0.080876926519636225 -0.036518512813609627 0 -0.083713118227395356 -0.045355288265741839 0 -0.083713118227395356 -0.045355288265741839 0 -0.077098380177364659 -0.043130254536700739 0 -0.075878246119287576 -0.051081301476981297 0 -0.074472587469430931 -0.030849779535556988 0 -0.061327158823905173 -0.046895327165046248 0 -0.057035190023512872 -0.031945325615395127 0 -0.077098380177364659 -0.043130254536700739 0 -0.074404128540473416 -0.038508624572862152 0 -0.061327158823905173 -0.046895327165046248 0 -0.074472587469430931 -0.030849779535556988 0 -0.061327158823905173 -0.046895327165046248 0 -0.074472587469430931 -0.030849779535556988 0 -0.074404128540473416 -0.038508624572862152 0 -0.061327158823905173 -0.046895327165046248 0 -0.080876926519636225 -0.036518512813609627 0 -0.077098380177364659 -0.043130254536700739 0 -0.074404128540473416 -0.038508624572862152 0 -0.074472587469430931 -0.030849779535556988 0 -0.077492899038300991 -0.034584573891420688 0 -0.074404128540473416 -0.038508624572862152 0 -0.081151173956965958 -0.03053382014559736 0 -0.074472587469430931 -0.030849779535556988 0 -0.078571702801242371 -0.032794091810257907 0 -0.074472587469430931 -0.030849779535556988 0 -0.078571702801242371 -0.032794091810257907 0 -0.077492899038300991 -0.034584573891420688 0 -0.080876926519636225 -0.036518512813609627 0 -0.077492899038300991 -0.034584573891420688 0 -0.074404128540473416 -0.038508624572862152 0 -0.077098380177364659 -0.043130254536700739 0 -0.075878246119287576 -0.051081301476981297 0 -0.061327158823905173 -0.046895327165046248 0 -0.071633582984976019 -0.058733830921356263 0 -0.061327158823905173 -0.046895327165046248 0 -0.061092019852602417 -0.06304677651486415 0 -0.075878246119287576 -0.051081301476981297 0 -0.071633582984976019 -0.058733830921356263 0 -0.061327158823905173 -0.046895327165046248 0 -0.08287181627605239 -0.054920175474687229 0 -0.075878246119287576 -0.051081301476981297 0 -0.071633582984976019 -0.058733830921356263 0 -0.061327158823905173 -0.046895327165046248 0 -0.046092735967771137 -0.06397442971054712 0 -0.061092019852602417 -0.06304677651486415 0 -0.061327158823905173 -0.046895327165046248 0 -0.042417236825520212 -0.042241450072511767 0 -0.046092735967771137 -0.06397442971054712 0 -0.057035190023512872 -0.031945325615395127 0 -0.042417236825520212 -0.042241450072511767 0 -0.043161853142012221 -0.02167223813267442 0 -0.061327158823905173 -0.046895327165046248 0 -0.057035190023512872 -0.031945325615395127 0 -0.042417236825520212 -0.042241450072511767 0 -0.042417236825520212 -0.042241450072511767 0 -0.043161853142012221 -0.02167223813267442 0 -0.02581407878710968 -0.034384969840168658 0 -0.042417236825520212 -0.042241450072511767 0 -0.022439538886361639 -0.054945579392457783 0 -0.046092735967771137 -0.06397442971054712 0 -0.069241940666184471 -0.0016292626576147871 0 -0.050904770718203977 -0.0065393892505411066 0 -0.059745304116449488 -0.018138219989554848 0 -0.050904770718203977 -0.0065393892505411066 0 -0.059745304116449488 -0.018138219989554848 0 -0.043161853142012221 -0.02167223813267442 0 -0.057035190023512872 -0.031945325615395127 0 -0.059745304116449488 -0.018138219989554848 0 -0.043161853142012221 -0.02167223813267442 0 -0.050904770718203977 -0.0065393892505411066 0 -0.043161853142012221 -0.02167223813267442 0 -0.035419323475875557 -0.0059051719180527916 0 -0.043161853142012221 -0.02167223813267442 0 -0.035419323475875557 -0.0059051719180527916 0 -0.018576722166593361 -0.01692799253377129 0 -0.050904770718203977 -0.0065393892505411066 0 -0.035419323475875557 -0.0059051719180527916 0 -0.045215917027402193 0.011652523540130339 0 -0.035419323475875557 -0.0059051719180527916 0 -0.018576722166593361 -0.01692799253377129 0 -0.01923735432516601 0.0039612367865925167 0 -0.018576722166593361 -0.01692799253377129 0 -0.02581407878710968 -0.034384969840168658 0 -0.0052093122701638937 -0.036875927911865523 0 -0.043161853142012221 -0.02167223813267442 0 -0.018576722166593361 -0.01692799253377129 0 -0.02581407878710968 -0.034384969840168658 0 -0.018576722166593361 -0.01692799253377129 0 -0.0052093122701638937 -0.036875927911865523 0 0.0088030871894733444 -0.023666954911981241 0 -0.018576722166593361 -0.01692799253377129 0 0.0029913831872387482 -0.0052912084592871226 0 0.0088030871894733444 -0.023666954911981241 0 -0.018576722166593361 -0.01692799253377129 0 -0.01923735432516601 0.0039612367865925167 0 0.0029913831872387482 -0.0052912084592871226 0 -0.022439538886361639 -0.054945579392457783 0 -0.02581407878710968 -0.034384969840168658 0 -0.0052093122701638937 -0.036875927911865523 0 -0.042417236825520212 -0.042241450072511767 0 -0.022439538886361639 -0.054945579392457783 0 -0.02581407878710968 -0.034384969840168658 0 -0.022439538886361639 -0.054945579392457783 0 -0.0052093122701638937 -0.036875927911865523 0 -0.0020527242365353088 -0.057067134515462047 0 -0.022439538886361639 -0.054945579392457783 0 -0.0020527242365353088 -0.057067134515462047 0 -0.01309812140085676 -0.07011287192406776 0 -0.0020527242365353088 -0.057067134515462047 0 -0.01309812140085676 -0.07011287192406776 0 0.0003806329818320936 -0.083393270986056811 0 -0.02827191375596266 -0.081232395208486241 0 -0.015169606627087721 -0.1026672402057538 0 0.0003806329818320936 -0.083393270986056811 0 -0.01309812140085676 -0.07011287192406776 0 -0.02827191375596266 -0.081232395208486241 0 0.0003806329818320936 -0.083393270986056811 0 -0.015169606627087721 -0.1026672402057538 0 0.0003806329818320936 -0.083393270986056811 0 -0.022439538886361639 -0.054945579392457783 0 -0.01309812140085676 -0.07011287192406776 0 -0.02827191375596266 -0.081232395208486241 0 -0.022439538886361639 -0.054945579392457783 0 -0.02827191375596266 -0.081232395208486241 0 -0.046092735967771137 -0.06397442971054712 0 -0.02827191375596266 -0.081232395208486241 0 -0.046092735967771137 -0.06397442971054712 0 -0.049682651696049393 -0.083732805537858335 0 -0.02827191375596266 -0.081232395208486241 0 -0.049682651696049393 -0.083732805537858335 0 -0.036769396639913909 -0.10007893168754139 0 -0.065368897988019842 -0.084375278271266063 0 -0.049682651696049393 -0.083732805537858335 0 -0.057392982886191393 -0.098638337895988693 0 -0.065368897988019842 -0.084375278271266063 0 -0.049682651696049393 -0.083732805537858335 0 -0.058302988231959868 -0.073180908837623848 0 -0.046092735967771137 -0.06397442971054712 0 -0.049682651696049393 -0.083732805537858335 0 -0.058302988231959868 -0.073180908837623848 0 -0.046092735967771137 -0.06397442971054712 0 -0.058302988231959868 -0.073180908837623848 0 -0.061092019852602417 -0.06304677651486415 0 -0.06985470665528784 -0.11573341780121919 0 -0.057392982886191393 -0.098638337895988693 0 -0.045543804006045872 -0.11648543555160221 0 -0.06985470665528784 -0.11573341780121919 0 -0.045543804006045872 -0.11648543555160221 0 -0.059167403581638092 -0.1350338025598459 0 -0.049682651696049393 -0.083732805537858335 0 -0.057392982886191393 -0.098638337895988693 0 -0.036769396639913909 -0.10007893168754139 0 -0.057392982886191393 -0.098638337895988693 0 -0.036769396639913909 -0.10007893168754139 0 -0.045543804006045872 -0.11648543555160221 0 -0.036769396639913909 -0.10007893168754139 0 -0.045543804006045872 -0.11648543555160221 0 -0.0253521707500582 -0.1177659517448038 0 -0.0253521707500582 -0.1177659517448038 0 -0.015169606627087721 -0.1026672402057538 0 -0.01044844011035528 -0.12823112002220899 0 -0.02827191375596266 -0.081232395208486241 0 -0.036769396639913909 -0.10007893168754139 0 -0.015169606627087721 -0.1026672402057538 0 -0.036769396639913909 -0.10007893168754139 0 -0.0253521707500582 -0.1177659517448038 0 -0.015169606627087721 -0.1026672402057538 0 -0.015169606627087721 -0.1026672402057538 0 -0.01044844011035528 -0.12823112002220899 0 0.006624818464014165 -0.1187193322005841 0 -0.01044844011035528 -0.12823112002220899 0 -0.00113225379654322 -0.14908059611682761 0 0.005877131749355417 -0.13527815902046991 0 -0.01044844011035528 -0.12823112002220899 0 -0.030149828689090649 -0.1420571993383368 0 -0.00113225379654322 -0.14908059611682761 0 -0.0253521707500582 -0.1177659517448038 0 -0.01044844011035528 -0.12823112002220899 0 -0.030149828689090649 -0.1420571993383368 0 -0.030149828689090649 -0.1420571993383368 0 -0.00113225379654322 -0.14908059611682761 0 -0.030149828689090649 -0.1420571993383368 0 -0.00113225379654322 -0.14908059611682761 0 -0.020398650555501 -0.16737386995278319 0 -0.030149828689090649 -0.1420571993383368 0 -0.020398650555501 -0.16737386995278319 0 -0.041826389092084783 -0.1589993293006321 0 -0.00113225379654322 -0.14908059611682761 0 -0.020398650555501 -0.16737386995278319 0 0.00095454359378272782 -0.16685631586716351 0 -0.0049943227340000142 -0.18274880523110981 0 -0.020398650555501 -0.16737386995278319 0 0.00095454359378272782 -0.16685631586716351 0 -0.020398650555501 -0.16737386995278319 0 -0.042048720043546407 -0.17737869348681989 0 -0.02148699420236819 -0.19495619076476989 0 -0.0049943227340000142 -0.18274880523110981 0 -0.020398650555501 -0.16737386995278319 0 -0.02148699420236819 -0.19495619076476989 0 -0.020398650555501 -0.16737386995278319 0 -0.041826389092084783 -0.1589993293006321 0 -0.042048720043546407 -0.17737869348681989 0 -0.042048720043546407 -0.17737869348681989 0 -0.038809678611644839 -0.19435951737623661 0 -0.048083660165031419 -0.18901643379536731 0 -0.042048720043546407 -0.17737869348681989 0 -0.02148699420236819 -0.19495619076476989 0 -0.042048720043546407 -0.17737869348681989 0 -0.058918490341957057 -0.17778373222470001 0 -0.058970373167704593 -0.16878880358285819 0 -0.042048720043546407 -0.17737869348681989 0 -0.058918490341957057 -0.17778373222470001 0 -0.048083660165031419 -0.18901643379536731 0 -0.058918490341957057 -0.17778373222470001 0 -0.048083660165031419 -0.18901643379536731 0 -0.055099641335658443 -0.1925443673096871 0 -0.041826389092084783 -0.1589993293006321 0 -0.042048720043546407 -0.17737869348681989 0 -0.06261044588472478 -0.15980119620886979 0 -0.042048720043546407 -0.17737869348681989 0 -0.058970373167704593 -0.16878880358285819 0 -0.06261044588472478 -0.15980119620886979 0 -0.042048720043546407 -0.17737869348681989 0 -0.06261044588472478 -0.15980119620886979 0 -0.041826389092084783 -0.1589993293006321 0 -0.052479892176822647 -0.14844615206088829 0 -0.06261044588472478 -0.15980119620886979 0 -0.052479892176822647 -0.14844615206088829 0 -0.059167403581638092 -0.1350338025598459 0 -0.068645393636575 -0.14633923289675699 0 -0.030149828689090649 -0.1420571993383368 0 -0.052479892176822647 -0.14844615206088829 0 -0.059167403581638092 -0.1350338025598459 0 -0.052479892176822647 -0.14844615206088829 0 -0.068645393636575 -0.14633923289675699 0 -0.06261044588472478 -0.15980119620886979 0 -0.045543804006045872 -0.11648543555160221 0 -0.030149828689090649 -0.1420571993383368 0 -0.059167403581638092 -0.1350338025598459 0 -0.030149828689090649 -0.1420571993383368 0 -0.059167403581638092 -0.1350338025598459 0 -0.045543804006045872 -0.11648543555160221 0 -0.0253521707500582 -0.1177659517448038 0 -0.030149828689090649 -0.1420571993383368 0 -0.030149828689090649 -0.1420571993383368 0 -0.041826389092084783 -0.1589993293006321 0 -0.052479892176822647 -0.14844615206088829 0 -0.032420232802132729 -0.25026067283641712 0 -0.031166517850516141 -0.23511519373156189 0 -0.020707525259693049 -0.24492552647519869 0 -0.031166517850516141 -0.23511519373156189 0 -0.020707525259693049 -0.24492552647519869 0 -0.017482011143221898 -0.23372273226547161 0 -0.020707525259693049 -0.24492552647519869 0 -0.012509208220571709 -0.23976107401889671 0 -0.017482011143221898 -0.23372273226547161 0 -0.0066347101700803546 -0.26203402040461299 0 -0.012108815734419069 -0.2492138465212094 0 -0.0022667461226881808 -0.2386345135768688 0 -0.020707525259693049 -0.24492552647519869 0 -0.012108815734419069 -0.2492138465212094 0 -0.012509208220571709 -0.23976107401889671 0 -0.012108815734419069 -0.2492138465212094 0 -0.0022667461226881808 -0.2386345135768688 0 -0.012509208220571709 -0.23976107401889671 0 -0.0022667461226881808 -0.2386345135768688 0 -0.012509208220571709 -0.23976107401889671 0 -0.0099809428428363489 -0.23230875125573461 0 -0.012509208220571709 -0.23976107401889671 0 -0.0099809428428363489 -0.23230875125573461 0 -0.017482011143221898 -0.23372273226547161 0 -0.0022667461226881808 -0.2386345135768688 0 -0.0099809428428363489 -0.23230875125573461 0 -0.005284798674993204 -0.22247124188000589 0 -0.0022667461226881808 -0.2386345135768688 0 -0.005284798674993204 -0.22247124188000589 0 0.002101217924703695 -0.21523500674912471 0 -0.0099809428428363489 -0.23230875125573461 0 -0.005284798674993204 -0.22247124188000589 0 -0.012640446259352249 -0.22522853818872729 0 -0.0022667461226881808 -0.2386345135768688 0 0.002101217924703695 -0.21523500674912471 0 -0.0099809428428363489 -0.23230875125573461 0 -0.012640446259352249 -0.22522853818872729 0 -0.017482011143221898 -0.23372273226547161 0 -0.012640446259352249 -0.22522853818872729 0 -0.02147037882925542 -0.22213613548264649 0 -0.011317859171708879 -0.21871370062953929 0 -0.005284798674993204 -0.22247124188000589 0 -0.012640446259352249 -0.22522853818872729 0 -0.011317859171708879 -0.21871370062953929 0 -0.012640446259352249 -0.22522853818872729 0 -0.02147037882925542 -0.22213613548264649 0 -0.017482011143221898 -0.23372273226547161 0 -0.031166517850516141 -0.23511519373156189 0 -0.02147037882925542 -0.22213613548264649 0 -0.017482011143221898 -0.23372273226547161 0 -0.031166517850516141 -0.23511519373156189 0 -0.02147037882925542 -0.22213613548264649 0 -0.032775058057902172 -0.2226600082216928 0 -0.02147037882925542 -0.22213613548264649 0 -0.016268403733753559 -0.211198899553597 0 -0.03422220171244756 -0.20945301396598151 0 -0.016268403733753559 -0.211198899553597 0 -0.02148699420236819 -0.19495619076476989 0 -0.03422220171244756 -0.20945301396598151 0 -0.02147037882925542 -0.22213613548264649 0 -0.03422220171244756 -0.20945301396598151 0 -0.032775058057902172 -0.2226600082216928 0 -0.02147037882925542 -0.22213613548264649 0 -0.016268403733753559 -0.211198899553597 0 -0.011317859171708879 -0.21871370062953929 0 -0.016268403733753559 -0.211198899553597 0 -0.00092526836118996675 -0.2125336880427198 0 -0.02148699420236819 -0.19495619076476989 0 -0.016268403733753559 -0.211198899553597 0 -0.011317859171708879 -0.21871370062953929 0 -0.00092526836118996675 -0.2125336880427198 0 -0.00092526836118996675 -0.2125336880427198 0 -0.02148699420236819 -0.19495619076476989 0 -0.005284798674993204 -0.22247124188000589 0 -0.00092526836118996675 -0.2125336880427198 0 0.002101217924703695 -0.21523500674912471 0 -0.005284798674993204 -0.22247124188000589 0 -0.011317859171708879 -0.21871370062953929 0 -0.00092526836118996675 -0.2125336880427198 0 -0.00092526836118996675 -0.2125336880427198 0 -0.0055145796366369423 -0.19578922249617739 0 -0.02148699420236819 -0.19495619076476989 0 -0.0049943227340000142 -0.18274880523110981 0 -0.0055145796366369423 -0.19578922249617739 0 -0.02148699420236819 -0.19495619076476989 0 -0.0049943227340000142 -0.18274880523110981 0 -0.0055145796366369423 -0.19578922249617739 0 0.0064691819720955734 -0.19183549992138041 0 -0.042048720043546407 -0.17737869348681989 0 -0.02148699420236819 -0.19495619076476989 0 -0.038809678611644839 -0.19435951737623661 0 -0.02148699420236819 -0.19495619076476989 0 -0.038809678611644839 -0.19435951737623661 0 -0.03422220171244756 -0.20945301396598151 0 -0.038809678611644839 -0.19435951737623661 0 -0.048206816934830643 -0.2009932548682446 0 -0.03422220171244756 -0.20945301396598151 0 -0.038809678611644839 -0.19435951737623661 0 -0.048083660165031419 -0.18901643379536731 0 -0.048206816934830643 -0.2009932548682446 0 -0.058918490341957057 -0.17778373222470001 0 -0.055099641335658443 -0.1925443673096871 0 -0.062650670635838734 -0.19452914644682009 0 -0.048083660165031419 -0.18901643379536731 0 -0.055099641335658443 -0.1925443673096871 0 -0.048206816934830643 -0.2009932548682446 0 -0.055099641335658443 -0.1925443673096871 0 -0.057638568600634321 -0.20039926921330359 0 -0.062650670635838734 -0.19452914644682009 0 -0.055099641335658443 -0.1925443673096871 0 -0.057638568600634321 -0.20039926921330359 0 -0.048206816934830643 -0.2009932548682446 0 -0.048206816934830643 -0.2009932548682446 0 -0.059400203792498767 -0.2097550198255923 0 -0.046921544009454468 -0.21182614296707131 0 -0.057638568600634321 -0.20039926921330359 0 -0.059400203792498767 -0.2097550198255923 0 -0.069044411831859456 -0.19930609305002661 0 -0.057638568600634321 -0.20039926921330359 0 -0.048206816934830643 -0.2009932548682446 0 -0.059400203792498767 -0.2097550198255923 0 -0.059400203792498767 -0.2097550198255923 0 -0.0513236654953542 -0.21963480420093659 0 -0.064241800126254814 -0.2252558901347925 0 -0.059400203792498767 -0.2097550198255923 0 -0.046921544009454468 -0.21182614296707131 0 -0.0513236654953542 -0.21963480420093659 0 -0.046921544009454468 -0.21182614296707131 0 -0.03422220171244756 -0.20945301396598151 0 -0.041454832112141168 -0.21929462197460159 0 -0.046921544009454468 -0.21182614296707131 0 -0.041454832112141168 -0.21929462197460159 0 -0.0513236654953542 -0.21963480420093659 0 -0.048206816934830643 -0.2009932548682446 0 -0.046921544009454468 -0.21182614296707131 0 -0.03422220171244756 -0.20945301396598151 0 -0.03422220171244756 -0.20945301396598151 0 -0.032775058057902172 -0.2226600082216928 0 -0.041454832112141168 -0.21929462197460159 0 -0.032775058057902172 -0.2226600082216928 0 -0.038775607774402782 -0.22784069980264571 0 -0.041454832112141168 -0.21929462197460159 0 -0.031166517850516141 -0.23511519373156189 0 -0.038775607774402782 -0.22784069980264571 0 -0.044507357497634792 -0.2349078881291968 0 -0.031166517850516141 -0.23511519373156189 0 -0.032775058057902172 -0.2226600082216928 0 -0.038775607774402782 -0.22784069980264571 0 -0.038775607774402782 -0.22784069980264571 0 -0.046102010592113662 -0.22651079310182351 0 -0.044507357497634792 -0.2349078881291968 0 -0.038775607774402782 -0.22784069980264571 0 -0.041454832112141168 -0.21929462197460159 0 -0.046102010592113662 -0.22651079310182351 0 -0.041454832112141168 -0.21929462197460159 0 -0.046102010592113662 -0.22651079310182351 0 -0.0513236654953542 -0.21963480420093659 0 -0.046102010592113662 -0.22651079310182351 0 -0.0513236654953542 -0.21963480420093659 0 -0.054379271399051833 -0.23084020355637991 0 -0.0513236654953542 -0.21963480420093659 0 -0.054379271399051833 -0.23084020355637991 0 -0.064241800126254814 -0.2252558901347925 0 -0.054379271399051833 -0.23084020355637991 0 -0.065568489668149488 -0.2381835165705935 0 -0.064241800126254814 -0.2252558901347925 0 -0.046102010592113662 -0.22651079310182351 0 -0.054379271399051833 -0.23084020355637991 0 -0.044507357497634792 -0.2349078881291968 0 -0.054379271399051833 -0.23084020355637991 0 -0.054124271495336648 -0.244260718842536 0 -0.044507357497634792 -0.2349078881291968 0 -0.054379271399051833 -0.23084020355637991 0 -0.054124271495336648 -0.244260718842536 0 -0.065568489668149488 -0.2381835165705935 0 -0.045729757362561567 -0.25659706683429062 0 -0.054124271495336648 -0.244260718842536 0 -0.041314610074040407 -0.24427023327604239 0 -0.054124271495336648 -0.244260718842536 0 -0.041314610074040407 -0.24427023327604239 0 -0.044507357497634792 -0.2349078881291968 0 -0.031166517850516141 -0.23511519373156189 0 -0.041314610074040407 -0.24427023327604239 0 -0.044507357497634792 -0.2349078881291968 0 -0.032420232802132729 -0.25026067283641712 0 -0.031166517850516141 -0.23511519373156189 0 -0.041314610074040407 -0.24427023327604239 0 -0.086402414537331718 -0.2530982417260294 0 -0.089008147647712865 -0.24173845104122649 0 -0.089008147647712865 -0.24173845104122649 0 -0.076143095175852826 -0.2432110370141887 0 -0.074797562471551157 -0.23378223336128551 0 -0.089008147647712865 -0.24173845104122649 0 -0.080128595710807951 -0.2495590409187248 0 -0.076143095175852826 -0.2432110370141887 0 -0.086402414537331718 -0.2530982417260294 0 -0.089008147647712865 -0.24173845104122649 0 -0.080128595710807951 -0.2495590409187248 0 -0.069062654262053561 -0.25284322283179189 0 -0.080128595710807951 -0.2495590409187248 0 -0.076143095175852826 -0.2432110370141887 0 -0.069062654262053561 -0.25284322283179189 0 -0.054124271495336648 -0.244260718842536 0 -0.065568489668149488 -0.2381835165705935 0 -0.069062654262053561 -0.25284322283179189 0 -0.076143095175852826 -0.2432110370141887 0 -0.065568489668149488 -0.2381835165705935 0 -0.076143095175852826 -0.2432110370141887 0 -0.065568489668149488 -0.2381835165705935 0 -0.074797562471551157 -0.23378223336128551 0 -0.065568489668149488 -0.2381835165705935 0 -0.074797562471551157 -0.23378223336128551 0 -0.064241800126254814 -0.2252558901347925 0 -0.074797562471551157 -0.23378223336128551 0 -0.064241800126254814 -0.2252558901347925 0 -0.079026279739786848 -0.2205222720456263 0 -0.089008147647712865 -0.24173845104122649 0 -0.094396571671846383 -0.2182474155275374 0 -0.089008147647712865 -0.24173845104122649 0 -0.079026279739786848 -0.2205222720456263 0 -0.089008147647712865 -0.24173845104122649 0 -0.079026279739786848 -0.2205222720456263 0 -0.094396571671846383 -0.2182474155275374 0 -0.089008147647712865 -0.24173845104122649 0 -0.074797562471551157 -0.23378223336128551 0 -0.079026279739786848 -0.2205222720456263 0 -0.081720491751852933 -0.20877675428878201 0 -0.099309107329836083 -0.19683103309600941 0 -0.094396571671846383 -0.2182474155275374 0 -0.081720491751852933 -0.20877675428878201 0 -0.094396571671846383 -0.2182474155275374 0 -0.079026279739786848 -0.2205222720456263 0 -0.081720491751852933 -0.20877675428878201 0 -0.094396571671846383 -0.2182474155275374 0 -0.079026279739786848 -0.2205222720456263 0 -0.081720491751852933 -0.20877675428878201 0 -0.069044411831859456 -0.19930609305002661 0 -0.079026279739786848 -0.2205222720456263 0 -0.069044411831859456 -0.19930609305002661 0 -0.059400203792498767 -0.2097550198255923 0 -0.079026279739786848 -0.2205222720456263 0 -0.069044411831859456 -0.19930609305002661 0 -0.059400203792498767 -0.2097550198255923 0 -0.064241800126254814 -0.2252558901347925 0 -0.079026279739786848 -0.2205222720456263 0 -0.081720491751852933 -0.20877675428878201 0 -0.069044411831859456 -0.19930609305002661 0 -0.081720491751852933 -0.20877675428878201 0 -0.069044411831859456 -0.19930609305002661 0 -0.083121352909691928 -0.19418378341838979 0 -0.058918490341957057 -0.17778373222470001 0 -0.069044411831859456 -0.19930609305002661 0 -0.062650670635838734 -0.19452914644682009 0 -0.058918490341957057 -0.17778373222470001 0 -0.069044411831859456 -0.19930609305002661 0 -0.069044411831859456 -0.19930609305002661 0 -0.083121352909691928 -0.19418378341838979 0 -0.074206895887143784 -0.1836508443147114 0 -0.057638568600634321 -0.20039926921330359 0 -0.069044411831859456 -0.19930609305002661 0 -0.062650670635838734 -0.19452914644682009 0 -0.069044411831859456 -0.19930609305002661 0 -0.062650670635838734 -0.19452914644682009 0 -0.083121352909691928 -0.19418378341838979 0 -0.099309107329836083 -0.19683103309600941 0 -0.089230158085929281 -0.1812018496960994 0 -0.081720491751852933 -0.20877675428878201 0 -0.083121352909691928 -0.19418378341838979 0 -0.099309107329836083 -0.19683103309600941 0 -0.099309107329836083 -0.19683103309600941 0 -0.11945877907110911 -0.19527809161832901 0 -0.1042216429878258 -0.17541465066448131 0 -0.099309107329836083 -0.19683103309600941 0 -0.11945877907110911 -0.19527809161832901 0 -0.1122965929796375 -0.2121866015945415 0 -0.11945877907110911 -0.19527809161832901 0 -0.1122965929796375 -0.2121866015945415 0 -0.13204013030797909 -0.21260893748457529 0 -0.099309107329836083 -0.19683103309600941 0 -0.1122965929796375 -0.2121866015945415 0 -0.094396571671846383 -0.2182474155275374 0 -0.099309107329836083 -0.19683103309600941 0 -0.094396571671846383 -0.2182474155275374 0 -0.094396571671846383 -0.2182474155275374 0 -0.1077348799027411 -0.22821284644547349 0 -0.099984901098435192 -0.23599512570079731 0 -0.1122965929796375 -0.2121866015945415 0 -0.094396571671846383 -0.2182474155275374 0 -0.1077348799027411 -0.22821284644547349 0 -0.089008147647712865 -0.24173845104122649 0 -0.094396571671846383 -0.2182474155275374 0 -0.099984901098435192 -0.23599512570079731 0 -0.094396571671846383 -0.2182474155275374 0 -0.1077348799027411 -0.22821284644547349 0 -0.1077348799027411 -0.22821284644547349 0 -0.1115203288717217 -0.23729534460384721 0 -0.099984901098435192 -0.23599512570079731 0 -0.1147273540776001 -0.23343712355234131 0 -0.13204013030797909 -0.21260893748457529 0 -0.1122965929796375 -0.2121866015945415 0 -0.1147273540776001 -0.23343712355234131 0 -0.13204013030797909 -0.21260893748457529 0 -0.1122965929796375 -0.2121866015945415 0 -0.1077348799027411 -0.22821284644547349 0 -0.1147273540776001 -0.23343712355234131 0 -0.1077348799027411 -0.22821284644547349 0 -0.1115203288717217 -0.23729534460384721 0 -0.1077348799027411 -0.22821284644547349 0 -0.1147273540776001 -0.23343712355234131 0 -0.1115203288717217 -0.23729534460384721 0 -0.1077348799027411 -0.22821284644547349 0 -0.1147273540776001 -0.23343712355234131 0 -0.1147273540776001 -0.23343712355234131 0 -0.1115203288717217 -0.23729534460384721 0 -0.13685178126956929 -0.24996691480950431 0 -0.1147273540776001 -0.23343712355234131 0 -0.1115203288717217 -0.23729534460384721 0 -0.097528990332044985 -0.25412766534568998 0 -0.089008147647712865 -0.24173845104122649 0 -0.099984901098435192 -0.23599512570079731 0 -0.097528990332044985 -0.25412766534568998 0 -0.1115203288717217 -0.23729534460384721 0 -0.097528990332044985 -0.25412766534568998 0 -0.1115203288717217 -0.23729534460384721 0 -0.099984901098435192 -0.23599512570079731 0 -0.082151750275142016 -0.15227416178732259 0 -0.088184978474185521 -0.12801040578135511 0 -0.068645393636575 -0.14633923289675699 0 -0.082151750275142016 -0.15227416178732259 0 -0.10533312738257949 -0.13575951999178679 0 -0.082151750275142016 -0.15227416178732259 0 -0.088184978474185521 -0.12801040578135511 0 -0.10533312738257949 -0.13575951999178679 0 -0.059167403581638092 -0.1350338025598459 0 -0.088184978474185521 -0.12801040578135511 0 -0.059167403581638092 -0.1350338025598459 0 -0.088184978474185521 -0.12801040578135511 0 -0.068645393636575 -0.14633923289675699 0 -0.06985470665528784 -0.11573341780121919 0 -0.059167403581638092 -0.1350338025598459 0 -0.088184978474185521 -0.12801040578135511 0 -0.082151750275142016 -0.15227416178732259 0 -0.068645393636575 -0.14633923289675699 0 -0.06261044588472478 -0.15980119620886979 0 -0.058970373167704593 -0.16878880358285819 0 -0.082151750275142016 -0.15227416178732259 0 -0.06261044588472478 -0.15980119620886979 0 -0.058970373167704593 -0.16878880358285819 0 -0.082151750275142016 -0.15227416178732259 0 -0.071108209387675689 -0.17078997472824009 0 -0.058970373167704593 -0.16878880358285819 0 -0.082151750275142016 -0.15227416178732259 0 -0.058918490341957057 -0.17778373222470001 0 -0.069044411831859456 -0.19930609305002661 0 -0.074206895887143784 -0.1836508443147114 0 -0.058918490341957057 -0.17778373222470001 0 -0.071108209387675689 -0.17078997472824009 0 -0.074206895887143784 -0.1836508443147114 0 -0.058918490341957057 -0.17778373222470001 0 -0.058970373167704593 -0.16878880358285819 0 -0.071108209387675689 -0.17078997472824009 0 -0.071108209387675689 -0.17078997472824009 0 -0.074206895887143784 -0.1836508443147114 0 -0.081293537266431015 -0.17145233173160829 0 -0.083121352909691928 -0.19418378341838979 0 -0.074206895887143784 -0.1836508443147114 0 -0.089230158085929281 -0.1812018496960994 0 -0.074206895887143784 -0.1836508443147114 0 -0.089230158085929281 -0.1812018496960994 0 -0.081293537266431015 -0.17145233173160829 0 -0.089230158085929281 -0.1812018496960994 0 -0.081293537266431015 -0.17145233173160829 0 -0.093228412134647165 -0.16567845495139649 0 -0.082151750275142016 -0.15227416178732259 0 -0.071108209387675689 -0.17078997472824009 0 -0.081293537266431015 -0.17145233173160829 0 -0.082151750275142016 -0.15227416178732259 0 -0.081293537266431015 -0.17145233173160829 0 -0.093228412134647165 -0.16567845495139649 0 -0.1042216429878258 -0.17541465066448131 0 -0.1091341786458155 -0.15399826823295329 0 -0.082151750275142016 -0.15227416178732259 0 -0.093228412134647165 -0.16567845495139649 0 -0.1091341786458155 -0.15399826823295329 0 -0.093228412134647165 -0.16567845495139649 0 -0.1042216429878258 -0.17541465066448131 0 -0.1091341786458155 -0.15399826823295329 0 -0.099309107329836083 -0.19683103309600941 0 -0.1042216429878258 -0.17541465066448131 0 -0.099309107329836083 -0.19683103309600941 0 -0.089230158085929281 -0.1812018496960994 0 -0.1042216429878258 -0.17541465066448131 0 -0.089230158085929281 -0.1812018496960994 0 -0.093228412134647165 -0.16567845495139649 0 -0.1042216429878258 -0.17541465066448131 0 -0.11945877907110911 -0.19527809161832901 0 -0.1042216429878258 -0.17541465066448131 0 -0.12901005448167091 -0.1774681495480763 0 -0.1042216429878258 -0.17541465066448131 0 -0.1235605780643942 -0.16128723322127669 0 -0.1091341786458155 -0.15399826823295329 0 -0.1042216429878258 -0.17541465066448131 0 -0.1235605780643942 -0.16128723322127669 0 -0.12901005448167091 -0.1774681495480763 0 -0.1091341786458155 -0.15399826823295329 0 -0.10533312738257949 -0.13575951999178679 0 -0.12561010146866269 -0.14319527130708881 0 -0.1235605780643942 -0.16128723322127669 0 -0.1091341786458155 -0.15399826823295329 0 -0.12561010146866269 -0.14319527130708881 0 -0.082151750275142016 -0.15227416178732259 0 -0.1091341786458155 -0.15399826823295329 0 -0.10533312738257949 -0.13575951999178679 0 -0.10344028973991599 -0.1181431917005573 0 -0.088184978474185521 -0.12801040578135511 0 -0.10533312738257949 -0.13575951999178679 0 -0.10533312738257949 -0.13575951999178679 0 -0.12561010146866269 -0.14319527130708881 0 -0.12851450449001681 -0.11924487819625119 0 -0.10533312738257949 -0.13575951999178679 0 -0.12851450449001681 -0.11924487819625119 0 -0.1487546599681262 -0.13725529291578581 0 -0.12561010146866269 -0.14319527130708881 0 -0.12851450449001681 -0.11924487819625119 0 -0.1487546599681262 -0.13725529291578581 0 -0.13879892256602469 -0.15653712402026321 0 -0.15548266520863241 -0.1571961593025675 0 -0.1487546599681262 -0.13725529291578581 0 -0.12561010146866269 -0.14319527130708881 0 -0.13879892256602469 -0.15653712402026321 0 -0.1235605780643942 -0.16128723322127669 0 -0.12561010146866269 -0.14319527130708881 0 -0.13879892256602469 -0.15653712402026321 0 -0.13879892256602469 -0.15653712402026321 0 -0.12901005448167091 -0.1774681495480763 0 -0.14752780908433691 -0.1727616089836615 0 -0.1235605780643942 -0.16128723322127669 0 -0.13879892256602469 -0.15653712402026321 0 -0.12901005448167091 -0.1774681495480763 0 -0.14752780908433691 -0.1727616089836615 0 -0.16666568276873589 -0.17095256534904249 0 -0.149352906538358 -0.19178075141680931 0 -0.12901005448167091 -0.1774681495480763 0 -0.14752780908433691 -0.1727616089836615 0 -0.149352906538358 -0.19178075141680931 0 -0.13879892256602469 -0.15653712402026321 0 -0.14752780908433691 -0.1727616089836615 0 -0.15548266520863241 -0.1571961593025675 0 -0.16666568276873589 -0.17095256534904249 0 -0.16993604954548949 -0.14717791037182279 0 -0.15548266520863241 -0.1571961593025675 0 -0.16666568276873589 -0.17095256534904249 0 -0.16993604954548949 -0.14717791037182279 0 -0.14752780908433691 -0.1727616089836615 0 -0.15548266520863241 -0.1571961593025675 0 -0.16666568276873589 -0.17095256534904249 0 -0.16666568276873589 -0.17095256534904249 0 -0.1720447242821358 -0.16174773503342549 0 -0.16993604954548949 -0.14717791037182279 0 -0.16666568276873589 -0.17095256534904249 0 -0.17166228082577639 -0.16494139344610731 0 -0.1720447242821358 -0.16174773503342549 0 -0.16666568276873589 -0.17095256534904249 0 -0.17166228082577639 -0.16494139344610731 0 -0.17166228082577639 -0.16494139344610731 0 -0.1720447242821358 -0.16174773503342549 0 -0.16666568276873589 -0.17095256534904249 0 -0.17166228082577639 -0.16494139344610731 0 -0.16855159337070261 -0.19091771228464111 0 -0.17166228082577639 -0.16494139344610731 0 -0.16855159337070261 -0.19091771228464111 0 -0.16666568276873589 -0.17095256534904249 0 -0.1627357838377505 -0.19952183526812309 0 -0.16855159337070261 -0.19091771228464111 0 -0.16666568276873589 -0.17095256534904249 0 -0.149352906538358 -0.19178075141680931 0 -0.17166228082577639 -0.16494139344610731 0 -0.17525314722432259 -0.173734874967687 0 -0.16855159337070261 -0.19091771228464111 0 -0.16666568276873589 -0.17095256534904249 0 -0.1627357838377505 -0.19952183526812309 0 -0.16666568276873589 -0.17095256534904249 0 -0.149352906538358 -0.19178075141680931 0 -0.1627357838377505 -0.19952183526812309 0 -0.1767489917097271 -0.18125821328079361 0 -0.17525314722432259 -0.173734874967687 0 -0.16855159337070261 -0.19091771228464111 0 -0.1767489917097271 -0.18125821328079361 0 -0.16855159337070261 -0.19091771228464111 0 -0.17800386065345811 -0.18848334235855091 0 -0.1767489917097271 -0.18125821328079361 0 -0.17525314722432259 -0.173734874967687 0 -0.18137572561572379 -0.17621085489853791 0 -0.17525314722432259 -0.173734874967687 0 -0.18137572561572379 -0.17621085489853791 0 -0.18133886475852071 -0.16871620071701021 0 -0.18137572561572379 -0.17621085489853791 0 -0.184427061269404 -0.18282346274701539 0 -0.1891105631166447 -0.1745215227801831 0 -0.18137572561572379 -0.17621085489853791 0 -0.18133886475852071 -0.16871620071701021 0 -0.1891105631166447 -0.1745215227801831 0 -0.1767489917097271 -0.18125821328079361 0 -0.18137572561572379 -0.17621085489853791 0 -0.184427061269404 -0.18282346274701539 0 -0.1767489917097271 -0.18125821328079361 0 -0.184427061269404 -0.18282346274701539 0 -0.17800386065345811 -0.18848334235855091 0 -0.17601244053032061 -0.15970792109337489 0 -0.17738231060961959 -0.16471981190443671 0 -0.18386553171199721 -0.1607197556162821 0 -0.17166228082577639 -0.16494139344610731 0 -0.17601244053032061 -0.15970792109337489 0 -0.17738231060961959 -0.16471981190443671 0 -0.17166228082577639 -0.16494139344610731 0 -0.17601244053032061 -0.15970792109337489 0 -0.17166228082577639 -0.16494139344610731 0 -0.17601244053032061 -0.15970792109337489 0 -0.1720447242821358 -0.16174773503342549 0 -0.17166228082577639 -0.16494139344610731 0 -0.17525314722432259 -0.173734874967687 0 -0.1764091508545598 -0.16802807025881031 0 -0.17166228082577639 -0.16494139344610731 0 -0.1764091508545598 -0.16802807025881031 0 -0.17738231060961959 -0.16471981190443671 0 -0.17525314722432259 -0.173734874967687 0 -0.1764091508545598 -0.16802807025881031 0 -0.18133886475852071 -0.16871620071701021 0 -0.1764091508545598 -0.16802807025881031 0 -0.17738231060961959 -0.16471981190443671 0 -0.18133886475852071 -0.16871620071701021 0 -0.18133886475852071 -0.16871620071701021 0 -0.18878298984277789 -0.1657482219249983 0 -0.1891105631166447 -0.1745215227801831 0 -0.17738231060961959 -0.16471981190443671 0 -0.18133886475852071 -0.16871620071701021 0 -0.18386553171199721 -0.1607197556162821 0 -0.18133886475852071 -0.16871620071701021 0 -0.18386553171199721 -0.1607197556162821 0 -0.18878298984277789 -0.1657482219249983 0 -0.17601244053032061 -0.15970792109337489 0 -0.18386553171199721 -0.1607197556162821 0 -0.18151027782013579 -0.14930339232780601 0 -0.18386553171199721 -0.1607197556162821 0 -0.18151027782013579 -0.14930339232780601 0 -0.1912007096150618 -0.15498136591914929 0 -0.18151027782013579 -0.14930339232780601 0 -0.18586820909522009 -0.13809270552836239 0 -0.1912007096150618 -0.15498136591914929 0 -0.18151027782013579 -0.14930339232780601 0 -0.18586820909522009 -0.13809270552836239 0 -0.16993604954548949 -0.14717791037182279 0 -0.17601244053032061 -0.15970792109337489 0 -0.18151027782013579 -0.14930339232780601 0 -0.16993604954548949 -0.14717791037182279 0 -0.17601244053032061 -0.15970792109337489 0 -0.1720447242821358 -0.16174773503342549 0 -0.16993604954548949 -0.14717791037182279 0 -0.18586820909522009 -0.13809270552836239 0 -0.16993604954548949 -0.14717791037182279 0 -0.1732064163222323 -0.1234032553946016 0 -0.18586820909522009 -0.13809270552836239 0 -0.19890534426130371 -0.11653644700893941 0 -0.1732064163222323 -0.1234032553946016 0 -0.18586820909522009 -0.13809270552836239 0 -0.1732064163222323 -0.1234032553946016 0 -0.1487546599681262 -0.13725529291578581 0 -0.16993604954548949 -0.14717791037182279 0 -0.1732064163222323 -0.1234032553946016 0 -0.1487546599681262 -0.13725529291578581 0 -0.1732064163222323 -0.1234032553946016 0 -0.1522685036293179 -0.11795078749497551 0 -0.16993604954548949 -0.14717791037182279 0 -0.1732064163222323 -0.1234032553946016 0 -0.1487546599681262 -0.13725529291578581 0 -0.15548266520863241 -0.1571961593025675 0 -0.16993604954548949 -0.14717791037182279 0 -0.15487598597578189 -0.25666037510628409 0 -0.13685178126956929 -0.24996691480950431 0 -0.1588058849067662 -0.2280911051872036 0 -0.13685178126956929 -0.24996691480950431 0 -0.13470279288830209 -0.23014897496026299 0 -0.1588058849067662 -0.2280911051872036 0 -0.1147273540776001 -0.23343712355234131 0 -0.13685178126956929 -0.24996691480950431 0 -0.13470279288830209 -0.23014897496026299 0 -0.1147273540776001 -0.23343712355234131 0 -0.13685178126956929 -0.24996691480950431 0 -0.1147273540776001 -0.23343712355234131 0 -0.13470279288830209 -0.23014897496026299 0 -0.13204013030797909 -0.21260893748457529 0 -0.13470279288830209 -0.23014897496026299 0 -0.14825054942133661 -0.20966023411105131 0 -0.1588058849067662 -0.2280911051872036 0 -0.14825054942133661 -0.20966023411105131 0 -0.13204013030797909 -0.21260893748457529 0 -0.149352906538358 -0.19178075141680931 0 -0.13470279288830209 -0.23014897496026299 0 -0.14825054942133661 -0.20966023411105131 0 -0.13204013030797909 -0.21260893748457529 0 -0.11945877907110911 -0.19527809161832901 0 -0.13204013030797909 -0.21260893748457529 0 -0.149352906538358 -0.19178075141680931 0 -0.11945877907110911 -0.19527809161832901 0 -0.12901005448167091 -0.1774681495480763 0 -0.149352906538358 -0.19178075141680931 0 -0.14825054942133661 -0.20966023411105131 0 -0.149352906538358 -0.19178075141680931 0 -0.1627357838377505 -0.19952183526812309 0 -0.13204013030797909 -0.21260893748457529 0 -0.149352906538358 -0.19178075141680931 0 -0.1627357838377505 -0.19952183526812309 0 -0.16855159337070261 -0.19091771228464111 0 -0.1654409059156294 -0.21689403112317501 0 -0.16855159337070261 -0.19091771228464111 0 -0.17800386065345811 -0.18848334235855091 0 -0.17747129892593991 -0.19634032972581511 0 -0.184427061269404 -0.18282346274701539 0 -0.17800386065345811 -0.18848334235855091 0 -0.1852937882360792 -0.1920268384808714 0 -0.17800386065345811 -0.18848334235855091 0 -0.1852937882360792 -0.1920268384808714 0 -0.17747129892593991 -0.19634032972581511 0 -0.1852937882360792 -0.1920268384808714 0 -0.17747129892593991 -0.19634032972581511 0 -0.18967221426625819 -0.20662133878464389 0 -0.17747129892593991 -0.19634032972581511 0 -0.1746146044128587 -0.20481817651344189 0 -0.18967221426625819 -0.20662133878464389 0 -0.16855159337070261 -0.19091771228464111 0 -0.17747129892593991 -0.19634032972581511 0 -0.1746146044128587 -0.20481817651344189 0 -0.17948577021906351 -0.21804110076463121 0 -0.19196838494489951 -0.22336842639083301 0 -0.18967221426625819 -0.20662133878464389 0 -0.1746146044128587 -0.20481817651344189 0 -0.17948577021906351 -0.21804110076463121 0 -0.18967221426625819 -0.20662133878464389 0 -0.1746146044128587 -0.20481817651344189 0 -0.17948577021906351 -0.21804110076463121 0 -0.1654409059156294 -0.21689403112317501 0 -0.14825054942133661 -0.20966023411105131 0 -0.1627357838377505 -0.19952183526812309 0 -0.1588058849067662 -0.2280911051872036 0 -0.1627357838377505 -0.19952183526812309 0 -0.1654409059156294 -0.21689403112317501 0 -0.1588058849067662 -0.2280911051872036 0 -0.16855159337070261 -0.19091771228464111 0 -0.1746146044128587 -0.20481817651344189 0 -0.1654409059156294 -0.21689403112317501 0 -0.1627357838377505 -0.19952183526812309 0 -0.1588058849067662 -0.2280911051872036 0 -0.16855159337070261 -0.19091771228464111 0 -0.1654409059156294 -0.21689403112317501 0 -0.1654409059156294 -0.21689403112317501 0 -0.1735422067143475 -0.23033906176662791 0 -0.1623302184605562 -0.24287034996170889 0 -0.1654409059156294 -0.21689403112317501 0 -0.1623302184605562 -0.24287034996170889 0 -0.1654409059156294 -0.21689403112317501 0 -0.1588058849067662 -0.2280911051872036 0 -0.1623302184605562 -0.24287034996170889 0 -0.17948577021906351 -0.21804110076463121 0 -0.1654409059156294 -0.21689403112317501 0 -0.1735422067143475 -0.23033906176662791 0 -0.17948577021906351 -0.21804110076463121 0 -0.1834678646968248 -0.23145744035455981 0 -0.19196838494489951 -0.22336842639083301 0 -0.17948577021906351 -0.21804110076463121 0 -0.1834678646968248 -0.23145744035455981 0 -0.1735422067143475 -0.23033906176662791 0 -0.1834678646968248 -0.23145744035455981 0 -0.1735422067143475 -0.23033906176662791 0 -0.17698627427966371 -0.2424323866290648 0 -0.1834678646968248 -0.23145744035455981 0 -0.17698627427966371 -0.2424323866290648 0 -0.18884488688963899 -0.24197164342126989 0 -0.1851647614308066 -0.25125861257519921 0 -0.17698627427966371 -0.2424323866290648 0 -0.18884488688963899 -0.24197164342126989 0 -0.15487598597578189 -0.25666037510628409 0 -0.1588058849067662 -0.2280911051872036 0 -0.1744201733432538 -0.25845456654782362 0 -0.17698627427966371 -0.2424323866290648 0 -0.1623302184605562 -0.24287034996170889 0 -0.15487598597578189 -0.25666037510628409 0 -0.1588058849067662 -0.2280911051872036 0 -0.1623302184605562 -0.24287034996170889 0 -0.1735422067143475 -0.23033906176662791 0 -0.17698627427966371 -0.2424323866290648 0 -0.1623302184605562 -0.24287034996170889 0 -0.21229277179239081 -0.2407730569091879 0 -0.22126906613789599 -0.23125390698764869 0 -0.21229277179239081 -0.2407730569091879 0 -0.19909052487695861 -0.242132382142454 0 -0.20347169592413961 -0.23057050284392169 0 -0.21229277179239081 -0.2407730569091879 0 -0.20347169592413961 -0.23057050284392169 0 -0.19476493527325819 -0.25936091702199632 0 -0.21229277179239081 -0.2407730569091879 0 -0.19909052487695861 -0.242132382142454 0 -0.1851647614308066 -0.25125861257519921 0 -0.19196627711766559 -0.24868088879022979 0 -0.18884488688963899 -0.24197164342126989 0 -0.19196627711766559 -0.24868088879022979 0 -0.18884488688963899 -0.24197164342126989 0 -0.19909052487695861 -0.242132382142454 0 -0.18884488688963899 -0.24197164342126989 0 -0.19909052487695861 -0.242132382142454 0 -0.1934971523495379 -0.2337004338741798 0 -0.1834678646968248 -0.23145744035455981 0 -0.18884488688963899 -0.24197164342126989 0 -0.1934971523495379 -0.2337004338741798 0 -0.19909052487695861 -0.242132382142454 0 -0.1934971523495379 -0.2337004338741798 0 -0.20347169592413961 -0.23057050284392169 0 -0.1934971523495379 -0.2337004338741798 0 -0.19196838494489951 -0.22336842639083301 0 -0.20347169592413961 -0.23057050284392169 0 -0.1834678646968248 -0.23145744035455981 0 -0.1934971523495379 -0.2337004338741798 0 -0.19196838494489951 -0.22336842639083301 0 -0.19196838494489951 -0.22336842639083301 0 -0.20347169592413961 -0.23057050284392169 0 -0.20488397625648869 -0.21685189891152659 0 -0.21229277179239081 -0.2407730569091879 0 -0.20347169592413961 -0.23057050284392169 0 -0.22126906613789599 -0.23125390698764869 0 -0.20347169592413961 -0.23057050284392169 0 -0.20488397625648869 -0.21685189891152659 0 -0.22126906613789599 -0.23125390698764869 0 -0.20488397625648869 -0.21685189891152659 0 -0.21567813566874439 -0.20257454199297201 0 -0.22126906613789599 -0.23125390698764869 0 -0.20488397625648869 -0.21685189891152659 0 -0.18967221426625819 -0.20662133878464389 0 -0.21567813566874439 -0.20257454199297201 0 -0.21567813566874439 -0.20257454199297201 0 -0.22126906613789599 -0.23125390698764869 0 -0.19196838494489951 -0.22336842639083301 0 -0.20488397625648869 -0.21685189891152659 0 -0.18967221426625819 -0.20662133878464389 0 -0.1852937882360792 -0.1920268384808714 0 -0.18967221426625819 -0.20662133878464389 0 -0.19743862695312039 -0.18620226629385289 0 -0.18967221426625819 -0.20662133878464389 0 -0.21567813566874439 -0.20257454199297201 0 -0.19743862695312039 -0.18620226629385289 0 -0.21567813566874439 -0.20257454199297201 0 -0.19743862695312039 -0.18620226629385289 0 -0.21008720519959739 -0.1738951769982944 0 -0.21567813566874439 -0.20257454199297201 0 -0.21008720519959739 -0.1738951769982944 0 -0.21567813566874439 -0.20257454199297201 0 -0.2295713323688828 -0.2031769884598901 0 -0.2335430549900232 -0.18508194377082679 0 -0.24205643140474761 -0.20920939297862751 0 -0.2295713323688828 -0.2031769884598901 0 -0.2335430549900232 -0.18508194377082679 0 -0.24479659859057129 -0.19441108710895591 0 -0.24205643140474761 -0.20920939297862751 0 -0.2335430549900232 -0.18508194377082679 0 -0.24205643140474761 -0.20920939297862751 0 -0.2335430549900232 -0.18508194377082679 0 -0.24479659859057129 -0.19441108710895591 0 -0.2438024512430936 -0.18267014993035049 0 -0.25449940411996819 -0.1899960014345351 0 -0.24479659859057129 -0.19441108710895591 0 -0.25449940411996819 -0.1899960014345351 0 -0.25064578342257748 -0.19770227846942581 0 -0.24479659859057129 -0.19441108710895591 0 -0.2469281484224633 -0.2040430511807865 0 -0.25064578342257748 -0.19770227846942581 0 -0.24479659859057129 -0.19441108710895591 0 -0.24205643140474761 -0.20920939297862751 0 -0.2469281484224633 -0.2040430511807865 0 -0.24205643140474761 -0.20920939297862751 0 -0.24919649157834911 -0.22944477677784869 0 -0.25479553338475952 -0.21380407726207479 0 -0.24205643140474761 -0.20920939297862751 0 -0.2469281484224633 -0.2040430511807865 0 -0.25479553338475952 -0.21380407726207479 0 -0.24205643140474761 -0.20920939297862751 0 -0.2469281484224633 -0.2040430511807865 0 -0.24205643140474761 -0.20920939297862751 0 -0.22714374139506929 -0.21155370760478601 0 -0.22126906613789599 -0.23125390698764869 0 -0.21567813566874439 -0.20257454199297201 0 -0.22714374139506929 -0.21155370760478601 0 -0.22126906613789599 -0.23125390698764869 0 -0.24205643140474761 -0.20920939297862751 0 -0.22714374139506929 -0.21155370760478601 0 -0.2295713323688828 -0.2031769884598901 0 -0.21567813566874439 -0.20257454199297201 0 -0.22714374139506929 -0.21155370760478601 0 -0.2295713323688828 -0.2031769884598901 0 -0.24205643140474761 -0.20920939297862751 0 -0.22126906613789599 -0.23125390698764869 0 -0.24205643140474761 -0.20920939297862751 0 -0.22126906613789599 -0.23125390698764869 0 -0.24919649157834911 -0.22944477677784869 0 -0.24205643140474761 -0.20920939297862751 0 -0.24919649157834911 -0.22944477677784869 0 -0.24919649157834911 -0.22944477677784869 0 -0.23914424273147569 -0.2443690931651924 0 -0.25633655175195141 -0.24968016057706971 0 -0.2393493786546918 -0.25469325497439688 0 -0.23914424273147569 -0.2443690931651924 0 -0.25633655175195141 -0.24968016057706971 0 -0.22126906613789599 -0.23125390698764869 0 -0.24919649157834911 -0.22944477677784869 0 -0.23914424273147569 -0.2443690931651924 0 -0.2262781706312966 -0.25694872413044523 0 -0.22126906613789599 -0.23125390698764869 0 -0.23914424273147569 -0.2443690931651924 0 -0.2262781706312966 -0.25694872413044523 0 -0.21229277179239081 -0.2407730569091879 0 -0.22126906613789599 -0.23125390698764869 0 -0.2262781706312966 -0.25694872413044523 0 -0.21229277179239081 -0.2407730569091879 0 -0.2262781706312966 -0.25694872413044523 0 -0.22126906613789599 -0.23125390698764869 0 -0.20449627473045051 -0.14521581200361691 0 -0.22502967857529829 -0.1609544945630263 0 -0.22139356404382221 -0.1444345862417056 0 -0.20449627473045051 -0.14521581200361691 0 -0.22139356404382221 -0.1444345862417056 0 -0.22238248589600809 -0.12603956718480891 0 -0.20449627473045051 -0.14521581200361691 0 -0.22238248589600809 -0.12603956718480891 0 -0.19890534426130371 -0.11653644700893941 0 -0.20449627473045051 -0.14521581200361691 0 -0.19890534426130371 -0.11653644700893941 0 -0.18586820909522009 -0.13809270552836239 0 -0.20449627473045051 -0.14521581200361691 0 -0.19890534426130371 -0.11653644700893941 0 -0.18586820909522009 -0.13809270552836239 0 -0.20449627473045051 -0.14521581200361691 0 -0.1912007096150618 -0.15498136591914929 0 -0.20449627473045051 -0.14521581200361691 0 -0.1912007096150618 -0.15498136591914929 0 -0.19697169376361309 -0.16699469203327361 0 -0.18386553171199721 -0.1607197556162821 0 -0.1912007096150618 -0.15498136591914929 0 -0.18878298984277789 -0.1657482219249983 0 -0.1912007096150618 -0.15498136591914929 0 -0.18878298984277789 -0.1657482219249983 0 -0.19697169376361309 -0.16699469203327361 0 -0.18878298984277789 -0.1657482219249983 0 -0.19697169376361309 -0.16699469203327361 0 -0.1891105631166447 -0.1745215227801831 0 -0.19697169376361309 -0.16699469203327361 0 -0.19743862695312039 -0.18620226629385289 0 -0.21008720519959739 -0.1738951769982944 0 -0.19697169376361309 -0.16699469203327361 0 -0.1891105631166447 -0.1745215227801831 0 -0.19743862695312039 -0.18620226629385289 0 -0.184427061269404 -0.18282346274701539 0 -0.1852937882360792 -0.1920268384808714 0 -0.19743862695312039 -0.18620226629385289 0 -0.184427061269404 -0.18282346274701539 0 -0.1891105631166447 -0.1745215227801831 0 -0.19743862695312039 -0.18620226629385289 0 -0.20449627473045051 -0.14521581200361691 0 -0.19697169376361309 -0.16699469203327361 0 -0.21008720519959739 -0.1738951769982944 0 -0.20449627473045051 -0.14521581200361691 0 -0.21008720519959739 -0.1738951769982944 0 -0.20449627473045051 -0.14521581200361691 0 -0.21008720519959739 -0.1738951769982944 0 -0.22502967857529829 -0.1609544945630263 0 -0.22502967857529829 -0.1609544945630263 0 -0.2335430549900232 -0.18508194377082679 0 -0.23904127562893901 -0.1684569966278901 0 -0.21008720519959739 -0.1738951769982944 0 -0.22502967857529829 -0.1609544945630263 0 -0.2335430549900232 -0.18508194377082679 0 -0.22502967857529829 -0.1609544945630263 0 -0.2335430549900232 -0.18508194377082679 0 -0.21567813566874439 -0.20257454199297201 0 -0.21008720519959739 -0.1738951769982944 0 -0.2335430549900232 -0.18508194377082679 0 -0.2335430549900232 -0.18508194377082679 0 -0.2438024512430936 -0.18267014993035049 0 -0.23904127562893901 -0.1684569966278901 0 -0.24479659859057129 -0.19441108710895591 0 -0.2335430549900232 -0.18508194377082679 0 -0.2438024512430936 -0.18267014993035049 0 -0.2438024512430936 -0.18267014993035049 0 -0.25370212550035909 -0.15996197856000161 0 -0.2438024512430936 -0.18267014993035049 0 -0.23904127562893901 -0.1684569966278901 0 -0.25370212550035909 -0.15996197856000161 0 -0.22502967857529829 -0.1609544945630263 0 -0.23904127562893901 -0.1684569966278901 0 -0.23912906783592081 -0.153616416315245 0 -0.23904127562893901 -0.1684569966278901 0 -0.23912906783592081 -0.153616416315245 0 -0.25370212550035909 -0.15996197856000161 0 -0.23912906783592081 -0.153616416315245 0 -0.2369820591010135 -0.1378674314785848 0 -0.2636017997576246 -0.13725380718965269 0 -0.22502967857529829 -0.1609544945630263 0 -0.23912906783592081 -0.153616416315245 0 -0.22139356404382221 -0.1444345862417056 0 -0.23912906783592081 -0.153616416315245 0 -0.22139356404382221 -0.1444345862417056 0 -0.2369820591010135 -0.1378674314785848 0 -0.22139356404382221 -0.1444345862417056 0 -0.22238248589600809 -0.12603956718480891 0 -0.2369820591010135 -0.1378674314785848 0 -0.22238248589600809 -0.12603956718480891 0 -0.2369820591010135 -0.1378674314785848 0 -0.24395647137384779 -0.12545654041261339 0 -0.2369820591010135 -0.1378674314785848 0 -0.24395647137384779 -0.12545654041261339 0 -0.2636017997576246 -0.13725380718965269 0 -0.24395647137384779 -0.12545654041261339 0 -0.2478793288110141 -0.1130174099790163 0 -0.25525621579365992 -0.1208836458952024 0 -0.23600172655782131 -0.1118883854953075 0 -0.2478793288110141 -0.1130174099790163 0 -0.24006915421710709 -0.10420596465129769 0 -0.24395647137384779 -0.12545654041261339 0 -0.23600172655782131 -0.1118883854953075 0 -0.2478793288110141 -0.1130174099790163 0 -0.2478793288110141 -0.1130174099790163 0 -0.24006915421710709 -0.10420596465129769 0 -0.25249118283028049 -0.1029309716675586 0 -0.23994590340662131 -0.086734477141112223 0 -0.25585503461737608 -0.104790536983435 0 -0.25248094839387042 -0.09513443491194995 0 -0.23994590340662131 -0.086734477141112223 0 -0.25249118283028049 -0.1029309716675586 0 -0.25585503461737608 -0.104790536983435 0 -0.23148089164567021 -0.091316307515814404 0 -0.25249118283028049 -0.1029309716675586 0 -0.23994590340662131 -0.086734477141112223 0 -0.25585503461737608 -0.104790536983435 0 -0.24006915421710709 -0.10420596465129769 0 -0.23148089164567021 -0.091316307515814404 0 -0.25249118283028049 -0.1029309716675586 0 -0.24006915421710709 -0.10420596465129769 0 -0.2324926412407495 -0.10187674859879139 0 -0.23148089164567021 -0.091316307515814404 0 -0.23600172655782131 -0.1118883854953075 0 -0.24006915421710709 -0.10420596465129769 0 -0.2324926412407495 -0.10187674859879139 0 -0.23600172655782131 -0.1118883854953075 0 -0.21465807017498811 -0.099872733754785628 0 -0.23600172655782131 -0.1118883854953075 0 -0.2324926412407495 -0.10187674859879139 0 -0.21465807017498811 -0.099872733754785628 0 -0.2324926412407495 -0.10187674859879139 0 -0.23148089164567021 -0.091316307515814404 0 -0.21465807017498811 -0.099872733754785628 0 -0.22238248589600809 -0.12603956718480891 0 -0.24395647137384779 -0.12545654041261339 0 -0.23600172655782131 -0.1118883854953075 0 -0.22238248589600809 -0.12603956718480891 0 -0.23600172655782131 -0.1118883854953075 0 -0.21465807017498811 -0.099872733754785628 0 -0.23986858638978609 -0.064961931129078665 0 -0.24660135465437691 -0.086575867280953567 0 -0.25016081396004591 -0.073608492850177634 0 -0.23986858638978609 -0.064961931129078665 0 -0.23994590340662131 -0.086734477141112223 0 -0.2239123346781316 -0.068903517951528367 0 -0.23986858638978609 -0.064961931129078665 0 -0.24660135465437691 -0.086575867280953567 0 -0.23986858638978609 -0.064961931129078665 0 -0.2510958606163266 -0.061473260803628672 0 -0.25016081396004591 -0.073608492850177634 0 -0.23994590340662131 -0.086734477141112223 0 -0.23148089164567021 -0.091316307515814404 0 -0.25249118283028049 -0.1029309716675586 0 -0.23986858638978609 -0.064961931129078665 0 -0.24660135465437691 -0.086575867280953567 0 -0.23994590340662131 -0.086734477141112223 0 -0.24660135465437691 -0.086575867280953567 0 -0.23994590340662131 -0.086734477141112223 0 -0.25248094839387042 -0.09513443491194995 0 -0.23994590340662131 -0.086734477141112223 0 -0.23148089164567021 -0.091316307515814404 0 -0.2239123346781316 -0.068903517951528367 0 -0.23148089164567021 -0.091316307515814404 0 -0.2239123346781316 -0.068903517951528367 0 -0.21047060046105989 -0.079701643364070207 0 -0.23148089164567021 -0.091316307515814404 0 -0.21047060046105989 -0.079701643364070207 0 -0.21465807017498811 -0.099872733754785628 0 -0.23148089164567021 -0.091316307515814404 0 -0.21047060046105989 -0.079701643364070207 0 -0.23986858638978609 -0.064961931129078665 0 -0.2239123346781316 -0.068903517951528367 0 -0.23003279853689779 -0.058060034830836812 0 -0.23994590340662131 -0.086734477141112223 0 -0.2239123346781316 -0.068903517951528367 0 -0.2099349821475171 -0.06256843556115177 0 -0.21047060046105989 -0.079701643364070207 0 -0.1994936990865987 -0.064571033035335582 0 -0.2239123346781316 -0.068903517951528367 0 -0.2099349821475171 -0.06256843556115177 0 -0.21047060046105989 -0.079701643364070207 0 -0.21047060046105989 -0.079701643364070207 0 -0.19331441379215561 -0.087857082014262136 0 -0.21465807017498811 -0.099872733754785628 0 -0.21047060046105989 -0.079701643364070207 0 -0.19331441379215561 -0.087857082014262136 0 -0.18946030927645091 -0.068086979212324067 0 -0.21047060046105989 -0.079701643364070207 0 -0.18946030927645091 -0.068086979212324067 0 -0.19331441379215561 -0.087857082014262136 0 -0.18946030927645091 -0.068086979212324067 0 -0.21047060046105989 -0.079701643364070207 0 -0.18946030927645091 -0.068086979212324067 0 -0.1994936990865987 -0.064571033035335582 0 -0.18946030927645091 -0.068086979212324067 0 -0.1994936990865987 -0.064571033035335582 0 -0.18736640063485219 -0.057346017483437872 0 -0.18946030927645091 -0.068086979212324067 0 -0.18736640063485219 -0.057346017483437872 0 -0.22238248589600809 -0.12603956718480891 0 -0.21465807017498811 -0.099872733754785628 0 -0.19890534426130371 -0.11653644700893941 0 -0.19331441379215561 -0.087857082014262136 0 -0.21465807017498811 -0.099872733754785628 0 -0.19331441379215561 -0.087857082014262136 0 -0.21465807017498811 -0.099872733754785628 0 -0.19890534426130371 -0.11653644700893941 0 -0.19331441379215561 -0.087857082014262136 0 -0.19890534426130371 -0.11653644700893941 0 -0.19331441379215561 -0.087857082014262136 0 -0.19890534426130371 -0.11653644700893941 0 -0.1761981242535233 -0.10165437255848329 0 -0.19890534426130371 -0.11653644700893941 0 -0.1732064163222323 -0.1234032553946016 0 -0.1761981242535233 -0.10165437255848329 0 -0.1732064163222323 -0.1234032553946016 0 -0.1761981242535233 -0.10165437255848329 0 -0.1732064163222323 -0.1234032553946016 0 -0.1591710557687484 -0.1071202745675215 0 -0.1732064163222323 -0.1234032553946016 0 -0.1591710557687484 -0.1071202745675215 0 -0.1761981242535233 -0.10165437255848329 0 -0.1732064163222323 -0.1234032553946016 0 -0.1591710557687484 -0.1071202745675215 0 -0.1522685036293179 -0.11795078749497551 0 -0.1591710557687484 -0.1071202745675215 0 -0.1761981242535233 -0.10165437255848329 0 -0.16102591301406571 -0.087414008609584287 0 -0.1761981242535233 -0.10165437255848329 0 -0.1791898321848002 -0.079905489722363027 0 -0.16102591301406571 -0.087414008609584287 0 -0.19331441379215561 -0.087857082014262136 0 -0.18946030927645091 -0.068086979212324067 0 -0.1791898321848002 -0.079905489722363027 0 -0.1761981242535233 -0.10165437255848329 0 -0.1791898321848002 -0.079905489722363027 0 -0.19331441379215561 -0.087857082014262136 0 -0.1761981242535233 -0.10165437255848329 0 -0.1791898321848002 -0.079905489722363027 0 -0.19331441379215561 -0.087857082014262136 0 -0.1791898321848002 -0.079905489722363027 0 -0.1791898321848002 -0.079905489722363027 0 -0.18142646364776341 -0.063645802362143802 0 -0.17620530639876439 -0.060759503100643777 0 -0.18946030927645091 -0.068086979212324067 0 -0.1791898321848002 -0.079905489722363027 0 -0.18142646364776341 -0.063645802362143802 0 -0.1791898321848002 -0.079905489722363027 0 -0.18142646364776341 -0.063645802362143802 0 -0.18946030927645091 -0.068086979212324067 0 -0.18142646364776341 -0.063645802362143802 0 -0.18736640063485219 -0.057346017483437872 0 -0.18946030927645091 -0.068086979212324067 0 -0.18142646364776341 -0.063645802362143802 0 -0.1791898321848002 -0.079905489722363027 0 -0.15610190968210541 -0.066907883725130041 0 -0.1791898321848002 -0.079905489722363027 0 -0.16102591301406571 -0.087414008609584287 0 -0.15610190968210541 -0.066907883725130041 0 -0.15610190968210541 -0.066907883725130041 0 -0.17620530639876439 -0.060759503100643777 0 -0.1791898321848002 -0.079905489722363027 0 -0.15610190968210541 -0.066907883725130041 0 -0.17620530639876439 -0.060759503100643777 0 -0.16102591301406571 -0.087414008609584287 0 -0.1487366765424705 -0.079466793794788243 0 -0.14513569521527811 -0.090837293740429675 0 -0.1487366765424705 -0.079466793794788243 0 -0.14513569521527811 -0.090837293740429675 0 -0.1384527293715212 -0.083283051118473797 0 -0.1487366765424705 -0.079466793794788243 0 -0.13936099675341179 -0.072027889370825965 0 -0.1384527293715212 -0.083283051118473797 0 -0.14513569521527811 -0.090837293740429675 0 -0.1384527293715212 -0.083283051118473797 0 -0.14513569521527811 -0.090837293740429675 0 -0.13841986299964071 -0.085361638117180172 0 -0.1384527293715212 -0.083283051118473797 0 -0.16102591301406571 -0.087414008609584287 0 -0.1487366765424705 -0.079466793794788243 0 -0.15610190968210541 -0.066907883725130041 0 -0.15610190968210541 -0.066907883725130041 0 -0.13936099675341179 -0.072027889370825965 0 -0.140067986789222 -0.057881406252872761 0 -0.15610190968210541 -0.066907883725130041 0 -0.13936099675341179 -0.072027889370825965 0 -0.1487366765424705 -0.079466793794788243 0 -0.15610190968210541 -0.066907883725130041 0 -0.13936099675341179 -0.072027889370825965 0 -0.13936099675341179 -0.072027889370825965 0 -0.140067986789222 -0.057881406252872761 0 -0.13651542423223051 -0.062023539853413912 0 -0.13341039194956769 -0.065085692334609882 0 -0.13936099675341179 -0.072027889370825965 0 -0.13651542423223051 -0.062023539853413912 0 -0.13936099675341179 -0.072027889370825965 0 -0.140067986789222 -0.057881406252872761 0 -0.13341039194956769 -0.065085692334609882 0 -0.13389080356256719 -0.070436407170984136 0 -0.13936099675341179 -0.072027889370825965 0 -0.13936099675341179 -0.072027889370825965 0 -0.1308094362377952 -0.074643280676307766 0 -0.13936099675341179 -0.072027889370825965 0 -0.1308094362377952 -0.074643280676307766 0 -0.1384527293715212 -0.083283051118473797 0 -0.13389080356256719 -0.070436407170984136 0 -0.13936099675341179 -0.072027889370825965 0 -0.1308094362377952 -0.074643280676307766 0 -0.13936099675341179 -0.072027889370825965 0 -0.1384527293715212 -0.083283051118473797 0 -0.1237656298583286 -0.076797543623831926 0 -0.1308094362377952 -0.074643280676307766 0 -0.12946900351901239 -0.082698119882791715 0 -0.1237656298583286 -0.076797543623831926 0 -0.1308094362377952 -0.074643280676307766 0 -0.12909152696144771 -0.072223815086390947 0 -0.1237656298583286 -0.076797543623831926 0 -0.1308094362377952 -0.074643280676307766 0 -0.13389080356256719 -0.070436407170984136 0 -0.1308094362377952 -0.074643280676307766 0 -0.12909152696144771 -0.072223815086390947 0 -0.1308094362377952 -0.074643280676307766 0 -0.12909152696144771 -0.072223815086390947 0 -0.13341039194956769 -0.065085692334609882 0 -0.12909152696144771 -0.072223815086390947 0 -0.12684415044118569 -0.057704858544417578 0 -0.1219731292675155 -0.063965478385432345 0 -0.12909152696144771 -0.072223815086390947 0 -0.13341039194956769 -0.065085692334609882 0 -0.13389080356256719 -0.070436407170984136 0 -0.12909152696144771 -0.072223815086390947 0 -0.13841986299964071 -0.085361638117180172 0 -0.12946900351901239 -0.082698119882791715 0 -0.13126100535961199 -0.091287272183990895 0 -0.14513569521527811 -0.090837293740429675 0 -0.13841986299964071 -0.085361638117180172 0 -0.13126100535961199 -0.091287272183990895 0 -0.1308094362377952 -0.074643280676307766 0 -0.13841986299964071 -0.085361638117180172 0 -0.12946900351901239 -0.082698119882791715 0 -0.1308094362377952 -0.074643280676307766 0 -0.13841986299964071 -0.085361638117180172 0 -0.1384527293715212 -0.083283051118473797 0 -0.1308094362377952 -0.074643280676307766 0 -0.1384527293715212 -0.083283051118473797 0 -0.1308094362377952 -0.074643280676307766 0 -0.13841986299964071 -0.085361638117180172 0 -0.1228932107768848 -0.084455829188282927 0 -0.1237656298583286 -0.076797543623831926 0 -0.12946900351901239 -0.082698119882791715 0 -0.1228932107768848 -0.084455829188282927 0 -0.12946900351901239 -0.082698119882791715 0 -0.13126100535961199 -0.091287272183990895 0 -0.1365908217638068 -0.10117308277206589 0 -0.12851450449001681 -0.11924487819625119 0 -0.1516958815974542 -0.1027302364007156 0 -0.13126100535961199 -0.091287272183990895 0 -0.1252383608340073 -0.1006862309174674 0 -0.1365908217638068 -0.10117308277206589 0 -0.1252383608340073 -0.1006862309174674 0 -0.1365908217638068 -0.10117308277206589 0 -0.12851450449001681 -0.11924487819625119 0 -0.14513569521527811 -0.090837293740429675 0 -0.13126100535961199 -0.091287272183990895 0 -0.1365908217638068 -0.10117308277206589 0 -0.12851450449001681 -0.11924487819625119 0 -0.1516958815974542 -0.1027302364007156 0 -0.12851450449001681 -0.11924487819625119 0 -0.1522685036293179 -0.11795078749497551 0 -0.1516958815974542 -0.1027302364007156 0 -0.1487546599681262 -0.13725529291578581 0 -0.12851450449001681 -0.11924487819625119 0 -0.1522685036293179 -0.11795078749497551 0 -0.1591710557687484 -0.1071202745675215 0 -0.1522685036293179 -0.11795078749497551 0 -0.1516958815974542 -0.1027302364007156 0 -0.1591710557687484 -0.1071202745675215 0 -0.16102591301406571 -0.087414008609584287 0 -0.14513569521527811 -0.090837293740429675 0 -0.1591710557687484 -0.1071202745675215 0 -0.14513569521527811 -0.090837293740429675 0 -0.1591710557687484 -0.1071202745675215 0 -0.14513569521527811 -0.090837293740429675 0 -0.1516958815974542 -0.1027302364007156 0 -0.14513569521527811 -0.090837293740429675 0 -0.1365908217638068 -0.10117308277206589 0 -0.1516958815974542 -0.1027302364007156 0 -0.14231468349545981 -0.012926236567143441 0 -0.16324530970000081 -0.028292070966389391 0 -0.14231468349545981 -0.012926236567143441 0 -0.14089955464928011 -0.041242189152349083 0 -0.16324530970000081 -0.028292070966389391 0 -0.14231468349545981 -0.012926236567143441 0 -0.14089955464928011 -0.041242189152349083 0 -0.14231468349545981 -0.012926236567143441 0 -0.16324530970000081 -0.028292070966389391 0 -0.1615931009109785 -0.0082701906529346041 0 -0.15050868129767611 -0.0032521095412758839 0 -0.1615931009109785 -0.0082701906529346041 0 -0.1565838150956716 0.0095235695578667467 0 -0.15050868129767611 -0.0032521095412758839 0 -0.14231468349545981 -0.012926236567143441 0 -0.1615931009109785 -0.0082701906529346041 0 -0.14231468349545981 -0.012926236567143441 0 -0.14308145814072051 0.0024165038181870099 0 -0.15050868129767611 -0.0032521095412758839 0 -0.14231468349545981 -0.012926236567143441 0 -0.14308145814072051 0.0024165038181870099 0 -0.1346725580969502 -0.0073159107133344836 0 -0.1267834157359943 -0.0026565814049187282 0 -0.1307068980664256 -0.020727785816144269 0 -0.14231468349545981 -0.012926236567143441 0 -0.1346725580969502 -0.0073159107133344836 0 -0.1307068980664256 -0.020727785816144269 0 -0.14231468349545981 -0.012926236567143441 0 -0.1346725580969502 -0.0073159107133344836 0 -0.1346725580969502 -0.0073159107133344836 0 -0.13357713014657771 0.001837916871094596 0 -0.14308145814072051 0.0024165038181870099 0 -0.14231468349545981 -0.012926236567143441 0 -0.1346725580969502 -0.0073159107133344836 0 -0.14308145814072051 0.0024165038181870099 0 -0.1346725580969502 -0.0073159107133344836 0 -0.1267834157359943 -0.0026565814049187282 0 -0.13357713014657771 0.001837916871094596 0 -0.1199422827605305 -0.02965683450943497 0 -0.1307068980664256 -0.020727785816144269 0 -0.14089955464928011 -0.041242189152349083 0 -0.14231468349545981 -0.012926236567143441 0 -0.1307068980664256 -0.020727785816144269 0 -0.14089955464928011 -0.041242189152349083 0 -0.1199422827605305 -0.02965683450943497 0 -0.14089955464928011 -0.041242189152349083 0 -0.1199422827605305 -0.02965683450943497 0 -0.12882854372584659 -0.049605510972314922 0 -0.14089955464928011 -0.041242189152349083 0 -0.13747108856895601 -0.056419453152587382 0 -0.140067986789222 -0.057881406252872761 0 -0.14089955464928011 -0.041242189152349083 0 -0.140067986789222 -0.057881406252872761 0 -0.14089955464928011 -0.041242189152349083 0 -0.13226665709999511 -0.05870325815617361 0 -0.12684415044118569 -0.057704858544417578 0 -0.12882854372584659 -0.049605510972314922 0 -0.13341039194956769 -0.065085692334609882 0 -0.13226665709999511 -0.05870325815617361 0 -0.12684415044118569 -0.057704858544417578 0 -0.12882854372584659 -0.049605510972314922 0 -0.13747108856895601 -0.056419453152587382 0 -0.14089955464928011 -0.041242189152349083 0 -0.13226665709999511 -0.05870325815617361 0 -0.12882854372584659 -0.049605510972314922 0 -0.13747108856895601 -0.056419453152587382 0 -0.13747108856895601 -0.056419453152587382 0 -0.140067986789222 -0.057881406252872761 0 -0.13747108856895601 -0.056419453152587382 0 -0.140067986789222 -0.057881406252872761 0 -0.13651542423223051 -0.062023539853413912 0 -0.13226665709999511 -0.05870325815617361 0 -0.13747108856895601 -0.056419453152587382 0 -0.13651542423223051 -0.062023539853413912 0 -0.13341039194956769 -0.065085692334609882 0 -0.13226665709999511 -0.05870325815617361 0 -0.13651542423223051 -0.062023539853413912 0 -0.15610190968210541 -0.066907883725130041 0 -0.140067986789222 -0.057881406252872761 0 -0.1585524305240221 -0.051000846126496753 0 -0.140067986789222 -0.057881406252872761 0 -0.14089955464928011 -0.041242189152349083 0 -0.1585524305240221 -0.051000846126496753 0 -0.15610190968210541 -0.066907883725130041 0 -0.140067986789222 -0.057881406252872761 0 -0.14089955464928011 -0.041242189152349083 0 -0.1585524305240221 -0.051000846126496753 0 -0.14089955464928011 -0.041242189152349083 0 -0.1585524305240221 -0.051000846126496753 0 -0.16324530970000081 -0.028292070966389391 0 -0.1585524305240221 -0.051000846126496753 0 -0.17381638292826571 -0.049057739162826047 0 -0.16324530970000081 -0.028292070966389391 0 -0.1585524305240221 -0.051000846126496753 0 -0.17620530639876439 -0.060759503100643777 0 -0.1585524305240221 -0.051000846126496753 0 -0.17620530639876439 -0.060759503100643777 0 -0.17381638292826571 -0.049057739162826047 0 -0.15610190968210541 -0.066907883725130041 0 -0.1585524305240221 -0.051000846126496753 0 -0.17620530639876439 -0.060759503100643777 0 -0.17620530639876439 -0.060759503100643777 0 -0.17381638292826571 -0.049057739162826047 0 -0.18207023189851099 -0.05896578660510858 0 -0.18142646364776341 -0.063645802362143802 0 -0.17620530639876439 -0.060759503100643777 0 -0.17620530639876439 -0.060759503100643777 0 -0.18207023189851099 -0.05896578660510858 0 -0.18736640063485219 -0.057346017483437872 0 -0.18207023189851099 -0.05896578660510858 0 -0.18417593590455289 -0.043657905365620281 0 -0.17381638292826571 -0.049057739162826047 0 -0.18207023189851099 -0.05896578660510858 0 -0.18417593590455289 -0.043657905365620281 0 -0.18207023189851099 -0.05896578660510858 0 -0.18417593590455289 -0.043657905365620281 0 -0.18736640063485219 -0.057346017483437872 0 -0.18417593590455289 -0.043657905365620281 0 -0.18736640063485219 -0.057346017483437872 0 -0.18207023189851099 -0.05896578660510858 0 -0.18142646364776341 -0.063645802362143802 0 -0.18736640063485219 -0.057346017483437872 0 -0.18207023189851099 -0.05896578660510858 0 -0.18142646364776341 -0.063645802362143802 0 -0.17620530639876439 -0.060759503100643777 0 -0.18207023189851099 -0.05896578660510858 0 -0.18142646364776341 -0.063645802362143802 0 -0.18207023189851099 -0.05896578660510858 0 -0.18417593590455289 -0.043657905365620281 0 -0.16324530970000081 -0.028292070966389391 0 -0.17381638292826571 -0.049057739162826047 0 -0.18417593590455289 -0.043657905365620281 0 -0.16324530970000081 -0.028292070966389391 0 -0.18417593590455289 -0.043657905365620281 0 -0.17633523439468249 -0.030298176677503591 0 -0.16324530970000081 -0.028292070966389391 0 -0.18417593590455289 -0.043657905365620281 0 -0.18439189642622239 -0.042087932563918198 0 -0.18756394533361229 -0.038373176271786373 0 -0.18417593590455289 -0.043657905365620281 0 -0.18439189642622239 -0.042087932563918198 0 -0.18417593590455289 -0.043657905365620281 0 -0.18439189642622239 -0.042087932563918198 0 -0.17633523439468249 -0.030298176677503591 0 -0.18439189642622239 -0.042087932563918198 0 -0.18640634783413251 -0.02744343227975703 0 -0.18439189642622239 -0.042087932563918198 0 -0.18640634783413251 -0.02744343227975703 0 -0.18756394533361229 -0.038373176271786373 0 -0.18439189642622239 -0.042087932563918198 0 -0.17984383796166231 -0.018758107690909121 0 -0.17633523439468249 -0.030298176677503591 0 -0.18439189642622239 -0.042087932563918198 0 -0.17984383796166231 -0.018758107690909121 0 -0.18439189642622239 -0.042087932563918198 0 -0.18640634783413251 -0.02744343227975703 0 -0.17984383796166231 -0.018758107690909121 0 -0.18640634783413251 -0.02744343227975703 0 -0.17984383796166231 -0.018758107690909121 0 -0.18753193192871609 -0.019260749625684661 0 -0.18640634783413251 -0.02744343227975703 0 -0.18753193192871609 -0.019260749625684661 0 -0.17984383796166231 -0.018758107690909121 0 -0.17633523439468249 -0.030298176677503591 0 -0.17001919198098861 -0.01869486680066694 0 -0.17984383796166231 -0.018758107690909121 0 -0.17001919198098861 -0.01869486680066694 0 -0.1713510487719874 -0.01024490977385868 0 -0.17633523439468249 -0.030298176677503591 0 -0.17001919198098861 -0.01869486680066694 0 -0.16324530970000081 -0.028292070966389391 0 -0.17001919198098861 -0.01869486680066694 0 -0.16324530970000081 -0.028292070966389391 0 -0.1615931009109785 -0.0082701906529346041 0 -0.17001919198098861 -0.01869486680066694 0 -0.1615931009109785 -0.0082701906529346041 0 -0.1713510487719874 -0.01024490977385868 0 -0.1615931009109785 -0.0082701906529346041 0 -0.1713510487719874 -0.01024490977385868 0 -0.17529577949709821 0.0045717171820992414 0 -0.17984383796166231 -0.018758107690909121 0 -0.1713510487719874 -0.01024490977385868 0 -0.17529577949709821 0.0045717171820992414 0 -0.18388618390927811 -0.0073420311000470737 0 -0.18753193192871609 -0.019260749625684661 0 -0.19067196743121351 0.003566433312548245 0 -0.17984383796166231 -0.018758107690909121 0 -0.17529577949709821 0.0045717171820992414 0 -0.17984383796166231 -0.018758107690909121 0 -0.18388618390927811 -0.0073420311000470737 0 -0.17529577949709821 0.0045717171820992414 0 -0.17984383796166231 -0.018758107690909121 0 -0.18388618390927811 -0.0073420311000470737 0 -0.18753193192871609 -0.019260749625684661 0 -0.18753193192871609 -0.019260749625684661 0 -0.19067196743121351 0.003566433312548245 0 -0.1944627244785779 -0.008584569480343333 0 -0.18753193192871609 -0.019260749625684661 0 -0.19067196743121351 0.003566433312548245 0 -0.1944627244785779 -0.008584569480343333 0 -0.19659555308500701 -0.016733151145231929 0 -0.20573524192604489 -0.014496173176596461 0 -0.1944627244785779 -0.008584569480343333 0 -0.18753193192871609 -0.019260749625684661 0 -0.19659555308500701 -0.016733151145231929 0 -0.1986523140066892 -0.024591112298303248 0 -0.20573524192604489 -0.014496173176596461 0 -0.20174728879433321 -0.043412852375793398 0 -0.18753193192871609 -0.019260749625684661 0 -0.1986523140066892 -0.024591112298303248 0 -0.19659555308500701 -0.016733151145231929 0 -0.18640634783413251 -0.02744343227975703 0 -0.18753193192871609 -0.019260749625684661 0 -0.1986523140066892 -0.024591112298303248 0 -0.18640634783413251 -0.02744343227975703 0 -0.1986523140066892 -0.024591112298303248 0 -0.19727102014653819 -0.039275666522194323 0 -0.1986523140066892 -0.024591112298303248 0 -0.19659555308500701 -0.016733151145231929 0 -0.20573524192604489 -0.014496173176596461 0 -0.20573524192604489 -0.014496173176596461 0 -0.20174728879433321 -0.043412852375793398 0 -0.21373758486983049 -0.028134734872514489 0 -0.20573524192604489 -0.014496173176596461 0 -0.2105711572188948 -0.036815684938063413 0 -0.21373758486983049 -0.028134734872514489 0 -0.21568974806687591 -0.023133334920971568 0 -0.22054269550890521 -0.030345693631532542 0 -0.21373758486983049 -0.028134734872514489 0 -0.21568974806687591 -0.023133334920971568 0 -0.20573524192604489 -0.014496173176596461 0 -0.20573524192604489 -0.014496173176596461 0 -0.2097231950577565 0.01442050602260039 0 -0.20573524192604489 -0.014496173176596461 0 -0.22249568428157751 -0.009190399690157891 0 -0.22343034677557791 0.0065753505074754252 0 -0.1944627244785779 -0.008584569480343333 0 -0.20573524192604489 -0.014496173176596461 0 -0.2097231950577565 0.01442050602260039 0 -0.21568974806687591 -0.023133334920971568 0 -0.20573524192604489 -0.014496173176596461 0 -0.22249568428157751 -0.009190399690157891 0 -0.2099349821475171 -0.06256843556115177 0 -0.1994936990865987 -0.064571033035335582 0 -0.1982762311131564 -0.054009377846139107 0 -0.18736640063485219 -0.057346017483437872 0 -0.1982762311131564 -0.054009377846139107 0 -0.1994936990865987 -0.064571033035335582 0 -0.18736640063485219 -0.057346017483437872 0 -0.1982762311131564 -0.054009377846139107 0 -0.18736640063485219 -0.057346017483437872 0 -0.18417593590455289 -0.043657905365620281 0 -0.1982762311131564 -0.054009377846139107 0 -0.18417593590455289 -0.043657905365620281 0 -0.1982762311131564 -0.054009377846139107 0 -0.19611573382794029 -0.046164552083791791 0 -0.18417593590455289 -0.043657905365620281 0 -0.1982762311131564 -0.054009377846139107 0 -0.1982762311131564 -0.054009377846139107 0 -0.19611573382794029 -0.046164552083791791 0 -0.20787876594964119 -0.051072558761945268 0 -0.1982762311131564 -0.054009377846139107 0 -0.20787876594964119 -0.051072558761945268 0 -0.1986523140066892 -0.024591112298303248 0 -0.20174728879433321 -0.043412852375793398 0 -0.19727102014653819 -0.039275666522194323 0 -0.19727102014653819 -0.039275666522194323 0 -0.20787876594964119 -0.051072558761945268 0 -0.19727102014653819 -0.039275666522194323 0 -0.19611573382794029 -0.046164552083791791 0 -0.20787876594964119 -0.051072558761945268 0 -0.20174728879433321 -0.043412852375793398 0 -0.19727102014653819 -0.039275666522194323 0 -0.20787876594964119 -0.051072558761945268 0 -0.18417593590455289 -0.043657905365620281 0 -0.19611573382794029 -0.046164552083791791 0 -0.19136956508169331 -0.04124593756878734 0 -0.18417593590455289 -0.043657905365620281 0 -0.19136956508169331 -0.04124593756878734 0 -0.18756394533361229 -0.038373176271786373 0 -0.19727102014653819 -0.039275666522194323 0 -0.19611573382794029 -0.046164552083791791 0 -0.19136956508169331 -0.04124593756878734 0 -0.19727102014653819 -0.039275666522194323 0 -0.19136956508169331 -0.04124593756878734 0 -0.19060984682526541 -0.03694809266199589 0 -0.18640634783413251 -0.02744343227975703 0 -0.19727102014653819 -0.039275666522194323 0 -0.18640634783413251 -0.02744343227975703 0 -0.19727102014653819 -0.039275666522194323 0 -0.19060984682526541 -0.03694809266199589 0 -0.18640634783413251 -0.02744343227975703 0 -0.18756394533361229 -0.038373176271786373 0 -0.19060984682526541 -0.03694809266199589 0 -0.19136956508169331 -0.04124593756878734 0 -0.18756394533361229 -0.038373176271786373 0 -0.19060984682526541 -0.03694809266199589 0 -0.20573524192604489 -0.014496173176596461 0 -0.20174728879433321 -0.043412852375793398 0 -0.2105711572188948 -0.036815684938063413 0 -0.21373758486983049 -0.028134734872514489 0 -0.2105711572188948 -0.036815684938063413 0 -0.21614908162843191 -0.035882787695408452 0 -0.21614908162843191 -0.035882787695408452 0 -0.2124377850157321 -0.040999197977857338 0 -0.22255189503972381 -0.038382756306309197 0 -0.21373758486983049 -0.028134734872514489 0 -0.21614908162843191 -0.035882787695408452 0 -0.22054269550890521 -0.030345693631532542 0 -0.2105711572188948 -0.036815684938063413 0 -0.21614908162843191 -0.035882787695408452 0 -0.2124377850157321 -0.040999197977857338 0 -0.2124377850157321 -0.040999197977857338 0 -0.20787876594964119 -0.051072558761945268 0 -0.22255189503972381 -0.038382756306309197 0 -0.20174728879433321 -0.043412852375793398 0 -0.2124377850157321 -0.040999197977857338 0 -0.20787876594964119 -0.051072558761945268 0 -0.20174728879433321 -0.043412852375793398 0 -0.2105711572188948 -0.036815684938063413 0 -0.2124377850157321 -0.040999197977857338 0 -0.2239123346781316 -0.068903517951528367 0 -0.2099349821475171 -0.06256843556115177 0 -0.20787876594964119 -0.051072558761945268 0 -0.2239123346781316 -0.068903517951528367 0 -0.20787876594964119 -0.051072558761945268 0 -0.2232144549544782 -0.055026695265536482 0 -0.2239123346781316 -0.068903517951528367 0 -0.20787876594964119 -0.051072558761945268 0 -0.2099349821475171 -0.06256843556115177 0 -0.1982762311131564 -0.054009377846139107 0 -0.2099349821475171 -0.06256843556115177 0 -0.1982762311131564 -0.054009377846139107 0 -0.20787876594964119 -0.051072558761945268 0 -0.23986858638978609 -0.064961931129078665 0 -0.23003279853689779 -0.058060034830836812 0 -0.23313581812519529 -0.043347994977203777 0 -0.20787876594964119 -0.051072558761945268 0 -0.2232144549544782 -0.055026695265536482 0 -0.23313581812519529 -0.043347994977203777 0 -0.20787876594964119 -0.051072558761945268 0 -0.23313581812519529 -0.043347994977203777 0 -0.2239123346781316 -0.068903517951528367 0 -0.23003279853689779 -0.058060034830836812 0 -0.2232144549544782 -0.055026695265536482 0 -0.23003279853689779 -0.058060034830836812 0 -0.2232144549544782 -0.055026695265536482 0 -0.23313581812519529 -0.043347994977203777 0 -0.20787876594964119 -0.051072558761945268 0 -0.23313581812519529 -0.043347994977203777 0 -0.22255189503972381 -0.038382756306309197 0 -0.23313581812519529 -0.043347994977203777 0 -0.23363165654460641 -0.026644130668498162 0 -0.2278157512033864 -0.02626919733368082 0 -0.23313581812519529 -0.043347994977203777 0 -0.2260115399693027 -0.034586410562181577 0 -0.2278157512033864 -0.02626919733368082 0 -0.23313581812519529 -0.043347994977203777 0 -0.2278157512033864 -0.02626919733368082 0 -0.21614908162843191 -0.035882787695408452 0 -0.22255189503972381 -0.038382756306309197 0 -0.22054269550890521 -0.030345693631532542 0 -0.22255189503972381 -0.038382756306309197 0 -0.2260115399693027 -0.034586410562181577 0 -0.22054269550890521 -0.030345693631532542 0 -0.23313581812519529 -0.043347994977203777 0 -0.22255189503972381 -0.038382756306309197 0 -0.2260115399693027 -0.034586410562181577 0 -0.23363165654460641 -0.026644130668498162 0 -0.25841182140582641 -0.037386223575508679 0 -0.24213023237721731 -0.040597162215201071 0 -0.23363165654460641 -0.026644130668498162 0 -0.25073048519058982 -0.041321451274644823 0 -0.23363165654460641 -0.026644130668498162 0 -0.25841182140582641 -0.037386223575508679 0 -0.25073048519058982 -0.041321451274644823 0 -0.23313581812519529 -0.043347994977203777 0 -0.24213023237721731 -0.040597162215201071 0 -0.23363165654460641 -0.026644130668498162 0 -0.24517211909924469 -0.046195030116917932 0 -0.25073048519058982 -0.041321451274644823 0 -0.25215377302748859 -0.049816653327902291 0 -0.24517211909924469 -0.046195030116917932 0 -0.24213023237721731 -0.040597162215201071 0 -0.25073048519058982 -0.041321451274644823 0 -0.23313581812519529 -0.043347994977203777 0 -0.24213023237721731 -0.040597162215201071 0 -0.23313581812519529 -0.043347994977203777 0 -0.24517211909924469 -0.046195030116917932 0 -0.24213023237721731 -0.040597162215201071 0 -0.23986858638978609 -0.064961931129078665 0 -0.23313581812519529 -0.043347994977203777 0 -0.2439762835673179 -0.053647150876497143 0 -0.23986858638978609 -0.064961931129078665 0 -0.23313581812519529 -0.043347994977203777 0 -0.23313581812519529 -0.043347994977203777 0 -0.24517211909924469 -0.046195030116917932 0 -0.2439762835673179 -0.053647150876497143 0 -0.24517211909924469 -0.046195030116917932 0 -0.2439762835673179 -0.053647150876497143 0 -0.25215377302748859 -0.049816653327902291 0 -0.2439762835673179 -0.053647150876497143 0 -0.25215377302748859 -0.049816653327902291 0 -0.2510958606163266 -0.061473260803628672 0 -0.23986858638978609 -0.064961931129078665 0 -0.2439762835673179 -0.053647150876497143 0 -0.2510958606163266 -0.061473260803628672 0 -0.22249568428157751 -0.009190399690157891 0 -0.23534665080549211 -0.0082420104063906305 0 -0.22343034677557791 0.0065753505074754252 0 -0.22249568428157751 -0.009190399690157891 0 -0.23210460855121731 -0.0182016501285369 0 -0.23534665080549211 -0.0082420104063906305 0 -0.22249568428157751 -0.009190399690157891 0 -0.22144514848677821 -0.023429462689325671 0 -0.2278157512033864 -0.02626919733368082 0 -0.22249568428157751 -0.009190399690157891 0 -0.2278157512033864 -0.02626919733368082 0 -0.23210460855121731 -0.0182016501285369 0 -0.21568974806687591 -0.023133334920971568 0 -0.22249568428157751 -0.009190399690157891 0 -0.22144514848677821 -0.023429462689325671 0 -0.22249568428157751 -0.009190399690157891 0 -0.2278157512033864 -0.02626919733368082 0 -0.2260115399693027 -0.034586410562181577 0 -0.22054269550890521 -0.030345693631532542 0 -0.2278157512033864 -0.02626919733368082 0 -0.21568974806687591 -0.023133334920971568 0 -0.22144514848677821 -0.023429462689325671 0 -0.22054269550890521 -0.030345693631532542 0 -0.22144514848677821 -0.023429462689325671 0 -0.22054269550890521 -0.030345693631532542 0 -0.2278157512033864 -0.02626919733368082 0 -0.23363165654460641 -0.026644130668498162 0 -0.2278157512033864 -0.02626919733368082 0 -0.23210460855121731 -0.0182016501285369 0 -0.23363165654460641 -0.026644130668498162 0 -0.2479106307315144 -0.02645215509508134 0 -0.25841182140582641 -0.037386223575508679 0 -0.23363165654460641 -0.026644130668498162 0 -0.23210460855121731 -0.0182016501285369 0 -0.24115803362278129 -0.018769656960678699 0 -0.23363165654460641 -0.026644130668498162 0 -0.24115803362278129 -0.018769656960678699 0 -0.2479106307315144 -0.02645215509508134 0 -0.24115803362278129 -0.018769656960678699 0 -0.24816402863096221 -0.010189812967959981 0 -0.25090580465003909 -0.02074847577592346 0 -0.24115803362278129 -0.018769656960678699 0 -0.2479106307315144 -0.02645215509508134 0 -0.25090580465003909 -0.02074847577592346 0 -0.23210460855121731 -0.0182016501285369 0 -0.24115803362278129 -0.018769656960678699 0 -0.23534665080549211 -0.0082420104063906305 0 -0.24115803362278129 -0.018769656960678699 0 -0.24816402863096221 -0.010189812967959981 0 -0.23534665080549211 -0.0082420104063906305 0 -0.24816402863096221 -0.010189812967959981 0 -0.23534665080549211 -0.0082420104063906305 0 -0.24330282498337019 0.003007537454472953 0 -0.24816402863096221 -0.010189812967959981 0 -0.25922362587095638 -0.002133833671543222 0 -0.24330282498337019 0.003007537454472953 0 -0.24816402863096221 -0.010189812967959981 0 -0.2590472318531345 -0.01425243844769682 0 -0.25090580465003909 -0.02074847577592346 0 -0.24816402863096221 -0.010189812967959981 0 -0.2590472318531345 -0.01425243844769682 0 -0.25922362587095638 -0.002133833671543222 0 -0.2590472318531345 -0.01425243844769682 0 -0.25922362587095638 -0.002133833671543222 0 -0.27045719933831369 -0.01250407501602469 0 -0.2479106307315144 -0.02645215509508134 0 -0.25544583743431859 -0.028712288494797671 0 -0.25841182140582641 -0.037386223575508679 0 -0.2479106307315144 -0.02645215509508134 0 -0.25544583743431859 -0.028712288494797671 0 -0.25090580465003909 -0.02074847577592346 0 -0.25544583743431859 -0.028712288494797671 0 -0.25090580465003909 -0.02074847577592346 0 -0.2638018574424863 -0.024942521880438741 0 -0.2590472318531345 -0.01425243844769682 0 -0.25090580465003909 -0.02074847577592346 0 -0.2638018574424863 -0.024942521880438741 0 -0.2590472318531345 -0.01425243844769682 0 -0.2638018574424863 -0.024942521880438741 0 -0.27045719933831369 -0.01250407501602469 0 -0.25544583743431859 -0.028712288494797671 0 -0.2638018574424863 -0.024942521880438741 0 -0.26627092610597219 -0.031476994591495881 0 -0.27689692046542358 -0.026590432214187141 0 -0.27045719933831369 -0.01250407501602469 0 -0.28993948572687372 -0.01424837549127107 0 -0.2638018574424863 -0.024942521880438741 0 -0.27689692046542358 -0.026590432214187141 0 -0.26627092610597219 -0.031476994591495881 0 -0.2638018574424863 -0.024942521880438741 0 -0.27689692046542358 -0.026590432214187141 0 -0.27045719933831369 -0.01250407501602469 0 -0.27045719933831369 -0.01250407501602469 0 -0.28993948572687372 -0.01424837549127107 0 -0.27176298421615341 0.0042637724134266608 0 -0.25922362587095638 -0.002133833671543222 0 -0.27045719933831369 -0.01250407501602469 0 -0.27176298421615341 0.0042637724134266608 0 -0.28993948572687372 -0.01424837549127107 0 -0.29138068089772201 0.010839124075949931 0 -0.28993948572687372 -0.01424837549127107 0 -0.30691290727482629 -0.00095341638459660739 0 -0.29138068089772201 0.010839124075949931 0 -0.27689692046542358 -0.026590432214187141 0 -0.28993948572687372 -0.01424837549127107 0 -0.28798104315781398 -0.035084814198167218 0 -0.28993948572687372 -0.01424837549127107 0 -0.3037685947217677 -0.034614452306947527 0 -0.28798104315781398 -0.035084814198167218 0 -0.28993948572687372 -0.01424837549127107 0 -0.3037685947217677 -0.034614452306947527 0 -0.31694846817146949 -0.021526208742668081 0 -0.28993948572687372 -0.01424837549127107 0 -0.30691290727482629 -0.00095341638459660739 0 -0.31694846817146949 -0.021526208742668081 0 -0.30797215112826681 -0.058870409389529893 0 -0.29129507937438881 -0.05415241933732802 0 -0.31831105941522558 -0.065506061104621843 0 -0.29129507937438881 -0.05415241933732802 0 -0.31831105941522558 -0.065506061104621843 0 -0.30797215112826681 -0.058870409389529893 0 -0.29917548863993199 -0.044442231096297767 0 -0.31477370782836739 -0.041279687448132617 0 -0.3037685947217677 -0.034614452306947527 0 -0.29917548863993199 -0.044442231096297767 0 -0.31477370782836739 -0.041279687448132617 0 -0.3037685947217677 -0.034614452306947527 0 -0.31694846817146949 -0.021526208742668081 0 -0.31477370782836739 -0.041279687448132617 0 -0.3037685947217677 -0.034614452306947527 0 -0.29917548863993199 -0.044442231096297767 0 -0.28798104315781398 -0.035084814198167218 0 -0.29917548863993199 -0.044442231096297767 0 -0.28798104315781398 -0.035084814198167218 0 -0.28319198626704661 -0.048128316482519251 0 -0.28798104315781398 -0.035084814198167218 0 -0.28319198626704661 -0.048128316482519251 0 -0.27455053948041658 -0.035733356212375632 0 -0.30797215112826681 -0.058870409389529893 0 -0.29917548863993199 -0.044442231096297767 0 -0.28319198626704661 -0.048128316482519251 0 -0.29129507937438881 -0.05415241933732802 0 -0.27914655317743359 -0.06088789806332004 0 -0.28897964591124292 -0.07002912977584011 0 -0.30797215112826681 -0.058870409389529893 0 -0.29129507937438881 -0.05415241933732802 0 -0.28319198626704661 -0.048128316482519251 0 -0.30797215112826681 -0.058870409389529893 0 -0.28319198626704661 -0.048128316482519251 0 -0.29129507937438881 -0.05415241933732802 0 -0.27914655317743359 -0.06088789806332004 0 -0.27273482526835863 -0.053843652960636063 0 -0.29129507937438881 -0.05415241933732802 0 -0.28319198626704661 -0.048128316482519251 0 -0.26427909933355193 -0.042798777570034183 0 -0.29129507937438881 -0.05415241933732802 0 -0.26427909933355193 -0.042798777570034183 0 -0.29129507937438881 -0.05415241933732802 0 -0.27273482526835863 -0.053843652960636063 0 -0.26427909933355193 -0.042798777570034183 0 -0.27273482526835863 -0.053843652960636063 0 -0.26427909933355193 -0.042798777570034183 0 -0.26246822159484501 -0.050600549485205662 0 -0.27273482526835863 -0.053843652960636063 0 -0.26648517286157403 -0.060778620347292367 0 -0.26246822159484501 -0.050600549485205662 0 -0.27914655317743359 -0.06088789806332004 0 -0.27273482526835863 -0.053843652960636063 0 -0.26648517286157403 -0.060778620347292367 0 -0.28319198626704661 -0.048128316482519251 0 -0.25841182140582641 -0.037386223575508679 0 -0.27455053948041658 -0.035733356212375632 0 -0.26627092610597219 -0.031476994591495881 0 -0.25841182140582641 -0.037386223575508679 0 -0.28319198626704661 -0.048128316482519251 0 -0.27455053948041658 -0.035733356212375632 0 -0.25841182140582641 -0.037386223575508679 0 -0.28319198626704661 -0.048128316482519251 0 -0.25841182140582641 -0.037386223575508679 0 -0.26427909933355193 -0.042798777570034183 0 -0.27689692046542358 -0.026590432214187141 0 -0.28798104315781398 -0.035084814198167218 0 -0.27455053948041658 -0.035733356212375632 0 -0.27689692046542358 -0.026590432214187141 0 -0.27455053948041658 -0.035733356212375632 0 -0.26627092610597219 -0.031476994591495881 0 -0.25544583743431859 -0.028712288494797671 0 -0.26627092610597219 -0.031476994591495881 0 -0.25841182140582641 -0.037386223575508679 0 -0.25841182140582641 -0.037386223575508679 0 -0.26427909933355193 -0.042798777570034183 0 -0.25760868011046029 -0.044384731046659118 0 -0.26427909933355193 -0.042798777570034183 0 -0.25760868011046029 -0.044384731046659118 0 -0.26246822159484501 -0.050600549485205662 0 -0.25760868011046029 -0.044384731046659118 0 -0.25073048519058982 -0.041321451274644823 0 -0.25215377302748859 -0.049816653327902291 0 -0.25841182140582641 -0.037386223575508679 0 -0.25760868011046029 -0.044384731046659118 0 -0.25073048519058982 -0.041321451274644823 0 -0.26648517286157403 -0.060778620347292367 0 -0.26246822159484501 -0.050600549485205662 0 -0.2510958606163266 -0.061473260803628672 0 -0.25760868011046029 -0.044384731046659118 0 -0.26246822159484501 -0.050600549485205662 0 -0.25215377302748859 -0.049816653327902291 0 -0.26246822159484501 -0.050600549485205662 0 -0.25215377302748859 -0.049816653327902291 0 -0.2510958606163266 -0.061473260803628672 0 -0.2510958606163266 -0.061473260803628672 0 -0.25016081396004591 -0.073608492850177634 0 -0.25752186078887213 -0.071318514938493061 0 -0.26648517286157403 -0.060778620347292367 0 -0.2510958606163266 -0.061473260803628672 0 -0.25752186078887213 -0.071318514938493061 0 -0.25016081396004591 -0.073608492850177634 0 -0.25752186078887213 -0.071318514938493061 0 -0.25571640735086759 -0.083712890098734241 0 -0.24660135465437691 -0.086575867280953567 0 -0.25016081396004591 -0.073608492850177634 0 -0.25571640735086759 -0.083712890098734241 0 -0.24660135465437691 -0.086575867280953567 0 -0.25468555728252562 -0.093443762478902237 0 -0.25248094839387042 -0.09513443491194995 0 -0.24660135465437691 -0.086575867280953567 0 -0.25344380484567358 -0.088302577759673262 0 -0.25468555728252562 -0.093443762478902237 0 -0.24660135465437691 -0.086575867280953567 0 -0.25571640735086759 -0.083712890098734241 0 -0.25344380484567358 -0.088302577759673262 0 -0.25571640735086759 -0.083712890098734241 0 -0.25344380484567358 -0.088302577759673262 0 -0.25741896429603051 -0.089408682409500853 0 -0.25344380484567358 -0.088302577759673262 0 -0.25741896429603051 -0.089408682409500853 0 -0.25468555728252562 -0.093443762478902237 0 -0.25741896429603051 -0.089408682409500853 0 -0.25468555728252562 -0.093443762478902237 0 -0.25973521375596748 -0.093294007816274144 0 -0.25741896429603051 -0.089408682409500853 0 -0.25973521375596748 -0.093294007816274144 0 -0.26351383824511809 -0.088290173893920354 0 -0.25571640735086759 -0.083712890098734241 0 -0.25741896429603051 -0.089408682409500853 0 -0.26351383824511809 -0.088290173893920354 0 -0.25973521375596748 -0.093294007816274144 0 -0.26351383824511809 -0.088290173893920354 0 -0.2645092550365592 -0.094810252658247857 0 -0.25571640735086759 -0.083712890098734241 0 -0.26351383824511809 -0.088290173893920354 0 -0.26480294192208631 -0.079511793721846635 0 -0.25752186078887213 -0.071318514938493061 0 -0.25571640735086759 -0.083712890098734241 0 -0.26480294192208631 -0.079511793721846635 0 -0.27152231122701398 -0.084808701862232133 0 -0.27708403270671261 -0.0716418214975892 0 -0.28033836735189621 -0.095882986143313115 0 -0.26480294192208631 -0.079511793721846635 0 -0.27152231122701398 -0.084808701862232133 0 -0.27708403270671261 -0.0716418214975892 0 -0.26351383824511809 -0.088290173893920354 0 -0.26480294192208631 -0.079511793721846635 0 -0.27152231122701398 -0.084808701862232133 0 -0.27708403270671261 -0.0716418214975892 0 -0.28033836735189621 -0.095882986143313115 0 -0.26351383824511809 -0.088290173893920354 0 -0.27152231122701398 -0.084808701862232133 0 -0.27063233091997257 -0.09352826729317161 0 -0.26351383824511809 -0.088290173893920354 0 -0.27063233091997257 -0.09352826729317161 0 -0.2645092550365592 -0.094810252658247857 0 -0.27152231122701398 -0.084808701862232133 0 -0.27063233091997257 -0.09352826729317161 0 -0.28033836735189621 -0.095882986143313115 0 -0.25752186078887213 -0.071318514938493061 0 -0.26480294192208631 -0.079511793721846635 0 -0.27708403270671261 -0.0716418214975892 0 -0.26648517286157403 -0.060778620347292367 0 -0.25752186078887213 -0.071318514938493061 0 -0.27708403270671261 -0.0716418214975892 0 -0.27914655317743359 -0.06088789806332004 0 -0.26648517286157403 -0.060778620347292367 0 -0.27708403270671261 -0.0716418214975892 0 -0.2629559689680685 -0.11968914182286521 0 -0.25711178460932788 -0.1118755563835878 0 -0.27350147401489022 -0.1145456358193038 0 -0.25711178460932788 -0.1118755563835878 0 -0.25585503461737608 -0.104790536983435 0 -0.27350147401489022 -0.1145456358193038 0 -0.25585503461737608 -0.104790536983435 0 -0.27350147401489022 -0.1145456358193038 0 -0.2629559689680685 -0.11968914182286521 0 -0.25525621579365992 -0.1208836458952024 0 -0.25711178460932788 -0.1118755563835878 0 -0.2478793288110141 -0.1130174099790163 0 -0.25525621579365992 -0.1208836458952024 0 -0.25711178460932788 -0.1118755563835878 0 -0.26309795076887121 -0.1044469889973903 0 -0.25585503461737608 -0.104790536983435 0 -0.27350147401489022 -0.1145456358193038 0 -0.26309795076887121 -0.1044469889973903 0 -0.25585503461737608 -0.104790536983435 0 -0.25790472628257088 -0.1005766706907847 0 -0.2478793288110141 -0.1130174099790163 0 -0.25711178460932788 -0.1118755563835878 0 -0.25249118283028049 -0.1029309716675586 0 -0.25711178460932788 -0.1118755563835878 0 -0.25249118283028049 -0.1029309716675586 0 -0.25585503461737608 -0.104790536983435 0 -0.25249118283028049 -0.1029309716675586 0 -0.25585503461737608 -0.104790536983435 0 -0.25585503461737608 -0.104790536983435 0 -0.25248094839387042 -0.09513443491194995 0 -0.25790472628257088 -0.1005766706907847 0 -0.25248094839387042 -0.09513443491194995 0 -0.25790472628257088 -0.1005766706907847 0 -0.26006053383243122 -0.098159822523102347 0 -0.25468555728252562 -0.093443762478902237 0 -0.25248094839387042 -0.09513443491194995 0 -0.26006053383243122 -0.098159822523102347 0 -0.25973521375596748 -0.093294007816274144 0 -0.26006053383243122 -0.098159822523102347 0 -0.2645092550365592 -0.094810252658247857 0 -0.25468555728252562 -0.093443762478902237 0 -0.25973521375596748 -0.093294007816274144 0 -0.26006053383243122 -0.098159822523102347 0 -0.26309795076887121 -0.1044469889973903 0 -0.25790472628257088 -0.1005766706907847 0 -0.26006053383243122 -0.098159822523102347 0 -0.26309795076887121 -0.1044469889973903 0 -0.26006053383243122 -0.098159822523102347 0 -0.26697541778524408 -0.1003194790335607 0 -0.26006053383243122 -0.098159822523102347 0 -0.2645092550365592 -0.094810252658247857 0 -0.26697541778524408 -0.1003194790335607 0 -0.28033836735189621 -0.095882986143313115 0 -0.27834055034037292 -0.103445616604771 0 -0.28359270199707998 -0.1201241507890371 0 -0.27063233091997257 -0.09352826729317161 0 -0.2645092550365592 -0.094810252658247857 0 -0.26697541778524408 -0.1003194790335607 0 -0.27063233091997257 -0.09352826729317161 0 -0.26697541778524408 -0.1003194790335607 0 -0.27346854652463548 -0.099518074735074291 0 -0.26697541778524408 -0.1003194790335607 0 -0.27346854652463548 -0.099518074735074291 0 -0.27105606622569201 -0.104414024600555 0 -0.27063233091997257 -0.09352826729317161 0 -0.28033836735189621 -0.095882986143313115 0 -0.27346854652463548 -0.099518074735074291 0 -0.28033836735189621 -0.095882986143313115 0 -0.27346854652463548 -0.099518074735074291 0 -0.27834055034037292 -0.103445616604771 0 -0.27834055034037292 -0.103445616604771 0 -0.27105606622569201 -0.104414024600555 0 -0.27350147401489022 -0.1145456358193038 0 -0.27346854652463548 -0.099518074735074291 0 -0.27834055034037292 -0.103445616604771 0 -0.27105606622569201 -0.104414024600555 0 -0.27834055034037292 -0.103445616604771 0 -0.27350147401489022 -0.1145456358193038 0 -0.26309795076887121 -0.1044469889973903 0 -0.26697541778524408 -0.1003194790335607 0 -0.27105606622569201 -0.104414024600555 0 -0.26309795076887121 -0.1044469889973903 0 -0.27105606622569201 -0.104414024600555 0 -0.27350147401489022 -0.1145456358193038 0 -0.27350147401489022 -0.1145456358193038 0 -0.28359270199707998 -0.1201241507890371 0 -0.2636017997576246 -0.13725380718965269 0 -0.27834055034037292 -0.103445616604771 0 -0.27350147401489022 -0.1145456358193038 0 -0.28359270199707998 -0.1201241507890371 0 -0.2629559689680685 -0.11968914182286521 0 -0.27350147401489022 -0.1145456358193038 0 -0.2636017997576246 -0.13725380718965269 0 -0.27350147401489022 -0.1145456358193038 0 -0.28359270199707998 -0.1201241507890371 0 -0.29685616708450713 -0.1172154501449873 0 -0.28359270199707998 -0.1201241507890371 0 -0.30593374062575462 -0.1324744632237003 0 -0.28359270199707998 -0.1201241507890371 0 -0.29114074651289162 -0.1122542420579416 0 -0.28763547840753889 -0.10466163502388511 0 -0.29685616708450713 -0.1172154501449873 0 -0.28359270199707998 -0.1201241507890371 0 -0.29114074651289162 -0.1122542420579416 0 -0.29685616708450713 -0.1172154501449873 0 -0.29114074651289162 -0.1122542420579416 0 -0.29647863856244061 -0.10701573227385711 0 -0.28033836735189621 -0.095882986143313115 0 -0.28359270199707998 -0.1201241507890371 0 -0.28763547840753889 -0.10466163502388511 0 -0.28033836735189621 -0.095882986143313115 0 -0.28359270199707998 -0.1201241507890371 0 -0.29647863856244061 -0.10701573227385711 0 -0.28763547840753889 -0.10466163502388511 0 -0.29162364012347852 -0.094721116205227787 0 -0.29114074651289162 -0.1122542420579416 0 -0.29647863856244061 -0.10701573227385711 0 -0.28763547840753889 -0.10466163502388511 0 -0.28033836735189621 -0.095882986143313115 0 -0.28763547840753889 -0.10466163502388511 0 -0.29162364012347852 -0.094721116205227787 0 -0.29647863856244061 -0.10701573227385711 0 -0.30346124155351689 -0.096950708016400669 0 -0.30892534104498692 -0.11397828735393691 0 -0.30346124155351689 -0.096950708016400669 0 -0.30892534104498692 -0.11397828735393691 0 -0.3157837844165548 -0.099598040923710107 0 -0.29647863856244061 -0.10701573227385711 0 -0.29162364012347852 -0.094721116205227787 0 -0.30346124155351689 -0.096950708016400669 0 -0.29685616708450713 -0.1172154501449873 0 -0.30892534104498692 -0.11397828735393691 0 -0.30593374062575462 -0.1324744632237003 0 -0.29685616708450713 -0.1172154501449873 0 -0.29647863856244061 -0.10701573227385711 0 -0.30892534104498692 -0.11397828735393691 0 -0.29129507937438881 -0.05415241933732802 0 -0.28897964591124292 -0.07002912977584011 0 -0.3018796788813532 -0.069670472323039703 0 -0.28897964591124292 -0.07002912977584011 0 -0.29742605453624088 -0.081708972506021799 0 -0.3018796788813532 -0.069670472323039703 0 -0.28897964591124292 -0.07002912977584011 0 -0.28704647679132889 -0.082113194927741939 0 -0.29742605453624088 -0.081708972506021799 0 -0.27914655317743359 -0.06088789806332004 0 -0.27708403270671261 -0.0716418214975892 0 -0.28897964591124292 -0.07002912977584011 0 -0.27708403270671261 -0.0716418214975892 0 -0.28897964591124292 -0.07002912977584011 0 -0.28704647679132889 -0.082113194927741939 0 -0.27708403270671261 -0.0716418214975892 0 -0.28033836735189621 -0.095882986143313115 0 -0.28704647679132889 -0.082113194927741939 0 -0.28033836735189621 -0.095882986143313115 0 -0.29162364012347852 -0.094721116205227787 0 -0.28704647679132889 -0.082113194927741939 0 -0.29162364012347852 -0.094721116205227787 0 -0.28704647679132889 -0.082113194927741939 0 -0.29742605453624088 -0.081708972506021799 0 -0.30346124155351689 -0.096950708016400669 0 -0.3125800904162897 -0.082855015088040745 0 -0.3157837844165548 -0.099598040923710107 0 -0.29162364012347852 -0.094721116205227787 0 -0.30346124155351689 -0.096950708016400669 0 -0.29742605453624088 -0.081708972506021799 0 -0.30346124155351689 -0.096950708016400669 0 -0.29742605453624088 -0.081708972506021799 0 -0.3125800904162897 -0.082855015088040745 0 -0.3018796788813532 -0.069670472323039703 0 -0.31831105941522558 -0.065506061104621843 0 -0.3125800904162897 -0.082855015088040745 0 -0.29129507937438881 -0.05415241933732802 0 -0.3018796788813532 -0.069670472323039703 0 -0.31831105941522558 -0.065506061104621843 0 -0.29742605453624088 -0.081708972506021799 0 -0.3018796788813532 -0.069670472323039703 0 -0.3125800904162897 -0.082855015088040745 0 -0.30797215112826681 -0.058870409389529893 0 -0.31831105941522558 -0.065506061104621843 0 -0.33275231598948712 -0.069612502296540507 0 -0.30797215112826681 -0.058870409389529893 0 -0.33275231598948712 -0.069612502296540507 0 -0.31831105941522558 -0.065506061104621843 0 -0.3125800904162897 -0.082855015088040745 0 -0.32860872251840278 -0.078062749846231488 0 -0.3125800904162897 -0.082855015088040745 0 -0.32347108342265007 -0.088050388356783624 0 -0.3157837844165548 -0.099598040923710107 0 -0.3125800904162897 -0.082855015088040745 0 -0.32347108342265007 -0.088050388356783624 0 -0.32860872251840278 -0.078062749846231488 0 -0.32347108342265007 -0.088050388356783624 0 -0.33445960127106777 -0.085290161903436856 0 -0.32860872251840278 -0.078062749846231488 0 -0.33445960127106777 -0.085290161903436856 0 -0.32860872251840278 -0.078062749846231488 0 -0.34532703945606258 -0.076859702871915667 0 -0.32347108342265007 -0.088050388356783624 0 -0.33445960127106777 -0.085290161903436856 0 -0.33267722177460368 -0.094258112003337668 0 -0.33445960127106777 -0.085290161903436856 0 -0.34221393918361959 -0.089219856438915779 0 -0.33267722177460368 -0.094258112003337668 0 -0.33445960127106777 -0.085290161903436856 0 -0.34221393918361959 -0.089219856438915779 0 -0.34532703945606258 -0.076859702871915667 0 -0.31831105941522558 -0.065506061104621843 0 -0.34532703945606258 -0.076859702871915667 0 -0.31831105941522558 -0.065506061104621843 0 -0.33275231598948712 -0.069612502296540507 0 -0.34532703945606258 -0.076859702871915667 0 -0.33275231598948712 -0.069612502296540507 0 -0.34891831723486749 -0.066003446247336714 0 -0.33984796246322019 -0.056967575241787707 0 -0.31831105941522558 -0.065506061104621843 0 -0.32860872251840278 -0.078062749846231488 0 -0.34532703945606258 -0.076859702871915667 0 -0.30892534104498692 -0.11397828735393691 0 -0.32508876922767271 -0.1197109974715119 0 -0.3157837844165548 -0.099598040923710107 0 -0.30892534104498692 -0.11397828735393691 0 -0.32508876922767271 -0.1197109974715119 0 -0.30593374062575462 -0.1324744632237003 0 -0.32508876922767271 -0.1197109974715119 0 -0.3157837844165548 -0.099598040923710107 0 -0.33210859186130021 -0.1069126431057103 0 -0.32347108342265007 -0.088050388356783624 0 -0.3157837844165548 -0.099598040923710107 0 -0.33267722177460368 -0.094258112003337668 0 -0.3157837844165548 -0.099598040923710107 0 -0.33267722177460368 -0.094258112003337668 0 -0.33210859186130021 -0.1069126431057103 0 -0.33267722177460368 -0.094258112003337668 0 -0.34312631825367301 -0.1007232448918292 0 -0.33210859186130021 -0.1069126431057103 0 -0.34221393918361959 -0.089219856438915779 0 -0.33267722177460368 -0.094258112003337668 0 -0.34312631825367301 -0.1007232448918292 0 -0.34312631825367301 -0.1007232448918292 0 -0.33210859186130021 -0.1069126431057103 0 -0.34431669348696342 -0.11513041244289871 0 -0.32508876922767271 -0.1197109974715119 0 -0.34431669348696342 -0.11513041244289871 0 -0.34128569048267893 -0.13088599555088451 0 -0.32508876922767271 -0.1197109974715119 0 -0.33210859186130021 -0.1069126431057103 0 -0.34431669348696342 -0.11513041244289871 0 -0.34431669348696342 -0.11513041244289871 0 -0.35528248626880038 -0.1053198785438974 0 -0.36297243111920863 -0.1242924888655856 0 -0.34431669348696342 -0.11513041244289871 0 -0.36297243111920863 -0.1242924888655856 0 -0.34128569048267893 -0.13088599555088451 0 -0.34312631825367301 -0.1007232448918292 0 -0.34431669348696342 -0.11513041244289871 0 -0.35528248626880038 -0.1053198785438974 0 -0.34312631825367301 -0.1007232448918292 0 -0.35528248626880038 -0.1053198785438974 0 -0.35162332401755708 -0.0931487442896584 0 -0.34221393918361959 -0.089219856438915779 0 -0.34312631825367301 -0.1007232448918292 0 -0.35162332401755708 -0.0931487442896584 0 -0.35528248626880038 -0.1053198785438974 0 -0.3620583356659689 -0.093777595679541054 0 -0.35162332401755708 -0.0931487442896584 0 -0.3620583356659689 -0.093777595679541054 0 -0.3675978150694314 -0.1048467850938716 0 -0.37234301949689891 -0.088213344639210808 0 -0.3675978150694314 -0.1048467850938716 0 -0.37234301949689891 -0.088213344639210808 0 -0.38136991547938259 -0.110805240712716 0 -0.35528248626880038 -0.1053198785438974 0 -0.3620583356659689 -0.093777595679541054 0 -0.3675978150694314 -0.1048467850938716 0 -0.35528248626880038 -0.1053198785438974 0 -0.3675978150694314 -0.1048467850938716 0 -0.36297243111920863 -0.1242924888655856 0 -0.3675978150694314 -0.1048467850938716 0 -0.36297243111920863 -0.1242924888655856 0 -0.38136991547938259 -0.110805240712716 0 -0.33275231598948712 -0.069612502296540507 0 -0.34891831723486749 -0.066003446247336714 0 -0.35753248085070732 -0.08035459520355108 0 -0.33275231598948712 -0.069612502296540507 0 -0.35753248085070732 -0.08035459520355108 0 -0.33275231598948712 -0.069612502296540507 0 -0.34532703945606258 -0.076859702871915667 0 -0.35753248085070732 -0.08035459520355108 0 -0.34891831723486749 -0.066003446247336714 0 -0.35753248085070732 -0.08035459520355108 0 -0.36026188458822622 -0.067832833362898706 0 -0.34891831723486749 -0.066003446247336714 0 -0.36026188458822622 -0.067832833362898706 0 -0.35574296306760472 -0.053901450251321523 0 -0.34532703945606258 -0.076859702871915667 0 -0.35753248085070732 -0.08035459520355108 0 -0.37234301949689891 -0.088213344639210808 0 -0.34532703945606258 -0.076859702871915667 0 -0.37234301949689891 -0.088213344639210808 0 -0.3620583356659689 -0.093777595679541054 0 -0.34532703945606258 -0.076859702871915667 0 -0.35162332401755708 -0.0931487442896584 0 -0.34221393918361959 -0.089219856438915779 0 -0.34532703945606258 -0.076859702871915667 0 -0.35162332401755708 -0.0931487442896584 0 -0.35753248085070732 -0.08035459520355108 0 -0.37409795029657827 -0.082426532541013814 0 -0.36826840230373081 -0.073468690923494478 0 -0.35753248085070732 -0.08035459520355108 0 -0.37409795029657827 -0.082426532541013814 0 -0.38231264571192752 -0.09109668811056168 0 -0.35753248085070732 -0.08035459520355108 0 -0.38231264571192752 -0.09109668811056168 0 -0.35753248085070732 -0.08035459520355108 0 -0.37234301949689891 -0.088213344639210808 0 -0.38231264571192752 -0.09109668811056168 0 -0.3620583356659689 -0.093777595679541054 0 -0.34532703945606258 -0.076859702871915667 0 -0.37234301949689891 -0.088213344639210808 0 -0.37409795029657827 -0.082426532541013814 0 -0.36826840230373081 -0.073468690923494478 0 -0.37767253083955082 -0.07222684382440861 0 -0.35753248085070732 -0.08035459520355108 0 -0.36826840230373081 -0.073468690923494478 0 -0.36026188458822622 -0.067832833362898706 0 -0.36826840230373081 -0.073468690923494478 0 -0.36026188458822622 -0.067832833362898706 0 -0.37189720783083691 -0.062689075490715757 0 -0.36826840230373081 -0.073468690923494478 0 -0.37189720783083691 -0.062689075490715757 0 -0.37767253083955082 -0.07222684382440861 0 -0.36026188458822622 -0.067832833362898706 0 -0.37189720783083691 -0.062689075490715757 0 -0.35574296306760472 -0.053901450251321523 0 -0.37189720783083691 -0.062689075490715757 0 -0.35574296306760472 -0.053901450251321523 0 -0.3772011184658815 -0.044887999918692092 0 -0.34891831723486749 -0.066003446247336714 0 -0.35574296306760472 -0.053901450251321523 0 -0.33984796246322019 -0.056967575241787707 0 -0.35574296306760472 -0.053901450251321523 0 -0.34379676512487661 -0.043780038358776627 0 -0.33984796246322019 -0.056967575241787707 0 -0.35574296306760472 -0.053901450251321523 0 -0.34379676512487661 -0.043780038358776627 0 -0.35423626847689388 -0.031162777303840389 0 -0.35423626847689388 -0.031162777303840389 0 -0.38237349867587839 -0.02410924449584018 0 -0.3772011184658815 -0.044887999918692092 0 -0.35574296306760472 -0.053901450251321523 0 -0.35423626847689388 -0.031162777303840389 0 -0.3772011184658815 -0.044887999918692092 0 -0.35912004359483651 -0.010530881474089799 0 -0.35423626847689388 -0.031162777303840389 0 -0.38237349867587839 -0.02410924449584018 0 -0.35912004359483651 -0.010530881474089799 0 -0.38237349867587839 -0.02410924449584018 0 -0.35912004359483651 -0.010530881474089799 0 -0.37630101312515413 -0.0017537402174872649 0 -0.38237349867587839 -0.02410924449584018 0 -0.35912004359483651 -0.010530881474089799 0 -0.33892350374828301 -0.015117898549824441 0 -0.34477131709100672 0.0030002940641287749 0 -0.35912004359483651 -0.010530881474089799 0 -0.35423626847689388 -0.031162777303840389 0 -0.33892350374828301 -0.015117898549824441 0 -0.35423626847689388 -0.031162777303840389 0 -0.33892350374828301 -0.015117898549824441 0 -0.33233863727884289 -0.034986890833074741 0 -0.33892350374828301 -0.015117898549824441 0 -0.31694846817146949 -0.021526208742668081 0 -0.33233863727884289 -0.034986890833074741 0 -0.33892350374828301 -0.015117898549824441 0 -0.32561302252609747 0.001356273347036568 0 -0.34477131709100672 0.0030002940641287749 0 -0.33892350374828301 -0.015117898549824441 0 -0.31694846817146949 -0.021526208742668081 0 -0.32561302252609747 0.001356273347036568 0 -0.30691290727482629 -0.00095341638459660739 0 -0.31694846817146949 -0.021526208742668081 0 -0.32561302252609747 0.001356273347036568 0 -0.31477370782836739 -0.041279687448132617 0 -0.32693297735241378 -0.051760004019872838 0 -0.33233863727884289 -0.034986890833074741 0 -0.31694846817146949 -0.021526208742668081 0 -0.31477370782836739 -0.041279687448132617 0 -0.33233863727884289 -0.034986890833074741 0 -0.30797215112826681 -0.058870409389529893 0 -0.31477370782836739 -0.041279687448132617 0 -0.32693297735241378 -0.051760004019872838 0 -0.30797215112826681 -0.058870409389529893 0 -0.33275231598948712 -0.069612502296540507 0 -0.32693297735241378 -0.051760004019872838 0 -0.34379676512487661 -0.043780038358776627 0 -0.32693297735241378 -0.051760004019872838 0 -0.33984796246322019 -0.056967575241787707 0 -0.33275231598948712 -0.069612502296540507 0 -0.32693297735241378 -0.051760004019872838 0 -0.33984796246322019 -0.056967575241787707 0 -0.34379676512487661 -0.043780038358776627 0 -0.35423626847689388 -0.031162777303840389 0 -0.33233863727884289 -0.034986890833074741 0 -0.34379676512487661 -0.043780038358776627 0 -0.32693297735241378 -0.051760004019872838 0 -0.33233863727884289 -0.034986890833074741 0 -0.3084490109222261 -0.2499478765489658 0 -0.30696801570766241 -0.23133386868650441 0 -0.28882037556936779 -0.24227958441945091 0 -0.30696801570766241 -0.23133386868650441 0 -0.30236367905769979 -0.21338182677083431 0 -0.32340249057713971 -0.21782532235043781 0 -0.30696801570766241 -0.23133386868650441 0 -0.29244812795469383 -0.2258999085892418 0 -0.30236367905769979 -0.21338182677083431 0 -0.30696801570766241 -0.23133386868650441 0 -0.29244812795469383 -0.2258999085892418 0 -0.28882037556936779 -0.24227958441945091 0 -0.29244812795469383 -0.2258999085892418 0 -0.28882037556936779 -0.24227958441945091 0 -0.28019168141089362 -0.22882521342176271 0 -0.29244812795469383 -0.2258999085892418 0 -0.28019168141089362 -0.22882521342176271 0 -0.28389688802784541 -0.2136790496476568 0 -0.28410807240321551 -0.25720713578207971 0 -0.28882037556936779 -0.24227958441945091 0 -0.2738665099760702 -0.24983163637103131 0 -0.28882037556936779 -0.24227958441945091 0 -0.2738665099760702 -0.24983163637103131 0 -0.26826411658142357 -0.2392526869994174 0 -0.28882037556936779 -0.24227958441945091 0 -0.26826411658142357 -0.2392526869994174 0 -0.28019168141089362 -0.22882521342176271 0 -0.2738665099760702 -0.24983163637103131 0 -0.26826411658142357 -0.2392526869994174 0 -0.25633655175195141 -0.24968016057706971 0 -0.26826411658142357 -0.2392526869994174 0 -0.25633655175195141 -0.24968016057706971 0 -0.24919649157834911 -0.22944477677784869 0 -0.26826411658142357 -0.2392526869994174 0 -0.25633655175195141 -0.24968016057706971 0 -0.24919649157834911 -0.22944477677784869 0 -0.25633655175195141 -0.24968016057706971 0 -0.24919649157834911 -0.22944477677784869 0 -0.26456996224549922 -0.22548611137995631 0 -0.25479553338475952 -0.21380407726207479 0 -0.24919649157834911 -0.22944477677784869 0 -0.26826411658142357 -0.2392526869994174 0 -0.26456996224549922 -0.22548611137995631 0 -0.26456996224549922 -0.22548611137995631 0 -0.27390707054665597 -0.2200152310639879 0 -0.26724637272813617 -0.2114860325418785 0 -0.26456996224549922 -0.22548611137995631 0 -0.28019168141089362 -0.22882521342176271 0 -0.27390707054665597 -0.2200152310639879 0 -0.26826411658142357 -0.2392526869994174 0 -0.26456996224549922 -0.22548611137995631 0 -0.28019168141089362 -0.22882521342176271 0 -0.26826411658142357 -0.2392526869994174 0 -0.28019168141089362 -0.22882521342176271 0 -0.28019168141089362 -0.22882521342176271 0 -0.27390707054665597 -0.2200152310639879 0 -0.28389688802784541 -0.2136790496476568 0 -0.26724637272813617 -0.2114860325418785 0 -0.25877579392936129 -0.2031550987133518 0 -0.27505294725397678 -0.20259533628839099 0 -0.27390707054665597 -0.2200152310639879 0 -0.26724637272813617 -0.2114860325418785 0 -0.28389688802784541 -0.2136790496476568 0 -0.26724637272813617 -0.2114860325418785 0 -0.27505294725397678 -0.20259533628839099 0 -0.28389688802784541 -0.2136790496476568 0 -0.26456996224549922 -0.22548611137995631 0 -0.26724637272813617 -0.2114860325418785 0 -0.25479553338475952 -0.21380407726207479 0 -0.26724637272813617 -0.2114860325418785 0 -0.25877579392936129 -0.2031550987133518 0 -0.25479553338475952 -0.21380407726207479 0 -0.2469281484224633 -0.2040430511807865 0 -0.25877579392936129 -0.2031550987133518 0 -0.25479553338475952 -0.21380407726207479 0 -0.25877579392936129 -0.2031550987133518 0 -0.25449940411996819 -0.1899960014345351 0 -0.27138053893111558 -0.18726923174198801 0 -0.2469281484224633 -0.2040430511807865 0 -0.25877579392936129 -0.2031550987133518 0 -0.25064578342257748 -0.19770227846942581 0 -0.25877579392936129 -0.2031550987133518 0 -0.25449940411996819 -0.1899960014345351 0 -0.25064578342257748 -0.19770227846942581 0 -0.27505294725397678 -0.20259533628839099 0 -0.29396514265342583 -0.1973872687970803 0 -0.27138053893111558 -0.18726923174198801 0 -0.25877579392936129 -0.2031550987133518 0 -0.27505294725397678 -0.20259533628839099 0 -0.27138053893111558 -0.18726923174198801 0 -0.29396514265342583 -0.1973872687970803 0 -0.28389688802784541 -0.2136790496476568 0 -0.30236367905769979 -0.21338182677083431 0 -0.29244812795469383 -0.2258999085892418 0 -0.28389688802784541 -0.2136790496476568 0 -0.30236367905769979 -0.21338182677083431 0 -0.27505294725397678 -0.20259533628839099 0 -0.29396514265342583 -0.1973872687970803 0 -0.28389688802784541 -0.2136790496476568 0 -0.29396514265342583 -0.1973872687970803 0 -0.30236367905769979 -0.21338182677083431 0 -0.313497720914169 -0.19699734266361371 0 -0.29396514265342583 -0.1973872687970803 0 -0.30648576870635602 -0.18087420453799691 0 -0.313497720914169 -0.19699734266361371 0 -0.29396514265342583 -0.1973872687970803 0 -0.30648576870635602 -0.18087420453799691 0 -0.29050766243464382 -0.17163289612773261 0 -0.30648576870635602 -0.18087420453799691 0 -0.31044695115271859 -0.15952790723894811 0 -0.29050766243464382 -0.17163289612773261 0 -0.29050766243464382 -0.17163289612773261 0 -0.28705018221586182 -0.14587852345838481 0 -0.29050766243464382 -0.17163289612773261 0 -0.27239299520441851 -0.1624597443641255 0 -0.28705018221586182 -0.14587852345838481 0 -0.31044695115271859 -0.15952790723894811 0 -0.29050766243464382 -0.17163289612773261 0 -0.28705018221586182 -0.14587852345838481 0 -0.29396514265342583 -0.1973872687970803 0 -0.29050766243464382 -0.17163289612773261 0 -0.27138053893111558 -0.18726923174198801 0 -0.29396514265342583 -0.1973872687970803 0 -0.29050766243464382 -0.17163289612773261 0 -0.29050766243464382 -0.17163289612773261 0 -0.27138053893111558 -0.18726923174198801 0 -0.27239299520441851 -0.1624597443641255 0 -0.27138053893111558 -0.18726923174198801 0 -0.25908559660538499 -0.17582089133339851 0 -0.27239299520441851 -0.1624597443641255 0 -0.25449940411996819 -0.1899960014345351 0 -0.27138053893111558 -0.18726923174198801 0 -0.25908559660538499 -0.17582089133339851 0 -0.2438024512430936 -0.18267014993035049 0 -0.25908559660538499 -0.17582089133339851 0 -0.25370212550035909 -0.15996197856000161 0 -0.2438024512430936 -0.18267014993035049 0 -0.25449940411996819 -0.1899960014345351 0 -0.25908559660538499 -0.17582089133339851 0 -0.25908559660538499 -0.17582089133339851 0 -0.25370212550035909 -0.15996197856000161 0 -0.27239299520441851 -0.1624597443641255 0 -0.27239299520441851 -0.1624597443641255 0 -0.2636017997576246 -0.13725380718965269 0 -0.28705018221586182 -0.14587852345838481 0 -0.25370212550035909 -0.15996197856000161 0 -0.2636017997576246 -0.13725380718965269 0 -0.25370212550035909 -0.15996197856000161 0 -0.27239299520441851 -0.1624597443641255 0 -0.2636017997576246 -0.13725380718965269 0 -0.23912906783592081 -0.153616416315245 0 -0.25370212550035909 -0.15996197856000161 0 -0.2636017997576246 -0.13725380718965269 0 -0.2629559689680685 -0.11968914182286521 0 -0.25525621579365992 -0.1208836458952024 0 -0.2636017997576246 -0.13725380718965269 0 -0.24395647137384779 -0.12545654041261339 0 -0.25525621579365992 -0.1208836458952024 0 -0.2636017997576246 -0.13725380718965269 0 -0.27350147401489022 -0.1145456358193038 0 -0.2636017997576246 -0.13725380718965269 0 -0.28359270199707998 -0.1201241507890371 0 -0.2636017997576246 -0.13725380718965269 0 -0.28705018221586182 -0.14587852345838481 0 -0.28359270199707998 -0.1201241507890371 0 -0.28705018221586182 -0.14587852345838481 0 -0.28359270199707998 -0.1201241507890371 0 -0.28705018221586182 -0.14587852345838481 0 -0.30593374062575462 -0.1324744632237003 0 -0.28359270199707998 -0.1201241507890371 0 -0.30593374062575462 -0.1324744632237003 0 -0.31044695115271859 -0.15952790723894811 0 -0.28705018221586182 -0.14587852345838481 0 -0.30593374062575462 -0.1324744632237003 0 -0.30593374062575462 -0.1324744632237003 0 -0.32827477925442888 -0.14482477565836391 0 -0.32508876922767271 -0.1197109974715119 0 -0.30593374062575462 -0.1324744632237003 0 -0.32827477925442888 -0.14482477565836391 0 -0.31044695115271859 -0.15952790723894811 0 -0.30593374062575462 -0.1324744632237003 0 -0.32827477925442888 -0.14482477565836391 0 -0.31044695115271859 -0.15952790723894811 0 -0.32827477925442888 -0.14482477565836391 0 -0.33136885396006288 -0.16178594040038019 0 -0.32827477925442888 -0.14482477565836391 0 -0.34128569048267893 -0.13088599555088451 0 -0.34936516214407259 -0.14897194654657081 0 -0.32827477925442888 -0.14482477565836391 0 -0.34936516214407259 -0.14897194654657081 0 -0.33136885396006288 -0.16178594040038019 0 -0.32508876922767271 -0.1197109974715119 0 -0.32827477925442888 -0.14482477565836391 0 -0.34128569048267893 -0.13088599555088451 0 -0.36297243111920863 -0.1242924888655856 0 -0.34128569048267893 -0.13088599555088451 0 -0.34936516214407259 -0.14897194654657081 0 -0.36297243111920863 -0.1242924888655856 0 -0.3740683684951065 -0.14511189419841761 0 -0.34936516214407259 -0.14897194654657081 0 -0.3740683684951065 -0.14511189419841761 0 -0.34936516214407259 -0.14897194654657081 0 -0.36236259119811282 -0.16170237754434441 0 -0.34936516214407259 -0.14897194654657081 0 -0.36236259119811282 -0.16170237754434441 0 -0.34534905461118309 -0.17352138753239041 0 -0.3740683684951065 -0.14511189419841761 0 -0.36236259119811282 -0.16170237754434441 0 -0.3851494204742415 -0.17229842814572921 0 -0.36236259119811282 -0.16170237754434441 0 -0.36645194572902062 -0.18359309248886749 0 -0.3851494204742415 -0.17229842814572921 0 -0.34534905461118309 -0.17352138753239041 0 -0.33436862364104319 -0.1952642421823865 0 -0.35251768716300858 -0.1935964339909727 0 -0.36645194572902062 -0.18359309248886749 0 -0.34534905461118309 -0.17352138753239041 0 -0.35251768716300858 -0.1935964339909727 0 -0.36236259119811282 -0.16170237754434441 0 -0.36645194572902062 -0.18359309248886749 0 -0.34534905461118309 -0.17352138753239041 0 -0.34534905461118309 -0.17352138753239041 0 -0.32401136637682298 -0.17882560786261001 0 -0.33436862364104319 -0.1952642421823865 0 -0.34534905461118309 -0.17352138753239041 0 -0.33136885396006288 -0.16178594040038019 0 -0.32401136637682298 -0.17882560786261001 0 -0.34936516214407259 -0.14897194654657081 0 -0.34534905461118309 -0.17352138753239041 0 -0.33136885396006288 -0.16178594040038019 0 -0.31044695115271859 -0.15952790723894811 0 -0.33136885396006288 -0.16178594040038019 0 -0.32401136637682298 -0.17882560786261001 0 -0.30648576870635602 -0.18087420453799691 0 -0.31044695115271859 -0.15952790723894811 0 -0.32401136637682298 -0.17882560786261001 0 -0.30648576870635602 -0.18087420453799691 0 -0.32401136637682298 -0.17882560786261001 0 -0.313497720914169 -0.19699734266361371 0 -0.32401136637682298 -0.17882560786261001 0 -0.313497720914169 -0.19699734266361371 0 -0.33436862364104319 -0.1952642421823865 0 -0.313497720914169 -0.19699734266361371 0 -0.32340249057713971 -0.21782532235043781 0 -0.33436862364104319 -0.1952642421823865 0 -0.30236367905769979 -0.21338182677083431 0 -0.313497720914169 -0.19699734266361371 0 -0.32340249057713971 -0.21782532235043781 0 -0.32340249057713971 -0.21782532235043781 0 -0.33436862364104319 -0.1952642421823865 0 -0.34753566396855923 -0.2111942650054385 0 -0.33436862364104319 -0.1952642421823865 0 -0.35251768716300858 -0.1935964339909727 0 -0.34753566396855923 -0.2111942650054385 0 -0.36645194572902062 -0.18359309248886749 0 -0.35251768716300858 -0.1935964339909727 0 -0.36960299579656231 -0.2060307182739807 0 -0.36645194572902062 -0.18359309248886749 0 -0.36960299579656231 -0.2060307182739807 0 -0.38372992513101528 -0.19440920944578741 0 -0.36960299579656231 -0.2060307182739807 0 -0.34753566396855923 -0.2111942650054385 0 -0.36147454470899087 -0.22351422655508491 0 -0.35251768716300858 -0.1935964339909727 0 -0.36960299579656231 -0.2060307182739807 0 -0.34753566396855923 -0.2111942650054385 0 -0.34753566396855923 -0.2111942650054385 0 -0.34384764192461081 -0.23093464667976871 0 -0.36147454470899087 -0.22351422655508491 0 -0.34384764192461081 -0.23093464667976871 0 -0.36147454470899087 -0.22351422655508491 0 -0.36291602693514158 -0.24235010539063789 0 -0.36960299579656231 -0.2060307182739807 0 -0.36147454470899087 -0.22351422655508491 0 -0.3892261314270804 -0.2298844907336719 0 -0.36147454470899087 -0.22351422655508491 0 -0.36291602693514158 -0.24235010539063789 0 -0.3892261314270804 -0.2298844907336719 0 -0.34409706512831129 -0.2509088056791956 0 -0.34384764192461081 -0.23093464667976871 0 -0.36291602693514158 -0.24235010539063789 0 -0.34409706512831129 -0.2509088056791956 0 -0.34384764192461081 -0.23093464667976871 0 -0.32467237202877453 -0.24010865335760359 0 -0.32814209364500441 -0.25840828646874381 0 -0.34409706512831129 -0.2509088056791956 0 -0.32467237202877453 -0.24010865335760359 0 -0.32340249057713971 -0.21782532235043781 0 -0.34753566396855923 -0.2111942650054385 0 -0.34384764192461081 -0.23093464667976871 0 -0.32340249057713971 -0.21782532235043781 0 -0.34384764192461081 -0.23093464667976871 0 -0.32467237202877453 -0.24010865335760359 0 -0.30696801570766241 -0.23133386868650441 0 -0.32340249057713971 -0.21782532235043781 0 -0.32467237202877453 -0.24010865335760359 0 -0.3084490109222261 -0.2499478765489658 0 -0.30696801570766241 -0.23133386868650441 0 -0.32467237202877453 -0.24010865335760359 0 -0.32814209364500441 -0.25840828646874381 0 -0.3084490109222261 -0.2499478765489658 0 -0.32467237202877453 -0.24010865335760359 0 -0.43261672605212498 -0.23386856979381809 0 -0.41492216845380259 -0.24917435442157229 0 -0.44458406038942538 -0.24975118405773991 0 -0.43261672605212498 -0.23386856979381809 0 -0.41180561837843771 -0.22705208340456121 0 -0.43823276405714873 -0.21140236823060141 0 -0.43261672605212498 -0.23386856979381809 0 -0.41180561837843771 -0.22705208340456121 0 -0.41492216845380259 -0.24917435442157229 0 -0.41180561837843771 -0.22705208340456121 0 -0.41492216845380259 -0.24917435442157229 0 -0.3892261314270804 -0.2298844907336719 0 -0.39590049598208632 -0.25781182944124797 0 -0.41492216845380259 -0.24917435442157229 0 -0.3892261314270804 -0.2298844907336719 0 -0.37688579422835178 -0.25516175044890282 0 -0.36291602693514158 -0.24235010539063789 0 -0.3892261314270804 -0.2298844907336719 0 -0.37688579422835178 -0.25516175044890282 0 -0.39590049598208632 -0.25781182944124797 0 -0.3892261314270804 -0.2298844907336719 0 -0.41180561837843771 -0.22705208340456121 0 -0.3892261314270804 -0.2298844907336719 0 -0.3954809830926016 -0.21012404113437971 0 -0.3954809830926016 -0.21012404113437971 0 -0.4016237562242263 -0.1925085928779762 0 -0.41409375552542899 -0.2077607532230536 0 -0.36960299579656231 -0.2060307182739807 0 -0.3954809830926016 -0.21012404113437971 0 -0.38372992513101528 -0.19440920944578741 0 -0.36960299579656231 -0.2060307182739807 0 -0.3892261314270804 -0.2298844907336719 0 -0.3954809830926016 -0.21012404113437971 0 -0.3954809830926016 -0.21012404113437971 0 -0.38372992513101528 -0.19440920944578741 0 -0.4016237562242263 -0.1925085928779762 0 -0.4016237562242263 -0.1925085928779762 0 -0.4228378496952338 -0.1918781963856771 0 -0.40845060342683692 -0.1785809289332303 0 -0.4016237562242263 -0.1925085928779762 0 -0.41409375552542899 -0.2077607532230536 0 -0.4228378496952338 -0.1918781963856771 0 -0.41180561837843771 -0.22705208340456121 0 -0.3954809830926016 -0.21012404113437971 0 -0.41409375552542899 -0.2077607532230536 0 -0.41180561837843771 -0.22705208340456121 0 -0.41409375552542899 -0.2077607532230536 0 -0.43823276405714873 -0.21140236823060141 0 -0.41409375552542899 -0.2077607532230536 0 -0.4228378496952338 -0.1918781963856771 0 -0.43823276405714873 -0.21140236823060141 0 -0.4228378496952338 -0.1918781963856771 0 -0.44081828188740779 -0.19003321163280659 0 -0.43823276405714873 -0.21140236823060141 0 -0.4228378496952338 -0.1918781963856771 0 -0.43282278187092349 -0.1708252329947989 0 -0.44081828188740779 -0.19003321163280659 0 -0.43282278187092349 -0.1708252329947989 0 -0.42051701963191818 -0.15338194148245979 0 -0.43961912615748899 -0.1475840106266102 0 -0.40845060342683692 -0.1785809289332303 0 -0.39942370744435218 -0.1559890328597256 0 -0.42051701963191818 -0.15338194148245979 0 -0.43282278187092349 -0.1708252329947989 0 -0.40845060342683692 -0.1785809289332303 0 -0.42051701963191818 -0.15338194148245979 0 -0.4228378496952338 -0.1918781963856771 0 -0.43282278187092349 -0.1708252329947989 0 -0.40845060342683692 -0.1785809289332303 0 -0.4016237562242263 -0.1925085928779762 0 -0.40845060342683692 -0.1785809289332303 0 -0.3851494204742415 -0.17229842814572921 0 -0.38372992513101528 -0.19440920944578741 0 -0.4016237562242263 -0.1925085928779762 0 -0.3851494204742415 -0.17229842814572921 0 -0.36645194572902062 -0.18359309248886749 0 -0.38372992513101528 -0.19440920944578741 0 -0.3851494204742415 -0.17229842814572921 0 -0.3740683684951065 -0.14511189419841761 0 -0.3851494204742415 -0.17229842814572921 0 -0.39942370744435218 -0.1559890328597256 0 -0.40845060342683692 -0.1785809289332303 0 -0.3851494204742415 -0.17229842814572921 0 -0.39942370744435218 -0.1559890328597256 0 -0.40845060342683692 -0.1785809289332303 0 -0.39942370744435218 -0.1559890328597256 0 -0.39942370744435218 -0.1559890328597256 0 -0.39039681146186739 -0.13339713678622081 0 -0.41115691944944982 -0.13266826510555951 0 -0.39942370744435218 -0.1559890328597256 0 -0.39039681146186739 -0.13339713678622081 0 -0.3740683684951065 -0.14511189419841761 0 -0.39942370744435218 -0.1559890328597256 0 -0.39039681146186739 -0.13339713678622081 0 -0.36297243111920863 -0.1242924888655856 0 -0.3740683684951065 -0.14511189419841761 0 -0.39039681146186739 -0.13339713678622081 0 -0.39039681146186739 -0.13339713678622081 0 -0.41115691944944982 -0.13266826510555951 0 -0.39973580769762701 -0.1138978056195301 0 -0.41115691944944982 -0.13266826510555951 0 -0.42598283159619899 -0.1360528170108059 0 -0.42633543643755523 -0.12204073140732789 0 -0.39942370744435218 -0.1559890328597256 0 -0.41115691944944982 -0.13266826510555951 0 -0.42051701963191818 -0.15338194148245979 0 -0.41115691944944982 -0.13266826510555951 0 -0.42051701963191818 -0.15338194148245979 0 -0.42598283159619899 -0.1360528170108059 0 -0.42051701963191818 -0.15338194148245979 0 -0.42598283159619899 -0.1360528170108059 0 -0.43961912615748899 -0.1475840106266102 0 -0.42598283159619899 -0.1360528170108059 0 -0.43845233031810538 -0.13038884334590189 0 -0.43961912615748899 -0.1475840106266102 0 -0.42598283159619899 -0.1360528170108059 0 -0.43845233031810538 -0.13038884334590189 0 -0.42633543643755523 -0.12204073140732789 0 -0.45234130438283199 -0.13599412887266871 0 -0.43845233031810538 -0.13038884334590189 0 -0.43961912615748899 -0.1475840106266102 0 -0.45234130438283199 -0.13599412887266871 0 -0.43845233031810538 -0.13038884334590189 0 -0.44770348775565338 -0.1241496855469152 0 -0.43961912615748899 -0.1475840106266102 0 -0.45497176255891092 -0.14884507698552249 0 -0.4494676506409393 -0.1621207955961399 0 -0.45234130438283199 -0.13599412887266871 0 -0.43961912615748899 -0.1475840106266102 0 -0.45497176255891092 -0.14884507698552249 0 -0.46842939849900739 -0.1350140494834787 0 -0.4654072645863197 -0.16417406824993039 0 -0.45497176255891092 -0.14884507698552249 0 -0.46842939849900739 -0.1350140494834787 0 -0.4654072645863197 -0.16417406824993039 0 -0.45234130438283199 -0.13599412887266871 0 -0.46842939849900739 -0.1350140494834787 0 -0.46015867187494269 -0.12758987956456591 0 -0.45234130438283199 -0.13599412887266871 0 -0.45497176255891092 -0.14884507698552249 0 -0.46842939849900739 -0.1350140494834787 0 -0.45234130438283199 -0.13599412887266871 0 -0.46015867187494269 -0.12758987956456591 0 -0.44770348775565338 -0.1241496855469152 0 -0.47527854242284451 -0.1274447220761761 0 -0.4791055524339935 -0.1490354134353252 0 -0.46842939849900739 -0.1350140494834787 0 -0.47527854242284451 -0.1274447220761761 0 -0.4791055524339935 -0.1490354134353252 0 -0.47527854242284451 -0.1274447220761761 0 -0.48815742945689061 -0.12838251890212951 0 -0.4791055524339935 -0.1490354134353252 0 -0.5 -0.1362887057456876 0 -0.48815742945689061 -0.12838251890212951 0 -0.49999999999999739 -0.11035766326492839 0 -0.5 -0.1362887057456876 0 -0.48815742945689061 -0.12838251890212951 0 -0.4791055524339935 -0.1490354134353252 0 -0.5 -0.1362887057456876 0 -0.4791055524339935 -0.1490354134353252 0 -0.5 -0.1622197482264468 0 -0.46842939849900739 -0.1350140494834787 0 -0.4791055524339935 -0.1490354134353252 0 -0.4654072645863197 -0.16417406824993039 0 -0.4791055524339935 -0.1490354134353252 0 -0.48376175520512388 -0.1698792654265463 0 -0.4654072645863197 -0.16417406824993039 0 -0.4791055524339935 -0.1490354134353252 0 -0.48376175520512388 -0.1698792654265463 0 -0.5 -0.1622197482264468 0 -0.48376175520512388 -0.1698792654265463 0 -0.47429595900530641 -0.18581630651382289 0 -0.5 -0.18815079070720611 0 -0.48376175520512388 -0.1698792654265463 0 -0.5 -0.1622197482264468 0 -0.5 -0.18815079070720611 0 -0.48376175520512388 -0.1698792654265463 0 -0.47429595900530641 -0.18581630651382289 0 -0.4654072645863197 -0.16417406824993039 0 -0.47429595900530641 -0.18581630651382289 0 -0.45370410451034998 -0.17847744750750841 0 -0.45904718279838741 -0.19726227256203371 0 -0.47429595900530641 -0.18581630651382289 0 -0.45370410451034998 -0.17847744750750841 0 -0.4654072645863197 -0.16417406824993039 0 -0.45370410451034998 -0.17847744750750841 0 -0.4654072645863197 -0.16417406824993039 0 -0.4494676506409393 -0.1621207955961399 0 -0.45497176255891092 -0.14884507698552249 0 -0.4654072645863197 -0.16417406824993039 0 -0.4494676506409393 -0.1621207955961399 0 -0.43282278187092349 -0.1708252329947989 0 -0.43961912615748899 -0.1475840106266102 0 -0.4494676506409393 -0.1621207955961399 0 -0.43282278187092349 -0.1708252329947989 0 -0.45370410451034998 -0.17847744750750841 0 -0.4494676506409393 -0.1621207955961399 0 -0.43282278187092349 -0.1708252329947989 0 -0.45370410451034998 -0.17847744750750841 0 -0.44081828188740779 -0.19003321163280659 0 -0.45370410451034998 -0.17847744750750841 0 -0.44081828188740779 -0.19003321163280659 0 -0.45904718279838741 -0.19726227256203371 0 -0.44081828188740779 -0.19003321163280659 0 -0.43823276405714873 -0.21140236823060141 0 -0.45904718279838741 -0.19726227256203371 0 -0.43823276405714873 -0.21140236823060141 0 -0.4658585054758474 -0.21361704466038889 0 -0.45904718279838741 -0.19726227256203371 0 -0.43823276405714873 -0.21140236823060141 0 -0.4658585054758474 -0.21361704466038889 0 -0.45569962587827251 -0.22948556920367119 0 -0.47429595900530641 -0.18581630651382289 0 -0.45904718279838741 -0.19726227256203371 0 -0.48137348185426437 -0.20422725682707399 0 -0.47429595900530641 -0.18581630651382289 0 -0.5 -0.18815079070720611 0 -0.48137348185426437 -0.20422725682707399 0 -0.5 -0.18815079070720611 0 -0.5 -0.2140818331879655 0 -0.48137348185426437 -0.20422725682707399 0 -0.5 -0.2140818331879655 0 -0.48137348185426437 -0.20422725682707399 0 -0.48221645984770012 -0.22561482291032131 0 -0.4658585054758474 -0.21361704466038889 0 -0.45904718279838741 -0.19726227256203371 0 -0.48137348185426437 -0.20422725682707399 0 -0.4658585054758474 -0.21361704466038889 0 -0.48137348185426437 -0.20422725682707399 0 -0.48221645984770012 -0.22561482291032131 0 -0.48221645984770012 -0.22561482291032131 0 -0.47068923944738839 -0.24265942556915759 0 -0.45569962587827251 -0.22948556920367119 0 -0.5 -0.2140818331879655 0 -0.48221645984770012 -0.22561482291032131 0 -0.5 -0.24001287566872481 0 -0.48191371264785599 -0.25951362480925638 0 -0.5 -0.24001287566872481 0 -0.47068923944738839 -0.24265942556915759 0 -0.48221645984770012 -0.22561482291032131 0 -0.5 -0.24001287566872481 0 -0.47068923944738839 -0.24265942556915759 0 -0.47068923944738839 -0.24265942556915759 0 -0.45569962587827251 -0.22948556920367119 0 -0.44458406038942538 -0.24975118405773991 0 -0.4658585054758474 -0.21361704466038889 0 -0.48221645984770012 -0.22561482291032131 0 -0.45569962587827251 -0.22948556920367119 0 -0.43261672605212498 -0.23386856979381809 0 -0.43823276405714873 -0.21140236823060141 0 -0.45569962587827251 -0.22948556920367119 0 -0.43261672605212498 -0.23386856979381809 0 -0.45569962587827251 -0.22948556920367119 0 -0.44458406038942538 -0.24975118405773991 0 -0.42089340143700371 -0.038974870886881549 0 -0.42775006339730121 -0.029367253687902949 0 -0.40562695375692043 -0.037687607517590593 0 -0.42560913303253489 -0.049355778257137807 0 -0.40562695375692043 -0.037687607517590593 0 -0.42089340143700371 -0.038974870886881549 0 -0.42560913303253489 -0.049355778257137807 0 -0.40562695375692043 -0.037687607517590593 0 -0.41117004196989859 -0.051139061871165258 0 -0.42560913303253489 -0.049355778257137807 0 -0.40562695375692043 -0.037687607517590593 0 -0.41117004196989859 -0.051139061871165258 0 -0.41304150832143549 -0.061866805063038412 0 -0.4040004258616256 -0.065105102191383574 0 -0.41304150832143549 -0.061866805063038412 0 -0.42463052936300127 -0.056660178633496337 0 -0.41902033383963772 -0.067834520266261245 0 -0.41117004196989859 -0.051139061871165258 0 -0.41304150832143549 -0.061866805063038412 0 -0.42463052936300127 -0.056660178633496337 0 -0.41117004196989859 -0.051139061871165258 0 -0.42560913303253489 -0.049355778257137807 0 -0.42463052936300127 -0.056660178633496337 0 -0.42560913303253489 -0.049355778257137807 0 -0.42463052936300127 -0.056660178633496337 0 -0.44559131230814941 -0.061023948996685083 0 -0.42560913303253489 -0.049355778257137807 0 -0.43802889944063361 -0.0491532213080422 0 -0.44559131230814941 -0.061023948996685083 0 -0.42560913303253489 -0.049355778257137807 0 -0.44559131230814941 -0.061023948996685083 0 -0.42560913303253489 -0.049355778257137807 0 -0.43179719241621017 -0.040795295154017343 0 -0.43802889944063361 -0.0491532213080422 0 -0.43179719241621017 -0.040795295154017343 0 -0.43901068316009462 -0.035467323025656333 0 -0.44131818743038292 -0.043190895177821098 0 -0.43179719241621017 -0.040795295154017343 0 -0.44131818743038292 -0.043190895177821098 0 -0.43802889944063361 -0.0491532213080422 0 -0.42089340143700371 -0.038974870886881549 0 -0.42560913303253489 -0.049355778257137807 0 -0.43179719241621017 -0.040795295154017343 0 -0.42089340143700371 -0.038974870886881549 0 -0.43179719241621017 -0.040795295154017343 0 -0.42775006339730121 -0.029367253687902949 0 -0.43179719241621017 -0.040795295154017343 0 -0.42775006339730121 -0.029367253687902949 0 -0.43901068316009462 -0.035467323025656333 0 -0.43335032612692181 -0.017887535643456409 0 -0.42775006339730121 -0.029367253687902949 0 -0.44412179861910639 -0.02480628842233663 0 -0.43335032612692181 -0.017887535643456409 0 -0.42775006339730121 -0.029367253687902949 0 -0.41968245188359687 -0.012438694687523261 0 -0.42775006339730121 -0.029367253687902949 0 -0.43901068316009462 -0.035467323025656333 0 -0.44412179861910639 -0.02480628842233663 0 -0.43335032612692181 -0.017887535643456409 0 -0.41968245188359687 -0.012438694687523261 0 -0.4418469906076829 -0.0049379057760628037 0 -0.41968245188359687 -0.012438694687523261 0 -0.4418469906076829 -0.0049379057760628037 0 -0.43373795001027488 0.012810218142543021 0 -0.41968245188359687 -0.012438694687523261 0 -0.39623740299342319 -0.0023384003391818502 0 -0.41309341137854177 0.010357606111404891 0 -0.41968245188359687 -0.012438694687523261 0 -0.40098007682745468 -0.019143486760033971 0 -0.40562695375692043 -0.037687607517590593 0 -0.41968245188359687 -0.012438694687523261 0 -0.40562695375692043 -0.037687607517590593 0 -0.42775006339730121 -0.029367253687902949 0 -0.41968245188359687 -0.012438694687523261 0 -0.40562695375692043 -0.037687607517590593 0 -0.40098007682745468 -0.019143486760033971 0 -0.38237349867587839 -0.02410924449584018 0 -0.40562695375692043 -0.037687607517590593 0 -0.38237349867587839 -0.02410924449584018 0 -0.40562695375692043 -0.037687607517590593 0 -0.41968245188359687 -0.012438694687523261 0 -0.40098007682745468 -0.019143486760033971 0 -0.39623740299342319 -0.0023384003391818502 0 -0.40098007682745468 -0.019143486760033971 0 -0.39623740299342319 -0.0023384003391818502 0 -0.38237349867587839 -0.02410924449584018 0 -0.39623740299342319 -0.0023384003391818502 0 -0.37630101312515413 -0.0017537402174872649 0 -0.38237349867587839 -0.02410924449584018 0 -0.38237349867587839 -0.02410924449584018 0 -0.3772011184658815 -0.044887999918692092 0 -0.40562695375692043 -0.037687607517590593 0 -0.41117004196989859 -0.051139061871165258 0 -0.39332981898715502 -0.059777844452844127 0 -0.4040004258616256 -0.065105102191383574 0 -0.40562695375692043 -0.037687607517590593 0 -0.39332981898715502 -0.059777844452844127 0 -0.41117004196989859 -0.051139061871165258 0 -0.40562695375692043 -0.037687607517590593 0 -0.39332981898715502 -0.059777844452844127 0 -0.3772011184658815 -0.044887999918692092 0 -0.40562695375692043 -0.037687607517590593 0 -0.39332981898715502 -0.059777844452844127 0 -0.37189720783083691 -0.062689075490715757 0 -0.3772011184658815 -0.044887999918692092 0 -0.39332981898715502 -0.059777844452844127 0 -0.39332981898715502 -0.059777844452844127 0 -0.37767253083955082 -0.07222684382440861 0 -0.38103268421739123 -0.081868081388098646 0 -0.39332981898715502 -0.059777844452844127 0 -0.38103268421739123 -0.081868081388098646 0 -0.39750408142114291 -0.076718880513424778 0 -0.39332981898715502 -0.059777844452844127 0 -0.38103268421739123 -0.081868081388098646 0 -0.37189720783083691 -0.062689075490715757 0 -0.39332981898715502 -0.059777844452844127 0 -0.37767253083955082 -0.07222684382440861 0 -0.37409795029657827 -0.082426532541013814 0 -0.37767253083955082 -0.07222684382440861 0 -0.38103268421739123 -0.081868081388098646 0 -0.38103268421739123 -0.081868081388098646 0 -0.39006375632723278 -0.084740467633582006 0 -0.39750408142114291 -0.076718880513424778 0 -0.37409795029657827 -0.082426532541013814 0 -0.38103268421739123 -0.081868081388098646 0 -0.38052527421474852 -0.086084899170000062 0 -0.38103268421739123 -0.081868081388098646 0 -0.38052527421474852 -0.086084899170000062 0 -0.38492122607103513 -0.088044300314449944 0 -0.37234301949689891 -0.088213344639210808 0 -0.38231264571192752 -0.09109668811056168 0 -0.37409795029657827 -0.082426532541013814 0 -0.38052527421474852 -0.086084899170000062 0 -0.38231264571192752 -0.09109668811056168 0 -0.37234301949689891 -0.088213344639210808 0 -0.38231264571192752 -0.09109668811056168 0 -0.3837455672030976 -0.10002432004358559 0 -0.38052527421474852 -0.086084899170000062 0 -0.38231264571192752 -0.09109668811056168 0 -0.38492122607103513 -0.088044300314449944 0 -0.38506172516203091 -0.092934745246378722 0 -0.38492122607103513 -0.088044300314449944 0 -0.38938100716737922 -0.089873057443714433 0 -0.38231264571192752 -0.09109668811056168 0 -0.38506172516203091 -0.092934745246378722 0 -0.38492122607103513 -0.088044300314449944 0 -0.38492122607103513 -0.088044300314449944 0 -0.38938100716737922 -0.089873057443714433 0 -0.39006375632723278 -0.084740467633582006 0 -0.38506172516203091 -0.092934745246378722 0 -0.38938100716737922 -0.089873057443714433 0 -0.39092715353136998 -0.095457676529514909 0 -0.38103268421739123 -0.081868081388098646 0 -0.38492122607103513 -0.088044300314449944 0 -0.39006375632723278 -0.084740467633582006 0 -0.39006375632723278 -0.084740467633582006 0 -0.39585524839219632 -0.088124094047499435 0 -0.39750408142114291 -0.076718880513424778 0 -0.38938100716737922 -0.089873057443714433 0 -0.39585524839219632 -0.088124094047499435 0 -0.39092715353136998 -0.095457676529514909 0 -0.38938100716737922 -0.089873057443714433 0 -0.39006375632723278 -0.084740467633582006 0 -0.39585524839219632 -0.088124094047499435 0 -0.39585524839219632 -0.088124094047499435 0 -0.39979689236220461 -0.099272869582853876 0 -0.40789698553799669 -0.085908070196479822 0 -0.39585524839219632 -0.088124094047499435 0 -0.39750408142114291 -0.076718880513424778 0 -0.40789698553799669 -0.085908070196479822 0 -0.4040004258616256 -0.065105102191383574 0 -0.39750408142114291 -0.076718880513424778 0 -0.41075796164922862 -0.0711667096674021 0 -0.39750408142114291 -0.076718880513424778 0 -0.41075796164922862 -0.0711667096674021 0 -0.40789698553799669 -0.085908070196479822 0 -0.39332981898715502 -0.059777844452844127 0 -0.4040004258616256 -0.065105102191383574 0 -0.39750408142114291 -0.076718880513424778 0 -0.39039681146186739 -0.13339713678622081 0 -0.38136991547938259 -0.110805240712716 0 -0.36297243111920863 -0.1242924888655856 0 -0.39039681146186739 -0.13339713678622081 0 -0.38136991547938259 -0.110805240712716 0 -0.39039681146186739 -0.13339713678622081 0 -0.38136991547938259 -0.110805240712716 0 -0.39973580769762701 -0.1138978056195301 0 -0.37234301949689891 -0.088213344639210808 0 -0.38136991547938259 -0.110805240712716 0 -0.37234301949689891 -0.088213344639210808 0 -0.38136991547938259 -0.110805240712716 0 -0.3837455672030976 -0.10002432004358559 0 -0.38136991547938259 -0.110805240712716 0 -0.3837455672030976 -0.10002432004358559 0 -0.39144946592284469 -0.1040705029616148 0 -0.38506172516203091 -0.092934745246378722 0 -0.3837455672030976 -0.10002432004358559 0 -0.39092715353136998 -0.095457676529514909 0 -0.3837455672030976 -0.10002432004358559 0 -0.39092715353136998 -0.095457676529514909 0 -0.39144946592284469 -0.1040705029616148 0 -0.38231264571192752 -0.09109668811056168 0 -0.38506172516203091 -0.092934745246378722 0 -0.3837455672030976 -0.10002432004358559 0 -0.39092715353136998 -0.095457676529514909 0 -0.39979689236220461 -0.099272869582853876 0 -0.39144946592284469 -0.1040705029616148 0 -0.39585524839219632 -0.088124094047499435 0 -0.39092715353136998 -0.095457676529514909 0 -0.39979689236220461 -0.099272869582853876 0 -0.39979689236220461 -0.099272869582853876 0 -0.39973580769762701 -0.1138978056195301 0 -0.41128116382142749 -0.1012575238182556 0 -0.39979689236220461 -0.099272869582853876 0 -0.39144946592284469 -0.1040705029616148 0 -0.39973580769762701 -0.1138978056195301 0 -0.38136991547938259 -0.110805240712716 0 -0.39144946592284469 -0.1040705029616148 0 -0.39973580769762701 -0.1138978056195301 0 -0.41115691944944982 -0.13266826510555951 0 -0.41529054215667532 -0.1150159380257956 0 -0.42633543643755523 -0.12204073140732789 0 -0.41115691944944982 -0.13266826510555951 0 -0.39973580769762701 -0.1138978056195301 0 -0.41529054215667532 -0.1150159380257956 0 -0.39973580769762701 -0.1138978056195301 0 -0.41529054215667532 -0.1150159380257956 0 -0.41128116382142749 -0.1012575238182556 0 -0.41128116382142749 -0.1012575238182556 0 -0.4279908183919004 -0.1029769794952089 0 -0.41697593678216149 -0.090473479989665109 0 -0.41529054215667532 -0.1150159380257956 0 -0.41128116382142749 -0.1012575238182556 0 -0.4279908183919004 -0.1029769794952089 0 -0.39979689236220461 -0.099272869582853876 0 -0.41128116382142749 -0.1012575238182556 0 -0.40789698553799669 -0.085908070196479822 0 -0.43618842777811723 -0.094374074729781418 0 -0.4279908183919004 -0.1029769794952089 0 -0.42752146068503399 -0.087321506891491943 0 -0.43618842777811723 -0.094374074729781418 0 -0.4279908183919004 -0.1029769794952089 0 -0.44038994904925 -0.1031935976067227 0 -0.4279908183919004 -0.1029769794952089 0 -0.43913917671300212 -0.1151415454606958 0 -0.44038994904925 -0.1031935976067227 0 -0.41529054215667532 -0.1150159380257956 0 -0.4279908183919004 -0.1029769794952089 0 -0.42633543643755523 -0.12204073140732789 0 -0.4279908183919004 -0.1029769794952089 0 -0.42633543643755523 -0.12204073140732789 0 -0.43913917671300212 -0.1151415454606958 0 -0.43845233031810538 -0.13038884334590189 0 -0.42633543643755523 -0.12204073140732789 0 -0.43913917671300212 -0.1151415454606958 0 -0.41902033383963772 -0.067834520266261245 0 -0.41833626238011717 -0.079110673490444497 0 -0.42808834981562988 -0.073903123889577677 0 -0.41902033383963772 -0.067834520266261245 0 -0.41075796164922862 -0.0711667096674021 0 -0.41833626238011717 -0.079110673490444497 0 -0.41304150832143549 -0.061866805063038412 0 -0.41902033383963772 -0.067834520266261245 0 -0.41075796164922862 -0.0711667096674021 0 -0.41304150832143549 -0.061866805063038412 0 -0.4040004258616256 -0.065105102191383574 0 -0.41075796164922862 -0.0711667096674021 0 -0.41075796164922862 -0.0711667096674021 0 -0.40789698553799669 -0.085908070196479822 0 -0.41833626238011717 -0.079110673490444497 0 -0.41128116382142749 -0.1012575238182556 0 -0.40789698553799669 -0.085908070196479822 0 -0.41697593678216149 -0.090473479989665109 0 -0.40789698553799669 -0.085908070196479822 0 -0.41697593678216149 -0.090473479989665109 0 -0.41833626238011717 -0.079110673490444497 0 -0.41697593678216149 -0.090473479989665109 0 -0.41833626238011717 -0.079110673490444497 0 -0.42752146068503399 -0.087321506891491943 0 -0.41833626238011717 -0.079110673490444497 0 -0.42752146068503399 -0.087321506891491943 0 -0.42808834981562988 -0.073903123889577677 0 -0.4279908183919004 -0.1029769794952089 0 -0.41697593678216149 -0.090473479989665109 0 -0.42752146068503399 -0.087321506891491943 0 -0.43618842777811723 -0.094374074729781418 0 -0.42752146068503399 -0.087321506891491943 0 -0.43737990877477739 -0.083812998159773666 0 -0.42752146068503399 -0.087321506891491943 0 -0.43737990877477739 -0.083812998159773666 0 -0.42808834981562988 -0.073903123889577677 0 -0.43737990877477739 -0.083812998159773666 0 -0.43642770157751759 -0.073715491404638303 0 -0.42808834981562988 -0.073903123889577677 0 -0.42463052936300127 -0.056660178633496337 0 -0.43642770157751759 -0.073715491404638303 0 -0.44643469494480392 -0.072194702577138947 0 -0.42463052936300127 -0.056660178633496337 0 -0.44643469494480392 -0.072194702577138947 0 -0.42463052936300127 -0.056660178633496337 0 -0.41902033383963772 -0.067834520266261245 0 -0.42808834981562988 -0.073903123889577677 0 -0.42463052936300127 -0.056660178633496337 0 -0.43642770157751759 -0.073715491404638303 0 -0.42808834981562988 -0.073903123889577677 0 -0.44643469494480392 -0.072194702577138947 0 -0.46557349158376399 -0.072692119736231964 0 -0.44559131230814941 -0.061023948996685083 0 -0.42463052936300127 -0.056660178633496337 0 -0.44643469494480392 -0.072194702577138947 0 -0.44559131230814941 -0.061023948996685083 0 -0.43642770157751759 -0.073715491404638303 0 -0.44643469494480392 -0.072194702577138947 0 -0.44560502498937582 -0.082006453763204909 0 -0.43737990877477739 -0.083812998159773666 0 -0.43642770157751759 -0.073715491404638303 0 -0.44560502498937582 -0.082006453763204909 0 -0.43737990877477739 -0.083812998159773666 0 -0.44706666027677822 -0.093733455921883369 0 -0.44560502498937582 -0.082006453763204909 0 -0.43618842777811723 -0.094374074729781418 0 -0.43737990877477739 -0.083812998159773666 0 -0.44706666027677822 -0.093733455921883369 0 -0.44706666027677822 -0.093733455921883369 0 -0.44560502498937582 -0.082006453763204909 0 -0.45512457235105669 -0.086622700845742293 0 -0.44643469494480392 -0.072194702577138947 0 -0.44560502498937582 -0.082006453763204909 0 -0.45512457235105669 -0.086622700845742293 0 -0.44643469494480392 -0.072194702577138947 0 -0.45512457235105669 -0.086622700845742293 0 -0.46823886052660701 -0.087729226520781189 0 -0.44643469494480392 -0.072194702577138947 0 -0.46823886052660701 -0.087729226520781189 0 -0.44706666027677822 -0.093733455921883369 0 -0.45512457235105669 -0.086622700845742293 0 -0.45954814342940542 -0.098560521520782624 0 -0.45512457235105669 -0.086622700845742293 0 -0.46823886052660701 -0.087729226520781189 0 -0.45954814342940542 -0.098560521520782624 0 -0.46823886052660701 -0.087729226520781189 0 -0.46557349158376399 -0.072692119736231964 0 -0.46823886052660701 -0.087729226520781189 0 -0.46557349158376399 -0.072692119736231964 0 -0.47229452656071241 -0.076616725885332818 0 -0.46557349158376399 -0.072692119736231964 0 -0.44559131230814941 -0.061023948996685083 0 -0.44643469494480392 -0.072194702577138947 0 -0.46823886052660701 -0.087729226520781189 0 -0.46557349158376399 -0.072692119736231964 0 -0.46557349158376399 -0.072692119736231964 0 -0.4561960712713598 -0.059243987447316702 0 -0.44559131230814941 -0.061023948996685083 0 -0.46557349158376399 -0.072692119736231964 0 -0.46398898108834291 -0.063752849401868539 0 -0.46557349158376399 -0.072692119736231964 0 -0.46398898108834291 -0.063752849401868539 0 -0.47360286880055508 -0.066658825712798742 0 -0.46557349158376399 -0.072692119736231964 0 -0.46398898108834291 -0.063752849401868539 0 -0.4561960712713598 -0.059243987447316702 0 -0.44770348775565338 -0.1241496855469152 0 -0.43913917671300212 -0.1151415454606958 0 -0.45037797866075979 -0.10807826127839119 0 -0.44770348775565338 -0.1241496855469152 0 -0.45037797866075979 -0.10807826127839119 0 -0.4579337887515661 -0.11773462180324371 0 -0.43845233031810538 -0.13038884334590189 0 -0.44770348775565338 -0.1241496855469152 0 -0.43913917671300212 -0.1151415454606958 0 -0.44706666027677822 -0.093733455921883369 0 -0.45037797866075979 -0.10807826127839119 0 -0.44038994904925 -0.1031935976067227 0 -0.43913917671300212 -0.1151415454606958 0 -0.45037797866075979 -0.10807826127839119 0 -0.44038994904925 -0.1031935976067227 0 -0.43618842777811723 -0.094374074729781418 0 -0.44706666027677822 -0.093733455921883369 0 -0.44038994904925 -0.1031935976067227 0 -0.44706666027677822 -0.093733455921883369 0 -0.45037797866075979 -0.10807826127839119 0 -0.45954814342940542 -0.098560521520782624 0 -0.46823886052660701 -0.087729226520781189 0 -0.45954814342940542 -0.098560521520782624 0 -0.47145153241169518 -0.105854030717027 0 -0.45954814342940542 -0.098560521520782624 0 -0.45982786081335658 -0.1075568588298611 0 -0.47145153241169518 -0.105854030717027 0 -0.45037797866075979 -0.10807826127839119 0 -0.45954814342940542 -0.098560521520782624 0 -0.45982786081335658 -0.1075568588298611 0 -0.46842939849900739 -0.1350140494834787 0 -0.46015867187494269 -0.12758987956456591 0 -0.47145153241169518 -0.105854030717027 0 -0.46015867187494269 -0.12758987956456591 0 -0.4579337887515661 -0.11773462180324371 0 -0.47145153241169518 -0.105854030717027 0 -0.45037797866075979 -0.10807826127839119 0 -0.45982786081335658 -0.1075568588298611 0 -0.4579337887515661 -0.11773462180324371 0 -0.45982786081335658 -0.1075568588298611 0 -0.4579337887515661 -0.11773462180324371 0 -0.47145153241169518 -0.105854030717027 0 -0.46015867187494269 -0.12758987956456591 0 -0.44770348775565338 -0.1241496855469152 0 -0.4579337887515661 -0.11773462180324371 0 -0.46842939849900739 -0.1350140494834787 0 -0.47145153241169518 -0.105854030717027 0 -0.47527854242284451 -0.1274447220761761 0 -0.47145153241169518 -0.105854030717027 0 -0.47527854242284451 -0.1274447220761761 0 -0.48436059405129972 -0.11472352844584729 0 -0.47145153241169518 -0.105854030717027 0 -0.46842939849900739 -0.1350140494834787 0 -0.47527854242284451 -0.1274447220761761 0 -0.47145153241169518 -0.105854030717027 0 -0.47527854242284451 -0.1274447220761761 0 -0.48815742945689061 -0.12838251890212951 0 -0.48436059405129972 -0.11472352844584729 0 -0.46823886052660701 -0.087729226520781189 0 -0.47145153241169518 -0.105854030717027 0 -0.47297990760667508 -0.09110701729690264 0 -0.46823886052660701 -0.087729226520781189 0 -0.47145153241169518 -0.105854030717027 0 -0.48436059405129972 -0.11472352844584729 0 -0.47145153241169518 -0.105854030717027 0 -0.48648995380333548 -0.1007323402809166 0 -0.47145153241169518 -0.105854030717027 0 -0.47297990760667508 -0.09110701729690264 0 -0.47145153241169518 -0.105854030717027 0 -0.48648995380333548 -0.1007323402809166 0 -0.47297990760667508 -0.09110701729690264 0 -0.48648995380333548 -0.1007323402809166 0 -0.47297990760667508 -0.09110701729690264 0 -0.48436059405129972 -0.11472352844584729 0 -0.48648995380333548 -0.1007323402809166 0 -0.49999999999999739 -0.11035766326492839 0 -0.48648995380333548 -0.1007323402809166 0 -0.49999999999999739 -0.11035766326492839 0 -0.5 -0.081634528849989563 0 -0.48648995380333548 -0.1007323402809166 0 -0.49999999999999739 -0.11035766326492839 0 -0.48815742945689061 -0.12838251890212951 0 -0.48436059405129972 -0.11472352844584729 0 -0.49999999999999739 -0.11035766326492839 0 -0.48151161102097673 -0.077213467180526144 0 -0.47360286880055508 -0.066658825712798742 0 -0.48340708929856752 -0.061331084507455287 0 -0.48151161102097673 -0.077213467180526144 0 -0.47360286880055508 -0.066658825712798742 0 -0.47229452656071241 -0.076616725885332818 0 -0.46557349158376399 -0.072692119736231964 0 -0.47360286880055508 -0.066658825712798742 0 -0.47229452656071241 -0.076616725885332818 0 -0.46557349158376399 -0.072692119736231964 0 -0.47229452656071241 -0.076616725885332818 0 -0.48151161102097673 -0.077213467180526144 0 -0.47229452656071241 -0.076616725885332818 0 -0.47366401771747552 -0.084506163646609372 0 -0.46823886052660701 -0.087729226520781189 0 -0.47229452656071241 -0.076616725885332818 0 -0.47366401771747552 -0.084506163646609372 0 -0.46823886052660701 -0.087729226520781189 0 -0.47297990760667508 -0.09110701729690264 0 -0.46823886052660701 -0.087729226520781189 0 -0.47366401771747552 -0.084506163646609372 0 -0.47297990760667508 -0.09110701729690264 0 -0.47366401771747552 -0.084506163646609372 0 -0.47297990760667508 -0.09110701729690264 0 -0.47366401771747552 -0.084506163646609372 0 -0.47297990760667508 -0.09110701729690264 0 -0.48410059546796391 -0.088400212269266643 0 -0.48648995380333548 -0.1007323402809166 0 -0.47297990760667508 -0.09110701729690264 0 -0.48410059546796391 -0.088400212269266643 0 -0.48151161102097673 -0.077213467180526144 0 -0.47366401771747552 -0.084506163646609372 0 -0.48410059546796391 -0.088400212269266643 0 -0.48648995380333548 -0.1007323402809166 0 -0.48410059546796391 -0.088400212269266643 0 -0.5 -0.081634528849989563 0 -0.48151161102097673 -0.077213467180526144 0 -0.48410059546796391 -0.088400212269266643 0 -0.5 -0.081634528849989563 0 -0.5 -0.081634528849989563 0 -0.5 -0.052911394435050663 0 -0.48340708929856752 -0.061331084507455287 0 -0.48151161102097673 -0.077213467180526144 0 -0.5 -0.081634528849989563 0 -0.48340708929856752 -0.061331084507455287 0 -0.5 -0.052911394435050663 0 -0.48006218173585402 -0.042885540709648187 0 -0.48340708929856752 -0.061331084507455287 0 -0.5 -0.052911394435050663 0 -0.48826856945237362 -0.031882755885117797 0 -0.5 -0.024188260020111541 0 -0.5 -0.052911394435050663 0 -0.48826856945237362 -0.031882755885117797 0 -0.48006218173585402 -0.042885540709648187 0 -0.48006218173585402 -0.042885540709648187 0 -0.46441747557752072 -0.042076336371925108 0 -0.47262109959338228 -0.023759470059269459 0 -0.48006218173585402 -0.042885540709648187 0 -0.4714289676584309 -0.053175486943015902 0 -0.46441747557752072 -0.042076336371925108 0 -0.48826856945237362 -0.031882755885117797 0 -0.48006218173585402 -0.042885540709648187 0 -0.47262109959338228 -0.023759470059269459 0 -0.48006218173585402 -0.042885540709648187 0 -0.48340708929856752 -0.061331084507455287 0 -0.4714289676584309 -0.053175486943015902 0 -0.47360286880055508 -0.066658825712798742 0 -0.48340708929856752 -0.061331084507455287 0 -0.4714289676584309 -0.053175486943015902 0 -0.46398898108834291 -0.063752849401868539 0 -0.47360286880055508 -0.066658825712798742 0 -0.4714289676584309 -0.053175486943015902 0 -0.46398898108834291 -0.063752849401868539 0 -0.4714289676584309 -0.053175486943015902 0 -0.46234682160625817 -0.05580265784851221 0 -0.46234682160625817 -0.05580265784851221 0 -0.4561960712713598 -0.059243987447316702 0 -0.45624546448159781 -0.049824906456414242 0 -0.46398898108834291 -0.063752849401868539 0 -0.46234682160625817 -0.05580265784851221 0 -0.4561960712713598 -0.059243987447316702 0 -0.4561960712713598 -0.059243987447316702 0 -0.45624546448159781 -0.049824906456414242 0 -0.44716773489653472 -0.050919261725005383 0 -0.46234682160625817 -0.05580265784851221 0 -0.45624546448159781 -0.049824906456414242 0 -0.46441747557752072 -0.042076336371925108 0 -0.4714289676584309 -0.053175486943015902 0 -0.46234682160625817 -0.05580265784851221 0 -0.46441747557752072 -0.042076336371925108 0 -0.46441747557752072 -0.042076336371925108 0 -0.45815162002964932 -0.02990940990041218 0 -0.47262109959338228 -0.023759470059269459 0 -0.46441747557752072 -0.042076336371925108 0 -0.45006617393747222 -0.039176882686203639 0 -0.45815162002964932 -0.02990940990041218 0 -0.45624546448159781 -0.049824906456414242 0 -0.46441747557752072 -0.042076336371925108 0 -0.45006617393747222 -0.039176882686203639 0 -0.45624546448159781 -0.049824906456414242 0 -0.45006617393747222 -0.039176882686203639 0 -0.44716773489653472 -0.050919261725005383 0 -0.45006617393747222 -0.039176882686203639 0 -0.44131818743038292 -0.043190895177821098 0 -0.44716773489653472 -0.050919261725005383 0 -0.45006617393747222 -0.039176882686203639 0 -0.44412179861910639 -0.02480628842233663 0 -0.45815162002964932 -0.02990940990041218 0 -0.45006617393747222 -0.039176882686203639 0 -0.43901068316009462 -0.035467323025656333 0 -0.44412179861910639 -0.02480628842233663 0 -0.45006617393747222 -0.039176882686203639 0 -0.43901068316009462 -0.035467323025656333 0 -0.44131818743038292 -0.043190895177821098 0 -0.43802889944063361 -0.0491532213080422 0 -0.44559131230814941 -0.061023948996685083 0 -0.44716773489653472 -0.050919261725005383 0 -0.44131818743038292 -0.043190895177821098 0 -0.43802889944063361 -0.0491532213080422 0 -0.44716773489653472 -0.050919261725005383 0 -0.4561960712713598 -0.059243987447316702 0 -0.44559131230814941 -0.061023948996685083 0 -0.44716773489653472 -0.050919261725005383 0 -0.4418469906076829 -0.0049379057760628037 0 -0.44412179861910639 -0.02480628842233663 0 -0.4561048052465394 -0.018194844869976801 0 -0.43335032612692181 -0.017887535643456409 0 -0.4418469906076829 -0.0049379057760628037 0 -0.44412179861910639 -0.02480628842233663 0 -0.44412179861910639 -0.02480628842233663 0 -0.4561048052465394 -0.018194844869976801 0 -0.45815162002964932 -0.02990940990041218 0 -0.4561048052465394 -0.018194844869976801 0 -0.4647633116070844 -0.0058847989239488316 0 -0.47262109959338228 -0.023759470059269459 0 -0.4561048052465394 -0.018194844869976801 0 -0.45815162002964932 -0.02990940990041218 0 -0.47262109959338228 -0.023759470059269459 0 -0.4418469906076829 -0.0049379057760628037 0 -0.4561048052465394 -0.018194844869976801 0 -0.4647633116070844 -0.0058847989239488316 0 -0.47700938333057602 -0.0090882924840460372 0 -0.48865956593263149 -0.015669114201509189 0 -0.48199355618920592 0.0089602132485433195 0 -0.4647633116070844 -0.0058847989239488316 0 -0.47700938333057602 -0.0090882924840460372 0 -0.48199355618920592 0.0089602132485433195 0 -0.4647633116070844 -0.0058847989239488316 0 -0.47700938333057602 -0.0090882924840460372 0 -0.47262109959338228 -0.023759470059269459 0 -0.47700938333057602 -0.0090882924840460372 0 -0.47262109959338228 -0.023759470059269459 0 -0.48865956593263149 -0.015669114201509189 0 -0.48826856945237362 -0.031882755885117797 0 -0.47262109959338228 -0.023759470059269459 0 -0.48865956593263149 -0.015669114201509189 0 -0.48826856945237362 -0.031882755885117797 0 -0.48865956593263149 -0.015669114201509189 0 -0.5 -0.024188260020111541 0 -0.48865956593263149 -0.015669114201509189 0 -0.5 -0.024188260020111541 0 -0.5 0.0045348743948275261 0 -0.48865956593263149 -0.015669114201509189 0 -0.5 0.0045348743948275261 0 -0.48199355618920592 0.0089602132485433195 0 -0.48865956593263149 -0.015669114201509189 0 -0.48199355618920592 0.0089602132485433195 0 -0.5 0.0045348743948275261 0 -0.48753279155892493 0.023676178430758029 0 -0.48199355618920592 0.0089602132485433195 0 -0.5 0.0045348743948275261 0 -0.48753279155892493 0.023676178430758029 0 -0.5 0.033258008809766648 0 -0.48753279155892493 0.023676178430758029 0 -0.48199355618920592 0.0089602132485433195 0 -0.47532754644578118 0.03358954069859614 0 -0.48199355618920592 0.0089602132485433195 0 -0.47532754644578118 0.03358954069859614 0 -0.48199355618920592 0.0089602132485433195 0 -0.47532754644578118 0.03358954069859614 0 -0.45858726852673237 0.01432581746126649 0 -0.49999999999999861 0.061981143224705708 0 -0.48766377322288967 0.047785341961651059 0 -0.5 0.033258008809766648 0 -0.49999999999999861 0.061981143224705708 0 -0.48766377322288967 0.047785341961651059 0 -0.48235581259802851 0.065767295003990256 0 -0.49999999999999861 0.061981143224705708 0 -0.48766377322288967 0.047785341961651059 0 -0.48753279155892493 0.023676178430758029 0 -0.48766377322288967 0.047785341961651059 0 -0.5 0.033258008809766648 0 -0.47532754644578118 0.03358954069859614 0 -0.47023761783694001 0.052395621582013947 0 -0.48766377322288967 0.047785341961651059 0 -0.47532754644578118 0.03358954069859614 0 -0.47023761783694001 0.052395621582013947 0 -0.48753279155892493 0.023676178430758029 0 -0.48766377322288967 0.047785341961651059 0 -0.47532754644578118 0.03358954069859614 0 -0.48766377322288967 0.047785341961651059 0 -0.47532754644578118 0.03358954069859614 0 -0.48766377322288967 0.047785341961651059 0 -0.47023761783694001 0.052395621582013947 0 -0.48235581259802851 0.065767295003990256 0 -0.47023761783694001 0.052395621582013947 0 -0.45413384225205622 0.057760327943577709 0 -0.46514768922809968 0.071201702465432004 0 -0.47023761783694001 0.052395621582013947 0 -0.46514768922809968 0.071201702465432004 0 -0.47023761783694001 0.052395621582013947 0 -0.45413384225205622 0.057760327943577709 0 -0.45413661529677452 0.040119955132595683 0 -0.47532754644578118 0.03358954069859614 0 -0.47023761783694001 0.052395621582013947 0 -0.45413661529677452 0.040119955132595683 0 -0.45413661529677452 0.040119955132595683 0 -0.43518453493587578 0.033132819615680723 0 -0.43492073795856451 0.051520071892084962 0 -0.45413384225205622 0.057760327943577709 0 -0.43492073795856451 0.051520071892084962 0 -0.44622655093990221 0.073564288645761977 0 -0.45413384225205622 0.057760327943577709 0 -0.45413661529677452 0.040119955132595683 0 -0.43492073795856451 0.051520071892084962 0 -0.4647633116070844 -0.0058847989239488316 0 -0.48199355618920592 0.0089602132485433195 0 -0.45858726852673237 0.01432581746126649 0 -0.4418469906076829 -0.0049379057760628037 0 -0.4647633116070844 -0.0058847989239488316 0 -0.45858726852673237 0.01432581746126649 0 -0.47532754644578118 0.03358954069859614 0 -0.45858726852673237 0.01432581746126649 0 -0.47532754644578118 0.03358954069859614 0 -0.45413661529677452 0.040119955132595683 0 -0.45858726852673237 0.01432581746126649 0 -0.45413661529677452 0.040119955132595683 0 -0.45858726852673237 0.01432581746126649 0 -0.43518453493587578 0.033132819615680723 0 -0.45858726852673237 0.01432581746126649 0 -0.43373795001027488 0.012810218142543021 0 -0.43518453493587578 0.033132819615680723 0 -0.4418469906076829 -0.0049379057760628037 0 -0.45858726852673237 0.01432581746126649 0 -0.43373795001027488 0.012810218142543021 0 -0.4418469906076829 -0.0049379057760628037 0 -0.45858726852673237 0.01432581746126649 0 -0.41968245188359687 -0.012438694687523261 0 -0.43373795001027488 0.012810218142543021 0 -0.41968245188359687 -0.012438694687523261 0 -0.43373795001027488 0.012810218142543021 0 -0.41309341137854177 0.010357606111404891 0 -0.43373795001027488 0.012810218142543021 0 -0.41309341137854177 0.010357606111404891 0 -0.41466445386552558 0.031087876408641461 0 -0.43373795001027488 0.012810218142543021 0 -0.41466445386552558 0.031087876408641461 0 -0.43518453493587578 0.033132819615680723 0 -0.41466445386552558 0.031087876408641461 0 -0.43518453493587578 0.033132819615680723 0 -0.41712981979359098 0.050059814875227593 0 -0.43518453493587578 0.033132819615680723 0 -0.43492073795856451 0.051520071892084962 0 -0.41712981979359098 0.050059814875227593 0 -0.43492073795856451 0.051520071892084962 0 -0.41712981979359098 0.050059814875227593 0 -0.42336559121294137 0.069329866733020051 0 -0.41466445386552558 0.031087876408641461 0 -0.41712981979359098 0.050059814875227593 0 -0.3978521306621291 0.046917692615044117 0 -0.41466445386552558 0.031087876408641461 0 -0.3978521306621291 0.046917692615044117 0 -0.38811235108204362 0.024200554439509889 0 -0.3978521306621291 0.046917692615044117 0 -0.37801430930939572 0.050332987804399411 0 -0.40175859613340859 0.071074968910753822 0 -0.41712981979359098 0.050059814875227593 0 -0.3978521306621291 0.046917692615044117 0 -0.40175859613340859 0.071074968910753822 0 -0.3978521306621291 0.046917692615044117 0 -0.37801430930939572 0.050332987804399411 0 -0.38811235108204362 0.024200554439509889 0 -0.37801430930939572 0.050332987804399411 0 -0.38811235108204362 0.024200554439509889 0 -0.35937373737194711 0.038251268854201707 0 -0.39623740299342319 -0.0023384003391818502 0 -0.37630101312515413 -0.0017537402174872649 0 -0.38811235108204362 0.024200554439509889 0 -0.37630101312515413 -0.0017537402174872649 0 -0.38811235108204362 0.024200554439509889 0 -0.36562343834461147 0.014315277159003451 0 -0.39623740299342319 -0.0023384003391818502 0 -0.41309341137854177 0.010357606111404891 0 -0.38811235108204362 0.024200554439509889 0 -0.41309341137854177 0.010357606111404891 0 -0.41466445386552558 0.031087876408641461 0 -0.38811235108204362 0.024200554439509889 0 -0.38775338436157458 0.095933848507897296 0 -0.4140857060928349 0.090118613714940898 0 -0.40830763149152671 0.112716758936021 0 -0.39018544758925539 0.12223357284412099 0 -0.38775338436157458 0.095933848507897296 0 -0.40830763149152671 0.112716758936021 0 -0.39018544758925539 0.12223357284412099 0 -0.38775338436157458 0.095933848507897296 0 -0.36396488972870727 0.1211125751459896 0 -0.38775338436157458 0.095933848507897296 0 -0.37585247148374201 0.069663029433269366 0 -0.40175859613340859 0.071074968910753822 0 -0.38775338436157458 0.095933848507897296 0 -0.37585247148374201 0.069663029433269366 0 -0.36351483687688008 0.087508303231400617 0 -0.37585247148374201 0.069663029433269366 0 -0.40175859613340859 0.071074968910753822 0 -0.37801430930939572 0.050332987804399411 0 -0.37585247148374201 0.069663029433269366 0 -0.40175859613340859 0.071074968910753822 0 -0.38775338436157458 0.095933848507897296 0 -0.40175859613340859 0.071074968910753822 0 -0.4140857060928349 0.090118613714940898 0 -0.40175859613340859 0.071074968910753822 0 -0.4140857060928349 0.090118613714940898 0 -0.42336559121294137 0.069329866733020051 0 -0.41712981979359098 0.050059814875227593 0 -0.40175859613340859 0.071074968910753822 0 -0.42336559121294137 0.069329866733020051 0 -0.43492073795856451 0.051520071892084962 0 -0.42336559121294137 0.069329866733020051 0 -0.44622655093990221 0.073564288645761977 0 -0.42336559121294137 0.069329866733020051 0 -0.43299011279210958 0.085214098388281839 0 -0.44622655093990221 0.073564288645761977 0 -0.4140857060928349 0.090118613714940898 0 -0.42336559121294137 0.069329866733020051 0 -0.43299011279210958 0.085214098388281839 0 -0.4140857060928349 0.090118613714940898 0 -0.43299011279210958 0.085214098388281839 0 -0.43033892056544898 0.1064421408136714 0 -0.4140857060928349 0.090118613714940898 0 -0.43033892056544898 0.1064421408136714 0 -0.40830763149152671 0.112716758936021 0 -0.43033892056544898 0.1064421408136714 0 -0.40830763149152671 0.112716758936021 0 -0.42528090327961682 0.12478372277520131 0 -0.43033892056544898 0.1064421408136714 0 -0.42528090327961682 0.12478372277520131 0 -0.44846971209976688 0.1188110924678162 0 -0.43033892056544898 0.1064421408136714 0 -0.44846971209976688 0.1188110924678162 0 -0.45508042089745943 0.094400139192213781 0 -0.43299011279210958 0.085214098388281839 0 -0.43033892056544898 0.1064421408136714 0 -0.45508042089745943 0.094400139192213781 0 -0.45508042089745943 0.094400139192213781 0 -0.46577920546336887 0.11569925900572089 0 -0.47354205512653441 0.1002827526724671 0 -0.44846971209976688 0.1188110924678162 0 -0.46577920546336887 0.11569925900572089 0 -0.45771757463044932 0.13766380371636561 0 -0.44846971209976688 0.1188110924678162 0 -0.45508042089745943 0.094400139192213781 0 -0.46577920546336887 0.11569925900572089 0 -0.43299011279210958 0.085214098388281839 0 -0.45508042089745943 0.094400139192213781 0 -0.44622655093990221 0.073564288645761977 0 -0.45508042089745943 0.094400139192213781 0 -0.44622655093990221 0.073564288645761977 0 -0.46514768922809968 0.071201702465432004 0 -0.45508042089745943 0.094400139192213781 0 -0.46514768922809968 0.071201702465432004 0 -0.47815616934647198 0.084003450564989354 0 -0.45413384225205622 0.057760327943577709 0 -0.44622655093990221 0.073564288645761977 0 -0.46514768922809968 0.071201702465432004 0 -0.46514768922809968 0.071201702465432004 0 -0.48235581259802851 0.065767295003990256 0 -0.47815616934647198 0.084003450564989354 0 -0.47023761783694001 0.052395621582013947 0 -0.46514768922809968 0.071201702465432004 0 -0.48235581259802851 0.065767295003990256 0 -0.45508042089745943 0.094400139192213781 0 -0.47815616934647198 0.084003450564989354 0 -0.47354205512653441 0.1002827526724671 0 -0.47815616934647198 0.084003450564989354 0 -0.5 0.084598191238043852 0 -0.48729162670239318 0.09710045979371823 0 -0.49999999999999861 0.061981143224705708 0 -0.48235581259802851 0.065767295003990256 0 -0.5 0.084598191238043852 0 -0.48235581259802851 0.065767295003990256 0 -0.47815616934647198 0.084003450564989354 0 -0.5 0.084598191238043852 0 -0.46577920546336887 0.11569925900572089 0 -0.48373536888434382 0.1133853299771002 0 -0.47354205512653441 0.1002827526724671 0 -0.46577920546336887 0.11569925900572089 0 -0.48373536888434382 0.1133853299771002 0 -0.4761301011416601 0.12965243600836249 0 -0.48373536888434382 0.1133853299771002 0 -0.47354205512653441 0.1002827526724671 0 -0.48729162670239318 0.09710045979371823 0 -0.47815616934647198 0.084003450564989354 0 -0.47354205512653441 0.1002827526724671 0 -0.48729162670239318 0.09710045979371823 0 -0.5 0.084598191238043852 0 -0.5 0.107215239251382 0 -0.48729162670239318 0.09710045979371823 0 -0.48373536888434382 0.1133853299771002 0 -0.5 0.107215239251382 0 -0.48729162670239318 0.09710045979371823 0 -0.48373536888434382 0.1133853299771002 0 -0.5 0.107215239251382 0 -0.50000000000000044 0.12983228726472021 0 -0.48373536888434382 0.1133853299771002 0 -0.50000000000000044 0.12983228726472021 0 -0.4761301011416601 0.12965243600836249 0 -0.4761301011416601 0.12965243600836249 0 -0.47598312315866798 0.14546650805393291 0 -0.45771757463044932 0.13766380371636561 0 -0.50000000000000044 0.12983228726472021 0 -0.4761301011416601 0.12965243600836249 0 -0.47598312315866798 0.14546650805393291 0 -0.47598312315866798 0.14546650805393291 0 -0.48996921146813022 0.1541154951048857 0 -0.47338753422849428 0.1629022012976461 0 -0.47598312315866798 0.14546650805393291 0 -0.47338753422849428 0.1629022012976461 0 -0.46040069073476042 0.15777629194424911 0 -0.50000000000000044 0.12983228726472021 0 -0.48996921146813022 0.1541154951048857 0 -0.5 0.1575973459517451 0 -0.50000000000000044 0.12983228726472021 0 -0.48996921146813022 0.1541154951048857 0 -0.50000000000000044 0.12983228726472021 0 -0.47598312315866798 0.14546650805393291 0 -0.48996921146813022 0.1541154951048857 0 -0.48996921146813022 0.1541154951048857 0 -0.5 0.1575973459517451 0 -0.47993842293625949 0.1783987029450512 0 -0.48996921146813022 0.1541154951048857 0 -0.47993842293625949 0.1783987029450512 0 -0.5 0.18536240463876991 0 -0.47993842293625949 0.1783987029450512 0 -0.48569094853516459 0.19766808955187401 0 -0.5 0.1575973459517451 0 -0.5 0.18536240463876991 0 -0.47993842293625949 0.1783987029450512 0 -0.47993842293625949 0.1783987029450512 0 -0.46005787604031328 0.1764480323229016 0 -0.468063747323894 0.19309699945867259 0 -0.47993842293625949 0.1783987029450512 0 -0.47338753422849428 0.1629022012976461 0 -0.46005787604031328 0.1764480323229016 0 -0.48996921146813022 0.1541154951048857 0 -0.47993842293625949 0.1783987029450512 0 -0.47338753422849428 0.1629022012976461 0 -0.47338753422849428 0.1629022012976461 0 -0.46040069073476042 0.15777629194424911 0 -0.46005787604031328 0.1764480323229016 0 -0.46040069073476042 0.15777629194424911 0 -0.46005787604031328 0.1764480323229016 0 -0.44239166013485121 0.1691582263492688 0 -0.46005787604031328 0.1764480323229016 0 -0.468063747323894 0.19309699945867259 0 -0.45065912758952748 0.19242222152540819 0 -0.46005787604031328 0.1764480323229016 0 -0.44362306490729619 0.18145749171913159 0 -0.45065912758952748 0.19242222152540819 0 -0.44362306490729619 0.18145749171913159 0 -0.45065912758952748 0.19242222152540819 0 -0.43448329252662787 0.18815914178265619 0 -0.46005787604031328 0.1764480323229016 0 -0.44362306490729619 0.18145749171913159 0 -0.44239166013485121 0.1691582263492688 0 -0.44362306490729619 0.18145749171913159 0 -0.44239166013485121 0.1691582263492688 0 -0.43316401248701841 0.17991819557690231 0 -0.46040069073476042 0.15777629194424911 0 -0.44239166013485121 0.1691582263492688 0 -0.44488104194866862 0.15393531366015861 0 -0.44239166013485121 0.1691582263492688 0 -0.44488104194866862 0.15393531366015861 0 -0.4265058240968474 0.15994468081909979 0 -0.44488104194866862 0.15393531366015861 0 -0.45771757463044932 0.13766380371636561 0 -0.43748776809830719 0.13937788664345799 0 -0.44846971209976688 0.1188110924678162 0 -0.43748776809830719 0.13937788664345799 0 -0.44846971209976688 0.1188110924678162 0 -0.45771757463044932 0.13766380371636561 0 -0.43748776809830719 0.13937788664345799 0 -0.46577920546336887 0.11569925900572089 0 -0.4761301011416601 0.12965243600836249 0 -0.45771757463044932 0.13766380371636561 0 -0.46040069073476042 0.15777629194424911 0 -0.44488104194866862 0.15393531366015861 0 -0.45771757463044932 0.13766380371636561 0 -0.47598312315866798 0.14546650805393291 0 -0.46040069073476042 0.15777629194424911 0 -0.45771757463044932 0.13766380371636561 0 -0.48254006292239671 0.2288942955740555 0 -0.46679894975526193 0.24337328335867059 0 -0.48359338383118872 0.25165714750028401 0 -0.5 0.2408925220128196 0 -0.48254006292239671 0.2288942955740555 0 -0.48359338383118872 0.25165714750028401 0 -0.5 0.2408925220128196 0 -0.48254006292239671 0.2288942955740555 0 -0.5 0.2131274633257948 0 -0.48254006292239671 0.2288942955740555 0 -0.47257298912742601 0.21042721696612379 0 -0.4630067535343998 0.22585852801776721 0 -0.48254006292239671 0.2288942955740555 0 -0.4630067535343998 0.22585852801776721 0 -0.46679894975526193 0.24337328335867059 0 -0.47257298912742601 0.21042721696612379 0 -0.5 0.2131274633257948 0 -0.48569094853516459 0.19766808955187401 0 -0.48254006292239671 0.2288942955740555 0 -0.47257298912742601 0.21042721696612379 0 -0.5 0.2131274633257948 0 -0.5 0.18536240463876991 0 -0.5 0.2131274633257948 0 -0.48569094853516459 0.19766808955187401 0 -0.47257298912742601 0.21042721696612379 0 -0.48569094853516459 0.19766808955187401 0 -0.468063747323894 0.19309699945867259 0 -0.47993842293625949 0.1783987029450512 0 -0.48569094853516459 0.19766808955187401 0 -0.468063747323894 0.19309699945867259 0 -0.47257298912742601 0.21042721696612379 0 -0.468063747323894 0.19309699945867259 0 -0.45946311971467307 0.20321773344067659 0 -0.468063747323894 0.19309699945867259 0 -0.45065912758952748 0.19242222152540819 0 -0.45946311971467307 0.20321773344067659 0 -0.45065912758952748 0.19242222152540819 0 -0.44047310600849482 0.19750810022166429 0 -0.43448329252662787 0.18815914178265619 0 -0.44047310600849482 0.19750810022166429 0 -0.44636894553121231 0.20674407306558931 0 -0.43138339693359362 0.20388446896692319 0 -0.45065912758952748 0.19242222152540819 0 -0.44047310600849482 0.19750810022166429 0 -0.44636894553121231 0.20674407306558931 0 -0.45065912758952748 0.19242222152540819 0 -0.44636894553121231 0.20674407306558931 0 -0.45946311971467307 0.20321773344067659 0 -0.44636894553121231 0.20674407306558931 0 -0.43502945289184702 0.21604195532540091 0 -0.43138339693359362 0.20388446896692319 0 -0.44636894553121231 0.20674407306558931 0 -0.44545276895467578 0.2222522789686798 0 -0.43502945289184702 0.21604195532540091 0 -0.44636894553121231 0.20674407306558931 0 -0.45670797495860349 0.21451494091750881 0 -0.44545276895467578 0.2222522789686798 0 -0.47257298912742601 0.21042721696612379 0 -0.45670797495860349 0.21451494091750881 0 -0.4630067535343998 0.22585852801776721 0 -0.47257298912742601 0.21042721696612379 0 -0.45670797495860349 0.21451494091750881 0 -0.45946311971467307 0.20321773344067659 0 -0.44636894553121231 0.20674407306558931 0 -0.45670797495860349 0.21451494091750881 0 -0.45946311971467307 0.20321773344067659 0 -0.4630067535343998 0.22585852801776721 0 -0.44545276895467578 0.2222522789686798 0 -0.45202248634843201 0.23479966129740029 0 -0.45670797495860349 0.21451494091750881 0 -0.4630067535343998 0.22585852801776721 0 -0.44545276895467578 0.2222522789686798 0 -0.44545276895467578 0.2222522789686798 0 -0.45202248634843201 0.23479966129740029 0 -0.43347163933379251 0.23201813456626921 0 -0.44545276895467578 0.2222522789686798 0 -0.43347163933379251 0.23201813456626921 0 -0.43502945289184702 0.21604195532540091 0 -0.45202248634843201 0.23479966129740029 0 -0.44183483748243452 0.2459604683899565 0 -0.45534616164961361 0.25564713573606468 0 -0.45202248634843201 0.23479966129740029 0 -0.44183483748243452 0.2459604683899565 0 -0.43347163933379251 0.23201813456626921 0 -0.4630067535343998 0.22585852801776721 0 -0.45202248634843201 0.23479966129740029 0 -0.46679894975526193 0.24337328335867059 0 -0.45202248634843201 0.23479966129740029 0 -0.46679894975526193 0.24337328335867059 0 -0.45534616164961361 0.25564713573606468 0 -0.4067830915969341 0.24534087608109109 0 -0.41953635959006103 0.24155842677898079 0 -0.40868088726265939 0.25984379596385471 0 -0.4067830915969341 0.24534087608109109 0 -0.4168215555355807 0.23026908747479399 0 -0.40023729396284258 0.23150800378532579 0 -0.4067830915969341 0.24534087608109109 0 -0.41953635959006103 0.24155842677898079 0 -0.4168215555355807 0.23026908747479399 0 -0.41953635959006103 0.24155842677898079 0 -0.43089509863926612 0.24319502056850881 0 -0.42744724339512319 0.25418522124651738 0 -0.41953635959006103 0.24155842677898079 0 -0.43347163933379251 0.23201813456626921 0 -0.4168215555355807 0.23026908747479399 0 -0.44183483748243452 0.2459604683899565 0 -0.43089509863926612 0.24319502056850881 0 -0.42744724339512319 0.25418522124651738 0 -0.44183483748243452 0.2459604683899565 0 -0.43089509863926612 0.24319502056850881 0 -0.43347163933379251 0.23201813456626921 0 -0.41953635959006103 0.24155842677898079 0 -0.43089509863926612 0.24319502056850881 0 -0.43347163933379251 0.23201813456626921 0 -0.43347163933379251 0.23201813456626921 0 -0.42571222824659621 0.22280080241563391 0 -0.4168215555355807 0.23026908747479399 0 -0.43347163933379251 0.23201813456626921 0 -0.42571222824659621 0.22280080241563391 0 -0.43502945289184702 0.21604195532540091 0 -0.42571222824659621 0.22280080241563391 0 -0.4168215555355807 0.23026908747479399 0 -0.41185461573722798 0.21995391176645371 0 -0.4168215555355807 0.23026908747479399 0 -0.41185461573722798 0.21995391176645371 0 -0.40023729396284258 0.23150800378532579 0 -0.41185461573722798 0.21995391176645371 0 -0.41686920150582629 0.2060846051821312 0 -0.39786787695997838 0.213577331313275 0 -0.41686920150582629 0.2060846051821312 0 -0.40669587852768302 0.19704440315400831 0 -0.39786787695997838 0.213577331313275 0 -0.41185461573722798 0.21995391176645371 0 -0.41686920150582629 0.2060846051821312 0 -0.4257440506588514 0.21229444182048501 0 -0.42571222824659621 0.22280080241563391 0 -0.41185461573722798 0.21995391176645371 0 -0.4257440506588514 0.21229444182048501 0 -0.42571222824659621 0.22280080241563391 0 -0.4257440506588514 0.21229444182048501 0 -0.43502945289184702 0.21604195532540091 0 -0.4257440506588514 0.21229444182048501 0 -0.43502945289184702 0.21604195532540091 0 -0.43138339693359362 0.20388446896692319 0 -0.41686920150582629 0.2060846051821312 0 -0.4257440506588514 0.21229444182048501 0 -0.43138339693359362 0.20388446896692319 0 -0.41686920150582629 0.2060846051821312 0 -0.43138339693359362 0.20388446896692319 0 -0.42443336459080477 0.1952049923305276 0 -0.43138339693359362 0.20388446896692319 0 -0.43260352801281587 0.19595678940555181 0 -0.42443336459080477 0.1952049923305276 0 -0.44047310600849482 0.19750810022166429 0 -0.43138339693359362 0.20388446896692319 0 -0.43260352801281587 0.19595678940555181 0 -0.43260352801281587 0.19595678940555181 0 -0.43448329252662787 0.18815914178265619 0 -0.42675948354210969 0.1871447648198403 0 -0.44047310600849482 0.19750810022166429 0 -0.43260352801281587 0.19595678940555181 0 -0.43448329252662787 0.18815914178265619 0 -0.43260352801281587 0.19595678940555181 0 -0.42443336459080477 0.1952049923305276 0 -0.42675948354210969 0.1871447648198403 0 -0.42443336459080477 0.1952049923305276 0 -0.42135927732934741 0.18998310963701351 0 -0.42675948354210969 0.1871447648198403 0 -0.40669587852768302 0.19704440315400831 0 -0.41552388009538532 0.1805114749947403 0 -0.41534256149611798 0.1931797654285734 0 -0.40669587852768302 0.19704440315400831 0 -0.41552388009538532 0.1805114749947403 0 -0.42443336459080477 0.1952049923305276 0 -0.41534256149611798 0.1931797654285734 0 -0.42135927732934741 0.18998310963701351 0 -0.41534256149611798 0.1931797654285734 0 -0.42135927732934741 0.18998310963701351 0 -0.41890169968835722 0.18440291596911279 0 -0.41686920150582629 0.2060846051821312 0 -0.42443336459080477 0.1952049923305276 0 -0.41534256149611798 0.1931797654285734 0 -0.41686920150582629 0.2060846051821312 0 -0.41534256149611798 0.1931797654285734 0 -0.40669587852768302 0.19704440315400831 0 -0.40669587852768302 0.19704440315400831 0 -0.38183382241586811 0.19439232559644329 0 -0.39544986665892029 0.18011719879879401 0 -0.40669587852768302 0.19704440315400831 0 -0.38183382241586811 0.19439232559644329 0 -0.39786787695997838 0.213577331313275 0 -0.38017735200646408 0.21129188600416479 0 -0.39786787695997838 0.213577331313275 0 -0.37864104058428671 0.22864504276082859 0 -0.38183382241586811 0.19439232559644329 0 -0.38017735200646408 0.21129188600416479 0 -0.39786787695997838 0.213577331313275 0 -0.40669587852768302 0.19704440315400831 0 -0.39786787695997838 0.213577331313275 0 -0.41185461573722798 0.21995391176645371 0 -0.39786787695997838 0.213577331313275 0 -0.40023729396284258 0.23150800378532579 0 -0.39786787695997838 0.213577331313275 0 -0.40023729396284258 0.23150800378532579 0 -0.37864104058428671 0.22864504276082859 0 -0.37864104058428671 0.22864504276082859 0 -0.36825714865980769 0.24773254399152009 0 -0.39028235366146108 0.25013208232574202 0 -0.40023729396284258 0.23150800378532579 0 -0.37864104058428671 0.22864504276082859 0 -0.39028235366146108 0.25013208232574202 0 -0.4067830915969341 0.24534087608109109 0 -0.40023729396284258 0.23150800378532579 0 -0.39028235366146108 0.25013208232574202 0 -0.40975011251353571 0.14049247320179031 0 -0.41252934166973182 0.16041511768186359 0 -0.39833754997315879 0.16071184171182379 0 -0.40975011251353571 0.14049247320179031 0 -0.4265058240968474 0.15994468081909979 0 -0.41252934166973182 0.16041511768186359 0 -0.40830763149152671 0.112716758936021 0 -0.42528090327961682 0.12478372277520131 0 -0.40975011251353571 0.14049247320179031 0 -0.42528090327961682 0.12478372277520131 0 -0.44846971209976688 0.1188110924678162 0 -0.43748776809830719 0.13937788664345799 0 -0.42528090327961682 0.12478372277520131 0 -0.40975011251353571 0.14049247320179031 0 -0.43748776809830719 0.13937788664345799 0 -0.40975011251353571 0.14049247320179031 0 -0.43748776809830719 0.13937788664345799 0 -0.4265058240968474 0.15994468081909979 0 -0.43748776809830719 0.13937788664345799 0 -0.4265058240968474 0.15994468081909979 0 -0.44488104194866862 0.15393531366015861 0 -0.43748776809830719 0.13937788664345799 0 -0.4265058240968474 0.15994468081909979 0 -0.44239166013485121 0.1691582263492688 0 -0.4265058240968474 0.15994468081909979 0 -0.42738362826458698 0.17362878015748431 0 -0.4265058240968474 0.15994468081909979 0 -0.42738362826458698 0.17362878015748431 0 -0.41552388009538532 0.1805114749947403 0 -0.44362306490729619 0.18145749171913159 0 -0.43448329252662787 0.18815914178265619 0 -0.43316401248701841 0.17991819557690231 0 -0.43448329252662787 0.18815914178265619 0 -0.43316401248701841 0.17991819557690231 0 -0.42675948354210969 0.1871447648198403 0 -0.44239166013485121 0.1691582263492688 0 -0.43316401248701841 0.17991819557690231 0 -0.42738362826458698 0.17362878015748431 0 -0.42738362826458698 0.17362878015748431 0 -0.4243465408154915 0.18112122630361599 0 -0.41552388009538532 0.1805114749947403 0 -0.43316401248701841 0.17991819557690231 0 -0.42738362826458698 0.17362878015748431 0 -0.4243465408154915 0.18112122630361599 0 -0.4243465408154915 0.18112122630361599 0 -0.42675948354210969 0.1871447648198403 0 -0.41890169968835722 0.18440291596911279 0 -0.43316401248701841 0.17991819557690231 0 -0.4243465408154915 0.18112122630361599 0 -0.42675948354210969 0.1871447648198403 0 -0.42135927732934741 0.18998310963701351 0 -0.42675948354210969 0.1871447648198403 0 -0.41890169968835722 0.18440291596911279 0 -0.41534256149611798 0.1931797654285734 0 -0.41890169968835722 0.18440291596911279 0 -0.41552388009538532 0.1805114749947403 0 -0.4243465408154915 0.18112122630361599 0 -0.41890169968835722 0.18440291596911279 0 -0.41552388009538532 0.1805114749947403 0 -0.41890169968835722 0.18440291596911279 0 -0.41552388009538532 0.1805114749947403 0 -0.41552388009538532 0.1805114749947403 0 -0.39833754997315879 0.16071184171182379 0 -0.4265058240968474 0.15994468081909979 0 -0.41552388009538532 0.1805114749947403 0 -0.41552388009538532 0.1805114749947403 0 -0.41252934166973182 0.16041511768186359 0 -0.39833754997315879 0.16071184171182379 0 -0.4265058240968474 0.15994468081909979 0 -0.41552388009538532 0.1805114749947403 0 -0.41252934166973182 0.16041511768186359 0 -0.41552388009538532 0.1805114749947403 0 -0.39833754997315879 0.16071184171182379 0 -0.39544986665892029 0.18011719879879401 0 -0.40669587852768302 0.19704440315400831 0 -0.41552388009538532 0.1805114749947403 0 -0.39544986665892029 0.18011719879879401 0 -0.38183382241586811 0.19439232559644329 0 -0.39544986665892029 0.18011719879879401 0 -0.37414581105635603 0.1669766632901053 0 -0.39833754997315879 0.16071184171182379 0 -0.39544986665892029 0.18011719879879401 0 -0.37414581105635603 0.1669766632901053 0 -0.39833754997315879 0.16071184171182379 0 -0.38115121985093309 0.1409122084289067 0 -0.37414581105635603 0.1669766632901053 0 -0.39833754997315879 0.16071184171182379 0 -0.38115121985093309 0.1409122084289067 0 -0.40975011251353571 0.14049247320179031 0 -0.39833754997315879 0.16071184171182379 0 -0.38115121985093309 0.1409122084289067 0 -0.39018544758925539 0.12223357284412099 0 -0.40830763149152671 0.112716758936021 0 -0.40975011251353571 0.14049247320179031 0 -0.39018544758925539 0.12223357284412099 0 -0.40975011251353571 0.14049247320179031 0 -0.38115121985093309 0.1409122084289067 0 -0.39018544758925539 0.12223357284412099 0 -0.38115121985093309 0.1409122084289067 0 -0.36396488972870727 0.1211125751459896 0 -0.38115121985093309 0.1409122084289067 0 -0.35653776288020028 0.1413694636844883 0 -0.36396488972870727 0.1211125751459896 0 -0.38115121985093309 0.1409122084289067 0 -0.36396488972870727 0.1211125751459896 0 -0.35653776288020028 0.1413694636844883 0 -0.36396488972870727 0.1211125751459896 0 -0.34052967131299461 0.1203510869419194 0 -0.35653776288020028 0.1413694636844883 0 -0.33536100206260883 0.14033697262570399 0 -0.34052967131299461 0.1203510869419194 0 -0.35653776288020028 0.1413694636844883 0 -0.34513110160525812 0.16110646796081571 0 -0.33536100206260883 0.14033697262570399 0 -0.38115121985093309 0.1409122084289067 0 -0.35653776288020028 0.1413694636844883 0 -0.37414581105635603 0.1669766632901053 0 -0.38183382241586811 0.19439232559644329 0 -0.37414581105635603 0.1669766632901053 0 -0.35678683661848581 0.1836393127723919 0 -0.35678683661848581 0.1836393127723919 0 -0.33362719418173231 0.17523578827004271 0 -0.34394392807420038 0.19456677093887129 0 -0.35678683661848581 0.1836393127723919 0 -0.34513110160525812 0.16110646796081571 0 -0.33362719418173231 0.17523578827004271 0 -0.37414581105635603 0.1669766632901053 0 -0.35678683661848581 0.1836393127723919 0 -0.34513110160525812 0.16110646796081571 0 -0.35653776288020028 0.1413694636844883 0 -0.37414581105635603 0.1669766632901053 0 -0.34513110160525812 0.16110646796081571 0 -0.34513110160525812 0.16110646796081571 0 -0.33362719418173231 0.17523578827004271 0 -0.33049308386422172 0.15579361650800611 0 -0.33362719418173231 0.17523578827004271 0 -0.34394392807420038 0.19456677093887129 0 -0.32740487989583239 0.19248051261565691 0 -0.33362719418173231 0.17523578827004271 0 -0.31460719750773503 0.1773040947556592 0 -0.32740487989583239 0.19248051261565691 0 -0.31460719750773503 0.1773040947556592 0 -0.32740487989583239 0.19248051261565691 0 -0.30772249829299481 0.19175853678382809 0 -0.33362719418173231 0.17523578827004271 0 -0.31680915801493181 0.16185181250933919 0 -0.33049308386422172 0.15579361650800611 0 -0.33362719418173231 0.17523578827004271 0 -0.31460719750773503 0.1773040947556592 0 -0.31680915801493181 0.16185181250933919 0 -0.31680915801493181 0.16185181250933919 0 -0.31849398364829279 0.14174517415575719 0 -0.30315979245670949 0.14647388315241269 0 -0.31849398364829279 0.14174517415575719 0 -0.33536100206260883 0.14033697262570399 0 -0.33049308386422172 0.15579361650800611 0 -0.31680915801493181 0.16185181250933919 0 -0.31849398364829279 0.14174517415575719 0 -0.33049308386422172 0.15579361650800611 0 -0.31849398364829279 0.14174517415575719 0 -0.30320178352823779 0.1252860067792789 0 -0.32067599475822622 0.12174117593257761 0 -0.31849398364829279 0.14174517415575719 0 -0.33536100206260883 0.14033697262570399 0 -0.32067599475822622 0.12174117593257761 0 -0.33536100206260883 0.14033697262570399 0 -0.34052967131299461 0.1203510869419194 0 -0.32067599475822622 0.12174117593257761 0 -0.34513110160525812 0.16110646796081571 0 -0.33536100206260883 0.14033697262570399 0 -0.33049308386422172 0.15579361650800611 0 -0.36825714865980769 0.24773254399152009 0 -0.35199739146015507 0.23302533313898829 0 -0.34796663495934771 0.25003234052934198 0 -0.37864104058428671 0.22864504276082859 0 -0.36825714865980769 0.24773254399152009 0 -0.35199739146015507 0.23302533313898829 0 -0.37864104058428671 0.22864504276082859 0 -0.35199739146015507 0.23302533313898829 0 -0.36236666806572332 0.20855284434611221 0 -0.36236666806572332 0.20855284434611221 0 -0.34394392807420038 0.19456677093887129 0 -0.34057909003751963 0.21089375637478319 0 -0.35199739146015507 0.23302533313898829 0 -0.36236666806572332 0.20855284434611221 0 -0.34057909003751963 0.21089375637478319 0 -0.38183382241586811 0.19439232559644329 0 -0.38017735200646408 0.21129188600416479 0 -0.36236666806572332 0.20855284434611221 0 -0.38017735200646408 0.21129188600416479 0 -0.37864104058428671 0.22864504276082859 0 -0.36236666806572332 0.20855284434611221 0 -0.38183382241586811 0.19439232559644329 0 -0.35678683661848581 0.1836393127723919 0 -0.36236666806572332 0.20855284434611221 0 -0.35678683661848581 0.1836393127723919 0 -0.36236666806572332 0.20855284434611221 0 -0.34394392807420038 0.19456677093887129 0 -0.34394392807420038 0.19456677093887129 0 -0.32740487989583239 0.19248051261565691 0 -0.34057909003751963 0.21089375637478319 0 -0.32740487989583239 0.19248051261565691 0 -0.31637204486415588 0.21117201879520561 0 -0.30772249829299481 0.19175853678382809 0 -0.32740487989583239 0.19248051261565691 0 -0.31637204486415588 0.21117201879520561 0 -0.34057909003751963 0.21089375637478319 0 -0.35199739146015507 0.23302533313898829 0 -0.34057909003751963 0.21089375637478319 0 -0.32556950702892812 0.24128123437957871 0 -0.31637204486415588 0.21117201879520561 0 -0.34057909003751963 0.21089375637478319 0 -0.32556950702892812 0.24128123437957871 0 -0.31637204486415588 0.21117201879520561 0 -0.32556950702892812 0.24128123437957871 0 -0.29634759094324498 0.22595278392503729 0 -0.35199739146015507 0.23302533313898829 0 -0.32556950702892812 0.24128123437957871 0 -0.35199739146015507 0.23302533313898829 0 -0.32556950702892812 0.24128123437957871 0 -0.34796663495934771 0.25003234052934198 0 -0.28210350667159279 0.24098917955268831 0 -0.299141622597701 0.24953713562016919 0 -0.27271373816647387 0.25779303686075961 0 -0.28210350667159279 0.24098917955268831 0 -0.299141622597701 0.24953713562016919 0 -0.29634759094324498 0.22595278392503729 0 -0.32556950702892812 0.24128123437957871 0 -0.299141622597701 0.24953713562016919 0 -0.32556950702892812 0.24128123437957871 0 -0.299141622597701 0.24953713562016919 0 -0.29634759094324498 0.22595278392503729 0 -0.29634759094324498 0.22595278392503729 0 -0.2824993274066403 0.21290427767091291 0 -0.27627661577298712 0.22711429261559449 0 -0.28210350667159279 0.24098917955268831 0 -0.29634759094324498 0.22595278392503729 0 -0.27627661577298712 0.22711429261559449 0 -0.29634759094324498 0.22595278392503729 0 -0.2824993274066403 0.21290427767091291 0 -0.29782004496954428 0.20492079483809669 0 -0.2824993274066403 0.21290427767091291 0 -0.29782004496954428 0.20492079483809669 0 -0.28297685649861493 0.1979612276211036 0 -0.31637204486415588 0.21117201879520561 0 -0.29634759094324498 0.22595278392503729 0 -0.29782004496954428 0.20492079483809669 0 -0.29782004496954428 0.20492079483809669 0 -0.30772249829299481 0.19175853678382809 0 -0.2920028630917722 0.1885463102237466 0 -0.31637204486415588 0.21117201879520561 0 -0.29782004496954428 0.20492079483809669 0 -0.30772249829299481 0.19175853678382809 0 -0.29782004496954428 0.20492079483809669 0 -0.2920028630917722 0.1885463102237466 0 -0.28297685649861493 0.1979612276211036 0 -0.2920028630917722 0.1885463102237466 0 -0.28297685649861493 0.1979612276211036 0 -0.27786366209725138 0.18487912050813821 0 -0.28297685649861493 0.1979612276211036 0 -0.27141115811142508 0.1945414528545755 0 -0.27786366209725138 0.18487912050813821 0 -0.28297685649861493 0.1979612276211036 0 -0.27141115811142508 0.1945414528545755 0 -0.27432425535463939 0.20538301103434611 0 -0.27141115811142508 0.1945414528545755 0 -0.26405457831998358 0.20328648065265381 0 -0.27432425535463939 0.20538301103434611 0 -0.27141115811142508 0.1945414528545755 0 -0.26177149153482382 0.18806196676496989 0 -0.26931715219006253 0.18396346640280439 0 -0.27141115811142508 0.1945414528545755 0 -0.26177149153482382 0.18806196676496989 0 -0.26405457831998358 0.20328648065265381 0 -0.27141115811142508 0.1945414528545755 0 -0.27786366209725138 0.18487912050813821 0 -0.26931715219006253 0.18396346640280439 0 -0.25333209387370931 0.20193790937719339 0 -0.2499958028559843 0.17796646964061449 0 -0.25333209387370931 0.20193790937719339 0 -0.25513616844039549 0.1732384144345494 0 -0.26177149153482382 0.18806196676496989 0 -0.25333209387370931 0.20193790937719339 0 -0.25513616844039549 0.1732384144345494 0 -0.26177149153482382 0.18806196676496989 0 -0.25333209387370931 0.20193790937719339 0 -0.26405457831998358 0.20328648065265381 0 -0.25333209387370931 0.20193790937719339 0 -0.25508687089008991 0.2145460815287758 0 -0.25147982383094603 0.23140410534617009 0 -0.25333209387370931 0.20193790937719339 0 -0.25147982383094603 0.23140410534617009 0 -0.25333209387370931 0.20193790937719339 0 -0.25508687089008991 0.2145460815287758 0 -0.25333209387370931 0.20193790937719339 0 -0.26405457831998358 0.20328648065265381 0 -0.25508687089008991 0.2145460815287758 0 -0.25508687089008991 0.2145460815287758 0 -0.26840160015521591 0.21524846235606249 0 -0.26319591596026598 0.22615778603810521 0 -0.26405457831998358 0.20328648065265381 0 -0.25508687089008991 0.2145460815287758 0 -0.26840160015521591 0.21524846235606249 0 -0.26405457831998358 0.20328648065265381 0 -0.26840160015521591 0.21524846235606249 0 -0.27432425535463939 0.20538301103434611 0 -0.2824993274066403 0.21290427767091291 0 -0.28297685649861493 0.1979612276211036 0 -0.27432425535463939 0.20538301103434611 0 -0.2824993274066403 0.21290427767091291 0 -0.26840160015521591 0.21524846235606249 0 -0.27627661577298712 0.22711429261559449 0 -0.2824993274066403 0.21290427767091291 0 -0.26840160015521591 0.21524846235606249 0 -0.27432425535463939 0.20538301103434611 0 -0.27627661577298712 0.22711429261559449 0 -0.26319591596026598 0.22615778603810521 0 -0.26473466915209137 0.242475988343923 0 -0.26840160015521591 0.21524846235606249 0 -0.27627661577298712 0.22711429261559449 0 -0.26319591596026598 0.22615778603810521 0 -0.25508687089008991 0.2145460815287758 0 -0.25147982383094603 0.23140410534617009 0 -0.26319591596026598 0.22615778603810521 0 -0.25147982383094603 0.23140410534617009 0 -0.26319591596026598 0.22615778603810521 0 -0.26473466915209137 0.242475988343923 0 -0.25147982383094603 0.23140410534617009 0 -0.26473466915209137 0.242475988343923 0 -0.24962755378818399 0.26087030131514671 0 -0.25147982383094603 0.23140410534617009 0 -0.24962755378818399 0.26087030131514671 0 -0.28210350667159279 0.24098917955268831 0 -0.27627661577298712 0.22711429261559449 0 -0.26473466915209137 0.242475988343923 0 -0.28210350667159279 0.24098917955268831 0 -0.26473466915209137 0.242475988343923 0 -0.27271373816647387 0.25779303686075961 0 -0.28766692440233921 0.14769322787425851 0 -0.30315979245670949 0.14647388315241269 0 -0.29902395480254129 0.16363991053017271 0 -0.28766692440233921 0.14769322787425851 0 -0.29213317550500512 0.1339349641375589 0 -0.30315979245670949 0.14647388315241269 0 -0.28766692440233921 0.14769322787425851 0 -0.28482818778335878 0.16069842962674979 0 -0.27687273242007532 0.1548266681158435 0 -0.28766692440233921 0.14769322787425851 0 -0.29213317550500512 0.1339349641375589 0 -0.27881136776586152 0.13166385307299991 0 -0.29213317550500512 0.1339349641375589 0 -0.27881136776586152 0.13166385307299991 0 -0.28782600937187719 0.1185578498088445 0 -0.29213317550500512 0.1339349641375589 0 -0.30320178352823779 0.1252860067792789 0 -0.28782600937187719 0.1185578498088445 0 -0.31849398364829279 0.14174517415575719 0 -0.30320178352823779 0.1252860067792789 0 -0.30315979245670949 0.14647388315241269 0 -0.29213317550500512 0.1339349641375589 0 -0.30320178352823779 0.1252860067792789 0 -0.30315979245670949 0.14647388315241269 0 -0.31680915801493181 0.16185181250933919 0 -0.30315979245670949 0.14647388315241269 0 -0.29902395480254129 0.16363991053017271 0 -0.31460719750773503 0.1773040947556592 0 -0.31680915801493181 0.16185181250933919 0 -0.29902395480254129 0.16363991053017271 0 -0.30772249829299481 0.19175853678382809 0 -0.2920028630917722 0.1885463102237466 0 -0.29986622330232149 0.17834861051097459 0 -0.31460719750773503 0.1773040947556592 0 -0.30772249829299481 0.19175853678382809 0 -0.29986622330232149 0.17834861051097459 0 -0.31460719750773503 0.1773040947556592 0 -0.29902395480254129 0.16363991053017271 0 -0.29986622330232149 0.17834861051097459 0 -0.2920028630917722 0.1885463102237466 0 -0.29986622330232149 0.17834861051097459 0 -0.28576789338990649 0.17340957108033861 0 -0.2920028630917722 0.1885463102237466 0 -0.28576789338990649 0.17340957108033861 0 -0.27786366209725138 0.18487912050813821 0 -0.28766692440233921 0.14769322787425851 0 -0.29902395480254129 0.16363991053017271 0 -0.28482818778335878 0.16069842962674979 0 -0.29902395480254129 0.16363991053017271 0 -0.28576789338990649 0.17340957108033861 0 -0.28482818778335878 0.16069842962674979 0 -0.29902395480254129 0.16363991053017271 0 -0.29986622330232149 0.17834861051097459 0 -0.28576789338990649 0.17340957108033861 0 -0.28576789338990649 0.17340957108033861 0 -0.28482818778335878 0.16069842962674979 0 -0.27527307057119099 0.16435015644044851 0 -0.28482818778335878 0.16069842962674979 0 -0.27527307057119099 0.16435015644044851 0 -0.27687273242007532 0.1548266681158435 0 -0.27527307057119099 0.16435015644044851 0 -0.26838103017274612 0.15573119042058339 0 -0.27687273242007532 0.1548266681158435 0 -0.28576789338990649 0.17340957108033861 0 -0.27527307057119099 0.16435015644044851 0 -0.27164099335583858 0.17568511732775541 0 -0.27527307057119099 0.16435015644044851 0 -0.27164099335583858 0.17568511732775541 0 -0.26496113826363887 0.16557513338159069 0 -0.27527307057119099 0.16435015644044851 0 -0.26496113826363887 0.16557513338159069 0 -0.26838103017274612 0.15573119042058339 0 -0.28576789338990649 0.17340957108033861 0 -0.27786366209725138 0.18487912050813821 0 -0.27164099335583858 0.17568511732775541 0 -0.27164099335583858 0.17568511732775541 0 -0.26387510886668608 0.17776982679603659 0 -0.26496113826363887 0.16557513338159069 0 -0.27164099335583858 0.17568511732775541 0 -0.26931715219006253 0.18396346640280439 0 -0.26387510886668608 0.17776982679603659 0 -0.27786366209725138 0.18487912050813821 0 -0.27164099335583858 0.17568511732775541 0 -0.26931715219006253 0.18396346640280439 0 -0.25333209387370931 0.20193790937719339 0 -0.25513616844039549 0.1732384144345494 0 -0.2499958028559843 0.17796646964061449 0 -0.26177149153482382 0.18806196676496989 0 -0.26387510886668608 0.17776982679603659 0 -0.25513616844039549 0.1732384144345494 0 -0.26177149153482382 0.18806196676496989 0 -0.26931715219006253 0.18396346640280439 0 -0.26387510886668608 0.17776982679603659 0 -0.26387510886668608 0.17776982679603659 0 -0.25513616844039549 0.1732384144345494 0 -0.26496113826363887 0.16557513338159069 0 -0.25513616844039549 0.1732384144345494 0 -0.24665951183825799 0.15399502990403571 0 -0.2499958028559843 0.17796646964061449 0 -0.25513616844039549 0.1732384144345494 0 -0.25694024300708301 0.14453891949190539 0 -0.24665951183825799 0.15399502990403571 0 -0.25513616844039549 0.1732384144345494 0 -0.26496113826363887 0.16557513338159069 0 -0.25694024300708301 0.14453891949190539 0 -0.25513616844039549 0.1732384144345494 0 -0.25694024300708301 0.14453891949190539 0 -0.26496113826363887 0.16557513338159069 0 -0.25694024300708301 0.14453891949190539 0 -0.26838103017274612 0.15573119042058339 0 -0.28766692440233921 0.14769322787425851 0 -0.27211949857114692 0.14482115850599389 0 -0.27881136776586152 0.13166385307299991 0 -0.26838103017274612 0.15573119042058339 0 -0.27211949857114692 0.14482115850599389 0 -0.27687273242007532 0.1548266681158435 0 -0.25694024300708301 0.14453891949190539 0 -0.26838103017274612 0.15573119042058339 0 -0.27211949857114692 0.14482115850599389 0 -0.28766692440233921 0.14769322787425851 0 -0.27211949857114692 0.14482115850599389 0 -0.27687273242007532 0.1548266681158435 0 -0.27881136776586152 0.13166385307299991 0 -0.26741787935213152 0.1314313175227122 0 -0.2744243915423657 0.11964809473860991 0 -0.27211949857114692 0.14482115850599389 0 -0.27881136776586152 0.13166385307299991 0 -0.26741787935213152 0.1314313175227122 0 -0.25694024300708301 0.14453891949190539 0 -0.26741787935213152 0.1314313175227122 0 -0.25874431757377048 0.11583942454926149 0 -0.25694024300708301 0.14453891949190539 0 -0.25874431757377048 0.11583942454926149 0 -0.25694024300708301 0.14453891949190539 0 -0.25062573814025307 0.1290075630397173 0 -0.25874431757377048 0.11583942454926149 0 -0.25694024300708301 0.14453891949190539 0 -0.27211949857114692 0.14482115850599389 0 -0.26741787935213152 0.1314313175227122 0 -0.25694024300708301 0.14453891949190539 0 -0.25062573814025307 0.1290075630397173 0 -0.2433232208205317 0.13002359016745679 0 -0.25062573814025307 0.1290075630397173 0 -0.25130212163981069 0.1208790083453674 0 -0.25874431757377048 0.11583942454926149 0 -0.25130212163981069 0.1208790083453674 0 -0.25874431757377048 0.11583942454926149 0 -0.24751987864844749 0.1140817531071557 0 -0.25874431757377048 0.11583942454926149 0 -0.24528315690140501 0.1005867942857518 0 -0.24751987864844749 0.1140817531071557 0 -0.25874431757377048 0.11583942454926149 0 -0.26054839214045789 0.087139929606617511 0 -0.24528315690140501 0.1005867942857518 0 -0.25874431757377048 0.11583942454926149 0 -0.26054839214045789 0.087139929606617511 0 -0.25874431757377048 0.11583942454926149 0 -0.27932238364818768 0.1007480287392313 0 -0.26054839214045789 0.087139929606617511 0 -0.27932238364818768 0.1007480287392313 0 -0.2744243915423657 0.11964809473860991 0 -0.28782600937187719 0.1185578498088445 0 -0.25874431757377048 0.11583942454926149 0 -0.27932238364818768 0.1007480287392313 0 -0.2744243915423657 0.11964809473860991 0 -0.26741787935213152 0.1314313175227122 0 -0.25874431757377048 0.11583942454926149 0 -0.2744243915423657 0.11964809473860991 0 -0.27881136776586152 0.13166385307299991 0 -0.2744243915423657 0.11964809473860991 0 -0.28782600937187719 0.1185578498088445 0 -0.27932238364818768 0.1007480287392313 0 -0.28782600937187719 0.1185578498088445 0 -0.30261235105349737 0.1050923992576074 0 -0.27932238364818768 0.1007480287392313 0 -0.30261235105349737 0.1050923992576074 0 -0.29570426641026681 0.08610162277761263 0 -0.30320178352823779 0.1252860067792789 0 -0.30261235105349737 0.1050923992576074 0 -0.32067599475822622 0.12174117593257761 0 -0.30320178352823779 0.1252860067792789 0 -0.28782600937187719 0.1185578498088445 0 -0.30261235105349737 0.1050923992576074 0 -0.29570426641026681 0.08610162277761263 0 -0.29426307123941853 0.061014123210391721 0 -0.31404747689749402 0.084167846506252669 0 -0.29426307123941853 0.061014123210391721 0 -0.31404747689749402 0.084167846506252669 0 -0.32404022218440898 0.066839150478300469 0 -0.30261235105349737 0.1050923992576074 0 -0.29570426641026681 0.08610162277761263 0 -0.31404747689749402 0.084167846506252669 0 -0.27932238364818768 0.1007480287392313 0 -0.29570426641026681 0.08610162277761263 0 -0.27808823727155518 0.073531410533923064 0 -0.29570426641026681 0.08610162277761263 0 -0.27808823727155518 0.073531410533923064 0 -0.29426307123941853 0.061014123210391721 0 -0.29570426641026681 0.08610162277761263 0 -0.29426307123941853 0.061014123210391721 0 -0.27808823727155518 0.073531410533923064 0 -0.26054839214045789 0.087139929606617511 0 -0.2623524667071454 0.058440434663973591 0 -0.27932238364818768 0.1007480287392313 0 -0.27808823727155518 0.073531410533923064 0 -0.26054839214045789 0.087139929606617511 0 -0.26054839214045789 0.087139929606617511 0 -0.2623524667071454 0.058440434663973591 0 -0.24121248507036511 0.076801683577728888 0 -0.26054839214045789 0.087139929606617511 0 -0.2623524667071454 0.058440434663973591 0 -0.2623524667071454 0.058440434663973591 0 -0.26415654127383292 0.029740939721329629 0 -0.2397047388991114 0.04121853486884508 0 -0.2623524667071454 0.058440434663973591 0 -0.26415654127383292 0.029740939721329629 0 -0.27914898434294533 0.04929723252571834 0 -0.26415654127383292 0.029740939721329629 0 -0.29282187606857019 0.035926623643170841 0 -0.2623524667071454 0.058440434663973591 0 -0.27914898434294533 0.04929723252571834 0 -0.26415654127383292 0.029740939721329629 0 -0.27808823727155518 0.073531410533923064 0 -0.2623524667071454 0.058440434663973591 0 -0.27914898434294533 0.04929723252571834 0 -0.25922362587095638 -0.002133833671543222 0 -0.25542037218922242 0.013888854862119391 0 -0.27176298421615341 0.0042637724134266608 0 -0.25922362587095638 -0.002133833671543222 0 -0.25542037218922242 0.013888854862119391 0 -0.24330282498337019 0.003007537454472953 0 -0.25542037218922242 0.013888854862119391 0 -0.26415654127383292 0.029740939721329629 0 -0.27176298421615341 0.0042637724134266608 0 -0.25542037218922242 0.013888854862119391 0 -0.26415654127383292 0.029740939721329629 0 -0.2397047388991114 0.04121853486884508 0 -0.26415654127383292 0.029740939721329629 0 -0.27176298421615341 0.0042637724134266608 0 -0.29138068089772201 0.010839124075949931 0 -0.28993948572687372 -0.01424837549127107 0 -0.27176298421615341 0.0042637724134266608 0 -0.29138068089772201 0.010839124075949931 0 -0.29138068089772201 0.010839124075949931 0 -0.29282187606857019 0.035926623643170841 0 -0.26415654127383292 0.029740939721329629 0 -0.29138068089772201 0.010839124075949931 0 -0.29282187606857019 0.035926623643170841 0 -0.29138068089772201 0.010839124075949931 0 -0.31068287905196867 0.018812104887969611 0 -0.29282187606857019 0.035926623643170841 0 -0.30691290727482629 -0.00095341638459660739 0 -0.29138068089772201 0.010839124075949931 0 -0.31068287905196867 0.018812104887969611 0 -0.27914898434294533 0.04929723252571834 0 -0.29426307123941853 0.061014123210391721 0 -0.29282187606857019 0.035926623643170841 0 -0.27808823727155518 0.073531410533923064 0 -0.27914898434294533 0.04929723252571834 0 -0.29426307123941853 0.061014123210391721 0 -0.29426307123941853 0.061014123210391721 0 -0.29282187606857019 0.035926623643170841 0 -0.29426307123941853 0.061014123210391721 0 -0.29282187606857019 0.035926623643170841 0 -0.31649129068222281 0.042197705827504352 0 -0.31068287905196867 0.018812104887969611 0 -0.29282187606857019 0.035926623643170841 0 -0.31649129068222281 0.042197705827504352 0 -0.29426307123941853 0.061014123210391721 0 -0.31649129068222281 0.042197705827504352 0 -0.32404022218440898 0.066839150478300469 0 -0.31649129068222281 0.042197705827504352 0 -0.33688563486277201 0.048103582990861912 0 -0.32404022218440898 0.066839150478300469 0 -0.33688563486277201 0.048103582990861912 0 -0.33457657724120532 0.024978699838518099 0 -0.35937373737194711 0.038251268854201707 0 -0.31649129068222281 0.042197705827504352 0 -0.33688563486277201 0.048103582990861912 0 -0.33457657724120532 0.024978699838518099 0 -0.33688563486277201 0.048103582990861912 0 -0.34994634683407561 0.06825108995578491 0 -0.32404022218440898 0.066839150478300469 0 -0.30691290727482629 -0.00095341638459660739 0 -0.31068287905196867 0.018812104887969611 0 -0.32561302252609747 0.001356273347036568 0 -0.31068287905196867 0.018812104887969611 0 -0.32561302252609747 0.001356273347036568 0 -0.33457657724120532 0.024978699838518099 0 -0.31068287905196867 0.018812104887969611 0 -0.31649129068222281 0.042197705827504352 0 -0.33457657724120532 0.024978699838518099 0 -0.32561302252609747 0.001356273347036568 0 -0.33457657724120532 0.024978699838518099 0 -0.34477131709100672 0.0030002940641287749 0 -0.35912004359483651 -0.010530881474089799 0 -0.34477131709100672 0.0030002940641287749 0 -0.36562343834461147 0.014315277159003451 0 -0.33457657724120532 0.024978699838518099 0 -0.34477131709100672 0.0030002940641287749 0 -0.36562343834461147 0.014315277159003451 0 -0.33457657724120532 0.024978699838518099 0 -0.36562343834461147 0.014315277159003451 0 -0.35937373737194711 0.038251268854201707 0 -0.38811235108204362 0.024200554439509889 0 -0.36562343834461147 0.014315277159003451 0 -0.35937373737194711 0.038251268854201707 0 -0.35912004359483651 -0.010530881474089799 0 -0.37630101312515413 -0.0017537402174872649 0 -0.36562343834461147 0.014315277159003451 0 -0.33688563486277201 0.048103582990861912 0 -0.35937373737194711 0.038251268854201707 0 -0.34994634683407561 0.06825108995578491 0 -0.37801430930939572 0.050332987804399411 0 -0.35937373737194711 0.038251268854201707 0 -0.34994634683407561 0.06825108995578491 0 -0.37585247148374201 0.069663029433269366 0 -0.34994634683407561 0.06825108995578491 0 -0.36351483687688008 0.087508303231400617 0 -0.37801430930939572 0.050332987804399411 0 -0.37585247148374201 0.069663029433269366 0 -0.34994634683407561 0.06825108995578491 0 -0.37585247148374201 0.069663029433269366 0 -0.34994634683407561 0.06825108995578491 0 -0.36351483687688008 0.087508303231400617 0 -0.34677855960648157 0.10131294186307239 0 -0.33678739087444293 0.085083797653686982 0 -0.34994634683407561 0.06825108995578491 0 -0.36351483687688008 0.087508303231400617 0 -0.33678739087444293 0.085083797653686982 0 -0.36351483687688008 0.087508303231400617 0 -0.36396488972870727 0.1211125751459896 0 -0.34677855960648157 0.10131294186307239 0 -0.38775338436157458 0.095933848507897296 0 -0.36351483687688008 0.087508303231400617 0 -0.36396488972870727 0.1211125751459896 0 -0.36396488972870727 0.1211125751459896 0 -0.34677855960648157 0.10131294186307239 0 -0.34052967131299461 0.1203510869419194 0 -0.36396488972870727 0.1211125751459896 0 -0.34677855960648157 0.10131294186307239 0 -0.34677855960648157 0.10131294186307239 0 -0.34052967131299461 0.1203510869419194 0 -0.32239690284731731 0.1024234538873109 0 -0.34677855960648157 0.10131294186307239 0 -0.32239690284731731 0.1024234538873109 0 -0.33678739087444293 0.085083797653686982 0 -0.34052967131299461 0.1203510869419194 0 -0.32067599475822622 0.12174117593257761 0 -0.32239690284731731 0.1024234538873109 0 -0.30261235105349737 0.1050923992576074 0 -0.32067599475822622 0.12174117593257761 0 -0.32239690284731731 0.1024234538873109 0 -0.30261235105349737 0.1050923992576074 0 -0.32239690284731731 0.1024234538873109 0 -0.31404747689749402 0.084167846506252669 0 -0.32239690284731731 0.1024234538873109 0 -0.31404747689749402 0.084167846506252669 0 -0.33678739087444293 0.085083797653686982 0 -0.31404747689749402 0.084167846506252669 0 -0.32404022218440898 0.066839150478300469 0 -0.33678739087444293 0.085083797653686982 0 -0.34994634683407561 0.06825108995578491 0 -0.32404022218440898 0.066839150478300469 0 -0.34994634683407561 0.06825108995578491 0 -0.32404022218440898 0.066839150478300469 0 -0.33678739087444293 0.085083797653686982 0 -0.39467911694481961 0.47560619769625012 0 -0.39138670791060992 0.50000000000000067 0 -0.41951146698371361 0.47076173414950312 0 -0.39138670791060992 0.50000000000000067 0 -0.37578495439707432 0.48162369174692699 0 -0.39138670791060992 0.50000000000000067 0 -0.37578495439707432 0.48162369174692699 0 -0.36271262299221391 0.5 0 -0.39467911694481961 0.47560619769625012 0 -0.39138670791060992 0.50000000000000067 0 -0.37578495439707432 0.48162369174692699 0 -0.37578495439707432 0.48162369174692699 0 -0.38584785107143171 0.46757250914048132 0 -0.36657254078654272 0.46629090303299209 0 -0.39467911694481961 0.47560619769625012 0 -0.37578495439707432 0.48162369174692699 0 -0.38584785107143171 0.46757250914048132 0 -0.38584785107143171 0.46757250914048132 0 -0.38476259046108641 0.44979561670398888 0 -0.40086460436126831 0.45807305344433891 0 -0.38476259046108641 0.44979561670398888 0 -0.37419802332540192 0.45286545964978442 0 -0.36657254078654272 0.46629090303299209 0 -0.38476259046108641 0.44979561670398888 0 -0.36657254078654272 0.46629090303299209 0 -0.38584785107143171 0.46757250914048132 0 -0.38476259046108641 0.44979561670398888 0 -0.36657254078654272 0.46629090303299209 0 -0.38268545722282959 0.44092582458482887 0 -0.38476259046108641 0.44979561670398888 0 -0.40295264013562998 0.43330033037498578 0 -0.38268545722282959 0.44092582458482887 0 -0.37419802332540192 0.45286545964978442 0 -0.37325376656998699 0.44111987596666041 0 -0.38268545722282959 0.44092582458482887 0 -0.37704527446399078 0.43700471666497559 0 -0.37325376656998699 0.44111987596666041 0 -0.38268545722282959 0.44092582458482887 0 -0.38476259046108641 0.44979561670398888 0 -0.37419802332540192 0.45286545964978442 0 -0.40086460436126831 0.45807305344433891 0 -0.41482998617327638 0.44745448473306487 0 -0.40295264013562998 0.43330033037498578 0 -0.38476259046108641 0.44979561670398888 0 -0.40295264013562998 0.43330033037498578 0 -0.38476259046108641 0.44979561670398888 0 -0.40086460436126831 0.45807305344433891 0 -0.40295264013562998 0.43330033037498578 0 -0.39467911694481961 0.47560619769625012 0 -0.40086460436126831 0.45807305344433891 0 -0.41951146698371361 0.47076173414950312 0 -0.39467911694481961 0.47560619769625012 0 -0.38584785107143171 0.46757250914048132 0 -0.40086460436126831 0.45807305344433891 0 -0.40086460436126831 0.45807305344433891 0 -0.41482998617327638 0.44745448473306487 0 -0.41951146698371361 0.47076173414950312 0 -0.41482998617327638 0.44745448473306487 0 -0.42594930790044899 0.43218670470462228 0 -0.40295264013562998 0.43330033037498578 0 -0.41482998617327638 0.44745448473306487 0 -0.43453864746875892 0.44732708895001139 0 -0.42594930790044899 0.43218670470462228 0 -0.41482998617327638 0.44745448473306487 0 -0.43453864746875892 0.44732708895001139 0 -0.41951146698371361 0.47076173414950312 0 -0.43453864746875892 0.44732708895001139 0 -0.41951146698371361 0.47076173414950312 0 -0.44738011707973357 0.46476893185876972 0 -0.39138670791060992 0.50000000000000067 0 -0.41951146698371361 0.47076173414950312 0 -0.45376809059013651 0.5 0 -0.41951146698371361 0.47076173414950312 0 -0.45376809059013651 0.5 0 -0.44738011707973357 0.46476893185876972 0 -0.45376809059013651 0.5 0 -0.47203018337179942 0.46406824317681128 0 -0.44738011707973357 0.46476893185876972 0 -0.45376809059013651 0.5 0 -0.5 0.5 0 -0.47203018337179942 0.46406824317681128 0 -0.5 0.5 0 -0.5 0.44799006148694032 0 -0.47203018337179942 0.46406824317681128 0 -0.5 0.44799006148694032 0 -0.47203018337179942 0.46406824317681128 0 -0.47701325537246803 0.4309202025715404 0 -0.47203018337179942 0.46406824317681128 0 -0.45401963718845822 0.44073026314361752 0 -0.47701325537246803 0.4309202025715404 0 -0.47203018337179942 0.46406824317681128 0 -0.45401963718845822 0.44073026314361752 0 -0.44738011707973357 0.46476893185876972 0 -0.43453864746875892 0.44732708895001139 0 -0.45401963718845822 0.44073026314361752 0 -0.44738011707973357 0.46476893185876972 0 -0.43453864746875892 0.44732708895001139 0 -0.45401963718845822 0.44073026314361752 0 -0.44233115426648911 0.43127563200866748 0 -0.44233115426648911 0.43127563200866748 0 -0.43995366955151249 0.41711981761630051 0 -0.45719450922326699 0.41901428562878579 0 -0.45401963718845822 0.44073026314361752 0 -0.44233115426648911 0.43127563200866748 0 -0.45719450922326699 0.41901428562878579 0 -0.43995366955151249 0.41711981761630051 0 -0.4519842664821635 0.40692636527765358 0 -0.45719450922326699 0.41901428562878579 0 -0.43995366955151249 0.41711981761630051 0 -0.4519842664821635 0.40692636527765358 0 -0.43933273948471629 0.40030975771697802 0 -0.45719450922326699 0.41901428562878579 0 -0.47563857796104841 0.40760889767597591 0 -0.46388525449484491 0.40474218846557181 0 -0.4519842664821635 0.40692636527765358 0 -0.45719450922326699 0.41901428562878579 0 -0.46388525449484491 0.40474218846557181 0 -0.45401963718845822 0.44073026314361752 0 -0.45719450922326699 0.41901428562878579 0 -0.47701325537246803 0.4309202025715404 0 -0.5 0.44799006148694032 0 -0.47701325537246803 0.4309202025715404 0 -0.5 0.40897884172062859 0 -0.45719450922326699 0.41901428562878579 0 -0.47701325537246803 0.4309202025715404 0 -0.47563857796104841 0.40760889767597591 0 -0.47701325537246803 0.4309202025715404 0 -0.47563857796104841 0.40760889767597591 0 -0.5 0.40897884172062859 0 -0.49999999999999889 0.3797178154479447 0 -0.47977757982823782 0.38658179620428829 0 -0.48610491715569992 0.37200189217170881 0 -0.49999999999999889 0.3797178154479447 0 -0.47977757982823782 0.38658179620428829 0 -0.5 0.40897884172062859 0 -0.49999999999999889 0.3797178154479447 0 -0.47977757982823782 0.38658179620428829 0 -0.47563857796104841 0.40760889767597591 0 -0.5 0.40897884172062859 0 -0.47977757982823782 0.38658179620428829 0 -0.47563857796104841 0.40760889767597591 0 -0.47977757982823782 0.38658179620428829 0 -0.46388525449484491 0.40474218846557181 0 -0.47977757982823782 0.38658179620428829 0 -0.4652352923582988 0.37682054059297021 0 -0.48610491715569992 0.37200189217170881 0 -0.47977757982823782 0.38658179620428829 0 -0.4595551596564767 0.39344577696063221 0 -0.47977757982823782 0.38658179620428829 0 -0.4652352923582988 0.37682054059297021 0 -0.4595551596564767 0.39344577696063221 0 -0.4652352923582988 0.37682054059297021 0 -0.4595551596564767 0.39344577696063221 0 -0.45228401592150808 0.38856514915497481 0 -0.4652352923582988 0.37682054059297021 0 -0.45228401592150808 0.38856514915497481 0 -0.4652352923582988 0.37682054059297021 0 -0.45299540083471551 0.37659621775906399 0 -0.45228401592150808 0.38856514915497481 0 -0.47977757982823782 0.38658179620428829 0 -0.46388525449484491 0.40474218846557181 0 -0.4595551596564767 0.39344577696063221 0 -0.4519842664821635 0.40692636527765358 0 -0.46388525449484491 0.40474218846557181 0 -0.4595551596564767 0.39344577696063221 0 -0.4595551596564767 0.39344577696063221 0 -0.43933273948471629 0.40030975771697802 0 -0.4519842664821635 0.40692636527765358 0 -0.4595551596564767 0.39344577696063221 0 -0.43933273948471629 0.40030975771697802 0 -0.4595551596564767 0.39344577696063221 0 -0.43933273948471629 0.40030975771697802 0 -0.45228401592150808 0.38856514915497481 0 -0.43933273948471629 0.40030975771697802 0 -0.45228401592150808 0.38856514915497481 0 -0.43933273948471629 0.40030975771697802 0 -0.45228401592150808 0.38856514915497481 0 -0.43993656572427381 0.38799537896030128 0 -0.44647657962060389 0.38265654557939499 0 -0.45299540083471551 0.37659621775906399 0 -0.45228401592150808 0.38856514915497481 0 -0.44647657962060389 0.38265654557939499 0 -0.45299540083471551 0.37659621775906399 0 -0.44366460749211339 0.37473469742480392 0 -0.44647657962060389 0.38265654557939499 0 -0.45228401592150808 0.38856514915497481 0 -0.43993656572427381 0.38799537896030128 0 -0.44647657962060389 0.38265654557939499 0 -0.43993656572427381 0.38799537896030128 0 -0.43457897479931429 0.37904995266483837 0 -0.44647657962060389 0.38265654557939499 0 -0.43457897479931429 0.37904995266483837 0 -0.44366460749211339 0.37473469742480392 0 -0.43993656572427381 0.38799537896030128 0 -0.43457897479931429 0.37904995266483837 0 -0.42686101171477142 0.38980884650502889 0 -0.43457897479931429 0.37904995266483837 0 -0.42686101171477142 0.38980884650502889 0 -0.42021883612201599 0.38062497501244857 0 -0.43457897479931429 0.37904995266483837 0 -0.42021883612201599 0.38062497501244857 0 -0.4272860420887698 0.37194294085194612 0 -0.42021883612201599 0.38062497501244857 0 -0.41338686564199029 0.37255203634427841 0 -0.4272860420887698 0.37194294085194612 0 -0.42021883612201599 0.38062497501244857 0 -0.41081065472881417 0.38694542713787689 0 -0.41338686564199029 0.37255203634427841 0 -0.42686101171477142 0.38980884650502889 0 -0.42021883612201599 0.38062497501244857 0 -0.41081065472881417 0.38694542713787689 0 -0.41081065472881417 0.38694542713787689 0 -0.40379524868008743 0.3784810786223512 0 -0.41338686564199029 0.37255203634427841 0 -0.42686101171477142 0.38980884650502889 0 -0.41275127843169462 0.39900431311459122 0 -0.42335821895932157 0.40573189812088489 0 -0.41275127843169462 0.39900431311459122 0 -0.42335821895932157 0.40573189812088489 0 -0.40738369843392752 0.41115403852479371 0 -0.41275127843169462 0.39900431311459122 0 -0.40738369843392752 0.41115403852479371 0 -0.40151505335888882 0.39395809793899172 0 -0.42686101171477142 0.38980884650502889 0 -0.41081065472881417 0.38694542713787689 0 -0.41275127843169462 0.39900431311459122 0 -0.41081065472881417 0.38694542713787689 0 -0.41275127843169462 0.39900431311459122 0 -0.40151505335888882 0.39395809793899172 0 -0.43933273948471629 0.40030975771697802 0 -0.42335821895932157 0.40573189812088489 0 -0.43933273948471629 0.40030975771697802 0 -0.42686101171477142 0.38980884650502889 0 -0.42335821895932157 0.40573189812088489 0 -0.43933273948471629 0.40030975771697802 0 -0.43993656572427381 0.38799537896030128 0 -0.42686101171477142 0.38980884650502889 0 -0.43995366955151249 0.41711981761630051 0 -0.43933273948471629 0.40030975771697802 0 -0.42114268981017378 0.41680504404598262 0 -0.43933273948471629 0.40030975771697802 0 -0.42335821895932157 0.40573189812088489 0 -0.42114268981017378 0.41680504404598262 0 -0.43933273948471629 0.40030975771697802 0 -0.42114268981017378 0.41680504404598262 0 -0.43995366955151249 0.41711981761630051 0 -0.42594930790044899 0.43218670470462228 0 -0.42114268981017378 0.41680504404598262 0 -0.43453864746875892 0.44732708895001139 0 -0.44233115426648911 0.43127563200866748 0 -0.42594930790044899 0.43218670470462228 0 -0.44233115426648911 0.43127563200866748 0 -0.43995366955151249 0.41711981761630051 0 -0.42594930790044899 0.43218670470462228 0 -0.42114268981017378 0.41680504404598262 0 -0.40295264013562998 0.43330033037498578 0 -0.42594930790044899 0.43218670470462228 0 -0.42114268981017378 0.41680504404598262 0 -0.40295264013562998 0.43330033037498578 0 -0.42335821895932157 0.40573189812088489 0 -0.42114268981017378 0.41680504404598262 0 -0.40738369843392752 0.41115403852479371 0 -0.42335821895932157 0.40573189812088489 0 -0.40738369843392752 0.41115403852479371 0 -0.42114268981017378 0.41680504404598262 0 -0.40738369843392752 0.41115403852479371 0 -0.40295264013562998 0.43330033037498578 0 -0.40738369843392752 0.41115403852479371 0 -0.39587991958026858 0.41480761064680699 0 -0.40295264013562998 0.43330033037498578 0 -0.40738369843392752 0.41115403852479371 0 -0.39587991958026858 0.41480761064680699 0 -0.39339814839268877 0.40362144337074479 0 -0.39587991958026858 0.41480761064680699 0 -0.3877035053983926 0.40956052159021011 0 -0.39339814839268877 0.40362144337074479 0 -0.40295264013562998 0.43330033037498578 0 -0.38390044838088128 0.43146894814857861 0 -0.39027939358509778 0.42351205955908577 0 -0.39587991958026858 0.41480761064680699 0 -0.40295264013562998 0.43330033037498578 0 -0.39027939358509778 0.42351205955908577 0 -0.38268545722282959 0.44092582458482887 0 -0.40295264013562998 0.43330033037498578 0 -0.38390044838088128 0.43146894814857861 0 -0.38390044838088128 0.43146894814857861 0 -0.39027939358509778 0.42351205955908577 0 -0.3818589420420111 0.42377357645408209 0 -0.3818589420420111 0.42377357645408209 0 -0.37773408284538201 0.41782628711634717 0 -0.37438716231324032 0.42410623227884348 0 -0.3818589420420111 0.42377357645408209 0 -0.37794965265953928 0.42798793942232938 0 -0.37438716231324032 0.42410623227884348 0 -0.37794965265953928 0.42798793942232938 0 -0.37388870539249391 0.42848762982128841 0 -0.37438716231324032 0.42410623227884348 0 -0.37794965265953928 0.42798793942232938 0 -0.37568054734269513 0.43233891557180387 0 -0.37388870539249391 0.42848762982128841 0 -0.38390044838088128 0.43146894814857861 0 -0.3818589420420111 0.42377357645408209 0 -0.37794965265953928 0.42798793942232938 0 -0.38390044838088128 0.43146894814857861 0 -0.37794965265953928 0.42798793942232938 0 -0.37568054734269513 0.43233891557180387 0 -0.38390044838088128 0.43146894814857861 0 -0.37568054734269513 0.43233891557180387 0 -0.37704527446399078 0.43700471666497559 0 -0.38268545722282959 0.44092582458482887 0 -0.38390044838088128 0.43146894814857861 0 -0.37704527446399078 0.43700471666497559 0 -0.37568054734269513 0.43233891557180387 0 -0.37704527446399078 0.43700471666497559 0 -0.3723502293118699 0.43487096394545782 0 -0.3877035053983926 0.40956052159021011 0 -0.380135510113286 0.41074486547501488 0 -0.38190537168149458 0.4018193431481652 0 -0.39587991958026858 0.41480761064680699 0 -0.3877035053983926 0.40956052159021011 0 -0.38538277475884702 0.4169586788766132 0 -0.3877035053983926 0.40956052159021011 0 -0.38538277475884702 0.4169586788766132 0 -0.380135510113286 0.41074486547501488 0 -0.39027939358509778 0.42351205955908577 0 -0.3818589420420111 0.42377357645408209 0 -0.38538277475884702 0.4169586788766132 0 -0.39587991958026858 0.41480761064680699 0 -0.39027939358509778 0.42351205955908577 0 -0.38538277475884702 0.4169586788766132 0 -0.38538277475884702 0.4169586788766132 0 -0.37773408284538201 0.41782628711634717 0 -0.380135510113286 0.41074486547501488 0 -0.3818589420420111 0.42377357645408209 0 -0.38538277475884702 0.4169586788766132 0 -0.37773408284538201 0.41782628711634717 0 -0.37773408284538201 0.41782628711634717 0 -0.380135510113286 0.41074486547501488 0 -0.37314907036103928 0.41220867505892828 0 -0.380135510113286 0.41074486547501488 0 -0.37473002140687978 0.40611281246880448 0 -0.37314907036103928 0.41220867505892828 0 -0.38190537168149458 0.4018193431481652 0 -0.36986267214773322 0.39826939991460819 0 -0.37473002140687978 0.40611281246880448 0 -0.380135510113286 0.41074486547501488 0 -0.38190537168149458 0.4018193431481652 0 -0.37473002140687978 0.40611281246880448 0 -0.3877035053983926 0.40956052159021011 0 -0.38190537168149458 0.4018193431481652 0 -0.39339814839268877 0.40362144337074479 0 -0.38190537168149458 0.4018193431481652 0 -0.38944458822061478 0.39293821563751452 0 -0.39339814839268877 0.40362144337074479 0 -0.38190537168149458 0.4018193431481652 0 -0.38944458822061478 0.39293821563751452 0 -0.37782064618846761 0.3910497352711762 0 -0.38190537168149458 0.4018193431481652 0 -0.37782064618846761 0.3910497352711762 0 -0.36986267214773322 0.39826939991460819 0 -0.37782064618846761 0.3910497352711762 0 -0.38310376077606589 0.38112984221139179 0 -0.37312837600072302 0.37959583673975472 0 -0.38310376077606589 0.38112984221139179 0 -0.37612665915839061 0.36932049556565438 0 -0.37312837600072302 0.37959583673975472 0 -0.38310376077606589 0.38112984221139179 0 -0.39427090170379397 0.38335392226124498 0 -0.38703161031401428 0.37227960401726951 0 -0.38944458822061478 0.39293821563751452 0 -0.37782064618846761 0.3910497352711762 0 -0.38310376077606589 0.38112984221139179 0 -0.38944458822061478 0.39293821563751452 0 -0.38310376077606589 0.38112984221139179 0 -0.39427090170379397 0.38335392226124498 0 -0.38944458822061478 0.39293821563751452 0 -0.39427090170379397 0.38335392226124498 0 -0.40151505335888882 0.39395809793899172 0 -0.39427090170379397 0.38335392226124498 0 -0.40379524868008743 0.3784810786223512 0 -0.39787688065107951 0.3679909687712456 0 -0.41081065472881417 0.38694542713787689 0 -0.40379524868008743 0.3784810786223512 0 -0.40151505335888882 0.39395809793899172 0 -0.39427090170379397 0.38335392226124498 0 -0.40379524868008743 0.3784810786223512 0 -0.40151505335888882 0.39395809793899172 0 -0.40738369843392752 0.41115403852479371 0 -0.40151505335888882 0.39395809793899172 0 -0.39339814839268877 0.40362144337074479 0 -0.38944458822061478 0.39293821563751452 0 -0.40151505335888882 0.39395809793899172 0 -0.39339814839268877 0.40362144337074479 0 -0.39425760043182201 0.35284903796786798 0 -0.40561316397180031 0.34575477918514919 0 -0.40772579010091992 0.36215427845471898 0 -0.39425760043182201 0.35284903796786798 0 -0.40561316397180031 0.34575477918514919 0 -0.39133015205378707 0.34060994629858771 0 -0.39425760043182201 0.35284903796786798 0 -0.39787688065107951 0.3679909687712456 0 -0.40772579010091992 0.36215427845471898 0 -0.40379524868008743 0.3784810786223512 0 -0.39787688065107951 0.3679909687712456 0 -0.41338686564199029 0.37255203634427841 0 -0.39427090170379397 0.38335392226124498 0 -0.39787688065107951 0.3679909687712456 0 -0.38703161031401428 0.37227960401726951 0 -0.39425760043182201 0.35284903796786798 0 -0.39787688065107951 0.3679909687712456 0 -0.38377984928074149 0.35960279127681072 0 -0.39787688065107951 0.3679909687712456 0 -0.38377984928074149 0.35960279127681072 0 -0.38703161031401428 0.37227960401726951 0 -0.38310376077606589 0.38112984221139179 0 -0.38703161031401428 0.37227960401726951 0 -0.37612665915839061 0.36932049556565438 0 -0.38377984928074149 0.35960279127681072 0 -0.37612665915839061 0.36932049556565438 0 -0.36865939452984198 0.35615258012565593 0 -0.38377984928074149 0.35960279127681072 0 -0.38703161031401428 0.37227960401726951 0 -0.37612665915839061 0.36932049556565438 0 -0.38377984928074149 0.35960279127681072 0 -0.37929051534455333 0.34441744710754801 0 -0.36865939452984198 0.35615258012565593 0 -0.39425760043182201 0.35284903796786798 0 -0.38377984928074149 0.35960279127681072 0 -0.37929051534455333 0.34441744710754801 0 -0.39425760043182201 0.35284903796786798 0 -0.37929051534455333 0.34441744710754801 0 -0.39133015205378707 0.34060994629858771 0 -0.37929051534455333 0.34441744710754801 0 -0.3851338447775855 0.3287143045194264 0 -0.37087714182678999 0.32786519271641767 0 -0.37929051534455333 0.34441744710754801 0 -0.3851338447775855 0.3287143045194264 0 -0.39133015205378707 0.34060994629858771 0 -0.3851338447775855 0.3287143045194264 0 -0.38583213547516271 0.31473299970648688 0 -0.37312469192333431 0.31448100794429701 0 -0.3851338447775855 0.3287143045194264 0 -0.37087714182678999 0.32786519271641767 0 -0.37312469192333431 0.31448100794429701 0 -0.3851338447775855 0.3287143045194264 0 -0.38583213547516271 0.31473299970648688 0 -0.3953733875206259 0.32192749795402881 0 -0.41805450146682072 0.32033792020882312 0 -0.39415841018097092 0.31003968378602081 0 -0.3953733875206259 0.32192749795402881 0 -0.40228178343085208 0.33219581211748428 0 -0.41805450146682072 0.32033792020882312 0 -0.3851338447775855 0.3287143045194264 0 -0.3953733875206259 0.32192749795402881 0 -0.40228178343085208 0.33219581211748428 0 -0.3953733875206259 0.32192749795402881 0 -0.41805450146682072 0.32033792020882312 0 -0.39415841018097092 0.31003968378602081 0 -0.38583213547516271 0.31473299970648688 0 -0.3953733875206259 0.32192749795402881 0 -0.39415841018097092 0.31003968378602081 0 -0.3851338447775855 0.3287143045194264 0 -0.39133015205378707 0.34060994629858771 0 -0.40228178343085208 0.33219581211748428 0 -0.40561316397180031 0.34575477918514919 0 -0.39133015205378707 0.34060994629858771 0 -0.40228178343085208 0.33219581211748428 0 -0.40561316397180031 0.34575477918514919 0 -0.40228178343085208 0.33219581211748428 0 -0.42055036917354671 0.33874346949657841 0 -0.40228178343085208 0.33219581211748428 0 -0.42055036917354671 0.33874346949657841 0 -0.41805450146682072 0.32033792020882312 0 -0.41805450146682072 0.32033792020882312 0 -0.44195059275267118 0.33063615663162371 0 -0.41805450146682072 0.32033792020882312 0 -0.4364648529071965 0.31256390574318182 0 -0.44195059275267118 0.33063615663162371 0 -0.41805450146682072 0.32033792020882312 0 -0.4364648529071965 0.31256390574318182 0 -0.4265767020830814 0.30620409484255412 0 -0.42055036917354671 0.33874346949657841 0 -0.41805450146682072 0.32033792020882312 0 -0.44195059275267118 0.33063615663162371 0 -0.42055036917354671 0.33874346949657841 0 -0.43416584807537711 0.34265462924979589 0 -0.44195059275267118 0.33063615663162371 0 -0.42055036917354671 0.33874346949657841 0 -0.43416584807537711 0.34265462924979589 0 -0.42607008471258923 0.34954553421976198 0 -0.43416584807537711 0.34265462924979589 0 -0.42607008471258923 0.34954553421976198 0 -0.43822070131790619 0.35404145003122078 0 -0.42607008471258923 0.34954553421976198 0 -0.42413229487293158 0.36101266460234022 0 -0.43822070131790619 0.35404145003122078 0 -0.42607008471258923 0.34954553421976198 0 -0.4155540152733545 0.35291452525394401 0 -0.42413229487293158 0.36101266460234022 0 -0.40561316397180031 0.34575477918514919 0 -0.4155540152733545 0.35291452525394401 0 -0.40772579010091992 0.36215427845471898 0 -0.4155540152733545 0.35291452525394401 0 -0.40772579010091992 0.36215427845471898 0 -0.42413229487293158 0.36101266460234022 0 -0.42055036917354671 0.33874346949657841 0 -0.42607008471258923 0.34954553421976198 0 -0.4155540152733545 0.35291452525394401 0 -0.40561316397180031 0.34575477918514919 0 -0.42055036917354671 0.33874346949657841 0 -0.4155540152733545 0.35291452525394401 0 -0.41338686564199029 0.37255203634427841 0 -0.40772579010091992 0.36215427845471898 0 -0.42413229487293158 0.36101266460234022 0 -0.39787688065107951 0.3679909687712456 0 -0.41338686564199029 0.37255203634427841 0 -0.40772579010091992 0.36215427845471898 0 -0.41338686564199029 0.37255203634427841 0 -0.4272860420887698 0.37194294085194612 0 -0.42413229487293158 0.36101266460234022 0 -0.4272860420887698 0.37194294085194612 0 -0.42413229487293158 0.36101266460234022 0 -0.43571491731080791 0.36764570309990618 0 -0.42413229487293158 0.36101266460234022 0 -0.43571491731080791 0.36764570309990618 0 -0.43822070131790619 0.35404145003122078 0 -0.43457897479931429 0.37904995266483837 0 -0.4272860420887698 0.37194294085194612 0 -0.43571491731080791 0.36764570309990618 0 -0.43457897479931429 0.37904995266483837 0 -0.43571491731080791 0.36764570309990618 0 -0.44366460749211339 0.37473469742480392 0 -0.43571491731080791 0.36764570309990618 0 -0.44366460749211339 0.37473469742480392 0 -0.44640688329381251 0.3650925130242878 0 -0.43571491731080791 0.36764570309990618 0 -0.44640688329381251 0.3650925130242878 0 -0.43822070131790619 0.35404145003122078 0 -0.44640688329381251 0.3650925130242878 0 -0.45425783425967958 0.35002880333645431 0 -0.45656699080369212 0.36511268500132099 0 -0.45299540083471551 0.37659621775906399 0 -0.44640688329381251 0.3650925130242878 0 -0.45656699080369212 0.36511268500132099 0 -0.45299540083471551 0.37659621775906399 0 -0.44366460749211339 0.37473469742480392 0 -0.44640688329381251 0.3650925130242878 0 -0.44640688329381251 0.3650925130242878 0 -0.43822070131790619 0.35404145003122078 0 -0.45425783425967958 0.35002880333645431 0 -0.43822070131790619 0.35404145003122078 0 -0.45425783425967958 0.35002880333645431 0 -0.4446341987069381 0.34306774774196319 0 -0.43416584807537711 0.34265462924979589 0 -0.43822070131790619 0.35404145003122078 0 -0.4446341987069381 0.34306774774196319 0 -0.45425783425967958 0.35002880333645431 0 -0.46508027312441852 0.35638450335693778 0 -0.45656699080369212 0.36511268500132099 0 -0.45425783425967958 0.35002880333645431 0 -0.45656699080369212 0.36511268500132099 0 -0.45425783425967958 0.35002880333645431 0 -0.46508027312441852 0.35638450335693778 0 -0.46818956994151328 0.34194408090053158 0 -0.4652352923582988 0.37682054059297021 0 -0.46508027312441852 0.35638450335693778 0 -0.45656699080369212 0.36511268500132099 0 -0.4652352923582988 0.37682054059297021 0 -0.45299540083471551 0.37659621775906399 0 -0.45656699080369212 0.36511268500132099 0 -0.4652352923582988 0.37682054059297021 0 -0.46508027312441852 0.35638450335693778 0 -0.47695710781164802 0.36038403260812302 0 -0.4652352923582988 0.37682054059297021 0 -0.47695710781164802 0.36038403260812302 0 -0.48610491715569992 0.37200189217170881 0 -0.46508027312441852 0.35638450335693778 0 -0.47695710781164802 0.36038403260812302 0 -0.48145593692314198 0.34716109742383511 0 -0.46508027312441852 0.35638450335693778 0 -0.48145593692314198 0.34716109742383511 0 -0.46818956994151328 0.34194408090053158 0 -0.47695710781164802 0.36038403260812302 0 -0.48145593692314198 0.34716109742383511 0 -0.5 0.35195275676091969 0 -0.48145593692314198 0.34716109742383511 0 -0.5 0.35195275676091969 0 -0.48414866801890782 0.33316242057416262 0 -0.49999999999999889 0.3797178154479447 0 -0.5 0.35195275676091969 0 -0.48610491715569992 0.37200189217170881 0 -0.47695710781164802 0.36038403260812302 0 -0.5 0.35195275676091969 0 -0.48610491715569992 0.37200189217170881 0 -0.5 0.32418769807389469 0 -0.48414866801890782 0.33316242057416262 0 -0.47411174631489011 0.31721379959605589 0 -0.5 0.32418769807389469 0 -0.47411174631489011 0.31721379959605589 0 -0.48456576614336933 0.30405286451095609 0 -0.5 0.35195275676091969 0 -0.5 0.32418769807389469 0 -0.48414866801890782 0.33316242057416262 0 -0.48145593692314198 0.34716109742383511 0 -0.48414866801890782 0.33316242057416262 0 -0.46818956994151328 0.34194408090053158 0 -0.48414866801890782 0.33316242057416262 0 -0.46558050877473989 0.32924804784806111 0 -0.46818956994151328 0.34194408090053158 0 -0.48414866801890782 0.33316242057416262 0 -0.47411174631489011 0.31721379959605589 0 -0.46558050877473989 0.32924804784806111 0 -0.47411174631489011 0.31721379959605589 0 -0.46558050877473989 0.32924804784806111 0 -0.44950388188272111 0.31897501649796761 0 -0.46558050877473989 0.32924804784806111 0 -0.45194867771566688 0.33494492167158751 0 -0.44950388188272111 0.31897501649796761 0 -0.46558050877473989 0.32924804784806111 0 -0.46818956994151328 0.34194408090053158 0 -0.45194867771566688 0.33494492167158751 0 -0.45425783425967958 0.35002880333645431 0 -0.46818956994151328 0.34194408090053158 0 -0.45194867771566688 0.33494492167158751 0 -0.46818956994151328 0.34194408090053158 0 -0.45194867771566688 0.33494492167158751 0 -0.45194867771566688 0.33494492167158751 0 -0.44195059275267118 0.33063615663162371 0 -0.44950388188272111 0.31897501649796761 0 -0.45425783425967958 0.35002880333645431 0 -0.45194867771566688 0.33494492167158751 0 -0.45194867771566688 0.33494492167158751 0 -0.44195059275267118 0.33063615663162371 0 -0.4446341987069381 0.34306774774196319 0 -0.45425783425967958 0.35002880333645431 0 -0.45194867771566688 0.33494492167158751 0 -0.4446341987069381 0.34306774774196319 0 -0.45194867771566688 0.33494492167158751 0 -0.44195059275267118 0.33063615663162371 0 -0.43416584807537711 0.34265462924979589 0 -0.44195059275267118 0.33063615663162371 0 -0.43416584807537711 0.34265462924979589 0 -0.44195059275267118 0.33063615663162371 0 -0.4446341987069381 0.34306774774196319 0 -0.4364648529071965 0.31256390574318182 0 -0.44195059275267118 0.33063615663162371 0 -0.44950388188272111 0.31897501649796761 0 -0.45194867771566688 0.33494492167158751 0 -0.44950388188272111 0.31897501649796761 0 -0.44195059275267118 0.33063615663162371 0 -0.44950388188272111 0.31897501649796761 0 -0.4364648529071965 0.31256390574318182 0 -0.44950388188272111 0.31897501649796761 0 -0.44714209646298442 0.30354735227940849 0 -0.4364648529071965 0.31256390574318182 0 -0.44714209646298442 0.30354735227940849 0 -0.43557426336139238 0.29795728598721632 0 -0.44950388188272111 0.31897501649796761 0 -0.44714209646298442 0.30354735227940849 0 -0.44478031104324789 0.28811968806084931 0 -0.43830931682563418 0.28515290543917671 0 -0.46038477014796558 0.27270951626575451 0 -0.44714209646298442 0.30354735227940849 0 -0.44478031104324789 0.28811968806084931 0 -0.46551207860427218 0.29426077320037541 0 -0.44478031104324789 0.28811968806084931 0 -0.43830931682563418 0.28515290543917671 0 -0.43557426336139238 0.29795728598721632 0 -0.44714209646298442 0.30354735227940849 0 -0.44478031104324789 0.28811968806084931 0 -0.43557426336139238 0.29795728598721632 0 -0.44714209646298442 0.30354735227940849 0 -0.44478031104324789 0.28811968806084931 0 -0.44478031104324789 0.28811968806084931 0 -0.46551207860427218 0.29426077320037541 0 -0.46038477014796558 0.27270951626575451 0 -0.44950388188272111 0.31897501649796761 0 -0.44714209646298442 0.30354735227940849 0 -0.46551207860427218 0.29426077320037541 0 -0.44950388188272111 0.31897501649796761 0 -0.46551207860427218 0.29426077320037541 0 -0.47411174631489011 0.31721379959605589 0 -0.44950388188272111 0.31897501649796761 0 -0.46551207860427218 0.29426077320037541 0 -0.47411174631489011 0.31721379959605589 0 -0.46551207860427218 0.29426077320037541 0 -0.48456576614336933 0.30405286451095609 0 -0.46551207860427218 0.29426077320037541 0 -0.48152027532582309 0.26954652990278283 0 -0.46551207860427218 0.29426077320037541 0 -0.48320500579768411 0.28817941229758509 0 -0.48456576614336933 0.30405286451095609 0 -0.46551207860427218 0.29426077320037541 0 -0.48320500579768411 0.28817941229758509 0 -0.48152027532582309 0.26954652990278283 0 -0.48320500579768411 0.28817941229758509 0 -0.5 0.29642263938686958 0 -0.5 0.26865758069984458 0 -0.48320500579768411 0.28817941229758509 0 -0.5 0.29642263938686958 0 -0.48456576614336933 0.30405286451095609 0 -0.5 0.32418769807389469 0 -0.5 0.29642263938686958 0 -0.48456576614336933 0.30405286451095609 0 -0.5 0.2408925220128196 0 -0.5 0.26865758069984458 0 -0.48359338383118872 0.25165714750028401 0 -0.5 0.26865758069984458 0 -0.48152027532582309 0.26954652990278283 0 -0.48359338383118872 0.25165714750028401 0 -0.48320500579768411 0.28817941229758509 0 -0.5 0.26865758069984458 0 -0.48152027532582309 0.26954652990278283 0 -0.46551207860427218 0.29426077320037541 0 -0.48152027532582309 0.26954652990278283 0 -0.46038477014796558 0.27270951626575451 0 -0.48152027532582309 0.26954652990278283 0 -0.46952870814197062 0.25858672255271131 0 -0.46038477014796558 0.27270951626575451 0 -0.48152027532582309 0.26954652990278283 0 -0.48359338383118872 0.25165714750028401 0 -0.46952870814197062 0.25858672255271131 0 -0.46679894975526193 0.24337328335867059 0 -0.48359338383118872 0.25165714750028401 0 -0.46952870814197062 0.25858672255271131 0 -0.46679894975526193 0.24337328335867059 0 -0.46952870814197062 0.25858672255271131 0 -0.45534616164961361 0.25564713573606468 0 -0.46952870814197062 0.25858672255271131 0 -0.45534616164961361 0.25564713573606468 0 -0.46038477014796558 0.27270951626575451 0 -0.43830931682563418 0.28515290543917671 0 -0.46038477014796558 0.27270951626575451 0 -0.43830931682563418 0.28515290543917671 0 -0.46038477014796558 0.27270951626575451 0 -0.43823227947798071 0.26791843810621607 0 -0.44183483748243452 0.2459604683899565 0 -0.45534616164961361 0.25564713573606468 0 -0.43823227947798071 0.26791843810621607 0 -0.45534616164961361 0.25564713573606468 0 -0.46038477014796558 0.27270951626575451 0 -0.43823227947798071 0.26791843810621607 0 -0.44183483748243452 0.2459604683899565 0 -0.43823227947798071 0.26791843810621607 0 -0.42744724339512319 0.25418522124651738 0 -0.43823227947798071 0.26791843810621607 0 -0.42291921221482892 0.26530594554166881 0 -0.42744724339512319 0.25418522124651738 0 -0.42291921221482892 0.26530594554166881 0 -0.42744724339512319 0.25418522124651738 0 -0.40868088726265939 0.25984379596385471 0 -0.41953635959006103 0.24155842677898079 0 -0.42744724339512319 0.25418522124651738 0 -0.40868088726265939 0.25984379596385471 0 -0.40868088726265939 0.25984379596385471 0 -0.41731643872355229 0.27927632685008708 0 -0.39302169820313893 0.27102951338145392 0 -0.42291921221482892 0.26530594554166881 0 -0.40868088726265939 0.25984379596385471 0 -0.41731643872355229 0.27927632685008708 0 -0.43823227947798071 0.26791843810621607 0 -0.42291921221482892 0.26530594554166881 0 -0.41731643872355229 0.27927632685008708 0 -0.43823227947798071 0.26791843810621607 0 -0.41731643872355229 0.27927632685008708 0 -0.43830931682563418 0.28515290543917671 0 -0.43823227947798071 0.26791843810621607 0 -0.41731643872355229 0.27927632685008708 0 -0.43830931682563418 0.28515290543917671 0 -0.41731643872355229 0.27927632685008708 0 -0.41623386350330271 0.29759629461259901 0 -0.43830931682563418 0.28515290543917671 0 -0.41623386350330271 0.29759629461259901 0 -0.43830931682563418 0.28515290543917671 0 -0.43557426336139238 0.29795728598721632 0 -0.41623386350330271 0.29759629461259901 0 -0.43557426336139238 0.29795728598721632 0 -0.4265767020830814 0.30620409484255412 0 -0.41623386350330271 0.29759629461259901 0 -0.4364648529071965 0.31256390574318182 0 -0.43557426336139238 0.29795728598721632 0 -0.4265767020830814 0.30620409484255412 0 -0.41805450146682072 0.32033792020882312 0 -0.4265767020830814 0.30620409484255412 0 -0.41623386350330271 0.29759629461259901 0 -0.41805450146682072 0.32033792020882312 0 -0.41623386350330271 0.29759629461259901 0 -0.39415841018097092 0.31003968378602081 0 -0.41731643872355229 0.27927632685008708 0 -0.39640059796912391 0.29063421559395819 0 -0.41731643872355229 0.27927632685008708 0 -0.41623386350330271 0.29759629461259901 0 -0.39640059796912391 0.29063421559395819 0 -0.41623386350330271 0.29759629461259901 0 -0.39415841018097092 0.31003968378602081 0 -0.41623386350330271 0.29759629461259901 0 -0.39640059796912391 0.29063421559395819 0 -0.39415841018097092 0.31003968378602081 0 -0.38583213547516271 0.31473299970648688 0 -0.39415841018097092 0.31003968378602081 0 -0.37548475721469537 0.30199210433782941 0 -0.39415841018097092 0.31003968378602081 0 -0.37548475721469537 0.30199210433782941 0 -0.39640059796912391 0.29063421559395819 0 -0.39415841018097092 0.31003968378602081 0 -0.37548475721469537 0.30199210433782941 0 -0.38583213547516271 0.31473299970648688 0 -0.39415841018097092 0.31003968378602081 0 -0.38583213547516271 0.31473299970648688 0 -0.37548475721469537 0.30199210433782941 0 -0.37312469192333431 0.31448100794429701 0 -0.39640059796912391 0.29063421559395819 0 -0.37548475721469537 0.30199210433782941 0 -0.39640059796912391 0.29063421559395819 0 -0.37548475721469537 0.30199210433782941 0 -0.37294360532210691 0.28035251092691937 0 -0.39640059796912391 0.29063421559395819 0 -0.39302169820313893 0.27102951338145392 0 -0.37294360532210691 0.28035251092691937 0 -0.37648770391828212 0.26298159895773532 0 -0.39302169820313893 0.27102951338145392 0 -0.37294360532210691 0.28035251092691937 0 -0.36825714865980769 0.24773254399152009 0 -0.39028235366146108 0.25013208232574202 0 -0.37648770391828212 0.26298159895773532 0 -0.39028235366146108 0.25013208232574202 0 -0.37648770391828212 0.26298159895773532 0 -0.39302169820313893 0.27102951338145392 0 -0.4067830915969341 0.24534087608109109 0 -0.40868088726265939 0.25984379596385471 0 -0.39028235366146108 0.25013208232574202 0 -0.40868088726265939 0.25984379596385471 0 -0.39028235366146108 0.25013208232574202 0 -0.39302169820313893 0.27102951338145392 0 -0.41731643872355229 0.27927632685008708 0 -0.39640059796912391 0.29063421559395819 0 -0.39302169820313893 0.27102951338145392 0 -0.35305099538380008 0.27818554818338059 0 -0.35953906541907049 0.26313059047348442 0 -0.33641867756330762 0.26324013528649992 0 -0.36825714865980769 0.24773254399152009 0 -0.34796663495934771 0.25003234052934198 0 -0.35953906541907049 0.26313059047348442 0 -0.34796663495934771 0.25003234052934198 0 -0.35953906541907049 0.26313059047348442 0 -0.33641867756330762 0.26324013528649992 0 -0.36825714865980769 0.24773254399152009 0 -0.37648770391828212 0.26298159895773532 0 -0.35953906541907049 0.26313059047348442 0 -0.37648770391828212 0.26298159895773532 0 -0.35953906541907049 0.26313059047348442 0 -0.37294360532210691 0.28035251092691937 0 -0.35305099538380008 0.27818554818338059 0 -0.35953906541907049 0.26313059047348442 0 -0.37294360532210691 0.28035251092691937 0 -0.35305099538380008 0.27818554818338059 0 -0.37294360532210691 0.28035251092691937 0 -0.35710309576872962 0.29407036127324021 0 -0.37548475721469537 0.30199210433782941 0 -0.37294360532210691 0.28035251092691937 0 -0.35710309576872962 0.29407036127324021 0 -0.37548475721469537 0.30199210433782941 0 -0.35941207903207339 0.31072001983296021 0 -0.37548475721469537 0.30199210433782941 0 -0.35941207903207339 0.31072001983296021 0 -0.37312469192333431 0.31448100794429701 0 -0.37548475721469537 0.30199210433782941 0 -0.35941207903207339 0.31072001983296021 0 -0.35710309576872962 0.29407036127324021 0 -0.37548475721469537 0.30199210433782941 0 -0.35710309576872962 0.29407036127324021 0 -0.35941207903207339 0.31072001983296021 0 -0.35710309576872962 0.29407036127324021 0 -0.34255556562327288 0.30277024860035479 0 -0.35941207903207339 0.31072001983296021 0 -0.34255556562327288 0.30277024860035479 0 -0.3433394008494513 0.31944793532809101 0 -0.35710309576872962 0.29407036127324021 0 -0.3387214343227638 0.28614861820865062 0 -0.34255556562327288 0.30277024860035479 0 -0.35305099538380008 0.27818554818338059 0 -0.35710309576872962 0.29407036127324021 0 -0.3387214343227638 0.28614861820865062 0 -0.35710309576872962 0.29407036127324021 0 -0.3387214343227638 0.28614861820865062 0 -0.3387214343227638 0.28614861820865062 0 -0.34255556562327288 0.30277024860035479 0 -0.32383009437528743 0.29513274070126999 0 -0.3387214343227638 0.28614861820865062 0 -0.32383009437528743 0.29513274070126999 0 -0.32520951545803678 0.2760697862246092 0 -0.32989225258677818 0.31195431790270017 0 -0.34255556562327288 0.30277024860035479 0 -0.32383009437528743 0.29513274070126999 0 -0.32989225258677818 0.31195431790270017 0 -0.34255556562327288 0.30277024860035479 0 -0.3433394008494513 0.31944793532809101 0 -0.31362207304563328 0.30927585958100529 0 -0.32383009437528743 0.29513274070126999 0 -0.30024433054957628 0.29422866790555829 0 -0.32989225258677818 0.31195431790270017 0 -0.31362207304563328 0.30927585958100529 0 -0.32383009437528743 0.29513274070126999 0 -0.32383009437528743 0.29513274070126999 0 -0.32520951545803678 0.2760697862246092 0 -0.30877077252241952 0.27882743090047218 0 -0.32520951545803678 0.2760697862246092 0 -0.33641867756330762 0.26324013528649992 0 -0.31602200747864551 0.26021566252272299 0 -0.32520951545803678 0.2760697862246092 0 -0.31602200747864551 0.26021566252272299 0 -0.30877077252241952 0.27882743090047218 0 -0.35305099538380008 0.27818554818338059 0 -0.3387214343227638 0.28614861820865062 0 -0.33641867756330762 0.26324013528649992 0 -0.3387214343227638 0.28614861820865062 0 -0.32520951545803678 0.2760697862246092 0 -0.33641867756330762 0.26324013528649992 0 -0.32556950702892812 0.24128123437957871 0 -0.34796663495934771 0.25003234052934198 0 -0.33641867756330762 0.26324013528649992 0 -0.32556950702892812 0.24128123437957871 0 -0.299141622597701 0.24953713562016919 0 -0.31602200747864551 0.26021566252272299 0 -0.32556950702892812 0.24128123437957871 0 -0.33641867756330762 0.26324013528649992 0 -0.31602200747864551 0.26021566252272299 0 -0.299141622597701 0.24953713562016919 0 -0.31602200747864551 0.26021566252272299 0 -0.2899726003974924 0.27095610213999671 0 -0.31602200747864551 0.26021566252272299 0 -0.30877077252241952 0.27882743090047218 0 -0.2899726003974924 0.27095610213999671 0 -0.299141622597701 0.24953713562016919 0 -0.2899726003974924 0.27095610213999671 0 -0.27271373816647387 0.25779303686075961 0 -0.299141622597701 0.24953713562016919 0 -0.27271373816647387 0.25779303686075961 0 -0.2899726003974924 0.27095610213999671 0 -0.26448612630065771 0.27729003481456183 0 -0.27916030021299659 0.28861122796630451 0 -0.2899726003974924 0.27095610213999671 0 -0.27271373816647387 0.25779303686075961 0 -0.26448612630065771 0.27729003481456183 0 -0.26448612630065771 0.27729003481456183 0 -0.24777528374542379 0.29033649728412347 0 -0.24962755378818399 0.26087030131514671 0 -0.26473466915209137 0.242475988343923 0 -0.27271373816647387 0.25779303686075961 0 -0.24962755378818399 0.26087030131514671 0 -0.27271373816647387 0.25779303686075961 0 -0.26448612630065771 0.27729003481456183 0 -0.24962755378818399 0.26087030131514671 0 -0.26177637843935742 0.29622568110352859 0 -0.25088383685196508 0.31287664005578197 0 -0.24777528374542379 0.29033649728412347 0 -0.26177637843935742 0.29622568110352859 0 -0.26657634508574513 0.31201400539687152 0 -0.25088383685196508 0.31287664005578197 0 -0.26448612630065771 0.27729003481456183 0 -0.26177637843935742 0.29622568110352859 0 -0.24777528374542379 0.29033649728412347 0 -0.26448612630065771 0.27729003481456183 0 -0.26177637843935742 0.29622568110352859 0 -0.27916030021299659 0.28861122796630451 0 -0.27916030021299659 0.28861122796630451 0 -0.26657634508574513 0.31201400539687152 0 -0.26177637843935742 0.29622568110352859 0 -0.27916030021299659 0.28861122796630451 0 -0.26657634508574513 0.31201400539687152 0 -0.27916030021299659 0.28861122796630451 0 -0.26657634508574513 0.31201400539687152 0 -0.28932273182480062 0.31481394622250791 0 -0.27916030021299659 0.28861122796630451 0 -0.30024433054957628 0.29422866790555829 0 -0.28932273182480062 0.31481394622250791 0 -0.2899726003974924 0.27095610213999671 0 -0.27916030021299659 0.28861122796630451 0 -0.30024433054957628 0.29422866790555829 0 -0.32383009437528743 0.29513274070126999 0 -0.30877077252241952 0.27882743090047218 0 -0.30024433054957628 0.29422866790555829 0 -0.30877077252241952 0.27882743090047218 0 -0.2899726003974924 0.27095610213999671 0 -0.30024433054957628 0.29422866790555829 0 -0.31362207304563328 0.30927585958100529 0 -0.30024433054957628 0.29422866790555829 0 -0.28932273182480062 0.31481394622250791 0 -0.31362207304563328 0.30927585958100529 0 -0.30524749281578217 0.32804331725105812 0 -0.28932273182480062 0.31481394622250791 0 -0.30524749281578217 0.32804331725105812 0 -0.29041175566477972 0.33918745044585052 0 -0.31071766822436803 0.34987228238539481 0 -0.29041175566477972 0.33918745044585052 0 -0.28932273182480062 0.31481394622250791 0 -0.27458163376161271 0.32988845639575171 0 -0.30524749281578217 0.32804331725105812 0 -0.29041175566477972 0.33918745044585052 0 -0.28932273182480062 0.31481394622250791 0 -0.26657634508574513 0.31201400539687152 0 -0.28932273182480062 0.31481394622250791 0 -0.27458163376161271 0.32988845639575171 0 -0.27458163376161271 0.32988845639575171 0 -0.25399238995849932 0.33541678282744147 0 -0.27313586973795939 0.34796737762965718 0 -0.29041175566477972 0.33918745044585052 0 -0.27458163376161271 0.32988845639575171 0 -0.27313586973795939 0.34796737762965718 0 -0.25399238995849932 0.33541678282744147 0 -0.25088383685196508 0.31287664005578197 0 -0.26657634508574513 0.31201400539687152 0 -0.25399238995849932 0.33541678282744147 0 -0.25088383685196508 0.31287664005578197 0 -0.26657634508574513 0.31201400539687152 0 -0.27458163376161271 0.32988845639575171 0 -0.25399238995849932 0.33541678282744147 0 -0.26657634508574513 0.31201400539687152 0 -0.25399238995849932 0.33541678282744147 0 -0.25168980356281478 0.36611571363862611 0 -0.25689055470175481 0.35643139793928391 0 -0.25978871944500498 0.37744601305112702 0 -0.25689055470175481 0.35643139793928391 0 -0.2773148673347321 0.3666310303998595 0 -0.25978871944500498 0.37744601305112702 0 -0.25689055470175481 0.35643139793928391 0 -0.25978871944500498 0.37744601305112702 0 -0.25168980356281478 0.36611571363862611 0 -0.25978871944500498 0.37744601305112702 0 -0.24653654808961289 0.37292736348013872 0 -0.25168980356281478 0.36611571363862611 0 -0.25689055470175481 0.35643139793928391 0 -0.24354339201488651 0.35765808008395472 0 -0.25399238995849932 0.33541678282744147 0 -0.25689055470175481 0.35643139793928391 0 -0.27313586973795939 0.34796737762965718 0 -0.25399238995849932 0.33541678282744147 0 -0.25689055470175481 0.35643139793928391 0 -0.25399238995849932 0.33541678282744147 0 -0.25689055470175481 0.35643139793928391 0 -0.2437433409425481 0.35447726187156148 0 -0.25689055470175481 0.35643139793928391 0 -0.27313586973795939 0.34796737762965718 0 -0.2773148673347321 0.3666310303998595 0 -0.2773148673347321 0.3666310303998595 0 -0.2939609641838497 0.358199550333681 0 -0.29587125153975119 0.37549905754498308 0 -0.27313586973795939 0.34796737762965718 0 -0.2773148673347321 0.3666310303998595 0 -0.2939609641838497 0.358199550333681 0 -0.29041175566477972 0.33918745044585052 0 -0.27313586973795939 0.34796737762965718 0 -0.2939609641838497 0.358199550333681 0 -0.2939609641838497 0.358199550333681 0 -0.31071766822436803 0.34987228238539481 0 -0.31631437260150791 0.37004010359634132 0 -0.29041175566477972 0.33918745044585052 0 -0.2939609641838497 0.358199550333681 0 -0.31071766822436803 0.34987228238539481 0 -0.2939609641838497 0.358199550333681 0 -0.31631437260150791 0.37004010359634132 0 -0.29587125153975119 0.37549905754498308 0 -0.31631437260150791 0.37004010359634132 0 -0.33437315767365972 0.35846435648398911 0 -0.33066241767514931 0.37714359316989648 0 -0.31071766822436803 0.34987228238539481 0 -0.31631437260150791 0.37004010359634132 0 -0.33437315767365972 0.35846435648398911 0 -0.33437315767365972 0.35846435648398911 0 -0.34474869998767288 0.38305860493548111 0 -0.33437315767365972 0.35846435648398911 0 -0.34474869998767288 0.38305860493548111 0 -0.33066241767514931 0.37714359316989648 0 -0.33437315767365972 0.35846435648398911 0 -0.32399761535964661 0.33387010803249728 0 -0.33437315767365972 0.35846435648398911 0 -0.34084090521983818 0.3428775148871247 0 -0.35338106573630568 0.36031271786451319 0 -0.33437315767365972 0.35846435648398911 0 -0.32399761535964661 0.33387010803249728 0 -0.34084090521983818 0.3428775148871247 0 -0.31071766822436803 0.34987228238539481 0 -0.33437315767365972 0.35846435648398911 0 -0.32399761535964661 0.33387010803249728 0 -0.30524749281578217 0.32804331725105812 0 -0.31071766822436803 0.34987228238539481 0 -0.32399761535964661 0.33387010803249728 0 -0.32989225258677818 0.31195431790270017 0 -0.31362207304563328 0.30927585958100529 0 -0.32399761535964661 0.33387010803249728 0 -0.31362207304563328 0.30927585958100529 0 -0.32399761535964661 0.33387010803249728 0 -0.31362207304563328 0.30927585958100529 0 -0.30524749281578217 0.32804331725105812 0 -0.32399761535964661 0.33387010803249728 0 -0.32989225258677818 0.31195431790270017 0 -0.32399761535964661 0.33387010803249728 0 -0.3433394008494513 0.31944793532809101 0 -0.32399761535964661 0.33387010803249728 0 -0.3433394008494513 0.31944793532809101 0 -0.34084090521983818 0.3428775148871247 0 -0.34084090521983818 0.3428775148871247 0 -0.35244640780615299 0.33626526831503062 0 -0.35613024625213541 0.34709799745030367 0 -0.3433394008494513 0.31944793532809101 0 -0.34084090521983818 0.3428775148871247 0 -0.35244640780615299 0.33626526831503062 0 -0.35244640780615299 0.33626526831503062 0 -0.35954503365696971 0.32471569557448599 0 -0.36532345796853782 0.33988190605919422 0 -0.35244640780615299 0.33626526831503062 0 -0.36532345796853782 0.33988190605919422 0 -0.35613024625213541 0.34709799745030367 0 -0.3433394008494513 0.31944793532809101 0 -0.35244640780615299 0.33626526831503062 0 -0.35954503365696971 0.32471569557448599 0 -0.35941207903207339 0.31072001983296021 0 -0.3433394008494513 0.31944793532809101 0 -0.35954503365696971 0.32471569557448599 0 -0.35941207903207339 0.31072001983296021 0 -0.3433394008494513 0.31944793532809101 0 -0.35941207903207339 0.31072001983296021 0 -0.35954503365696971 0.32471569557448599 0 -0.37312469192333431 0.31448100794429701 0 -0.35954503365696971 0.32471569557448599 0 -0.37087714182678999 0.32786519271641767 0 -0.37312469192333431 0.31448100794429701 0 -0.37929051534455333 0.34441744710754801 0 -0.37087714182678999 0.32786519271641767 0 -0.36532345796853782 0.33988190605919422 0 -0.35954503365696971 0.32471569557448599 0 -0.37087714182678999 0.32786519271641767 0 -0.36532345796853782 0.33988190605919422 0 -0.37929051534455333 0.34441744710754801 0 -0.36532345796853782 0.33988190605919422 0 -0.36865939452984198 0.35615258012565593 0 -0.36532345796853782 0.33988190605919422 0 -0.36865939452984198 0.35615258012565593 0 -0.35613024625213541 0.34709799745030367 0 -0.36865939452984198 0.35615258012565593 0 -0.35338106573630568 0.36031271786451319 0 -0.35613024625213541 0.34709799745030367 0 -0.37612665915839061 0.36932049556565438 0 -0.36865939452984198 0.35615258012565593 0 -0.36574322682427279 0.36993449523028182 0 -0.37612665915839061 0.36932049556565438 0 -0.36574322682427279 0.36993449523028182 0 -0.37312837600072302 0.37959583673975472 0 -0.36865939452984198 0.35615258012565593 0 -0.36574322682427279 0.36993449523028182 0 -0.35338106573630568 0.36031271786451319 0 -0.36574322682427279 0.36993449523028182 0 -0.35338106573630568 0.36031271786451319 0 -0.35742063869610308 0.38429084585583051 0 -0.35338106573630568 0.36031271786451319 0 -0.35742063869610308 0.38429084585583051 0 -0.33437315767365972 0.35846435648398911 0 -0.35338106573630568 0.36031271786451319 0 -0.34474869998767288 0.38305860493548111 0 -0.34084090521983818 0.3428775148871247 0 -0.35338106573630568 0.36031271786451319 0 -0.35613024625213541 0.34709799745030367 0 -0.34474869998767288 0.38305860493548111 0 -0.35512424230168599 0.40765285338697282 0 -0.35742063869610308 0.38429084585583051 0 -0.36146021165590048 0.40826897384714778 0 -0.35512424230168599 0.40765285338697282 0 -0.34474869998767288 0.38305860493548111 0 -0.35742063869610308 0.38429084585583051 0 -0.35512424230168599 0.40765285338697282 0 -0.34474869998767288 0.38305860493548111 0 -0.35512424230168599 0.40765285338697282 0 -0.34370788873517449 0.39706934061105342 0 -0.34574132551615488 0.40474804058496738 0 -0.35512424230168599 0.40765285338697282 0 -0.34370788873517449 0.39706934061105342 0 -0.35338106573630568 0.36031271786451319 0 -0.34474869998767288 0.38305860493548111 0 -0.35742063869610308 0.38429084585583051 0 -0.35742063869610308 0.38429084585583051 0 -0.37312837600072302 0.37959583673975472 0 -0.36955808325825668 0.38830145444534242 0 -0.35742063869610308 0.38429084585583051 0 -0.36955808325825668 0.38830145444534242 0 -0.36986267214773322 0.39826939991460819 0 -0.36574322682427279 0.36993449523028182 0 -0.35742063869610308 0.38429084585583051 0 -0.37312837600072302 0.37959583673975472 0 -0.37782064618846761 0.3910497352711762 0 -0.37312837600072302 0.37959583673975472 0 -0.36955808325825668 0.38830145444534242 0 -0.35742063869610308 0.38429084585583051 0 -0.36146021165590048 0.40826897384714778 0 -0.35742063869610308 0.38429084585583051 0 -0.36986267214773322 0.39826939991460819 0 -0.36146021165590048 0.40826897384714778 0 -0.37782064618846761 0.3910497352711762 0 -0.36955808325825668 0.38830145444534242 0 -0.36986267214773322 0.39826939991460819 0 -0.36986267214773322 0.39826939991460819 0 -0.36892212974765631 0.40711238985459519 0 -0.36146021165590048 0.40826897384714778 0 -0.36986267214773322 0.39826939991460819 0 -0.37473002140687978 0.40611281246880448 0 -0.36892212974765631 0.40711238985459519 0 -0.37473002140687978 0.40611281246880448 0 -0.36892212974765631 0.40711238985459519 0 -0.37314907036103928 0.41220867505892828 0 -0.36711542413084791 0.42072056313219169 0 -0.36146021165590048 0.40826897384714778 0 -0.36549978461569849 0.43224710183846488 0 -0.36549978461569849 0.43224710183846488 0 -0.35758880355628808 0.42351363534750291 0 -0.35512424230168599 0.40765285338697282 0 -0.36146021165590048 0.40826897384714778 0 -0.36549978461569849 0.43224710183846488 0 -0.35512424230168599 0.40765285338697282 0 -0.36549978461569849 0.43224710183846488 0 -0.35512424230168599 0.40765285338697282 0 -0.36146021165590048 0.40826897384714778 0 -0.36549978461569849 0.43224710183846488 0 -0.36892212974765631 0.40711238985459519 0 -0.36835140156013502 0.41312103398741251 0 -0.37314907036103928 0.41220867505892828 0 -0.36835140156013502 0.41312103398741251 0 -0.37314907036103928 0.41220867505892828 0 -0.37181568450067859 0.41875630566189109 0 -0.37773408284538201 0.41782628711634717 0 -0.37314907036103928 0.41220867505892828 0 -0.37181568450067859 0.41875630566189109 0 -0.37773408284538201 0.41782628711634717 0 -0.37181568450067859 0.41875630566189109 0 -0.37438716231324032 0.42410623227884348 0 -0.37181568450067859 0.41875630566189109 0 -0.36711542413084791 0.42072056313219169 0 -0.3703697841584988 0.42421779982266572 0 -0.36835140156013502 0.41312103398741251 0 -0.37181568450067859 0.41875630566189109 0 -0.36711542413084791 0.42072056313219169 0 -0.36835140156013502 0.41312103398741251 0 -0.36711542413084791 0.42072056313219169 0 -0.36146021165590048 0.40826897384714778 0 -0.36892212974765631 0.40711238985459519 0 -0.36835140156013502 0.41312103398741251 0 -0.36146021165590048 0.40826897384714778 0 -0.3723502293118699 0.43487096394545782 0 -0.36549978461569849 0.43224710183846488 0 -0.37325376656998699 0.44111987596666041 0 -0.37568054734269513 0.43233891557180387 0 -0.37027177356697771 0.43164420968538442 0 -0.37388870539249391 0.42848762982128841 0 -0.37568054734269513 0.43233891557180387 0 -0.3723502293118699 0.43487096394545782 0 -0.37027177356697771 0.43164420968538442 0 -0.3723502293118699 0.43487096394545782 0 -0.37027177356697771 0.43164420968538442 0 -0.36549978461569849 0.43224710183846488 0 -0.37027177356697771 0.43164420968538442 0 -0.36885107199708811 0.42726428628178859 0 -0.36549978461569849 0.43224710183846488 0 -0.37027177356697771 0.43164420968538442 0 -0.36885107199708811 0.42726428628178859 0 -0.37099859351341768 0.42749175693023589 0 -0.36885107199708811 0.42726428628178859 0 -0.37099859351341768 0.42749175693023589 0 -0.3703697841584988 0.42421779982266572 0 -0.37099859351341768 0.42749175693023589 0 -0.37388870539249391 0.42848762982128841 0 -0.37438716231324032 0.42410623227884348 0 -0.37027177356697771 0.43164420968538442 0 -0.37099859351341768 0.42749175693023589 0 -0.37388870539249391 0.42848762982128841 0 -0.37181568450067859 0.41875630566189109 0 -0.37438716231324032 0.42410623227884348 0 -0.3703697841584988 0.42421779982266572 0 -0.37099859351341768 0.42749175693023589 0 -0.37438716231324032 0.42410623227884348 0 -0.3703697841584988 0.42421779982266572 0 -0.36711542413084791 0.42072056313219169 0 -0.36885107199708811 0.42726428628178859 0 -0.3703697841584988 0.42421779982266572 0 -0.36711542413084791 0.42072056313219169 0 -0.36885107199708811 0.42726428628178859 0 -0.36549978461569849 0.43224710183846488 0 -0.36549978461569849 0.43224710183846488 0 -0.35923707971496849 0.42983430929730931 0 -0.35758880355628808 0.42351363534750291 0 -0.36549978461569849 0.43224710183846488 0 -0.36008301249178032 0.43472051639511278 0 -0.35923707971496849 0.42983430929730931 0 -0.36008301249178032 0.43472051639511278 0 -0.36601118213677591 0.43528265914536152 0 -0.36010912662608308 0.44067522191792918 0 -0.36549978461569849 0.43224710183846488 0 -0.36008301249178032 0.43472051639511278 0 -0.36601118213677591 0.43528265914536152 0 -0.36549978461569849 0.43224710183846488 0 -0.36601118213677591 0.43528265914536152 0 -0.35196097536273291 0.43500988823724618 0 -0.34715891765488649 0.42549885634108542 0 -0.33578941980615762 0.43284608005672481 0 -0.36008301249178032 0.43472051639511278 0 -0.35196097536273291 0.43500988823724618 0 -0.36010912662608308 0.44067522191792918 0 -0.36008301249178032 0.43472051639511278 0 -0.35196097536273291 0.43500988823724618 0 -0.3542975052077777 0.42916919698843881 0 -0.36008301249178032 0.43472051639511278 0 -0.35923707971496849 0.42983430929730931 0 -0.3542975052077777 0.42916919698843881 0 -0.3542975052077777 0.42916919698843881 0 -0.35758880355628808 0.42351363534750291 0 -0.34715891765488649 0.42549885634108542 0 -0.35923707971496849 0.42983430929730931 0 -0.3542975052077777 0.42916919698843881 0 -0.35758880355628808 0.42351363534750291 0 -0.35196097536273291 0.43500988823724618 0 -0.3542975052077777 0.42916919698843881 0 -0.34715891765488649 0.42549885634108542 0 -0.35758880355628808 0.42351363534750291 0 -0.35512424230168599 0.40765285338697282 0 -0.35074899403641829 0.41619228670440639 0 -0.35758880355628808 0.42351363534750291 0 -0.34715891765488649 0.42549885634108542 0 -0.35074899403641829 0.41619228670440639 0 -0.34715891765488649 0.42549885634108542 0 -0.35074899403641829 0.41619228670440639 0 -0.3427385125467946 0.41282525814537541 0 -0.35512424230168599 0.40765285338697282 0 -0.35074899403641829 0.41619228670440639 0 -0.34858826860026348 0.41035460970543047 0 -0.34574132551615488 0.40474804058496738 0 -0.34858826860026348 0.41035460970543047 0 -0.3427385125467946 0.41282525814537541 0 -0.34574132551615488 0.40474804058496738 0 -0.35512424230168599 0.40765285338697282 0 -0.34858826860026348 0.41035460970543047 0 -0.35074899403641829 0.41619228670440639 0 -0.34858826860026348 0.41035460970543047 0 -0.3427385125467946 0.41282525814537541 0 -0.3427385125467946 0.41282525814537541 0 -0.33326491646018391 0.40842562875115912 0 -0.33822914881805433 0.40081552753142208 0 -0.34715891765488649 0.42549885634108542 0 -0.3427385125467946 0.41282525814537541 0 -0.32987155460072393 0.41945223249394109 0 -0.3427385125467946 0.41282525814537541 0 -0.32987155460072393 0.41945223249394109 0 -0.33326491646018391 0.40842562875115912 0 -0.32987155460072393 0.41945223249394109 0 -0.33326491646018391 0.40842562875115912 0 -0.32295684806158448 0.40673758624325512 0 -0.32987155460072393 0.41945223249394109 0 -0.33578941980615762 0.43284608005672481 0 -0.31887831120451843 0.43335682615451637 0 -0.34715891765488649 0.42549885634108542 0 -0.32987155460072393 0.41945223249394109 0 -0.33578941980615762 0.43284608005672481 0 -0.32987155460072393 0.41945223249394109 0 -0.31887831120451843 0.43335682615451637 0 -0.31281237538217282 0.41974214010262778 0 -0.32987155460072393 0.41945223249394109 0 -0.32295684806158448 0.40673758624325512 0 -0.31281237538217282 0.41974214010262778 0 -0.32295684806158448 0.40673758624325512 0 -0.31281237538217282 0.41974214010262778 0 -0.31085742652087378 0.40716624163741599 0 -0.32295684806158448 0.40673758624325512 0 -0.3163315161438468 0.39637423477853351 0 -0.31085742652087378 0.40716624163741599 0 -0.3163315161438468 0.39637423477853351 0 -0.32846076257862061 0.39782640775288441 0 -0.32317983106060127 0.38508322421724772 0 -0.32295684806158448 0.40673758624325512 0 -0.3163315161438468 0.39637423477853351 0 -0.32846076257862061 0.39782640775288441 0 -0.33326491646018391 0.40842562875115912 0 -0.32846076257862061 0.39782640775288441 0 -0.33822914881805433 0.40081552753142208 0 -0.33326491646018391 0.40842562875115912 0 -0.32295684806158448 0.40673758624325512 0 -0.32846076257862061 0.39782640775288441 0 -0.32846076257862061 0.39782640775288441 0 -0.33822914881805433 0.40081552753142208 0 -0.33469602705230472 0.38907167661642339 0 -0.32846076257862061 0.39782640775288441 0 -0.33469602705230472 0.38907167661642339 0 -0.32317983106060127 0.38508322421724772 0 -0.34370788873517449 0.39706934061105342 0 -0.33822914881805433 0.40081552753142208 0 -0.33469602705230472 0.38907167661642339 0 -0.34574132551615488 0.40474804058496738 0 -0.3427385125467946 0.41282525814537541 0 -0.33822914881805433 0.40081552753142208 0 -0.34574132551615488 0.40474804058496738 0 -0.34370788873517449 0.39706934061105342 0 -0.33822914881805433 0.40081552753142208 0 -0.34474869998767288 0.38305860493548111 0 -0.33469602705230472 0.38907167661642339 0 -0.33066241767514931 0.37714359316989648 0 -0.34474869998767288 0.38305860493548111 0 -0.34370788873517449 0.39706934061105342 0 -0.33469602705230472 0.38907167661642339 0 -0.33469602705230472 0.38907167661642339 0 -0.33066241767514931 0.37714359316989648 0 -0.32317983106060127 0.38508322421724772 0 -0.31631437260150791 0.37004010359634132 0 -0.33066241767514931 0.37714359316989648 0 -0.32317983106060127 0.38508322421724772 0 -0.3163315161438468 0.39637423477853351 0 -0.32317983106060127 0.38508322421724772 0 -0.3085919782447179 0.38486421722925129 0 -0.31631437260150791 0.37004010359634132 0 -0.32317983106060127 0.38508322421724772 0 -0.3085919782447179 0.38486421722925129 0 -0.31631437260150791 0.37004010359634132 0 -0.3085919782447179 0.38486421722925129 0 -0.29587125153975119 0.37549905754498308 0 -0.3085919782447179 0.38486421722925129 0 -0.29587125153975119 0.37549905754498308 0 -0.29500216804044038 0.38907777562624868 0 -0.3163315161438468 0.39637423477853351 0 -0.30197432683923842 0.39809884853751493 0 -0.31085742652087378 0.40716624163741599 0 -0.3163315161438468 0.39637423477853351 0 -0.3085919782447179 0.38486421722925129 0 -0.30197432683923842 0.39809884853751493 0 -0.3085919782447179 0.38486421722925129 0 -0.30197432683923842 0.39809884853751493 0 -0.29500216804044038 0.38907777562624868 0 -0.30197432683923842 0.39809884853751493 0 -0.2881965678568259 0.3994367732709363 0 -0.29321773089736408 0.41903245820010138 0 -0.2881965678568259 0.3994367732709363 0 -0.28037671572166889 0.38748998154855802 0 -0.27795230754280598 0.40874654318153852 0 -0.30197432683923842 0.39809884853751493 0 -0.2881965678568259 0.3994367732709363 0 -0.29500216804044038 0.38907777562624868 0 -0.2881965678568259 0.3994367732709363 0 -0.29500216804044038 0.38907777562624868 0 -0.28037671572166889 0.38748998154855802 0 -0.2773148673347321 0.3666310303998595 0 -0.29587125153975119 0.37549905754498308 0 -0.28037671572166889 0.38748998154855802 0 -0.29587125153975119 0.37549905754498308 0 -0.29500216804044038 0.38907777562624868 0 -0.28037671572166889 0.38748998154855802 0 -0.2773148673347321 0.3666310303998595 0 -0.28037671572166889 0.38748998154855802 0 -0.25978871944500498 0.37744601305112702 0 -0.28037671572166889 0.38748998154855802 0 -0.26268688418825142 0.39846062816297068 0 -0.25978871944500498 0.37744601305112702 0 -0.28037671572166889 0.38748998154855802 0 -0.26268688418825142 0.39846062816297068 0 -0.27795230754280598 0.40874654318153852 0 -0.26268688418825142 0.39846062816297068 0 -0.27795230754280598 0.40874654318153852 0 -0.26268688418825142 0.39846062816297068 0 -0.24705393830488409 0.38792707471271631 0 -0.2446363452888029 0.39303345088456132 0 -0.2594498795644104 0.4057011922387968 0 -0.26268688418825142 0.39846062816297068 0 -0.2446363452888029 0.39303345088456132 0 -0.26268688418825142 0.39846062816297068 0 -0.24705393830488409 0.38792707471271631 0 -0.2594498795644104 0.4057011922387968 0 -0.2446363452888029 0.39303345088456132 0 -0.2483074533253381 0.40138907884491742 0 -0.2594498795644104 0.4057011922387968 0 -0.25135353745088079 0.40538122757465328 0 -0.2483074533253381 0.40138907884491742 0 -0.2594498795644104 0.4057011922387968 0 -0.2446363452888029 0.39303345088456132 0 -0.26268688418825142 0.39846062816297068 0 -0.25978871944500498 0.37744601305112702 0 -0.26268688418825142 0.39846062816297068 0 -0.25978871944500498 0.37744601305112702 0 -0.24705393830488409 0.38792707471271631 0 -0.25978871944500498 0.37744601305112702 0 -0.24705393830488409 0.38792707471271631 0 -0.24653654808961289 0.37292736348013872 0 -0.25464476882582948 0.42043371933178819 0 -0.26642854777515401 0.42559145995567671 0 -0.25456142618314681 0.43813564254405413 0 -0.25464476882582948 0.42043371933178819 0 -0.25456142618314681 0.43813564254405413 0 -0.2446382873926061 0.42656169270257099 0 -0.26268688418825142 0.39846062816297068 0 -0.26642854777515401 0.42559145995567671 0 -0.25464476882582948 0.42043371933178819 0 -0.25177455709189939 0.41006407045360649 0 -0.2454015548800843 0.41483303658358861 0 -0.2594498795644104 0.4057011922387968 0 -0.25464476882582948 0.42043371933178819 0 -0.26642854777515401 0.42559145995567671 0 -0.2594498795644104 0.4057011922387968 0 -0.26268688418825142 0.39846062816297068 0 -0.26642854777515401 0.42559145995567671 0 -0.2594498795644104 0.4057011922387968 0 -0.25464476882582948 0.42043371933178819 0 -0.25177455709189939 0.41006407045360649 0 -0.2594498795644104 0.4057011922387968 0 -0.25135353745088079 0.40538122757465328 0 -0.25177455709189939 0.41006407045360649 0 -0.27795230754280598 0.40874654318153852 0 -0.26642854777515401 0.42559145995567671 0 -0.28081326350124769 0.42211313911372528 0 -0.26268688418825142 0.39846062816297068 0 -0.27795230754280598 0.40874654318153852 0 -0.26642854777515401 0.42559145995567671 0 -0.26642854777515401 0.42559145995567671 0 -0.28565446778966658 0.43508209511758461 0 -0.27884423502192862 0.44571822511076598 0 -0.26642854777515401 0.42559145995567671 0 -0.28081326350124769 0.42211313911372528 0 -0.28565446778966658 0.43508209511758461 0 -0.28081326350124769 0.42211313911372528 0 -0.28565446778966658 0.43508209511758461 0 -0.29321773089736408 0.41903245820010138 0 -0.28565446778966658 0.43508209511758461 0 -0.29321773089736408 0.41903245820010138 0 -0.30045595717128859 0.43349999100286107 0 -0.28565446778966658 0.43508209511758461 0 -0.30045595717128859 0.43349999100286107 0 -0.29121840155307982 0.44330421436568002 0 -0.2881965678568259 0.3994367732709363 0 -0.27795230754280598 0.40874654318153852 0 -0.29321773089736408 0.41903245820010138 0 -0.27795230754280598 0.40874654318153852 0 -0.29321773089736408 0.41903245820010138 0 -0.27795230754280598 0.40874654318153852 0 -0.28081326350124769 0.42211313911372528 0 -0.29321773089736408 0.41903245820010138 0 -0.30197432683923842 0.39809884853751493 0 -0.29321773089736408 0.41903245820010138 0 -0.31085742652087378 0.40716624163741599 0 -0.31281237538217282 0.41974214010262778 0 -0.29321773089736408 0.41903245820010138 0 -0.31085742652087378 0.40716624163741599 0 -0.31281237538217282 0.41974214010262778 0 -0.29321773089736408 0.41903245820010138 0 -0.30045595717128859 0.43349999100286107 0 -0.31887831120451843 0.43335682615451637 0 -0.31281237538217282 0.41974214010262778 0 -0.30045595717128859 0.43349999100286107 0 -0.31887831120451843 0.43335682615451637 0 -0.30045595717128859 0.43349999100286107 0 -0.30336264016321768 0.44832359954455531 0 -0.30045595717128859 0.43349999100286107 0 -0.30336264016321768 0.44832359954455531 0 -0.29121840155307982 0.44330421436568002 0 -0.30336264016321768 0.44832359954455531 0 -0.3102578592582082 0.4653991095534083 0 -0.32374965263750538 0.44954684618946089 0 -0.30336264016321768 0.44832359954455531 0 -0.3102578592582082 0.4653991095534083 0 -0.29248542751737 0.46454598345419318 0 -0.30336264016321768 0.44832359954455531 0 -0.29248542751737 0.46454598345419318 0 -0.28777470761929741 0.453897161052633 0 -0.29248542751737 0.46454598345419318 0 -0.27967908111433798 0.45973457471564122 0 -0.27283881721540137 0.4720723735627016 0 -0.28777470761929741 0.453897161052633 0 -0.27992862165148241 0.45344907389544992 0 -0.27967908111433798 0.45973457471564122 0 -0.29248542751737 0.46454598345419318 0 -0.28777470761929741 0.453897161052633 0 -0.27967908111433798 0.45973457471564122 0 -0.30336264016321768 0.44832359954455531 0 -0.28777470761929741 0.453897161052633 0 -0.29121840155307982 0.44330421436568002 0 -0.28777470761929741 0.453897161052633 0 -0.29121840155307982 0.44330421436568002 0 -0.27884423502192862 0.44571822511076598 0 -0.28777470761929741 0.453897161052633 0 -0.27884423502192862 0.44571822511076598 0 -0.27992862165148241 0.45344907389544992 0 -0.28565446778966658 0.43508209511758461 0 -0.29121840155307982 0.44330421436568002 0 -0.27884423502192862 0.44571822511076598 0 -0.26642854777515401 0.42559145995567671 0 -0.27017021136205699 0.45272229174838252 0 -0.26642854777515401 0.42559145995567671 0 -0.27017021136205699 0.45272229174838252 0 -0.27884423502192862 0.44571822511076598 0 -0.27017021136205699 0.45272229174838252 0 -0.27268688555620618 0.45278322111634672 0 -0.27017021136205699 0.45272229174838252 0 -0.27268688555620618 0.45278322111634672 0 -0.27884423502192862 0.44571822511076598 0 -0.27268688555620618 0.45278322111634672 0 -0.27884423502192862 0.44571822511076598 0 -0.27992862165148241 0.45344907389544992 0 -0.27017021136205699 0.45272229174838252 0 -0.27283881721540137 0.4720723735627016 0 -0.27017021136205699 0.45272229174838252 0 -0.25556445229377328 0.46739238556893248 0 -0.27283881721540137 0.4720723735627016 0 -0.27268688555620618 0.45278322111634672 0 -0.27992862165148241 0.45344907389544992 0 -0.27967908111433798 0.45973457471564122 0 -0.27017021136205699 0.45272229174838252 0 -0.27967908111433798 0.45973457471564122 0 -0.27283881721540137 0.4720723735627016 0 -0.27017021136205699 0.45272229174838252 0 -0.27268688555620618 0.45278322111634672 0 -0.27967908111433798 0.45973457471564122 0 -0.27017021136205699 0.45272229174838252 0 -0.25556445229377328 0.46739238556893248 0 -0.25494417147558512 0.45235366517386782 0 -0.25556445229377328 0.46739238556893248 0 -0.25494417147558512 0.45235366517386782 0 -0.24717940938886601 0.45843702787370572 0 -0.26642854777515401 0.42559145995567671 0 -0.27017021136205699 0.45272229174838252 0 -0.25456142618314681 0.43813564254405413 0 -0.25494417147558512 0.45235366517386782 0 -0.25456142618314681 0.43813564254405413 0 -0.24764079941193529 0.44557000668861629 0 -0.27017021136205699 0.45272229174838252 0 -0.25494417147558512 0.45235366517386782 0 -0.25456142618314681 0.43813564254405413 0 -0.27017021136205699 0.45272229174838252 0 -0.25494417147558512 0.45235366517386782 0 -0.25500833337336543 0.5 0 -0.25995291876372129 0.48392212061088519 0 -0.23580819294092509 0.48135619878758379 0 -0.25500833337336543 0.5 0 -0.25995291876372129 0.48392212061088519 0 -0.27669036823702592 0.49999999999998118 0 -0.25556445229377328 0.46739238556893248 0 -0.27283881721540137 0.4720723735627016 0 -0.25556445229377328 0.46739238556893248 0 -0.25995291876372129 0.48392212061088519 0 -0.23580819294092509 0.48135619878758379 0 -0.25556445229377328 0.46739238556893248 0 -0.25995291876372129 0.48392212061088519 0 -0.27283881721540137 0.4720723735627016 0 -0.25995291876372129 0.48392212061088519 0 -0.27283881721540137 0.4720723735627016 0 -0.27669036823702592 0.49999999999998118 0 -0.27283881721540137 0.4720723735627016 0 -0.27669036823702592 0.49999999999998118 0 -0.27669036823702592 0.49999999999998118 0 -0.29760948290772271 0.47878326675985389 0 -0.30536445315542182 0.5 0 -0.27283881721540137 0.4720723735627016 0 -0.29760948290772271 0.47878326675985389 0 -0.29248542751737 0.46454598345419318 0 -0.27283881721540137 0.4720723735627016 0 -0.29760948290772271 0.47878326675985389 0 -0.27283881721540137 0.4720723735627016 0 -0.27669036823702592 0.49999999999998118 0 -0.29760948290772271 0.47878326675985389 0 -0.3102578592582082 0.4653991095534083 0 -0.29248542751737 0.46454598345419318 0 -0.29760948290772271 0.47878326675985389 0 -0.3102578592582082 0.4653991095534083 0 -0.29760948290772271 0.47878326675985389 0 -0.31981304230905988 0.48278965138745311 0 -0.29760948290772271 0.47878326675985389 0 -0.30536445315542182 0.5 0 -0.31981304230905988 0.48278965138745311 0 -0.30536445315542182 0.5 0 -0.33403853807381778 0.5 0 -0.31981304230905988 0.48278965138745311 0 -0.33403853807381778 0.5 0 -0.34163722810632241 0.4837297815358147 0 -0.31981304230905988 0.48278965138745311 0 -0.34163722810632241 0.4837297815358147 0 -0.33057432643197071 0.46709791128368111 0 -0.34675102155557541 0.46816971720485601 0 -0.34163722810632241 0.4837297815358147 0 -0.31981304230905988 0.48278965138745311 0 -0.33057432643197071 0.46709791128368111 0 -0.3102578592582082 0.4653991095534083 0 -0.31981304230905988 0.48278965138745311 0 -0.33057432643197071 0.46709791128368111 0 -0.3102578592582082 0.4653991095534083 0 -0.32374965263750538 0.44954684618946089 0 -0.33057432643197071 0.46709791128368111 0 -0.31887831120451843 0.43335682615451637 0 -0.30336264016321768 0.44832359954455531 0 -0.32374965263750538 0.44954684618946089 0 -0.33578941980615762 0.43284608005672481 0 -0.31887831120451843 0.43335682615451637 0 -0.32374965263750538 0.44954684618946089 0 -0.33578941980615762 0.43284608005672481 0 -0.32374965263750538 0.44954684618946089 0 -0.3445814473700034 0.44487107524077918 0 -0.32374965263750538 0.44954684618946089 0 -0.33057432643197071 0.46709791128368111 0 -0.3445814473700034 0.44487107524077918 0 -0.33057432643197071 0.46709791128368111 0 -0.34675102155557541 0.46816971720485601 0 -0.3445814473700034 0.44487107524077918 0 -0.34675102155557541 0.46816971720485601 0 -0.3445814473700034 0.44487107524077918 0 -0.36018320088353878 0.46324738349385308 0 -0.3445814473700034 0.44487107524077918 0 -0.36018320088353878 0.46324738349385308 0 -0.35196097536273291 0.43500988823724618 0 -0.33578941980615762 0.43284608005672481 0 -0.3445814473700034 0.44487107524077918 0 -0.3445814473700034 0.44487107524077918 0 -0.35994891038768639 0.44970190367967461 0 -0.36018320088353878 0.46324738349385308 0 -0.3445814473700034 0.44487107524077918 0 -0.36010912662608308 0.44067522191792918 0 -0.35994891038768639 0.44970190367967461 0 -0.35196097536273291 0.43500988823724618 0 -0.3445814473700034 0.44487107524077918 0 -0.36010912662608308 0.44067522191792918 0 -0.36549978461569849 0.43224710183846488 0 -0.37419802332540192 0.45286545964978442 0 -0.36549978461569849 0.43224710183846488 0 -0.36601118213677591 0.43528265914536152 0 -0.37419802332540192 0.45286545964978442 0 -0.36549978461569849 0.43224710183846488 0 -0.37419802332540192 0.45286545964978442 0 -0.37325376656998699 0.44111987596666041 0 -0.36601118213677591 0.43528265914536152 0 -0.36518363714730889 0.44690064558452358 0 -0.37419802332540192 0.45286545964978442 0 -0.36601118213677591 0.43528265914536152 0 -0.36010912662608308 0.44067522191792918 0 -0.36518363714730889 0.44690064558452358 0 -0.35994891038768639 0.44970190367967461 0 -0.36518363714730889 0.44690064558452358 0 -0.36565094326059733 0.45597798352986829 0 -0.36010912662608308 0.44067522191792918 0 -0.35994891038768639 0.44970190367967461 0 -0.36518363714730889 0.44690064558452358 0 -0.36518363714730889 0.44690064558452358 0 -0.37419802332540192 0.45286545964978442 0 -0.36565094326059733 0.45597798352986829 0 -0.37704527446399078 0.43700471666497559 0 -0.3723502293118699 0.43487096394545782 0 -0.37325376656998699 0.44111987596666041 0 -0.36657254078654272 0.46629090303299209 0 -0.36018320088353878 0.46324738349385308 0 -0.36565094326059733 0.45597798352986829 0 -0.35994891038768639 0.44970190367967461 0 -0.36018320088353878 0.46324738349385308 0 -0.36565094326059733 0.45597798352986829 0 -0.37419802332540192 0.45286545964978442 0 -0.36657254078654272 0.46629090303299209 0 -0.36565094326059733 0.45597798352986829 0 -0.37578495439707432 0.48162369174692699 0 -0.36018320088353878 0.46324738349385308 0 -0.357382539065145 0.48017459527819112 0 -0.37578495439707432 0.48162369174692699 0 -0.36657254078654272 0.46629090303299209 0 -0.36018320088353878 0.46324738349385308 0 -0.37578495439707432 0.48162369174692699 0 -0.36018320088353878 0.46324738349385308 0 -0.37578495439707432 0.48162369174692699 0 -0.36271262299221391 0.5 0 -0.357382539065145 0.48017459527819112 0 -0.34163722810632241 0.4837297815358147 0 -0.36271262299221391 0.5 0 -0.357382539065145 0.48017459527819112 0 -0.33403853807381778 0.5 0 -0.34163722810632241 0.4837297815358147 0 -0.36271262299221391 0.5 0 -0.34163722810632241 0.4837297815358147 0 -0.34675102155557541 0.46816971720485601 0 -0.357382539065145 0.48017459527819112 0 -0.34675102155557541 0.46816971720485601 0 -0.36018320088353878 0.46324738349385308 0 -0.357382539065145 0.48017459527819112 0 -0.14516580290055439 0.47506371570460948 0 -0.15439754067133349 0.5 0 -0.1280879547252097 0.5 0 -0.14516580290055439 0.47506371570460948 0 -0.1280879547252097 0.5 0 -0.12585215327447319 0.4788759980507391 0 -0.14516580290055439 0.47506371570460948 0 -0.12585215327447319 0.4788759980507391 0 -0.12585866778586999 0.45894467057032751 0 -0.14516580290055439 0.47506371570460948 0 -0.12585866778586999 0.45894467057032751 0 -0.1438670290058684 0.45191600063467441 0 -0.12585866778586999 0.45894467057032751 0 -0.1438670290058684 0.45191600063467441 0 -0.12549131003263969 0.43394357887995061 0 -0.1438670290058684 0.45191600063467441 0 -0.14735091579000159 0.42769912051895709 0 -0.12549131003263969 0.43394357887995061 0 -0.1438670290058684 0.45191600063467441 0 -0.16291924711229999 0.45920744016389031 0 -0.15859814595808311 0.44297544341723538 0 -0.1438670290058684 0.45191600063467441 0 -0.15859814595808311 0.44297544341723538 0 -0.14735091579000159 0.42769912051895709 0 -0.14516580290055439 0.47506371570460948 0 -0.1438670290058684 0.45191600063467441 0 -0.16291924711229999 0.45920744016389031 0 -0.16291924711229999 0.45920744016389031 0 -0.15859814595808311 0.44297544341723538 0 -0.174476065348594 0.44612521546905543 0 -0.15859814595808311 0.44297544341723538 0 -0.174476065348594 0.44612521546905543 0 -0.16437747253365159 0.42992944029959979 0 -0.174476065348594 0.44612521546905543 0 -0.19307921095815439 0.45085589762259382 0 -0.1840164156669542 0.43294744510755567 0 -0.16291924711229999 0.45920744016389031 0 -0.174476065348594 0.44612521546905543 0 -0.1830051126082175 0.46304534624737298 0 -0.16291924711229999 0.45920744016389031 0 -0.1830051126082175 0.46304534624737298 0 -0.17150357114128481 0.47990841886840152 0 -0.174476065348594 0.44612521546905543 0 -0.1830051126082175 0.46304534624737298 0 -0.19307921095815439 0.45085589762259382 0 -0.1830051126082175 0.46304534624737298 0 -0.17150357114128481 0.47990841886840152 0 -0.19216145141642271 0.47712722338060348 0 -0.14516580290055439 0.47506371570460948 0 -0.16291924711229999 0.45920744016389031 0 -0.17150357114128481 0.47990841886840152 0 -0.14516580290055439 0.47506371570460948 0 -0.15439754067133349 0.5 0 -0.17150357114128481 0.47990841886840152 0 -0.15439754067133349 0.5 0 -0.17150357114128481 0.47990841886840152 0 -0.18070712661745739 0.5 0 -0.17150357114128481 0.47990841886840152 0 -0.18070712661745739 0.5 0 -0.19216145141642271 0.47712722338060348 0 -0.18070712661745739 0.5 0 -0.20576994056991069 0.48433413438178752 0 -0.20701671256358109 0.5 0 -0.18070712661745739 0.5 0 -0.19216145141642271 0.47712722338060348 0 -0.20576994056991069 0.48433413438178752 0 -0.19216145141642271 0.47712722338060348 0 -0.20871876617699239 0.47267246900317211 0 -0.20576994056991069 0.48433413438178752 0 -0.19216145141642271 0.47712722338060348 0 -0.20871876617699239 0.47267246900317211 0 -0.19944731903862289 0.46296172043222072 0 -0.20871876617699239 0.47267246900317211 0 -0.20576994056991069 0.48433413438178752 0 -0.21977460001045759 0.48225681904101159 0 -0.20871876617699239 0.47267246900317211 0 -0.21802971214061939 0.46942499335423271 0 -0.21977460001045759 0.48225681904101159 0 -0.20576994056991069 0.48433413438178752 0 -0.20701671256358109 0.5 0 -0.21977460001045759 0.48225681904101159 0 -0.20701671256358109 0.5 0 -0.23332629850970479 0.50000000000000322 0 -0.21977460001045759 0.48225681904101159 0 -0.23332629850970479 0.50000000000000322 0 -0.21977460001045759 0.48225681904101159 0 -0.23580819294092509 0.48135619878758379 0 -0.21977460001045759 0.48225681904101159 0 -0.22763484693895289 0.47078105150467031 0 -0.23580819294092509 0.48135619878758379 0 -0.22763484693895289 0.47078105150467031 0 -0.23580819294092509 0.48135619878758379 0 -0.2382900873721451 0.46271239757516452 0 -0.21802971214061939 0.46942499335423271 0 -0.21977460001045759 0.48225681904101159 0 -0.22763484693895289 0.47078105150467031 0 -0.23580819294092509 0.48135619878758379 0 -0.2382900873721451 0.46271239757516452 0 -0.25556445229377328 0.46739238556893248 0 -0.23580819294092509 0.48135619878758379 0 -0.2382900873721451 0.46271239757516452 0 -0.23332629850970479 0.50000000000000322 0 -0.23580819294092509 0.48135619878758379 0 -0.25500833337336543 0.5 0 -0.23332629850970479 0.50000000000000322 0 -0.23580819294092509 0.48135619878758379 0 -0.23971813158911251 0.45198503859938011 0 -0.24133946839989709 0.43980568043716378 0 -0.23971813158911251 0.45198503859938011 0 -0.24133946839989709 0.43980568043716378 0 -0.22834527844058361 0.44380519953338149 0 -0.25456142618314681 0.43813564254405413 0 -0.24133946839989709 0.43980568043716378 0 -0.24764079941193529 0.44557000668861629 0 -0.25494417147558512 0.45235366517386782 0 -0.23971813158911251 0.45198503859938011 0 -0.23971813158911251 0.45198503859938011 0 -0.24133946839989709 0.43980568043716378 0 -0.24764079941193529 0.44557000668861629 0 -0.25494417147558512 0.45235366517386782 0 -0.23971813158911251 0.45198503859938011 0 -0.24764079941193529 0.44557000668861629 0 -0.25556445229377328 0.46739238556893248 0 -0.2382900873721451 0.46271239757516452 0 -0.25494417147558512 0.45235366517386782 0 -0.23971813158911251 0.45198503859938011 0 -0.24717940938886601 0.45843702787370572 0 -0.25556445229377328 0.46739238556893248 0 -0.24717940938886601 0.45843702787370572 0 -0.2382900873721451 0.46271239757516452 0 -0.23971813158911251 0.45198503859938011 0 -0.2382900873721451 0.46271239757516452 0 -0.2292291693608122 0.45613877184142809 0 -0.23971813158911251 0.45198503859938011 0 -0.2382900873721451 0.46271239757516452 0 -0.23971813158911251 0.45198503859938011 0 -0.24717940938886601 0.45843702787370572 0 -0.2382900873721451 0.46271239757516452 0 -0.2382900873721451 0.46271239757516452 0 -0.2292291693608122 0.45613877184142809 0 -0.22250978720835801 0.45843718308018111 0 -0.22763484693895289 0.47078105150467031 0 -0.2382900873721451 0.46271239757516452 0 -0.22250978720835801 0.45843718308018111 0 -0.2382900873721451 0.46271239757516452 0 -0.22250978720835801 0.45843718308018111 0 -0.23971813158911251 0.45198503859938011 0 -0.2292291693608122 0.45613877184142809 0 -0.21639867127363341 0.45142046811098691 0 -0.21802971214061939 0.46942499335423271 0 -0.22763484693895289 0.47078105150467031 0 -0.22250978720835801 0.45843718308018111 0 -0.2292291693608122 0.45613877184142809 0 -0.22250978720835801 0.45843718308018111 0 -0.21639867127363341 0.45142046811098691 0 -0.23971813158911251 0.45198503859938011 0 -0.22834527844058361 0.44380519953338149 0 -0.21639867127363341 0.45142046811098691 0 -0.22834527844058361 0.44380519953338149 0 -0.21858068503683359 0.44151438487491329 0 -0.21639867127363341 0.45142046811098691 0 -0.23971813158911251 0.45198503859938011 0 -0.21639867127363341 0.45142046811098691 0 -0.24133946839989709 0.43980568043716378 0 -0.22834527844058361 0.44380519953338149 0 -0.2317484290765269 0.43609171960551019 0 -0.22834527844058361 0.44380519953338149 0 -0.21858068503683359 0.44151438487491329 0 -0.22232423192772449 0.43214096094707499 0 -0.21639867127363341 0.45142046811098691 0 -0.19307921095815439 0.45085589762259382 0 -0.21639867127363341 0.45142046811098691 0 -0.20822074587918771 0.44438158837499869 0 -0.19307921095815439 0.45085589762259382 0 -0.21639867127363341 0.45142046811098691 0 -0.20672948704457089 0.4541619685851977 0 -0.19307921095815439 0.45085589762259382 0 -0.21858068503683359 0.44151438487491329 0 -0.21639867127363341 0.45142046811098691 0 -0.20822074587918771 0.44438158837499869 0 -0.21858068503683359 0.44151438487491329 0 -0.20822074587918771 0.44438158837499869 0 -0.20482441624812939 0.4337356028915012 0 -0.22250978720835801 0.45843718308018111 0 -0.20672948704457089 0.4541619685851977 0 -0.22250978720835801 0.45843718308018111 0 -0.21151056036833621 0.46297744414212788 0 -0.20672948704457089 0.4541619685851977 0 -0.22250978720835801 0.45843718308018111 0 -0.21639867127363341 0.45142046811098691 0 -0.20672948704457089 0.4541619685851977 0 -0.20871876617699239 0.47267246900317211 0 -0.21802971214061939 0.46942499335423271 0 -0.21151056036833621 0.46297744414212788 0 -0.21802971214061939 0.46942499335423271 0 -0.22250978720835801 0.45843718308018111 0 -0.21151056036833621 0.46297744414212788 0 -0.21151056036833621 0.46297744414212788 0 -0.20672948704457089 0.4541619685851977 0 -0.19944731903862289 0.46296172043222072 0 -0.20871876617699239 0.47267246900317211 0 -0.21151056036833621 0.46297744414212788 0 -0.19944731903862289 0.46296172043222072 0 -0.1830051126082175 0.46304534624737298 0 -0.19216145141642271 0.47712722338060348 0 -0.19944731903862289 0.46296172043222072 0 -0.1830051126082175 0.46304534624737298 0 -0.19944731903862289 0.46296172043222072 0 -0.19307921095815439 0.45085589762259382 0 -0.20672948704457089 0.4541619685851977 0 -0.19944731903862289 0.46296172043222072 0 -0.19307921095815439 0.45085589762259382 0 -0.19307921095815439 0.45085589762259382 0 -0.20482441624812939 0.4337356028915012 0 -0.1840164156669542 0.43294744510755567 0 -0.20822074587918771 0.44438158837499869 0 -0.19307921095815439 0.45085589762259382 0 -0.20482441624812939 0.4337356028915012 0 -0.19268915961001321 0.41554358287331072 0 -0.20482441624812939 0.4337356028915012 0 -0.1840164156669542 0.43294744510755567 0 -0.19268915961001321 0.41554358287331072 0 -0.21070603970369209 0.41591777083564502 0 -0.2055969040031167 0.40171268223250228 0 -0.19268915961001321 0.41554358287331072 0 -0.21070603970369209 0.41591777083564502 0 -0.20482441624812939 0.4337356028915012 0 -0.21070603970369209 0.41591777083564502 0 -0.22026442535844509 0.39814174018298581 0 -0.21070603970369209 0.41591777083564502 0 -0.20482441624812939 0.4337356028915012 0 -0.22232423192772449 0.43214096094707499 0 -0.21858068503683359 0.44151438487491329 0 -0.20482441624812939 0.4337356028915012 0 -0.22232423192772449 0.43214096094707499 0 -0.21070603970369209 0.41591777083564502 0 -0.22232423192772449 0.43214096094707499 0 -0.22659617960973299 0.42097606252178021 0 -0.22834527844058361 0.44380519953338149 0 -0.22232423192772449 0.43214096094707499 0 -0.2317484290765269 0.43609171960551019 0 -0.22232423192772449 0.43214096094707499 0 -0.2317484290765269 0.43609171960551019 0 -0.2349847375379025 0.42861503750442009 0 -0.22659617960973299 0.42097606252178021 0 -0.2366661631206024 0.41825282599169022 0 -0.2349847375379025 0.42861503750442009 0 -0.22232423192772449 0.43214096094707499 0 -0.22659617960973299 0.42097606252178021 0 -0.2349847375379025 0.42861503750442009 0 -0.21070603970369209 0.41591777083564502 0 -0.22829972575874369 0.4099537173300708 0 -0.22659617960973299 0.42097606252178021 0 -0.21070603970369209 0.41591777083564502 0 -0.22829972575874369 0.4099537173300708 0 -0.22026442535844509 0.39814174018298581 0 -0.22829972575874369 0.4099537173300708 0 -0.23835596372023179 0.40840588003886458 0 -0.2328053339975231 0.40117589586299301 0 -0.22829972575874369 0.4099537173300708 0 -0.22659617960973299 0.42097606252178021 0 -0.2366661631206024 0.41825282599169022 0 -0.2366661631206024 0.41825282599169022 0 -0.23835596372023179 0.40840588003886458 0 -0.2454015548800843 0.41483303658358861 0 -0.22829972575874369 0.4099537173300708 0 -0.2366661631206024 0.41825282599169022 0 -0.23835596372023179 0.40840588003886458 0 -0.25177455709189939 0.41006407045360649 0 -0.2454015548800843 0.41483303658358861 0 -0.24631500994279609 0.4060657092304274 0 -0.23835596372023179 0.40840588003886458 0 -0.2454015548800843 0.41483303658358861 0 -0.24631500994279609 0.4060657092304274 0 -0.25135353745088079 0.40538122757465328 0 -0.25177455709189939 0.41006407045360649 0 -0.24631500994279609 0.4060657092304274 0 -0.2366661631206024 0.41825282599169022 0 -0.2454015548800843 0.41483303658358861 0 -0.2446382873926061 0.42656169270257099 0 -0.25464476882582948 0.42043371933178819 0 -0.2454015548800843 0.41483303658358861 0 -0.2446382873926061 0.42656169270257099 0 -0.25456142618314681 0.43813564254405413 0 -0.24133946839989709 0.43980568043716378 0 -0.2446382873926061 0.42656169270257099 0 -0.24133946839989709 0.43980568043716378 0 -0.2446382873926061 0.42656169270257099 0 -0.2349847375379025 0.42861503750442009 0 -0.24133946839989709 0.43980568043716378 0 -0.2317484290765269 0.43609171960551019 0 -0.2349847375379025 0.42861503750442009 0 -0.2366661631206024 0.41825282599169022 0 -0.2446382873926061 0.42656169270257099 0 -0.2349847375379025 0.42861503750442009 0 -0.24705393830488409 0.38792707471271631 0 -0.2314209924215192 0.37739352126245818 0 -0.22982281101319579 0.38036570953032528 0 -0.24705393830488409 0.38792707471271631 0 -0.2446363452888029 0.39303345088456132 0 -0.22982281101319579 0.38036570953032528 0 -0.24705393830488409 0.38792707471271631 0 -0.2314209924215192 0.37739352126245818 0 -0.24653654808961289 0.37292736348013872 0 -0.24705393830488409 0.38792707471271631 0 -0.2314209924215192 0.37739352126245818 0 -0.2446363452888029 0.39303345088456132 0 -0.22982281101319579 0.38036570953032528 0 -0.2446363452888029 0.39303345088456132 0 -0.23388603238953329 0.39333537526129592 0 -0.22982281101319579 0.38036570953032528 0 -0.2446363452888029 0.39303345088456132 0 -0.2483074533253381 0.40138907884491742 0 -0.24064799462164091 0.40015409523441797 0 -0.25135353745088079 0.40538122757465328 0 -0.24631500994279609 0.4060657092304274 0 -0.2483074533253381 0.40138907884491742 0 -0.24631500994279609 0.4060657092304274 0 -0.2483074533253381 0.40138907884491742 0 -0.24064799462164091 0.40015409523441797 0 -0.23835596372023179 0.40840588003886458 0 -0.24631500994279609 0.4060657092304274 0 -0.24064799462164091 0.40015409523441797 0 -0.23835596372023179 0.40840588003886458 0 -0.24064799462164091 0.40015409523441797 0 -0.2328053339975231 0.40117589586299301 0 -0.24064799462164091 0.40015409523441797 0 -0.23388603238953329 0.39333537526129592 0 -0.2328053339975231 0.40117589586299301 0 -0.2446363452888029 0.39303345088456132 0 -0.24064799462164091 0.40015409523441797 0 -0.23388603238953329 0.39333537526129592 0 -0.23388603238953329 0.39333537526129592 0 -0.2328053339975231 0.40117589586299301 0 -0.22026442535844509 0.39814174018298581 0 -0.22829972575874369 0.4099537173300708 0 -0.2328053339975231 0.40117589586299301 0 -0.22026442535844509 0.39814174018298581 0 -0.23388603238953329 0.39333537526129592 0 -0.22026442535844509 0.39814174018298581 0 -0.22982281101319579 0.38036570953032528 0 -0.22026442535844509 0.39814174018298581 0 -0.22982281101319579 0.38036570953032528 0 -0.21023672033421761 0.38129187764894201 0 -0.22026442535844509 0.39814174018298581 0 -0.22982281101319579 0.38036570953032528 0 -0.2314209924215192 0.37739352126245818 0 -0.22982281101319579 0.38036570953032528 0 -0.21023672033421761 0.38129187764894201 0 -0.2055969040031167 0.40171268223250228 0 -0.19454383859968119 0.38176136775796421 0 -0.21070603970369209 0.41591777083564502 0 -0.22026442535844509 0.39814174018298581 0 -0.2055969040031167 0.40171268223250228 0 -0.22026442535844509 0.39814174018298581 0 -0.21023672033421761 0.38129187764894201 0 -0.2055969040031167 0.40171268223250228 0 -0.2055969040031167 0.40171268223250228 0 -0.19067832280205041 0.39940535807295602 0 -0.19454383859968119 0.38176136775796421 0 -0.19268915961001321 0.41554358287331072 0 -0.2055969040031167 0.40171268223250228 0 -0.19067832280205041 0.39940535807295602 0 -0.19067832280205041 0.39940535807295602 0 -0.19454383859968119 0.38176136775796421 0 -0.17054621651548491 0.38367432954363928 0 -0.19454383859968119 0.38176136775796421 0 -0.17054621651548491 0.38367432954363928 0 -0.1839371325384318 0.36467496268668509 0 -0.17054621651548491 0.38367432954363928 0 -0.1620004308969899 0.39984664001811687 0 -0.15057515780636679 0.3895992240100612 0 -0.17054621651548491 0.38367432954363928 0 -0.1620004308969899 0.39984664001811687 0 -0.17519004586783801 0.40559255777754438 0 -0.19067832280205041 0.39940535807295602 0 -0.17054621651548491 0.38367432954363928 0 -0.17519004586783801 0.40559255777754438 0 -0.19268915961001321 0.41554358287331072 0 -0.17519004586783801 0.40559255777754438 0 -0.17594888150835991 0.42014198432369559 0 -0.19268915961001321 0.41554358287331072 0 -0.19067832280205041 0.39940535807295602 0 -0.17519004586783801 0.40559255777754438 0 -0.174476065348594 0.44612521546905543 0 -0.1840164156669542 0.43294744510755567 0 -0.16437747253365159 0.42992944029959979 0 -0.19268915961001321 0.41554358287331072 0 -0.17594888150835991 0.42014198432369559 0 -0.1840164156669542 0.43294744510755567 0 -0.17594888150835991 0.42014198432369559 0 -0.1840164156669542 0.43294744510755567 0 -0.16437747253365159 0.42992944029959979 0 -0.16437747253365159 0.42992944029959979 0 -0.15927726387412991 0.41494345183354853 0 -0.14735091579000159 0.42769912051895709 0 -0.15859814595808311 0.44297544341723538 0 -0.16437747253365159 0.42992944029959979 0 -0.14735091579000159 0.42769912051895709 0 -0.1620004308969899 0.39984664001811687 0 -0.17519004586783801 0.40559255777754438 0 -0.15927726387412991 0.41494345183354853 0 -0.17519004586783801 0.40559255777754438 0 -0.17594888150835991 0.42014198432369559 0 -0.15927726387412991 0.41494345183354853 0 -0.17594888150835991 0.42014198432369559 0 -0.16437747253365159 0.42992944029959979 0 -0.15927726387412991 0.41494345183354853 0 -0.14735091579000159 0.42769912051895709 0 -0.13353111015310959 0.41884111604198981 0 -0.1419635269455625 0.40412780687801719 0 -0.1620004308969899 0.39984664001811687 0 -0.15927726387412991 0.41494345183354853 0 -0.1419635269455625 0.40412780687801719 0 -0.15927726387412991 0.41494345183354853 0 -0.14735091579000159 0.42769912051895709 0 -0.1419635269455625 0.40412780687801719 0 -0.14735091579000159 0.42769912051895709 0 -0.12549131003263969 0.43394357887995061 0 -0.13353111015310959 0.41884111604198981 0 -0.12549131003263969 0.43394357887995061 0 -0.13353111015310959 0.41884111604198981 0 -0.1187836221401182 0.40954781268373952 0 -0.13353111015310959 0.41884111604198981 0 -0.1419635269455625 0.40412780687801719 0 -0.1187836221401182 0.40954781268373952 0 -0.13102619265169069 0.38719978828045409 0 -0.1419635269455625 0.40412780687801719 0 -0.1187836221401182 0.40954781268373952 0 -0.13102619265169069 0.38719978828045409 0 -0.14561573162589861 0.36982865109271768 0 -0.1243166256956041 0.36893017663585831 0 -0.17054621651548491 0.38367432954363928 0 -0.15057515780636679 0.3895992240100612 0 -0.14561573162589861 0.36982865109271768 0 -0.13102619265169069 0.38719978828045409 0 -0.15057515780636679 0.3895992240100612 0 -0.14561573162589861 0.36982865109271768 0 -0.1620004308969899 0.39984664001811687 0 -0.15057515780636679 0.3895992240100612 0 -0.1419635269455625 0.40412780687801719 0 -0.13102619265169069 0.38719978828045409 0 -0.15057515780636679 0.3895992240100612 0 -0.1419635269455625 0.40412780687801719 0 -0.14660534288920279 0.34989333727823219 0 -0.14561573162589861 0.36982865109271768 0 -0.1310209184129951 0.35256233593402903 0 -0.14660534288920279 0.34989333727823219 0 -0.15309296639680581 0.33400636436339137 0 -0.16338368400299211 0.3565558792789037 0 -0.14660534288920279 0.34989333727823219 0 -0.14561573162589861 0.36982865109271768 0 -0.16338368400299211 0.3565558792789037 0 -0.14561573162589861 0.36982865109271768 0 -0.1310209184129951 0.35256233593402903 0 -0.1243166256956041 0.36893017663585831 0 -0.14660534288920279 0.34989333727823219 0 -0.1310209184129951 0.35256233593402903 0 -0.12917885935540449 0.33548528228844321 0 -0.12917885935540449 0.33548528228844321 0 -0.12747747950422311 0.31727075412957778 0 -0.14307335020385339 0.31673070211801002 0 -0.14307335020385339 0.31673070211801002 0 -0.15309296639680581 0.33400636436339137 0 -0.15851790747784639 0.31498892523436939 0 -0.14660534288920279 0.34989333727823219 0 -0.12917885935540449 0.33548528228844321 0 -0.15309296639680581 0.33400636436339137 0 -0.12917885935540449 0.33548528228844321 0 -0.14307335020385339 0.31673070211801002 0 -0.15309296639680581 0.33400636436339137 0 -0.15309296639680581 0.33400636436339137 0 -0.17087392065117851 0.3316188899291389 0 -0.16338368400299211 0.3565558792789037 0 -0.17087392065117851 0.3316188899291389 0 -0.15851790747784639 0.31498892523436939 0 -0.1729272538655898 0.31343323987401772 0 -0.15309296639680581 0.33400636436339137 0 -0.17087392065117851 0.3316188899291389 0 -0.15851790747784639 0.31498892523436939 0 -0.17087392065117851 0.3316188899291389 0 -0.1729272538655898 0.31343323987401772 0 -0.18521002201246881 0.320469921808262 0 -0.1729272538655898 0.31343323987401772 0 -0.18521002201246881 0.320469921808262 0 -0.18267074911301989 0.30558899924300742 0 -0.17087392065117851 0.3316188899291389 0 -0.18521002201246881 0.320469921808262 0 -0.18678800904941881 0.34356465109516621 0 -0.17087392065117851 0.3316188899291389 0 -0.18678800904941881 0.34356465109516621 0 -0.16338368400299211 0.3565558792789037 0 -0.18678800904941881 0.34356465109516621 0 -0.16338368400299211 0.3565558792789037 0 -0.1839371325384318 0.36467496268668509 0 -0.17054621651548491 0.38367432954363928 0 -0.14561573162589861 0.36982865109271768 0 -0.16338368400299211 0.3565558792789037 0 -0.17054621651548491 0.38367432954363928 0 -0.16338368400299211 0.3565558792789037 0 -0.1839371325384318 0.36467496268668509 0 -0.19454383859968119 0.38176136775796421 0 -0.1839371325384318 0.36467496268668509 0 -0.20817226330326019 0.36172841676808293 0 -0.18678800904941881 0.34356465109516621 0 -0.20817226330326019 0.36172841676808293 0 -0.18678800904941881 0.34356465109516621 0 -0.1839371325384318 0.36467496268668509 0 -0.20817226330326019 0.36172841676808293 0 -0.18678800904941881 0.34356465109516621 0 -0.20817226330326019 0.36172841676808293 0 -0.21093841634322691 0.33416259955401978 0 -0.20817226330326019 0.36172841676808293 0 -0.22908910667128929 0.34184322473430212 0 -0.21093841634322691 0.33416259955401978 0 -0.22982281101319579 0.38036570953032528 0 -0.21023672033421761 0.38129187764894201 0 -0.20817226330326019 0.36172841676808293 0 -0.21023672033421761 0.38129187764894201 0 -0.19454383859968119 0.38176136775796421 0 -0.20817226330326019 0.36172841676808293 0 -0.22982281101319579 0.38036570953032528 0 -0.20817226330326019 0.36172841676808293 0 -0.2314209924215192 0.37739352126245818 0 -0.20817226330326019 0.36172841676808293 0 -0.22628095269366291 0.35985859277100868 0 -0.2314209924215192 0.37739352126245818 0 -0.22628095269366291 0.35985859277100868 0 -0.2437433409425481 0.35447726187156148 0 -0.2314209924215192 0.37739352126245818 0 -0.22982281101319579 0.38036570953032528 0 -0.20817226330326019 0.36172841676808293 0 -0.2314209924215192 0.37739352126245818 0 -0.20817226330326019 0.36172841676808293 0 -0.20817226330326019 0.36172841676808293 0 -0.22628095269366291 0.35985859277100868 0 -0.22908910667128929 0.34184322473430212 0 -0.22628095269366291 0.35985859277100868 0 -0.2437433409425481 0.35447726187156148 0 -0.22908910667128929 0.34184322473430212 0 -0.25399238995849932 0.33541678282744147 0 -0.2437433409425481 0.35447726187156148 0 -0.2437433409425481 0.35447726187156148 0 -0.2450873218768399 0.33309700700908218 0 -0.25689055470175481 0.35643139793928391 0 -0.24354339201488651 0.35765808008395472 0 -0.2437433409425481 0.35447726187156148 0 -0.24354339201488651 0.35765808008395472 0 -0.2437433409425481 0.35447726187156148 0 -0.2314209924215192 0.37739352126245818 0 -0.2437433409425481 0.35447726187156148 0 -0.2314209924215192 0.37739352126245818 0 -0.24354339201488651 0.35765808008395472 0 -0.2437433409425481 0.35447726187156148 0 -0.2314209924215192 0.37739352126245818 0 -0.24354339201488651 0.35765808008395472 0 -0.24653654808961289 0.37292736348013872 0 -0.25168980356281478 0.36611571363862611 0 -0.24354339201488651 0.35765808008395472 0 -0.24653654808961289 0.37292736348013872 0 -0.2450873218768399 0.33309700700908218 0 -0.22759686451833919 0.32360068756918559 0 -0.2464313028111309 0.31171675214660288 0 -0.2450873218768399 0.33309700700908218 0 -0.2464313028111309 0.31171675214660288 0 -0.25088383685196508 0.31287664005578197 0 -0.2450873218768399 0.33309700700908218 0 -0.2464313028111309 0.31171675214660288 0 -0.25399238995849932 0.33541678282744147 0 -0.25088383685196508 0.31287664005578197 0 -0.2450873218768399 0.33309700700908218 0 -0.25399238995849932 0.33541678282744147 0 -0.2437433409425481 0.35447726187156148 0 -0.2450873218768399 0.33309700700908218 0 -0.2437433409425481 0.35447726187156148 0 -0.2450873218768399 0.33309700700908218 0 -0.22908910667128929 0.34184322473430212 0 -0.2450873218768399 0.33309700700908218 0 -0.22908910667128929 0.34184322473430212 0 -0.22759686451833919 0.32360068756918559 0 -0.22908910667128929 0.34184322473430212 0 -0.22759686451833919 0.32360068756918559 0 -0.21093841634322691 0.33416259955401978 0 -0.22759686451833919 0.32360068756918559 0 -0.21149718261379929 0.31625716549662192 0 -0.2225378567937491 0.30452737647448502 0 -0.22759686451833919 0.32360068756918559 0 -0.2225378567937491 0.30452737647448502 0 -0.2464313028111309 0.31171675214660288 0 -0.21149718261379929 0.31625716549662192 0 -0.21093841634322691 0.33416259955401978 0 -0.1984465715370641 0.32444700759322731 0 -0.22759686451833919 0.32360068756918559 0 -0.21149718261379929 0.31625716549662192 0 -0.21093841634322691 0.33416259955401978 0 -0.18521002201246881 0.320469921808262 0 -0.18678800904941881 0.34356465109516621 0 -0.1984465715370641 0.32444700759322731 0 -0.18678800904941881 0.34356465109516621 0 -0.21093841634322691 0.33416259955401978 0 -0.1984465715370641 0.32444700759322731 0 -0.18521002201246881 0.320469921808262 0 -0.1984465715370641 0.32444700759322731 0 -0.19779922766640681 0.30778070001206631 0 -0.21149718261379929 0.31625716549662192 0 -0.1984465715370641 0.32444700759322731 0 -0.19779922766640681 0.30778070001206631 0 -0.18521002201246881 0.320469921808262 0 -0.19779922766640681 0.30778070001206631 0 -0.18267074911301989 0.30558899924300742 0 -0.19779922766640681 0.30778070001206631 0 -0.1993616288887074 0.29528365724281541 0 -0.18223316760775821 0.28968526612755241 0 -0.19779922766640681 0.30778070001206631 0 -0.18223316760775821 0.28968526612755241 0 -0.19779922766640681 0.30778070001206631 0 -0.18223316760775821 0.28968526612755241 0 -0.18267074911301989 0.30558899924300742 0 -0.19779922766640681 0.30778070001206631 0 -0.1993616288887074 0.29528365724281541 0 -0.20850525779073259 0.30282726939806381 0 -0.1993616288887074 0.29528365724281541 0 -0.19984838172538649 0.28164614213162142 0 -0.185231165919126 0.27928730097292059 0 -0.1993616288887074 0.29528365724281541 0 -0.185231165919126 0.27928730097292059 0 -0.1993616288887074 0.29528365724281541 0 -0.185231165919126 0.27928730097292059 0 -0.18223316760775821 0.28968526612755241 0 -0.19984838172538649 0.28164614213162142 0 -0.2113303929910004 0.29028744776433052 0 -0.20882539874453629 0.27390768413356859 0 -0.2113303929910004 0.29028744776433052 0 -0.22766481174347719 0.28343192452554078 0 -0.20882539874453629 0.27390768413356859 0 -0.1993616288887074 0.29528365724281541 0 -0.19984838172538649 0.28164614213162142 0 -0.2113303929910004 0.29028744776433052 0 -0.1993616288887074 0.29528365724281541 0 -0.2113303929910004 0.29028744776433052 0 -0.20850525779073259 0.30282726939806381 0 -0.21149718261379929 0.31625716549662192 0 -0.19779922766640681 0.30778070001206631 0 -0.20850525779073259 0.30282726939806381 0 -0.2113303929910004 0.29028744776433052 0 -0.20850525779073259 0.30282726939806381 0 -0.2225378567937491 0.30452737647448502 0 -0.21149718261379929 0.31625716549662192 0 -0.20850525779073259 0.30282726939806381 0 -0.2225378567937491 0.30452737647448502 0 -0.2225378567937491 0.30452737647448502 0 -0.22766481174347719 0.28343192452554078 0 -0.23610231377344479 0.29750313760768798 0 -0.2113303929910004 0.29028744776433052 0 -0.2225378567937491 0.30452737647448502 0 -0.22766481174347719 0.28343192452554078 0 -0.22766481174347719 0.28343192452554078 0 -0.24777528374542379 0.29033649728412347 0 -0.23610231377344479 0.29750313760768798 0 -0.25088383685196508 0.31287664005578197 0 -0.24777528374542379 0.29033649728412347 0 -0.24777528374542379 0.29033649728412347 0 -0.23610231377344479 0.29750313760768798 0 -0.2464313028111309 0.31171675214660288 0 -0.2225378567937491 0.30452737647448502 0 -0.23610231377344479 0.29750313760768798 0 -0.2464313028111309 0.31171675214660288 0 -0.24777528374542379 0.29033649728412347 0 -0.2464313028111309 0.31171675214660288 0 -0.25088383685196508 0.31287664005578197 0 -0.24777528374542379 0.29033649728412347 0 -0.2464313028111309 0.31171675214660288 0 -0.24410213970983269 0.26370250129127148 0 -0.24042899567423959 0.23706850529841969 0 -0.24410213970983269 0.26370250129127148 0 -0.22008229700458551 0.25207073246709299 0 -0.24042899567423959 0.23706850529841969 0 -0.24962755378818399 0.26087030131514671 0 -0.24410213970983269 0.26370250129127148 0 -0.24042899567423959 0.23706850529841969 0 -0.24777528374542379 0.29033649728412347 0 -0.24962755378818399 0.26087030131514671 0 -0.24777528374542379 0.29033649728412347 0 -0.24962755378818399 0.26087030131514671 0 -0.24410213970983269 0.26370250129127148 0 -0.22766481174347719 0.28343192452554078 0 -0.24777528374542379 0.29033649728412347 0 -0.24410213970983269 0.26370250129127148 0 -0.24777528374542379 0.29033649728412347 0 -0.24410213970983269 0.26370250129127148 0 -0.22766481174347719 0.28343192452554078 0 -0.22364277235382329 0.26778643426462811 0 -0.20882539874453629 0.27390768413356859 0 -0.22766481174347719 0.28343192452554078 0 -0.24410213970983269 0.26370250129127148 0 -0.22364277235382329 0.26778643426462811 0 -0.24410213970983269 0.26370250129127148 0 -0.22364277235382329 0.26778643426462811 0 -0.22008229700458551 0.25207073246709299 0 -0.22008229700458551 0.25207073246709299 0 -0.20277924217631091 0.25963467136747143 0 -0.20729280176342821 0.242855039542341 0 -0.22364277235382329 0.26778643426462811 0 -0.22008229700458551 0.25207073246709299 0 -0.20277924217631091 0.25963467136747143 0 -0.22364277235382329 0.26778643426462811 0 -0.20882539874453629 0.27390768413356859 0 -0.20277924217631091 0.25963467136747143 0 -0.19984838172538649 0.28164614213162142 0 -0.20882539874453629 0.27390768413356859 0 -0.19424806128561251 0.271689060822844 0 -0.20882539874453629 0.27390768413356859 0 -0.19424806128561251 0.271689060822844 0 -0.20277924217631091 0.25963467136747143 0 -0.19424806128561251 0.271689060822844 0 -0.18823824124479699 0.26210097807791499 0 -0.18441015067020841 0.26937256736419551 0 -0.19984838172538649 0.28164614213162142 0 -0.19424806128561251 0.271689060822844 0 -0.185231165919126 0.27928730097292059 0 -0.19424806128561251 0.271689060822844 0 -0.18441015067020841 0.26937256736419551 0 -0.185231165919126 0.27928730097292059 0 -0.20277924217631091 0.25963467136747143 0 -0.19031875884495661 0.2492353464184677 0 -0.20729280176342821 0.242855039542341 0 -0.19424806128561251 0.271689060822844 0 -0.20277924217631091 0.25963467136747143 0 -0.18823824124479699 0.26210097807791499 0 -0.20277924217631091 0.25963467136747143 0 -0.18823824124479699 0.26210097807791499 0 -0.19031875884495661 0.2492353464184677 0 -0.18823824124479699 0.26210097807791499 0 -0.17920891678487141 0.25622321191196601 0 -0.19031875884495661 0.2492353464184677 0 -0.17920891678487141 0.25622321191196601 0 -0.19031875884495661 0.2492353464184677 0 -0.17978483908031029 0.2471032218201 0 -0.18823824124479699 0.26210097807791499 0 -0.1808629226667913 0.26313047139199819 0 -0.17920891678487141 0.25622321191196601 0 -0.18823824124479699 0.26210097807791499 0 -0.1808629226667913 0.26313047139199819 0 -0.18441015067020841 0.26937256736419551 0 -0.1808629226667913 0.26313047139199819 0 -0.17920891678487141 0.25622321191196601 0 -0.1711007029495446 0.26329094470302572 0 -0.1808629226667913 0.26313047139199819 0 -0.1711007029495446 0.26329094470302572 0 -0.18441015067020841 0.26937256736419551 0 -0.17920891678487141 0.25622321191196601 0 -0.1697436319947245 0.25383393025607071 0 -0.1711007029495446 0.26329094470302572 0 -0.17920891678487141 0.25622321191196601 0 -0.17169466826451921 0.24852697597616011 0 -0.17978483908031029 0.2471032218201 0 -0.17920891678487141 0.25622321191196601 0 -0.1697436319947245 0.25383393025607071 0 -0.17169466826451921 0.24852697597616011 0 -0.1711007029495446 0.26329094470302572 0 -0.16666710754910949 0.27158983224303862 0 -0.15110104749046091 0.25349439835852478 0 -0.1697436319947245 0.25383393025607071 0 -0.1711007029495446 0.26329094470302572 0 -0.15697023997996279 0.2472945884331311 0 -0.16666710754910949 0.27158983224303862 0 -0.15110104749046091 0.25349439835852478 0 -0.1711007029495446 0.26329094470302572 0 -0.15697023997996279 0.2472945884331311 0 -0.1711007029495446 0.26329094470302572 0 -0.15110104749046091 0.25349439835852478 0 -0.15697023997996279 0.2472945884331311 0 -0.15901881407255181 0.28003304706428139 0 -0.16666710754910949 0.27158983224303862 0 -0.1506701808138603 0.27101369875117298 0 -0.15901881407255181 0.28003304706428139 0 -0.16666710754910949 0.27158983224303862 0 -0.16809165220744379 0.28168220489628032 0 -0.16666710754910949 0.27158983224303862 0 -0.18223316760775821 0.28968526612755241 0 -0.16666710754910949 0.27158983224303862 0 -0.18223316760775821 0.28968526612755241 0 -0.16809165220744379 0.28168220489628032 0 -0.16666710754910949 0.27158983224303862 0 -0.185231165919126 0.27928730097292059 0 -0.18223316760775821 0.28968526612755241 0 -0.1711007029495446 0.26329094470302572 0 -0.185231165919126 0.27928730097292059 0 -0.1711007029495446 0.26329094470302572 0 -0.16666710754910949 0.27158983224303862 0 -0.185231165919126 0.27928730097292059 0 -0.1711007029495446 0.26329094470302572 0 -0.18441015067020841 0.26937256736419551 0 -0.185231165919126 0.27928730097292059 0 -0.18223316760775821 0.28968526612755241 0 -0.17310996860552871 0.29798664590069041 0 -0.17137691266402599 0.28998979831452742 0 -0.18223316760775821 0.28968526612755241 0 -0.16809165220744379 0.28168220489628032 0 -0.17137691266402599 0.28998979831452742 0 -0.18223316760775821 0.28968526612755241 0 -0.18267074911301989 0.30558899924300742 0 -0.17310996860552871 0.29798664590069041 0 -0.1729272538655898 0.31343323987401772 0 -0.18267074911301989 0.30558899924300742 0 -0.17310996860552871 0.29798664590069041 0 -0.15851790747784639 0.31498892523436939 0 -0.1729272538655898 0.31343323987401772 0 -0.16343477515089891 0.30364287234693199 0 -0.1729272538655898 0.31343323987401772 0 -0.17310996860552871 0.29798664590069041 0 -0.16343477515089891 0.30364287234693199 0 -0.17310996860552871 0.29798664590069041 0 -0.16343477515089891 0.30364287234693199 0 -0.16207286223537329 0.29060507633358679 0 -0.16343477515089891 0.30364287234693199 0 -0.16207286223537329 0.29060507633358679 0 -0.15054588357015589 0.30120047439199582 0 -0.15851790747784639 0.31498892523436939 0 -0.16343477515089891 0.30364287234693199 0 -0.15054588357015589 0.30120047439199582 0 -0.16809165220744379 0.28168220489628032 0 -0.17137691266402599 0.28998979831452742 0 -0.16207286223537329 0.29060507633358679 0 -0.17310996860552871 0.29798664590069041 0 -0.17137691266402599 0.28998979831452742 0 -0.16207286223537329 0.29060507633358679 0 -0.15901881407255181 0.28003304706428139 0 -0.16809165220744379 0.28168220489628032 0 -0.16207286223537329 0.29060507633358679 0 -0.15901881407255181 0.28003304706428139 0 -0.16207286223537329 0.29060507633358679 0 -0.14778744476235281 0.286100508019561 0 -0.14778744476235281 0.286100508019561 0 -0.15054588357015589 0.30120047439199582 0 -0.13349879986614621 0.29903059959138972 0 -0.16207286223537329 0.29060507633358679 0 -0.14778744476235281 0.286100508019561 0 -0.15054588357015589 0.30120047439199582 0 -0.14307335020385339 0.31673070211801002 0 -0.15054588357015589 0.30120047439199582 0 -0.13349879986614621 0.29903059959138972 0 -0.14307335020385339 0.31673070211801002 0 -0.15851790747784639 0.31498892523436939 0 -0.15054588357015589 0.30120047439199582 0 -0.12747747950422311 0.31727075412957778 0 -0.14307335020385339 0.31673070211801002 0 -0.13349879986614621 0.29903059959138972 0 -0.12747747950422311 0.31727075412957778 0 -0.13349879986614621 0.29903059959138972 0 -0.11718887709159211 0.30798009986445352 0 -0.14778744476235281 0.286100508019561 0 -0.13349879986614621 0.29903059959138972 0 -0.1334459136609126 0.27214406339276598 0 -0.13349879986614621 0.29903059959138972 0 -0.1334459136609126 0.27214406339276598 0 -0.1157907798313646 0.29079372842700768 0 -0.1334459136609126 0.27214406339276598 0 -0.13472013682951001 0.25315436466535701 0 -0.15110104749046091 0.25349439835852478 0 -0.1334459136609126 0.27214406339276598 0 -0.13472013682951001 0.25315436466535701 0 -0.1166646777139321 0.24909936445698569 0 -0.1334459136609126 0.27214406339276598 0 -0.15110104749046091 0.25349439835852478 0 -0.1334459136609126 0.27214406339276598 0 -0.15110104749046091 0.25349439835852478 0 -0.1506701808138603 0.27101369875117298 0 -0.16666710754910949 0.27158983224303862 0 -0.15110104749046091 0.25349439835852478 0 -0.1506701808138603 0.27101369875117298 0 -0.15110104749046091 0.25349439835852478 0 -0.15697023997996279 0.2472945884331311 0 -0.14778744476235281 0.286100508019561 0 -0.1334459136609126 0.27214406339276598 0 -0.1506701808138603 0.27101369875117298 0 -0.15901881407255181 0.28003304706428139 0 -0.14778744476235281 0.286100508019561 0 -0.1506701808138603 0.27101369875117298 0 -0.1049236199766692 0.27082289018986172 0 -0.093307328436427472 0.25068604935165562 0 -0.1166646777139321 0.24909936445698569 0 -0.1334459136609126 0.27214406339276598 0 -0.1049236199766692 0.27082289018986172 0 -0.1166646777139321 0.24909936445698569 0 -0.1334459136609126 0.27214406339276598 0 -0.1049236199766692 0.27082289018986172 0 -0.1157907798313646 0.29079372842700768 0 -0.1334459136609126 0.27214406339276598 0 -0.1157907798313646 0.29079372842700768 0 -0.13349879986614621 0.29903059959138972 0 -0.1157907798313646 0.29079372842700768 0 -0.11718887709159211 0.30798009986445352 0 -0.1157907798313646 0.29079372842700768 0 -0.11718887709159211 0.30798009986445352 0 -0.098135646001816665 0.30944339346124922 0 -0.1157907798313646 0.29079372842700768 0 -0.098135646001816665 0.30944339346124922 0 -0.1157907798313646 0.29079372842700768 0 -0.098135646001816665 0.30944339346124922 0 -0.094360245555784983 0.29034191014588662 0 -0.1049236199766692 0.27082289018986172 0 -0.1157907798313646 0.29079372842700768 0 -0.094360245555784983 0.29034191014588662 0 -0.094360245555784983 0.29034191014588662 0 -0.077138945053500385 0.30742809590519449 0 -0.075735552731980321 0.27745732344703178 0 -0.098135646001816665 0.30944339346124922 0 -0.094360245555784983 0.29034191014588662 0 -0.077138945053500385 0.30742809590519449 0 -0.077138945053500385 0.30742809590519449 0 -0.062245089226282628 0.29131297653043531 0 -0.058448648319934571 0.30562202169022767 0 -0.077138945053500385 0.30742809590519449 0 -0.058448648319934571 0.30562202169022767 0 -0.059565407055416422 0.32148664739843152 0 -0.077138945053500385 0.30742809590519449 0 -0.075735552731980321 0.27745732344703178 0 -0.077138945053500385 0.30742809590519449 0 -0.075735552731980321 0.27745732344703178 0 -0.062245089226282628 0.29131297653043531 0 -0.075735552731980321 0.27745732344703178 0 -0.054099634271113708 0.27178179717988382 0 -0.062245089226282628 0.29131297653043531 0 -0.1049236199766692 0.27082289018986172 0 -0.075735552731980321 0.27745732344703178 0 -0.093307328436427472 0.25068604935165562 0 -0.1049236199766692 0.27082289018986172 0 -0.094360245555784983 0.29034191014588662 0 -0.075735552731980321 0.27745732344703178 0 -0.075735552731980321 0.27745732344703178 0 -0.093307328436427472 0.25068604935165562 0 -0.074332160410460257 0.2474865509888691 0 -0.075735552731980321 0.27745732344703178 0 -0.074332160410460257 0.2474865509888691 0 -0.075735552731980321 0.27745732344703178 0 -0.054099634271113708 0.27178179717988382 0 -0.074332160410460257 0.2474865509888691 0 -0.054099634271113708 0.27178179717988382 0 -0.03546391582915024 0.26126494821788498 0 -0.051845203477081381 0.24947589460876871 0 -0.054099634271113708 0.27178179717988382 0 -0.074332160410460257 0.2474865509888691 0 -0.051845203477081381 0.24947589460876871 0 -0.054099634271113708 0.27178179717988382 0 -0.03546391582915024 0.26126494821788498 0 -0.032666933658047237 0.28203172726724379 0 -0.03546391582915024 0.26126494821788498 0 -0.01512477567536797 0.2698968645922632 0 -0.015901484236324839 0.2481028301655612 0 -0.03546391582915024 0.26126494821788498 0 -0.01512477567536797 0.2698968645922632 0 -0.032666933658047237 0.28203172726724379 0 -0.01512477567536797 0.2698968645922632 0 -0.017931766698163661 0.28801453244773928 0 -0.032666933658047237 0.28203172726724379 0 -0.01512477567536797 0.2698968645922632 0 -0.0047550186418006974 0.28485755340765212 0 -0.017931766698163661 0.28801453244773928 0 -0.01512477567536797 0.2698968645922632 0 -0.0047550186418006974 0.28485755340765212 0 0.002755394739617798 0.27045101537396721 0 -0.01512477567536797 0.2698968645922632 0 -0.00086476245743153171 0.25445850891889638 0 0.002755394739617798 0.27045101537396721 0 -0.01512477567536797 0.2698968645922632 0 -0.00086476245743153171 0.25445850891889638 0 -0.015901484236324839 0.2481028301655612 0 -0.0099532448854732641 0.30089613480749627 0 -0.00047949844301839429 0.31304929114188801 0 -0.014340816140490979 0.31819056754243552 0 -0.0099532448854732641 0.30089613480749627 0 -0.00047949844301839429 0.31304929114188801 0 0.004386076792071255 0.29851808445187428 0 -0.0099532448854732641 0.30089613480749627 0 -0.0047550186418006974 0.28485755340765212 0 -0.017931766698163661 0.28801453244773928 0 -0.0099532448854732641 0.30089613480749627 0 -0.0047550186418006974 0.28485755340765212 0 0.004386076792071255 0.29851808445187428 0 -0.017931766698163661 0.28801453244773928 0 -0.027158860630129109 0.30239038216404118 0 -0.032666933658047237 0.28203172726724379 0 -0.0099532448854732641 0.30089613480749627 0 -0.017931766698163661 0.28801453244773928 0 -0.027158860630129109 0.30239038216404118 0 -0.0099532448854732641 0.30089613480749627 0 -0.027158860630129109 0.30239038216404118 0 -0.014340816140490979 0.31819056754243552 0 -0.027158860630129109 0.30239038216404118 0 -0.044004520689716643 0.31237772661734731 0 -0.02924879151382722 0.32227187671737972 0 -0.027158860630129109 0.30239038216404118 0 -0.044004520689716643 0.31237772661734731 0 -0.045802665754884189 0.29427564442983839 0 -0.054099634271113708 0.27178179717988382 0 -0.045802665754884189 0.29427564442983839 0 -0.032666933658047237 0.28203172726724379 0 -0.027158860630129109 0.30239038216404118 0 -0.045802665754884189 0.29427564442983839 0 -0.032666933658047237 0.28203172726724379 0 -0.054099634271113708 0.27178179717988382 0 -0.045802665754884189 0.29427564442983839 0 -0.062245089226282628 0.29131297653043531 0 -0.044004520689716643 0.31237772661734731 0 -0.045802665754884189 0.29427564442983839 0 -0.058448648319934571 0.30562202169022767 0 -0.045802665754884189 0.29427564442983839 0 -0.062245089226282628 0.29131297653043531 0 -0.058448648319934571 0.30562202169022767 0 -0.044004520689716643 0.31237772661734731 0 -0.058448648319934571 0.30562202169022767 0 -0.059565407055416422 0.32148664739843152 0 -0.044004520689716643 0.31237772661734731 0 -0.059565407055416422 0.32148664739843152 0 -0.042643891022633461 0.32883528389707273 0 -0.059565407055416422 0.32148664739843152 0 -0.056564264390901148 0.33784876966853172 0 -0.042643891022633461 0.32883528389707273 0 -0.056564264390901148 0.33784876966853172 0 -0.042340327970951719 0.34346269569932159 0 -0.042643891022633461 0.32883528389707273 0 -0.042340327970951719 0.34346269569932159 0 -0.042643891022633461 0.32883528389707273 0 -0.024815604907403369 0.33951498246533429 0 -0.042643891022633461 0.32883528389707273 0 -0.02924879151382722 0.32227187671737972 0 -0.024815604907403369 0.33951498246533429 0 -0.044004520689716643 0.31237772661734731 0 -0.042643891022633461 0.32883528389707273 0 -0.02924879151382722 0.32227187671737972 0 -0.027158860630129109 0.30239038216404118 0 -0.02924879151382722 0.32227187671737972 0 -0.014340816140490979 0.31819056754243552 0 -0.02924879151382722 0.32227187671737972 0 -0.015906591099254439 0.33024315778304159 0 -0.014340816140490979 0.31819056754243552 0 -0.024815604907403369 0.33951498246533429 0 -0.015906591099254439 0.33024315778304159 0 -0.0074214699121181666 0.34315668455662152 0 -0.02924879151382722 0.32227187671737972 0 -0.024815604907403369 0.33951498246533429 0 -0.015906591099254439 0.33024315778304159 0 -0.015906591099254439 0.33024315778304159 0 -0.0074214699121181666 0.34315668455662152 0 -0.003706273022432469 0.3280816776334371 0 -0.0074214699121181666 0.34315668455662152 0 0.0031259210745794249 0.34613085015479922 0 0.002888216492373542 0.33594177179532603 0 -0.0074214699121181666 0.34315668455662152 0 -0.003706273022432469 0.3280816776334371 0 0.002888216492373542 0.33594177179532603 0 -0.003706273022432469 0.3280816776334371 0 -0.00047949844301839429 0.31304929114188801 0 -0.014340816140490979 0.31819056754243552 0 -0.015906591099254439 0.33024315778304159 0 -0.003706273022432469 0.3280816776334371 0 -0.014340816140490979 0.31819056754243552 0 -0.011278991072699231 0.36801341262987852 0 -0.00010953871085904071 0.36740455511059711 0 0.0050989194780995568 0.38525347321202952 0 -0.011278991072699231 0.36801341262987852 0 -0.003468337841216744 0.35628739804788773 0 -0.014935844409121671 0.35407572535043702 0 -0.011278991072699231 0.36801341262987852 0 -0.00010953871085904071 0.36740455511059711 0 -0.003468337841216744 0.35628739804788773 0 -0.0074214699121181666 0.34315668455662152 0 -0.003468337841216744 0.35628739804788773 0 0.0031259210745794249 0.34613085015479922 0 -0.0074214699121181666 0.34315668455662152 0 -0.003468337841216744 0.35628739804788773 0 -0.014935844409121671 0.35407572535043702 0 -0.024815604907403369 0.33951498246533429 0 -0.014935844409121671 0.35407572535043702 0 -0.028266333341069622 0.35872901943730462 0 -0.024815604907403369 0.33951498246533429 0 -0.0074214699121181666 0.34315668455662152 0 -0.014935844409121671 0.35407572535043702 0 -0.011278991072699231 0.36801341262987852 0 -0.014935844409121671 0.35407572535043702 0 -0.028266333341069622 0.35872901943730462 0 -0.028266333341069622 0.35872901943730462 0 -0.02414161663720811 0.37375777437116942 0 -0.038090051821240478 0.37605060359231712 0 -0.011278991072699231 0.36801341262987852 0 -0.028266333341069622 0.35872901943730462 0 -0.02414161663720811 0.37375777437116942 0 -0.011278991072699231 0.36801341262987852 0 -0.02414161663720811 0.37375777437116942 0 -0.013544938533253991 0.38312459204672528 0 -0.028266333341069622 0.35872901943730462 0 -0.046029723446326408 0.36245246448892438 0 -0.038090051821240478 0.37605060359231712 0 -0.042340327970951719 0.34346269569932159 0 -0.024815604907403369 0.33951498246533429 0 -0.028266333341069622 0.35872901943730462 0 -0.042340327970951719 0.34346269569932159 0 -0.028266333341069622 0.35872901943730462 0 -0.046029723446326408 0.36245246448892438 0 -0.042340327970951719 0.34346269569932159 0 -0.046029723446326408 0.36245246448892438 0 -0.062011147067223667 0.35223333539759938 0 -0.056564264390901148 0.33784876966853172 0 -0.042340327970951719 0.34346269569932159 0 -0.062011147067223667 0.35223333539759938 0 -0.046029723446326408 0.36245246448892438 0 -0.062011147067223667 0.35223333539759938 0 -0.059440757031146582 0.38178666831807928 0 -0.046029723446326408 0.36245246448892438 0 -0.059440757031146582 0.38178666831807928 0 -0.038090051821240478 0.37605060359231712 0 -0.062011147067223667 0.35223333539759938 0 -0.059440757031146582 0.38178666831807928 0 -0.062011147067223667 0.35223333539759938 0 -0.079945729696540513 0.36736964082151968 0 -0.059440757031146582 0.38178666831807928 0 -0.079945729696540513 0.36736964082151968 0 -0.10240176752465049 0.36398761235855898 0 -0.094759743236245919 0.37772474656159488 0 -0.079945729696540513 0.36736964082151968 0 -0.10240176752465049 0.36398761235855898 0 -0.095836728636280788 0.34767838608538909 0 -0.079945729696540513 0.36736964082151968 0 -0.078542337375020449 0.33739886836335709 0 -0.079945729696540513 0.36736964082151968 0 -0.078542337375020449 0.33739886836335709 0 -0.095836728636280788 0.34767838608538909 0 -0.062011147067223667 0.35223333539759938 0 -0.079945729696540513 0.36736964082151968 0 -0.078542337375020449 0.33739886836335709 0 -0.059565407055416422 0.32148664739843152 0 -0.056564264390901148 0.33784876966853172 0 -0.078542337375020449 0.33739886836335709 0 -0.056564264390901148 0.33784876966853172 0 -0.062011147067223667 0.35223333539759938 0 -0.078542337375020449 0.33739886836335709 0 -0.077138945053500385 0.30742809590519449 0 -0.078542337375020449 0.33739886836335709 0 -0.077138945053500385 0.30742809590519449 0 -0.059565407055416422 0.32148664739843152 0 -0.078542337375020449 0.33739886836335709 0 -0.077138945053500385 0.30742809590519449 0 -0.078542337375020449 0.33739886836335709 0 -0.093766928942592809 0.32732982000800298 0 -0.098135646001816665 0.30944339346124922 0 -0.077138945053500385 0.30742809590519449 0 -0.093766928942592809 0.32732982000800298 0 -0.078542337375020449 0.33739886836335709 0 -0.093766928942592809 0.32732982000800298 0 -0.095836728636280788 0.34767838608538909 0 -0.10590382422126179 0.33845276193738177 0 -0.093766928942592809 0.32732982000800298 0 -0.095836728636280788 0.34767838608538909 0 -0.10590382422126179 0.33845276193738177 0 -0.093766928942592809 0.32732982000800298 0 -0.1119419358528152 0.32266035194818471 0 -0.098135646001816665 0.30944339346124922 0 -0.093766928942592809 0.32732982000800298 0 -0.1119419358528152 0.32266035194818471 0 -0.11718887709159211 0.30798009986445352 0 -0.098135646001816665 0.30944339346124922 0 -0.1119419358528152 0.32266035194818471 0 -0.12917885935540449 0.33548528228844321 0 -0.12747747950422311 0.31727075412957778 0 -0.1119419358528152 0.32266035194818471 0 -0.12747747950422311 0.31727075412957778 0 -0.11718887709159211 0.30798009986445352 0 -0.1119419358528152 0.32266035194818471 0 -0.12917885935540449 0.33548528228844321 0 -0.10590382422126179 0.33845276193738177 0 -0.1144597840576186 0.35153161302351432 0 -0.12917885935540449 0.33548528228844321 0 -0.10590382422126179 0.33845276193738177 0 -0.1119419358528152 0.32266035194818471 0 -0.1310209184129951 0.35256233593402903 0 -0.1144597840576186 0.35153161302351432 0 -0.1243166256956041 0.36893017663585831 0 -0.1310209184129951 0.35256233593402903 0 -0.12917885935540449 0.33548528228844321 0 -0.1144597840576186 0.35153161302351432 0 -0.1243166256956041 0.36893017663585831 0 -0.10240176752465049 0.36398761235855898 0 -0.10885592438472361 0.38589153578161178 0 -0.1144597840576186 0.35153161302351432 0 -0.1243166256956041 0.36893017663585831 0 -0.10240176752465049 0.36398761235855898 0 -0.10590382422126179 0.33845276193738177 0 -0.1144597840576186 0.35153161302351432 0 -0.095836728636280788 0.34767838608538909 0 -0.1144597840576186 0.35153161302351432 0 -0.10240176752465049 0.36398761235855898 0 -0.095836728636280788 0.34767838608538909 0 -0.10885592438472361 0.38589153578161178 0 -0.1187836221401182 0.40954781268373952 0 -0.097646388325659542 0.41154709203790341 0 -0.10885592438472361 0.38589153578161178 0 -0.097646388325659542 0.41154709203790341 0 -0.084394034694098299 0.39652882962650948 0 -0.10240176752465049 0.36398761235855898 0 -0.094759743236245919 0.37772474656159488 0 -0.10885592438472361 0.38589153578161178 0 -0.094759743236245919 0.37772474656159488 0 -0.10885592438472361 0.38589153578161178 0 -0.084394034694098299 0.39652882962650948 0 -0.13102619265169069 0.38719978828045409 0 -0.1243166256956041 0.36893017663585831 0 -0.10885592438472361 0.38589153578161178 0 -0.13102619265169069 0.38719978828045409 0 -0.10885592438472361 0.38589153578161178 0 -0.1187836221401182 0.40954781268373952 0 -0.12549131003263969 0.43394357887995061 0 -0.1187836221401182 0.40954781268373952 0 -0.1013243379954777 0.42957906829448589 0 -0.12549131003263969 0.43394357887995061 0 -0.1013243379954777 0.42957906829448589 0 -0.1082623319187932 0.44879588076248877 0 -0.1187836221401182 0.40954781268373952 0 -0.1013243379954777 0.42957906829448589 0 -0.097646388325659542 0.41154709203790341 0 -0.097646388325659542 0.41154709203790341 0 -0.079425860431156098 0.42401213063939103 0 -0.084394034694098299 0.39652882962650948 0 -0.1013243379954777 0.42957906829448589 0 -0.097646388325659542 0.41154709203790341 0 -0.079425860431156098 0.42401213063939103 0 -0.1013243379954777 0.42957906829448589 0 -0.079425860431156098 0.42401213063939103 0 -0.082020057617639183 0.45418445847984878 0 -0.079425860431156098 0.42401213063939103 0 -0.056870366995069477 0.41134000123855929 0 -0.054299976958992392 0.4408933341590392 0 -0.079425860431156098 0.42401213063939103 0 -0.084394034694098299 0.39652882962650948 0 -0.056870366995069477 0.41134000123855929 0 -0.084394034694098299 0.39652882962650948 0 -0.059440757031146582 0.38178666831807928 0 -0.056870366995069477 0.41134000123855929 0 -0.079945729696540513 0.36736964082151968 0 -0.094759743236245919 0.37772474656159488 0 -0.084394034694098299 0.39652882962650948 0 -0.079945729696540513 0.36736964082151968 0 -0.084394034694098299 0.39652882962650948 0 -0.059440757031146582 0.38178666831807928 0 -0.059440757031146582 0.38178666831807928 0 -0.043431419134799969 0.39409435200034793 0 -0.038090051821240478 0.37605060359231712 0 -0.059440757031146582 0.38178666831807928 0 -0.043431419134799969 0.39409435200034793 0 -0.056870366995069477 0.41134000123855929 0 -0.059440757031146582 0.38178666831807928 0 -0.056870366995069477 0.41134000123855929 0 -0.043431419134799969 0.39409435200034793 0 -0.027671285716597979 0.39283513793387043 0 -0.035084634109945327 0.40845934891891339 0 -0.043431419134799969 0.39409435200034793 0 -0.035084634109945327 0.40845934891891339 0 -0.056870366995069477 0.41134000123855929 0 -0.043431419134799969 0.39409435200034793 0 -0.038090051821240478 0.37605060359231712 0 -0.027671285716597979 0.39283513793387043 0 -0.027671285716597979 0.39283513793387043 0 -0.0097317187178641816 0.39576316208667889 0 -0.013544938533253991 0.38312459204672528 0 -0.02414161663720811 0.37375777437116942 0 -0.027671285716597979 0.39283513793387043 0 -0.013544938533253991 0.38312459204672528 0 -0.02414161663720811 0.37375777437116942 0 -0.038090051821240478 0.37605060359231712 0 -0.027671285716597979 0.39283513793387043 0 -0.027671285716597979 0.39283513793387043 0 -0.017944018106968739 0.4081408173707809 0 -0.035084634109945327 0.40845934891891339 0 -0.027671285716597979 0.39283513793387043 0 -0.0097317187178641816 0.39576316208667889 0 -0.017944018106968739 0.4081408173707809 0 -0.0097317187178641816 0.39576316208667889 0 -0.017944018106968739 0.4081408173707809 0 0.00098758436381884453 0.4104430098714662 0 -0.0097317187178641816 0.39576316208667889 0 0.00098758436381884453 0.4104430098714662 0 0.0050989194780995568 0.38525347321202952 0 -0.011278991072699231 0.36801341262987852 0 -0.013544938533253991 0.38312459204672528 0 0.0050989194780995568 0.38525347321202952 0 -0.0097317187178641816 0.39576316208667889 0 -0.013544938533253991 0.38312459204672528 0 0.0050989194780995568 0.38525347321202952 0 -0.003123750750461876 0.435632546530903 0 0.00098758436381884453 0.4104430098714662 0 -0.003123750750461876 0.435632546530903 0 -0.01176964933022716 0.42164999838178963 0 -0.02030193433586467 0.43579538394588507 0 -0.003123750750461876 0.435632546530903 0 -0.01176964933022716 0.42164999838178963 0 0.00098758436381884453 0.4104430098714662 0 -0.01176964933022716 0.42164999838178963 0 -0.017944018106968739 0.4081408173707809 0 0.00098758436381884453 0.4104430098714662 0 -0.017944018106968739 0.4081408173707809 0 -0.02439440513099661 0.41969424703196739 0 -0.035084634109945327 0.40845934891891339 0 -0.01176964933022716 0.42164999838178963 0 -0.017944018106968739 0.4081408173707809 0 -0.02439440513099661 0.41969424703196739 0 -0.01176964933022716 0.42164999838178963 0 -0.02439440513099661 0.41969424703196739 0 -0.02030193433586467 0.43579538394588507 0 -0.02439440513099661 0.41969424703196739 0 -0.02030193433586467 0.43579538394588507 0 -0.037410157838143478 0.42776971123367907 0 -0.037410157838143478 0.42776971123367907 0 -0.035084634109945327 0.40845934891891339 0 -0.056870366995069477 0.41134000123855929 0 -0.02439440513099661 0.41969424703196739 0 -0.037410157838143478 0.42776971123367907 0 -0.035084634109945327 0.40845934891891339 0 -0.056870366995069477 0.41134000123855929 0 -0.054299976958992392 0.4408933341590392 0 -0.037410157838143478 0.42776971123367907 0 -0.056870366995069477 0.41134000123855929 0 -0.054299976958992392 0.4408933341590392 0 -0.054299976958992392 0.4408933341590392 0 -0.051729586922915287 0.47044666707951932 0 -0.054299976958992392 0.4408933341590392 0 -0.03350962949799248 0.45043595210771048 0 -0.051729586922915287 0.47044666707951932 0 -0.03350962949799248 0.45043595210771048 0 -0.028476260312819138 0.47028547005669802 0 -0.051729586922915287 0.47044666707951932 0 -0.037410157838143478 0.42776971123367907 0 -0.054299976958992392 0.4408933341590392 0 -0.03350962949799248 0.45043595210771048 0 -0.02030193433586467 0.43579538394588507 0 -0.037410157838143478 0.42776971123367907 0 -0.03350962949799248 0.45043595210771048 0 -0.02030193433586467 0.43579538394588507 0 -0.03350962949799248 0.45043595210771048 0 -0.0072350858647425836 0.46082208319033968 0 -0.03350962949799248 0.45043595210771048 0 -0.0072350858647425836 0.46082208319033968 0 -0.028476260312819138 0.47028547005669802 0 -0.003123750750461876 0.435632546530903 0 -0.02030193433586467 0.43579538394588507 0 -0.0072350858647425836 0.46082208319033968 0 -0.003123750750461876 0.435632546530903 0 -0.0072350858647425836 0.46082208319033968 0 -0.0040596534037184787 0.48264772043053378 0 -0.025963750435920571 0.50000000000000044 0 -0.011346420979023259 0.4860116198497762 0 -0.0040596534037184787 0.48264772043053378 0 -0.025963750435920571 0.50000000000000044 0 -2.6928171576900969e-05 0.5 0 -0.0040596534037184787 0.48264772043053378 0 -0.025963750435920571 0.50000000000000044 0 -0.0072350858647425836 0.46082208319033968 0 -0.011346420979023259 0.4860116198497762 0 -0.0072350858647425836 0.46082208319033968 0 -0.011346420979023259 0.4860116198497762 0 -0.0040596534037184787 0.48264772043053378 0 -0.0072350858647425836 0.46082208319033968 0 -0.011346420979023259 0.4860116198497762 0 -0.028476260312819138 0.47028547005669802 0 -0.011346420979023259 0.4860116198497762 0 -0.028476260312819138 0.47028547005669802 0 -0.033335043107503237 0.4853487513971988 0 -0.011346420979023259 0.4860116198497762 0 -0.025963750435920571 0.50000000000000044 0 -0.033335043107503237 0.4853487513971988 0 -0.033335043107503237 0.4853487513971988 0 -0.051729586922915287 0.47044666707951932 0 -0.049159196886838237 0.49999999999999922 0 -0.025963750435920571 0.50000000000000044 0 -0.033335043107503237 0.4853487513971988 0 -0.049159196886838237 0.49999999999999922 0 -0.028476260312819138 0.47028547005669802 0 -0.033335043107503237 0.4853487513971988 0 -0.051729586922915287 0.47044666707951932 0 -0.051729586922915287 0.47044666707951932 0 -0.049159196886838237 0.49999999999999922 0 -0.069311840632328717 0.48070798579294022 0 -0.051729586922915287 0.47044666707951932 0 -0.049159196886838237 0.49999999999999922 0 -0.0754687828329621 0.5 0 -0.088181578901288804 0.47890880340533287 0 -0.069311840632328717 0.48070798579294022 0 -0.049159196886838237 0.49999999999999922 0 -0.0754687828329621 0.5 0 -0.069311840632328717 0.48070798579294022 0 -0.0754687828329621 0.5 0 -0.088181578901288804 0.47890880340533287 0 -0.101778368779086 0.5 0 -0.088181578901288804 0.47890880340533287 0 -0.069311840632328717 0.48070798579294022 0 -0.082020057617639183 0.45418445847984878 0 -0.054299976958992392 0.4408933341590392 0 -0.051729586922915287 0.47044666707951932 0 -0.082020057617639183 0.45418445847984878 0 -0.051729586922915287 0.47044666707951932 0 -0.069311840632328717 0.48070798579294022 0 -0.082020057617639183 0.45418445847984878 0 -0.079425860431156098 0.42401213063939103 0 -0.054299976958992392 0.4408933341590392 0 -0.082020057617639183 0.45418445847984878 0 -0.088181578901288804 0.47890880340533287 0 -0.082020057617639183 0.45418445847984878 0 -0.1066172861623392 0.46732762758783108 0 -0.082020057617639183 0.45418445847984878 0 -0.1066172861623392 0.46732762758783108 0 -0.1082623319187932 0.44879588076248877 0 -0.1013243379954777 0.42957906829448589 0 -0.082020057617639183 0.45418445847984878 0 -0.1082623319187932 0.44879588076248877 0 -0.12585866778586999 0.45894467057032751 0 -0.12549131003263969 0.43394357887995061 0 -0.1082623319187932 0.44879588076248877 0 -0.12585866778586999 0.45894467057032751 0 -0.1066172861623392 0.46732762758783108 0 -0.1082623319187932 0.44879588076248877 0 -0.12585215327447319 0.4788759980507391 0 -0.12585866778586999 0.45894467057032751 0 -0.1066172861623392 0.46732762758783108 0 -0.12585215327447319 0.4788759980507391 0 -0.1066172861623392 0.46732762758783108 0 -0.101778368779086 0.5 0 -0.088181578901288804 0.47890880340533287 0 -0.1066172861623392 0.46732762758783108 0 -0.101778368779086 0.5 0 -0.1280879547252097 0.5 0 -0.12585215327447319 0.4788759980507391 0 -0.101778368779086 0.5 0 -0.15959755580972479 0.084178310987390509 0 -0.17585844643910539 0.091512189364117341 0 -0.1630850360195806 0.097965438629696339 0 -0.16969621335058491 0.080491469039413815 0 -0.15959755580972479 0.084178310987390509 0 -0.17585844643910539 0.091512189364117341 0 -0.15959755580972479 0.084178310987390509 0 -0.1630850360195806 0.097965438629696339 0 -0.15044327437043661 0.088186096167462702 0 -0.15959755580972479 0.084178310987390509 0 -0.16144062485291791 0.077831068069168438 0 -0.15593068256943521 0.074684126355267583 0 -0.16969621335058491 0.080491469039413815 0 -0.15959755580972479 0.084178310987390509 0 -0.16144062485291791 0.077831068069168438 0 -0.1642904016101506 0.073024854877467904 0 -0.15583147793091401 0.068237667852645997 0 -0.15593068256943521 0.074684126355267583 0 -0.16144062485291791 0.077831068069168438 0 -0.1642904016101506 0.073024854877467904 0 -0.15593068256943521 0.074684126355267583 0 -0.1636605914677049 0.065702203840382528 0 -0.1642904016101506 0.073024854877467904 0 -0.15583147793091401 0.068237667852645997 0 -0.1636605914677049 0.065702203840382528 0 -0.15583147793091401 0.068237667852645997 0 -0.1567263369593084 0.062348801619730568 0 -0.1636605914677049 0.065702203840382528 0 -0.1605564917933697 0.059693292433383643 0 -0.1567263369593084 0.062348801619730568 0 -0.1636605914677049 0.065702203840382528 0 -0.1790644639049416 0.072808198998443874 0 -0.16495928908662111 0.057594015148772132 0 -0.16969621335058491 0.080491469039413815 0 -0.1642904016101506 0.073024854877467904 0 -0.1790644639049416 0.072808198998443874 0 -0.1636605914677049 0.065702203840382528 0 -0.1642904016101506 0.073024854877467904 0 -0.1790644639049416 0.072808198998443874 0 -0.16969621335058491 0.080491469039413815 0 -0.16144062485291791 0.077831068069168438 0 -0.1642904016101506 0.073024854877467904 0 -0.1790644639049416 0.072808198998443874 0 -0.17941710979146891 0.057721909460366663 0 -0.19592357530150209 0.062313214016805049 0 -0.16969621335058491 0.080491469039413815 0 -0.1790644639049416 0.072808198998443874 0 -0.17585844643910539 0.091512189364117341 0 -0.1790644639049416 0.072808198998443874 0 -0.19192926524191631 0.09438503106877083 0 -0.1790644639049416 0.072808198998443874 0 -0.17585844643910539 0.091512189364117341 0 -0.19192926524191631 0.09438503106877083 0 -0.17585844643910539 0.091512189364117341 0 -0.1737998171564987 0.1084560653346931 0 -0.19084242711415561 0.1093953912954924 0 -0.17585844643910539 0.091512189364117341 0 -0.19084242711415561 0.1093953912954924 0 -0.17585844643910539 0.091512189364117341 0 -0.19084242711415561 0.1093953912954924 0 -0.19192926524191631 0.09438503106877083 0 -0.1737998171564987 0.1084560653346931 0 -0.1812687766166434 0.12380362318642241 0 -0.19084242711415561 0.1093953912954924 0 -0.1812687766166434 0.12380362318642241 0 -0.15671114544408199 0.1203286531459757 0 -0.15845268348224029 0.12802297094882339 0 -0.1737998171564987 0.1084560653346931 0 -0.1812687766166434 0.12380362318642241 0 -0.15671114544408199 0.1203286531459757 0 -0.1812687766166434 0.12380362318642241 0 -0.15671114544408199 0.1203286531459757 0 -0.17585844643910539 0.091512189364117341 0 -0.1737998171564987 0.1084560653346931 0 -0.1630850360195806 0.097965438629696339 0 -0.15671114544408199 0.1203286531459757 0 -0.1630850360195806 0.097965438629696339 0 -0.1498141748421184 0.10332162042626079 0 -0.1737998171564987 0.1084560653346931 0 -0.15671114544408199 0.1203286531459757 0 -0.1630850360195806 0.097965438629696339 0 -0.1498141748421184 0.10332162042626079 0 -0.1406440163006055 0.084471688731503777 0 -0.1498141748421184 0.10332162042626079 0 -0.13762294145774259 0.096748405779360308 0 -0.1406440163006055 0.084471688731503777 0 -0.1630850360195806 0.097965438629696339 0 -0.1498141748421184 0.10332162042626079 0 -0.15044327437043661 0.088186096167462702 0 -0.1498141748421184 0.10332162042626079 0 -0.14121198087177261 0.1082752744601332 0 -0.13762294145774259 0.096748405779360308 0 -0.15671114544408199 0.1203286531459757 0 -0.1321535142715205 0.1168536831055289 0 -0.15671114544408199 0.1203286531459757 0 -0.1498141748421184 0.10332162042626079 0 -0.14121198087177261 0.1082752744601332 0 -0.15671114544408199 0.1203286531459757 0 -0.14121198087177261 0.1082752744601332 0 -0.1321535142715205 0.1168536831055289 0 -0.15671114544408199 0.1203286531459757 0 -0.1321535142715205 0.1168536831055289 0 -0.14318085325170099 0.12743535974639381 0 -0.14121198087177261 0.1082752744601332 0 -0.1321535142715205 0.1168536831055289 0 -0.13091497128709609 0.107442988618835 0 -0.1321535142715205 0.1168536831055289 0 -0.13091497128709609 0.107442988618835 0 -0.12925040267058449 0.1090812213373212 0 -0.12925040267058449 0.1090812213373212 0 -0.12521400950370701 0.092123294682975254 0 -0.13091497128709609 0.107442988618835 0 -0.12854148902822821 0.090720496459719718 0 -0.13762294145774259 0.096748405779360308 0 -0.13091497128709609 0.107442988618835 0 -0.12854148902822821 0.090720496459719718 0 -0.13091497128709609 0.107442988618835 0 -0.12925040267058449 0.1090812213373212 0 -0.12521400950370701 0.092123294682975254 0 -0.13091497128709609 0.107442988618835 0 -0.12521400950370701 0.092123294682975254 0 -0.12854148902822821 0.090720496459719718 0 -0.14121198087177261 0.1082752744601332 0 -0.13762294145774259 0.096748405779360308 0 -0.13091497128709609 0.107442988618835 0 -0.12854148902822821 0.090720496459719718 0 -0.13077368677813231 0.082194545861060536 0 -0.13518943788848331 0.087917855367356593 0 -0.12854148902822821 0.090720496459719718 0 -0.1254225941229038 0.068746160900854683 0 -0.12854148902822821 0.090720496459719718 0 -0.13077368677813231 0.082194545861060536 0 -0.1254225941229038 0.068746160900854683 0 -0.12521400950370701 0.092123294682975254 0 -0.12854148902822821 0.090720496459719718 0 -0.12854148902822821 0.090720496459719718 0 -0.13518943788848331 0.087917855367356593 0 -0.13077368677813231 0.082194545861060536 0 -0.13225146192384779 0.078163800102795292 0 -0.1347146507227672 0.083186972515679053 0 -0.13225146192384779 0.078163800102795292 0 -0.1406440163006055 0.084471688731503777 0 -0.13244798252661241 0.074250851692975101 0 -0.13225146192384779 0.078163800102795292 0 -0.1347146507227672 0.083186972515679053 0 -0.1406440163006055 0.084471688731503777 0 -0.13077368677813231 0.082194545861060536 0 -0.1347146507227672 0.083186972515679053 0 -0.13518943788848331 0.087917855367356593 0 -0.1347146507227672 0.083186972515679053 0 -0.13518943788848331 0.087917855367356593 0 -0.1406440163006055 0.084471688731503777 0 -0.13762294145774259 0.096748405779360308 0 -0.12854148902822821 0.090720496459719718 0 -0.13518943788848331 0.087917855367356593 0 -0.13762294145774259 0.096748405779360308 0 -0.13518943788848331 0.087917855367356593 0 -0.1406440163006055 0.084471688731503777 0 -0.1498141748421184 0.10332162042626079 0 -0.1406440163006055 0.084471688731503777 0 -0.15044327437043661 0.088186096167462702 0 -0.1406440163006055 0.084471688731503777 0 -0.14432336983940139 0.078578781765357542 0 -0.1397207270135728 0.073265326789952123 0 -0.1406440163006055 0.084471688731503777 0 -0.1463141285110624 0.08257446960330668 0 -0.15044327437043661 0.088186096167462702 0 -0.1406440163006055 0.084471688731503777 0 -0.14432336983940139 0.078578781765357542 0 -0.1463141285110624 0.08257446960330668 0 -0.14432336983940139 0.078578781765357542 0 -0.1463141285110624 0.08257446960330668 0 -0.149845853533806 0.079061311748902727 0 -0.1463141285110624 0.08257446960330668 0 -0.149845853533806 0.079061311748902727 0 -0.15044327437043661 0.088186096167462702 0 -0.15959755580972479 0.084178310987390509 0 -0.149845853533806 0.079061311748902727 0 -0.15593068256943521 0.074684126355267583 0 -0.15959755580972479 0.084178310987390509 0 -0.149845853533806 0.079061311748902727 0 -0.15044327437043661 0.088186096167462702 0 -0.1489773437757653 0.068182137942970455 0 -0.15217812150563201 0.064227404120331497 0 -0.15583147793091401 0.068237667852645997 0 -0.1489773437757653 0.068182137942970455 0 -0.15583147793091401 0.068237667852645997 0 -0.1508209848344606 0.073064099844654062 0 -0.1489773437757653 0.068182137942970455 0 -0.15217812150563201 0.064227404120331497 0 -0.14717927454344501 0.064090066655530853 0 -0.15217812150563201 0.064227404120331497 0 -0.14717927454344501 0.064090066655530853 0 -0.15093993510037931 0.059233237957819401 0 -0.15217812150563201 0.064227404120331497 0 -0.15583147793091401 0.068237667852645997 0 -0.1567263369593084 0.062348801619730568 0 -0.15583147793091401 0.068237667852645997 0 -0.15593068256943521 0.074684126355267583 0 -0.1508209848344606 0.073064099844654062 0 -0.149845853533806 0.079061311748902727 0 -0.15593068256943521 0.074684126355267583 0 -0.1508209848344606 0.073064099844654062 0 -0.149845853533806 0.079061311748902727 0 -0.1508209848344606 0.073064099844654062 0 -0.14567944807545721 0.073261838573327104 0 -0.1489773437757653 0.068182137942970455 0 -0.1508209848344606 0.073064099844654062 0 -0.14567944807545721 0.073261838573327104 0 -0.14432336983940139 0.078578781765357542 0 -0.149845853533806 0.079061311748902727 0 -0.14567944807545721 0.073261838573327104 0 -0.14432336983940139 0.078578781765357542 0 -0.14567944807545721 0.073261838573327104 0 -0.1397207270135728 0.073265326789952123 0 -0.14567944807545721 0.073261838573327104 0 -0.1428024337849349 0.06691454381704455 0 -0.1397207270135728 0.073265326789952123 0 -0.1489773437757653 0.068182137942970455 0 -0.14567944807545721 0.073261838573327104 0 -0.1428024337849349 0.06691454381704455 0 -0.1489773437757653 0.068182137942970455 0 -0.1428024337849349 0.06691454381704455 0 -0.14717927454344501 0.064090066655530853 0 -0.1428024337849349 0.06691454381704455 0 -0.14717927454344501 0.064090066655530853 0 -0.14216958858581721 0.060016206066245609 0 -0.1428024337849349 0.06691454381704455 0 -0.13799361951404601 0.063272377952081529 0 -0.14216958858581721 0.060016206066245609 0 -0.1406440163006055 0.084471688731503777 0 -0.13244798252661241 0.074250851692975101 0 -0.13147385775909259 0.065621757036746706 0 -0.1406440163006055 0.084471688731503777 0 -0.1397207270135728 0.073265326789952123 0 -0.13147385775909259 0.065621757036746706 0 -0.1428024337849349 0.06691454381704455 0 -0.13799361951404601 0.063272377952081529 0 -0.13798729052570891 0.067223858603260384 0 -0.1406440163006055 0.084471688731503777 0 -0.13147385775909259 0.065621757036746706 0 -0.13798729052570891 0.067223858603260384 0 -0.1397207270135728 0.073265326789952123 0 -0.13147385775909259 0.065621757036746706 0 -0.1428024337849349 0.06691454381704455 0 -0.13798729052570891 0.067223858603260384 0 -0.1397207270135728 0.073265326789952123 0 -0.13799361951404601 0.063272377952081529 0 -0.13798729052570891 0.067223858603260384 0 -0.13147385775909259 0.065621757036746706 0 -0.13799361951404601 0.063272377952081529 0 -0.13147385775909259 0.065621757036746706 0 -0.13612421747953821 0.059122663602096573 0 -0.13077368677813231 0.082194545861060536 0 -0.13225146192384779 0.078163800102795292 0 -0.1254225941229038 0.068746160900854683 0 -0.13225146192384779 0.078163800102795292 0 -0.13244798252661241 0.074250851692975101 0 -0.1254225941229038 0.068746160900854683 0 -0.13244798252661241 0.074250851692975101 0 -0.1254225941229038 0.068746160900854683 0 -0.13147385775909259 0.065621757036746706 0 -0.13147385775909259 0.065621757036746706 0 -0.13241554768282779 0.052715274364744151 0 -0.1223036992175798 0.046771825341989579 0 -0.13147385775909259 0.065621757036746706 0 -0.1223036992175798 0.046771825341989579 0 -0.1254225941229038 0.068746160900854683 0 -0.13147385775909259 0.065621757036746706 0 -0.1223036992175798 0.046771825341989579 0 -0.13147385775909259 0.065621757036746706 0 -0.13612421747953821 0.059122663602096573 0 -0.13241554768282779 0.052715274364744151 0 -0.13612421747953821 0.059122663602096573 0 -0.13947129161547059 0.053673444244999917 0 -0.13241554768282779 0.052715274364744151 0 -0.13612421747953821 0.059122663602096573 0 -0.13947129161547059 0.053673444244999917 0 -0.14216958858581721 0.060016206066245609 0 -0.13799361951404601 0.063272377952081529 0 -0.13612421747953821 0.059122663602096573 0 -0.14216958858581721 0.060016206066245609 0 -0.13729636915165311 0.047798906740592749 0 -0.13947129161547059 0.053673444244999917 0 -0.14340737516892499 0.048245129965086099 0 -0.13729636915165311 0.047798906740592749 0 -0.13947129161547059 0.053673444244999917 0 -0.13241554768282779 0.052715274364744151 0 -0.13729636915165311 0.047798906740592749 0 -0.13241554768282779 0.052715274364744151 0 -0.13133307386546461 0.045722459128275307 0 -0.13241554768282779 0.052715274364744151 0 -0.13133307386546461 0.045722459128275307 0 -0.1223036992175798 0.046771825341989579 0 -0.12915789987331769 0.03963493444348222 0 -0.13133307386546461 0.045722459128275307 0 -0.1223036992175798 0.046771825341989579 0 -0.12915789987331769 0.03963493444348222 0 -0.1266498071351265 0.032053537492123411 0 -0.1223036992175798 0.046771825341989579 0 -0.12915789987331769 0.03963493444348222 0 -0.13133307386546461 0.045722459128275307 0 -0.13524825732064269 0.041373323429941711 0 -0.12915789987331769 0.03963493444348222 0 -0.1338431549305566 0.033232091891949339 0 -0.13524825732064269 0.041373323429941711 0 -0.12915789987331769 0.03963493444348222 0 -0.1266498071351265 0.032053537492123411 0 -0.1338431549305566 0.033232091891949339 0 -0.1338431549305566 0.033232091891949339 0 -0.143570962998157 0.036727118608798341 0 -0.1409781739946892 0.027128056240030129 0 -0.1338431549305566 0.033232091891949339 0 -0.13524825732064269 0.041373323429941711 0 -0.143570962998157 0.036727118608798341 0 -0.13524825732064269 0.041373323429941711 0 -0.14115775455199869 0.043492119011670431 0 -0.143570962998157 0.036727118608798341 0 -0.13729636915165311 0.047798906740592749 0 -0.13133307386546461 0.045722459128275307 0 -0.13524825732064269 0.041373323429941711 0 -0.13729636915165311 0.047798906740592749 0 -0.13524825732064269 0.041373323429941711 0 -0.14115775455199869 0.043492119011670431 0 -0.13729636915165311 0.047798906740592749 0 -0.14115775455199869 0.043492119011670431 0 -0.14340737516892499 0.048245129965086099 0 -0.14626580812061571 0.043316116313933242 0 -0.143570962998157 0.036727118608798341 0 -0.1549838497381307 0.039819777692187558 0 -0.14115775455199869 0.043492119011670431 0 -0.14626580812061571 0.043316116313933242 0 -0.14340737516892499 0.048245129965086099 0 -0.14115775455199869 0.043492119011670431 0 -0.14626580812061571 0.043316116313933242 0 -0.143570962998157 0.036727118608798341 0 -0.14626580812061571 0.043316116313933242 0 -0.1504303007895465 0.047361476128921609 0 -0.14340737516892499 0.048245129965086099 0 -0.143570962998157 0.036727118608798341 0 -0.1549838497381307 0.039819777692187558 0 -0.15198625115200809 0.026660748601051859 0 -0.1549838497381307 0.039819777692187558 0 -0.1504303007895465 0.047361476128921609 0 -0.15764591476658621 0.048139200706250301 0 -0.14626580812061571 0.043316116313933242 0 -0.1549838497381307 0.039819777692187558 0 -0.1504303007895465 0.047361476128921609 0 -0.1504303007895465 0.047361476128921609 0 -0.15368376048502849 0.052908777460702362 0 -0.15764591476658621 0.048139200706250301 0 -0.1504303007895465 0.047361476128921609 0 -0.15368376048502849 0.052908777460702362 0 -0.1466017264381364 0.053578038646384087 0 -0.15368376048502849 0.052908777460702362 0 -0.15093993510037931 0.059233237957819401 0 -0.15673228037164849 0.057611057978652798 0 -0.15093993510037931 0.059233237957819401 0 -0.1567263369593084 0.062348801619730568 0 -0.15673228037164849 0.057611057978652798 0 -0.15217812150563201 0.064227404120331497 0 -0.15093993510037931 0.059233237957819401 0 -0.1567263369593084 0.062348801619730568 0 -0.15368376048502849 0.052908777460702362 0 -0.15093993510037931 0.059233237957819401 0 -0.1466017264381364 0.053578038646384087 0 -0.15093993510037931 0.059233237957819401 0 -0.14216958858581721 0.060016206066245609 0 -0.1466017264381364 0.053578038646384087 0 -0.14717927454344501 0.064090066655530853 0 -0.15093993510037931 0.059233237957819401 0 -0.14216958858581721 0.060016206066245609 0 -0.13947129161547059 0.053673444244999917 0 -0.14216958858581721 0.060016206066245609 0 -0.1466017264381364 0.053578038646384087 0 -0.13947129161547059 0.053673444244999917 0 -0.14340737516892499 0.048245129965086099 0 -0.1466017264381364 0.053578038646384087 0 -0.1504303007895465 0.047361476128921609 0 -0.14340737516892499 0.048245129965086099 0 -0.1466017264381364 0.053578038646384087 0 -0.13357713014657771 0.001837916871094596 0 -0.13458587759698809 0.01045610627648846 0 -0.14308145814072051 0.0024165038181870099 0 -0.1267834157359943 -0.0026565814049187282 0 -0.13357713014657771 0.001837916871094596 0 -0.12876234116223551 0.0062894663790507184 0 -0.13357713014657771 0.001837916871094596 0 -0.12876234116223551 0.0062894663790507184 0 -0.13458587759698809 0.01045610627648846 0 -0.12519071472699889 0.014101852870310769 0 -0.13458587759698809 0.01045610627648846 0 -0.1316422681067437 0.021261077894833589 0 -0.12876234116223551 0.0062894663790507184 0 -0.12519071472699889 0.014101852870310769 0 -0.13458587759698809 0.01045610627648846 0 -0.13458587759698809 0.01045610627648846 0 -0.14384823278598091 0.01775924420351754 0 -0.14308145814072051 0.0024165038181870099 0 -0.13458587759698809 0.01045610627648846 0 -0.1316422681067437 0.021261077894833589 0 -0.14384823278598091 0.01775924420351754 0 -0.1316422681067437 0.021261077894833589 0 -0.1409781739946892 0.027128056240030129 0 -0.14384823278598091 0.01775924420351754 0 -0.12519071472699889 0.014101852870310769 0 -0.1316422681067437 0.021261077894833589 0 -0.118996745933825 0.02347251473980343 0 -0.1266498071351265 0.032053537492123411 0 -0.1338431549305566 0.033232091891949339 0 -0.1316422681067437 0.021261077894833589 0 -0.1266498071351265 0.032053537492123411 0 -0.1316422681067437 0.021261077894833589 0 -0.118996745933825 0.02347251473980343 0 -0.1338431549305566 0.033232091891949339 0 -0.1316422681067437 0.021261077894833589 0 -0.1409781739946892 0.027128056240030129 0 -0.15198625115200809 0.026660748601051859 0 -0.14384823278598091 0.01775924420351754 0 -0.1565838150956716 0.0095235695578667467 0 -0.143570962998157 0.036727118608798341 0 -0.1409781739946892 0.027128056240030129 0 -0.15198625115200809 0.026660748601051859 0 -0.1409781739946892 0.027128056240030129 0 -0.15198625115200809 0.026660748601051859 0 -0.14384823278598091 0.01775924420351754 0 -0.14384823278598091 0.01775924420351754 0 -0.14308145814072051 0.0024165038181870099 0 -0.14384823278598091 0.01775924420351754 0 -0.14308145814072051 0.0024165038181870099 0 -0.1565838150956716 0.0095235695578667467 0 -0.15050868129767611 -0.0032521095412758839 0 -0.14308145814072051 0.0024165038181870099 0 -0.1565838150956716 0.0095235695578667467 0 -0.1565838150956716 0.0095235695578667467 0 -0.17074772103253419 0.02790154205510767 0 -0.17529577949709821 0.0045717171820992414 0 -0.1615931009109785 -0.0082701906529346041 0 -0.1565838150956716 0.0095235695578667467 0 -0.17529577949709821 0.0045717171820992414 0 -0.15198625115200809 0.026660748601051859 0 -0.1565838150956716 0.0095235695578667467 0 -0.17074772103253419 0.02790154205510767 0 -0.17074772103253419 0.02790154205510767 0 -0.18383447420280799 0.017079327585556262 0 -0.19140960828659559 0.031201998409771291 0 -0.17074772103253419 0.02790154205510767 0 -0.17529577949709821 0.0045717171820992414 0 -0.17074772103253419 0.02790154205510767 0 -0.18383447420280799 0.017079327585556262 0 -0.17529577949709821 0.0045717171820992414 0 -0.18383447420280799 0.017079327585556262 0 -0.17529577949709821 0.0045717171820992414 0 -0.19067196743121351 0.003566433312548245 0 -0.18388618390927811 -0.0073420311000470737 0 -0.17529577949709821 0.0045717171820992414 0 -0.19067196743121351 0.003566433312548245 0 -0.1790644639049416 0.072808198998443874 0 -0.1661996625679687 0.051231366928115828 0 -0.16495928908662111 0.057594015148772132 0 -0.1661996625679687 0.051231366928115828 0 -0.16495928908662111 0.057594015148772132 0 -0.1625389671491641 0.051826789507368611 0 -0.1661996625679687 0.051231366928115828 0 -0.16495928908662111 0.057594015148772132 0 -0.1661996625679687 0.051231366928115828 0 -0.1642561832849273 0.047971765398026923 0 -0.1661996625679687 0.051231366928115828 0 -0.1642561832849273 0.047971765398026923 0 -0.1625389671491641 0.051826789507368611 0 -0.1636605914677049 0.065702203840382528 0 -0.16495928908662111 0.057594015148772132 0 -0.1605564917933697 0.059693292433383643 0 -0.16495928908662111 0.057594015148772132 0 -0.1605564917933697 0.059693292433383643 0 -0.15963378603971731 0.054197599355677827 0 -0.1605564917933697 0.059693292433383643 0 -0.1567263369593084 0.062348801619730568 0 -0.15673228037164849 0.057611057978652798 0 -0.15368376048502849 0.052908777460702362 0 -0.15673228037164849 0.057611057978652798 0 -0.15963378603971731 0.054197599355677827 0 -0.1605564917933697 0.059693292433383643 0 -0.15673228037164849 0.057611057978652798 0 -0.15963378603971731 0.054197599355677827 0 -0.15368376048502849 0.052908777460702362 0 -0.15963378603971731 0.054197599355677827 0 -0.15764591476658621 0.048139200706250301 0 -0.15963378603971731 0.054197599355677827 0 -0.1625389671491641 0.051826789507368611 0 -0.15764591476658621 0.048139200706250301 0 -0.16495928908662111 0.057594015148772132 0 -0.15963378603971731 0.054197599355677827 0 -0.1625389671491641 0.051826789507368611 0 -0.1642561832849273 0.047971765398026923 0 -0.1625389671491641 0.051826789507368611 0 -0.15764591476658621 0.048139200706250301 0 -0.1549838497381307 0.039819777692187558 0 -0.17074772103253419 0.02790154205510767 0 -0.1642561832849273 0.047971765398026923 0 -0.17074772103253419 0.02790154205510767 0 -0.1661996625679687 0.051231366928115828 0 -0.17074772103253419 0.02790154205510767 0 -0.1661996625679687 0.051231366928115828 0 -0.1642561832849273 0.047971765398026923 0 -0.1549838497381307 0.039819777692187558 0 -0.1642561832849273 0.047971765398026923 0 -0.15764591476658621 0.048139200706250301 0 -0.17074772103253419 0.02790154205510767 0 -0.1661996625679687 0.051231366928115828 0 -0.17843558575029039 0.041508486905022499 0 -0.1549838497381307 0.039819777692187558 0 -0.15198625115200809 0.026660748601051859 0 -0.17074772103253419 0.02790154205510767 0 -0.17843558575029039 0.041508486905022499 0 -0.1882007709028963 0.047916127913159613 0 -0.19140960828659559 0.031201998409771291 0 -0.17074772103253419 0.02790154205510767 0 -0.17843558575029039 0.041508486905022499 0 -0.19140960828659559 0.031201998409771291 0 -0.17843558575029039 0.041508486905022499 0 -0.17523305319688351 0.0500388980099837 0 -0.1882007709028963 0.047916127913159613 0 -0.1790644639049416 0.072808198998443874 0 -0.1661996625679687 0.051231366928115828 0 -0.17523305319688351 0.0500388980099837 0 -0.17941710979146891 0.057721909460366663 0 -0.1882007709028963 0.047916127913159613 0 -0.1790644639049416 0.072808198998443874 0 -0.1661996625679687 0.051231366928115828 0 -0.17941710979146891 0.057721909460366663 0 -0.1661996625679687 0.051231366928115828 0 -0.17523305319688351 0.0500388980099837 0 -0.17941710979146891 0.057721909460366663 0 -0.1661996625679687 0.051231366928115828 0 -0.17843558575029039 0.041508486905022499 0 -0.17523305319688351 0.0500388980099837 0 -0.19592357530150209 0.062313214016805049 0 -0.1882007709028963 0.047916127913159613 0 -0.21371114818946821 0.043337185221797317 0 -0.17941710979146891 0.057721909460366663 0 -0.19592357530150209 0.062313214016805049 0 -0.1882007709028963 0.047916127913159613 0 -0.1882007709028963 0.047916127913159613 0 -0.21371114818946821 0.043337185221797317 0 -0.19140960828659559 0.031201998409771291 0 -0.19592357530150209 0.062313214016805049 0 -0.21371114818946821 0.043337185221797317 0 -0.21769910132117989 0.072253864420994268 0 -0.21371114818946821 0.043337185221797317 0 -0.21769910132117989 0.072253864420994268 0 -0.18383447420280799 0.017079327585556262 0 -0.19067196743121351 0.003566433312548245 0 -0.2097231950577565 0.01442050602260039 0 -0.1944627244785779 -0.008584569480343333 0 -0.19067196743121351 0.003566433312548245 0 -0.2097231950577565 0.01442050602260039 0 -0.18383447420280799 0.017079327585556262 0 -0.19140960828659559 0.031201998409771291 0 -0.2097231950577565 0.01442050602260039 0 -0.21371114818946821 0.043337185221797317 0 -0.19140960828659559 0.031201998409771291 0 -0.2097231950577565 0.01442050602260039 0 -0.21371114818946821 0.043337185221797317 0 -0.2097231950577565 0.01442050602260039 0 -0.22367778407376041 0.027229335263516979 0 -0.21371114818946821 0.043337185221797317 0 -0.2097231950577565 0.01442050602260039 0 -0.20573524192604489 -0.014496173176596461 0 -0.2097231950577565 0.01442050602260039 0 -0.22343034677557791 0.0065753505074754252 0 -0.23534665080549211 -0.0082420104063906305 0 -0.22343034677557791 0.0065753505074754252 0 -0.24330282498337019 0.003007537454472953 0 -0.2097231950577565 0.01442050602260039 0 -0.22343034677557791 0.0065753505074754252 0 -0.22367778407376041 0.027229335263516979 0 -0.22343034677557791 0.0065753505074754252 0 -0.22367778407376041 0.027229335263516979 0 -0.23743388492839509 0.017915868357501301 0 -0.22367778407376041 0.027229335263516979 0 -0.23743388492839509 0.017915868357501301 0 -0.2397047388991114 0.04121853486884508 0 -0.25542037218922242 0.013888854862119391 0 -0.23743388492839509 0.017915868357501301 0 -0.2397047388991114 0.04121853486884508 0 -0.22343034677557791 0.0065753505074754252 0 -0.23743388492839509 0.017915868357501301 0 -0.24330282498337019 0.003007537454472953 0 -0.25542037218922242 0.013888854862119391 0 -0.23743388492839509 0.017915868357501301 0 -0.24330282498337019 0.003007537454472953 0 -0.2623524667071454 0.058440434663973591 0 -0.2397047388991114 0.04121853486884508 0 -0.24121248507036511 0.076801683577728888 0 -0.21371114818946821 0.043337185221797317 0 -0.2397047388991114 0.04121853486884508 0 -0.21769910132117989 0.072253864420994268 0 -0.21371114818946821 0.043337185221797317 0 -0.22367778407376041 0.027229335263516979 0 -0.2397047388991114 0.04121853486884508 0 -0.2397047388991114 0.04121853486884508 0 -0.24121248507036511 0.076801683577728888 0 -0.21769910132117989 0.072253864420994268 0 -0.26054839214045789 0.087139929606617511 0 -0.24121248507036511 0.076801683577728888 0 -0.24528315690140501 0.1005867942857518 0 -0.24121248507036511 0.076801683577728888 0 -0.22168705445289161 0.10117054362019109 0 -0.24528315690140501 0.1005867942857518 0 -0.21769910132117989 0.072253864420994268 0 -0.22168705445289161 0.10117054362019109 0 -0.24121248507036511 0.076801683577728888 0 -0.21769910132117989 0.072253864420994268 0 -0.22168705445289161 0.10117054362019109 0 -0.19592357530150209 0.062313214016805049 0 -0.21769910132117989 0.072253864420994268 0 -0.19744885769905759 0.079841998086068566 0 -0.21769910132117989 0.072253864420994268 0 -0.19744885769905759 0.079841998086068566 0 -0.20811344482641261 0.094875284746384903 0 -0.21769910132117989 0.072253864420994268 0 -0.20811344482641261 0.094875284746384903 0 -0.22168705445289161 0.10117054362019109 0 -0.19744885769905759 0.079841998086068566 0 -0.19192926524191631 0.09438503106877083 0 -0.20811344482641261 0.094875284746384903 0 -0.1790644639049416 0.072808198998443874 0 -0.19744885769905759 0.079841998086068566 0 -0.19192926524191631 0.09438503106877083 0 -0.1790644639049416 0.072808198998443874 0 -0.19592357530150209 0.062313214016805049 0 -0.19744885769905759 0.079841998086068566 0 -0.1812687766166434 0.12380362318642241 0 -0.19084242711415561 0.1093953912954924 0 -0.205826407789205 0.12727859322686791 0 -0.19084242711415561 0.1093953912954924 0 -0.205826407789205 0.12727859322686791 0 -0.19084242711415561 0.1093953912954924 0 -0.20479406657889079 0.1159618631390978 0 -0.205826407789205 0.12727859322686791 0 -0.19192926524191631 0.09438503106877083 0 -0.20811344482641261 0.094875284746384903 0 -0.20479406657889079 0.1159618631390978 0 -0.19084242711415561 0.1093953912954924 0 -0.19192926524191631 0.09438503106877083 0 -0.20479406657889079 0.1159618631390978 0 -0.19192926524191631 0.09438503106877083 0 -0.20479406657889079 0.1159618631390978 0 -0.20811344482641261 0.094875284746384903 0 -0.2133794371057802 0.1086799117632916 0 -0.20479406657889079 0.1159618631390978 0 -0.20811344482641261 0.094875284746384903 0 -0.2133794371057802 0.1086799117632916 0 -0.22168705445289161 0.10117054362019109 0 -0.2133794371057802 0.1086799117632916 0 -0.20479406657889079 0.1159618631390978 0 -0.21599775115899111 0.1191984361284958 0 -0.2133794371057802 0.1086799117632916 0 -0.21599775115899111 0.1191984361284958 0 -0.22168705445289161 0.10117054362019109 0 -0.20479406657889079 0.1159618631390978 0 -0.21599775115899111 0.1191984361284958 0 -0.205826407789205 0.12727859322686791 0 -0.23176209852623991 0.1198767065639143 0 -0.22168705445289161 0.10117054362019109 0 -0.2256750075845991 0.13008722281938859 0 -0.22168705445289161 0.10117054362019109 0 -0.2256750075845991 0.13008722281938859 0 -0.21599775115899111 0.1191984361284958 0 -0.22168705445289161 0.10117054362019109 0 -0.2256750075845991 0.13008722281938859 0 -0.23176209852623991 0.1198767065639143 0 -0.22168705445289161 0.10117054362019109 0 -0.23805619056716179 0.11085246844154931 0 -0.22168705445289161 0.10117054362019109 0 -0.24528315690140501 0.1005867942857518 0 -0.23805619056716179 0.11085246844154931 0 -0.24528315690140501 0.1005867942857518 0 -0.23805619056716179 0.11085246844154931 0 -0.24751987864844749 0.1140817531071557 0 -0.23176209852623991 0.1198767065639143 0 -0.24202095334603299 0.1206667246782079 0 -0.23572268816636319 0.12615045233644531 0 -0.23176209852623991 0.1198767065639143 0 -0.24202095334603299 0.1206667246782079 0 -0.23805619056716179 0.11085246844154931 0 -0.24202095334603299 0.1206667246782079 0 -0.23805619056716179 0.11085246844154931 0 -0.24751987864844749 0.1140817531071557 0 -0.24202095334603299 0.1206667246782079 0 -0.24660976010902769 0.1234556603357264 0 -0.24359574599712361 0.12859245432831559 0 -0.24202095334603299 0.1206667246782079 0 -0.24751987864844749 0.1140817531071557 0 -0.24660976010902769 0.1234556603357264 0 -0.25062573814025307 0.1290075630397173 0 -0.25130212163981069 0.1208790083453674 0 -0.24660976010902769 0.1234556603357264 0 -0.25130212163981069 0.1208790083453674 0 -0.24751987864844749 0.1140817531071557 0 -0.24660976010902769 0.1234556603357264 0 -0.25062573814025307 0.1290075630397173 0 -0.24660976010902769 0.1234556603357264 0 -0.24359574599712361 0.12859245432831559 0 -0.2433232208205317 0.13002359016745679 0 -0.23309084781843439 0.13736376266816369 0 -0.24006607756251061 0.14712811793279659 0 -0.24202095334603299 0.1206667246782079 0 -0.2433232208205317 0.13002359016745679 0 -0.24359574599712361 0.12859245432831559 0 -0.2433232208205317 0.13002359016745679 0 -0.24006607756251061 0.14712811793279659 0 -0.24202095334603299 0.1206667246782079 0 -0.2433232208205317 0.13002359016745679 0 -0.25062573814025307 0.1290075630397173 0 -0.2433232208205317 0.13002359016745679 0 -0.24359574599712361 0.12859245432831559 0 -0.2433232208205317 0.13002359016745679 0 -0.24359574599712361 0.12859245432831559 0 -0.2433232208205317 0.13002359016745679 0 -0.23572268816636319 0.12615045233644531 0 -0.23488686346142901 0.13096765816494249 0 -0.2433232208205317 0.13002359016745679 0 -0.23488686346142901 0.13096765816494249 0 -0.23309084781843439 0.13736376266816369 0 -0.24202095334603299 0.1206667246782079 0 -0.2433232208205317 0.13002359016745679 0 -0.23572268816636319 0.12615045233644531 0 -0.23176209852623991 0.1198767065639143 0 -0.22741069704038699 0.13033282748770439 0 -0.2256750075845991 0.13008722281938859 0 -0.23572268816636319 0.12615045233644531 0 -0.23488686346142901 0.13096765816494249 0 -0.22741069704038699 0.13033282748770439 0 -0.23176209852623991 0.1198767065639143 0 -0.23572268816636319 0.12615045233644531 0 -0.22741069704038699 0.13033282748770439 0 -0.22741069704038699 0.13033282748770439 0 -0.23309084781843439 0.13736376266816369 0 -0.2256750075845991 0.13008722281938859 0 -0.23488686346142901 0.13096765816494249 0 -0.22741069704038699 0.13033282748770439 0 -0.23309084781843439 0.13736376266816369 0 -0.22741069704038699 0.13033282748770439 0 -0.2256750075845991 0.13008722281938859 0 -0.22912203509333751 0.15508164611597439 0 -0.22994672944106351 0.16106151125052531 0 -0.2061153807881218 0.15004866448329271 0 -0.23309084781843439 0.13736376266816369 0 -0.2256750075845991 0.13008722281938859 0 -0.22912203509333751 0.15508164611597439 0 -0.23309084781843439 0.13736376266816369 0 -0.22912203509333751 0.15508164611597439 0 -0.24006607756251061 0.14712811793279659 0 -0.2256750075845991 0.13008722281938859 0 -0.22912203509333751 0.15508164611597439 0 -0.2256750075845991 0.13008722281938859 0 -0.22912203509333751 0.15508164611597439 0 -0.21747422144127049 0.1411801196714218 0 -0.22912203509333751 0.15508164611597439 0 -0.21747422144127049 0.1411801196714218 0 -0.22912203509333751 0.15508164611597439 0 -0.24006607756251061 0.14712811793279659 0 -0.2310250690280683 0.15735289438271741 0 -0.22912203509333751 0.15508164611597439 0 -0.2310250690280683 0.15735289438271741 0 -0.2433232208205317 0.13002359016745679 0 -0.24665951183825799 0.15399502990403571 0 -0.24006607756251061 0.14712811793279659 0 -0.23680893430448979 0.16423264569813639 0 -0.25694024300708301 0.14453891949190539 0 -0.2433232208205317 0.13002359016745679 0 -0.24665951183825799 0.15399502990403571 0 -0.24006607756251061 0.14712811793279659 0 -0.23680893430448979 0.16423264569813639 0 -0.2310250690280683 0.15735289438271741 0 -0.24665951183825799 0.15399502990403571 0 -0.24006607756251061 0.14712811793279659 0 -0.23680893430448979 0.16423264569813639 0 -0.2433232208205317 0.13002359016745679 0 -0.24665951183825799 0.15399502990403571 0 -0.24006607756251061 0.14712811793279659 0 -0.24665951183825799 0.15399502990403571 0 -0.2499958028559843 0.17796646964061449 0 -0.24665951183825799 0.15399502990403571 0 -0.23680893430448979 0.16423264569813639 0 -0.2499958028559843 0.17796646964061449 0 -0.23680893430448979 0.16423264569813639 0 -0.233082707603053 0.18380051331271641 0 -0.23680893430448979 0.16423264569813639 0 -0.2499958028559843 0.17796646964061449 0 -0.233082707603053 0.18380051331271641 0 -0.233082707603053 0.18380051331271641 0 -0.23148825369731049 0.1783789839568839 0 -0.22994672944106351 0.16106151125052531 0 -0.233082707603053 0.18380051331271641 0 -0.22994672944106351 0.16106151125052531 0 -0.23148825369731049 0.1783789839568839 0 -0.22255773692999609 0.17044659260303621 0 -0.21010515742963259 0.17338085263679159 0 -0.233082707603053 0.18380051331271641 0 -0.23148825369731049 0.1783789839568839 0 -0.22241503348644659 0.19356008512102371 0 -0.23680893430448979 0.16423264569813639 0 -0.233082707603053 0.18380051331271641 0 -0.22994672944106351 0.16106151125052531 0 -0.23148825369731049 0.1783789839568839 0 -0.22255773692999609 0.17044659260303621 0 -0.22994672944106351 0.16106151125052531 0 -0.22255773692999609 0.17044659260303621 0 -0.22994672944106351 0.16106151125052531 0 -0.2061153807881218 0.15004866448329271 0 -0.22912203509333751 0.15508164611597439 0 -0.22994672944106351 0.16106151125052531 0 -0.22912203509333751 0.15508164611597439 0 -0.22994672944106351 0.16106151125052531 0 -0.2310250690280683 0.15735289438271741 0 -0.23680893430448979 0.16423264569813639 0 -0.22994672944106351 0.16106151125052531 0 -0.2310250690280683 0.15735289438271741 0 -0.23680893430448979 0.16423264569813639 0 -0.22994672944106351 0.16106151125052531 0 -0.21010515742963259 0.17338085263679159 0 -0.19516153305621831 0.16663305950742899 0 -0.2061153807881218 0.15004866448329271 0 -0.22255773692999609 0.17044659260303621 0 -0.21010515742963259 0.17338085263679159 0 -0.2061153807881218 0.15004866448329271 0 -0.23148825369731049 0.1783789839568839 0 -0.21010515742963259 0.17338085263679159 0 -0.20849009924092499 0.19745170678782639 0 -0.21010515742963259 0.17338085263679159 0 -0.1948508426726904 0.18268348555704539 0 -0.20849009924092499 0.19745170678782639 0 -0.21010515742963259 0.17338085263679159 0 -0.1948508426726904 0.18268348555704539 0 -0.19516153305621831 0.16663305950742899 0 -0.1948508426726904 0.18268348555704539 0 -0.19516153305621831 0.16663305950742899 0 -0.18379104765862761 0.17409183435230821 0 -0.19516153305621831 0.16663305950742899 0 -0.2061153807881218 0.15004866448329271 0 -0.18018122385741511 0.15713482900850209 0 -0.2061153807881218 0.15004866448329271 0 -0.18228403213518099 0.139035817716058 0 -0.2061153807881218 0.15004866448329271 0 -0.18228403213518099 0.139035817716058 0 -0.18018122385741511 0.15713482900850209 0 -0.19774598963282539 0.13749867993617279 0 -0.2061153807881218 0.15004866448329271 0 -0.18228403213518099 0.139035817716058 0 -0.1812687766166434 0.12380362318642241 0 -0.19774598963282539 0.13749867993617279 0 -0.205826407789205 0.12727859322686791 0 -0.1812687766166434 0.12380362318642241 0 -0.205826407789205 0.12727859322686791 0 -0.2256750075845991 0.13008722281938859 0 -0.205826407789205 0.12727859322686791 0 -0.2256750075845991 0.13008722281938859 0 -0.205826407789205 0.12727859322686791 0 -0.21747422144127049 0.1411801196714218 0 -0.21599775115899111 0.1191984361284958 0 -0.2256750075845991 0.13008722281938859 0 -0.205826407789205 0.12727859322686791 0 -0.19774598963282539 0.13749867993617279 0 -0.205826407789205 0.12727859322686791 0 -0.21747422144127049 0.1411801196714218 0 -0.205826407789205 0.12727859322686791 0 -0.21747422144127049 0.1411801196714218 0 -0.22994672944106351 0.16106151125052531 0 -0.2061153807881218 0.15004866448329271 0 -0.22912203509333751 0.15508164611597439 0 -0.2061153807881218 0.15004866448329271 0 -0.21747422144127049 0.1411801196714218 0 -0.19774598963282539 0.13749867993617279 0 -0.2061153807881218 0.15004866448329271 0 -0.21747422144127049 0.1411801196714218 0 -0.22008229700458551 0.25207073246709299 0 -0.24042899567423959 0.23706850529841969 0 -0.2244157672040745 0.22931399274896741 0 -0.22008229700458551 0.25207073246709299 0 -0.2244157672040745 0.22931399274896741 0 -0.25147982383094603 0.23140410534617009 0 -0.24962755378818399 0.26087030131514671 0 -0.24042899567423959 0.23706850529841969 0 -0.24042899567423959 0.23706850529841969 0 -0.23675585163864649 0.21043450930556801 0 -0.25147982383094603 0.23140410534617009 0 -0.24042899567423959 0.23706850529841969 0 -0.23675585163864649 0.21043450930556801 0 -0.24042899567423959 0.23706850529841969 0 -0.2244157672040745 0.22931399274896741 0 -0.23675585163864649 0.21043450930556801 0 -0.2244157672040745 0.22931399274896741 0 -0.22874923740356359 0.20655725303084191 0 -0.2244157672040745 0.22931399274896741 0 -0.22874923740356359 0.20655725303084191 0 -0.2132034450757915 0.21493297075311221 0 -0.2244157672040745 0.22931399274896741 0 -0.22874923740356359 0.20655725303084191 0 -0.23675585163864649 0.21043450930556801 0 -0.22874923740356359 0.20655725303084191 0 -0.21821445380168161 0.20312550392320111 0 -0.2132034450757915 0.21493297075311221 0 -0.25333209387370931 0.20193790937719339 0 -0.25147982383094603 0.23140410534617009 0 -0.23675585163864649 0.21043450930556801 0 -0.233082707603053 0.18380051331271641 0 -0.23675585163864649 0.21043450930556801 0 -0.25333209387370931 0.20193790937719339 0 -0.233082707603053 0.18380051331271641 0 -0.23675585163864649 0.21043450930556801 0 -0.25333209387370931 0.20193790937719339 0 -0.2499958028559843 0.17796646964061449 0 -0.233082707603053 0.18380051331271641 0 -0.23148825369731049 0.1783789839568839 0 -0.22241503348644659 0.19356008512102371 0 -0.20849009924092499 0.19745170678782639 0 -0.233082707603053 0.18380051331271641 0 -0.22874923740356359 0.20655725303084191 0 -0.233082707603053 0.18380051331271641 0 -0.22874923740356359 0.20655725303084191 0 -0.22241503348644659 0.19356008512102371 0 -0.233082707603053 0.18380051331271641 0 -0.22874923740356359 0.20655725303084191 0 -0.23675585163864649 0.21043450930556801 0 -0.23148825369731049 0.1783789839568839 0 -0.20849009924092499 0.19745170678782639 0 -0.22874923740356359 0.20655725303084191 0 -0.22241503348644659 0.19356008512102371 0 -0.21821445380168161 0.20312550392320111 0 -0.22241503348644659 0.19356008512102371 0 -0.20849009924092499 0.19745170678782639 0 -0.21821445380168161 0.20312550392320111 0 -0.1948508426726904 0.18268348555704539 0 -0.20849009924092499 0.19745170678782639 0 -0.18840646005368769 0.19755336170365129 0 -0.1948508426726904 0.18268348555704539 0 -0.18840646005368769 0.19755336170365129 0 -0.18034616734119291 0.1870523267124376 0 -0.20849009924092499 0.19745170678782639 0 -0.2132034450757915 0.21493297075311221 0 -0.18549194478453951 0.21652442961876889 0 -0.20849009924092499 0.19745170678782639 0 -0.18840646005368769 0.19755336170365129 0 -0.18549194478453951 0.21652442961876889 0 -0.20849009924092499 0.19745170678782639 0 -0.18549194478453951 0.21652442961876889 0 -0.20849009924092499 0.19745170678782639 0 -0.21821445380168161 0.20312550392320111 0 -0.2132034450757915 0.21493297075311221 0 -0.2244157672040745 0.22931399274896741 0 -0.2132034450757915 0.21493297075311221 0 -0.20381442641223169 0.2283470081569903 0 -0.2244157672040745 0.22931399274896741 0 -0.20381442641223169 0.2283470081569903 0 -0.20729280176342821 0.242855039542341 0 -0.20381442641223169 0.2283470081569903 0 -0.19367085021440261 0.2350290364368002 0 -0.18549194478453951 0.21652442961876889 0 -0.2132034450757915 0.21493297075311221 0 -0.20381442641223169 0.2283470081569903 0 -0.18549194478453951 0.21652442961876889 0 -0.20381442641223169 0.2283470081569903 0 -0.19367085021440261 0.2350290364368002 0 -0.20729280176342821 0.242855039542341 0 -0.19367085021440261 0.2350290364368002 0 -0.19031875884495661 0.2492353464184677 0 -0.20729280176342821 0.242855039542341 0 -0.19367085021440261 0.2350290364368002 0 -0.19031875884495661 0.2492353464184677 0 -0.18215078295905471 0.23728458012097711 0 -0.22008229700458551 0.25207073246709299 0 -0.2244157672040745 0.22931399274896741 0 -0.20729280176342821 0.242855039542341 0 -0.15697023997996279 0.2472945884331311 0 -0.16249379032815381 0.23559715244971149 0 -0.15330098956579469 0.23089722551006531 0 -0.15697023997996279 0.2472945884331311 0 -0.17401816860630809 0.24074447424109291 0 -0.16965801391536001 0.23389209960410601 0 -0.15697023997996279 0.2472945884331311 0 -0.17169466826451921 0.24852697597616011 0 -0.17401816860630809 0.24074447424109291 0 -0.15697023997996279 0.2472945884331311 0 -0.16249379032815381 0.23559715244971149 0 -0.16965801391536001 0.23389209960410601 0 -0.15697023997996279 0.2472945884331311 0 -0.16965801391536001 0.23389209960410601 0 -0.1697436319947245 0.25383393025607071 0 -0.15697023997996279 0.2472945884331311 0 -0.17169466826451921 0.24852697597616011 0 -0.17169466826451921 0.24852697597616011 0 -0.17978483908031029 0.2471032218201 0 -0.17401816860630809 0.24074447424109291 0 -0.19031875884495661 0.2492353464184677 0 -0.17978483908031029 0.2471032218201 0 -0.18215078295905471 0.23728458012097711 0 -0.17978483908031029 0.2471032218201 0 -0.18215078295905471 0.23728458012097711 0 -0.17401816860630809 0.24074447424109291 0 -0.18215078295905471 0.23728458012097711 0 -0.17401816860630809 0.24074447424109291 0 -0.16965801391536001 0.23389209960410601 0 -0.16249379032815381 0.23559715244971149 0 -0.18549194478453951 0.21652442961876889 0 -0.19367085021440261 0.2350290364368002 0 -0.18215078295905471 0.23728458012097711 0 -0.18549194478453951 0.21652442961876889 0 -0.16249379032815381 0.23559715244971149 0 -0.16965801391536001 0.23389209960410601 0 -0.18549194478453951 0.21652442961876889 0 -0.16249379032815381 0.23559715244971149 0 -0.16866955139128359 0.22031731628473619 0 -0.18549194478453951 0.21652442961876889 0 -0.18215078295905471 0.23728458012097711 0 -0.16965801391536001 0.23389209960410601 0 -0.18549194478453951 0.21652442961876889 0 -0.16249379032815381 0.23559715244971149 0 -0.15928779503994039 0.22484574945309879 0 -0.15330098956579469 0.23089722551006531 0 -0.16249379032815381 0.23559715244971149 0 -0.16866955139128359 0.22031731628473619 0 -0.15928779503994039 0.22484574945309879 0 -0.16866955139128359 0.22031731628473619 0 -0.15928779503994039 0.22484574945309879 0 -0.15622754582290149 0.21136567895809419 0 -0.16866955139128359 0.22031731628473619 0 -0.1728532462290909 0.204054859842178 0 -0.15622754582290149 0.21136567895809419 0 -0.16866955139128359 0.22031731628473619 0 -0.1728532462290909 0.204054859842178 0 -0.18549194478453951 0.21652442961876889 0 -0.18840646005368769 0.19755336170365129 0 -0.1728532462290909 0.204054859842178 0 -0.18549194478453951 0.21652442961876889 0 -0.18840646005368769 0.19755336170365129 0 -0.1728532462290909 0.204054859842178 0 -0.18034616734119291 0.1870523267124376 0 -0.1728532462290909 0.204054859842178 0 -0.15464650771494051 0.18956347426221659 0 -0.15622754582290149 0.21136567895809419 0 -0.1728532462290909 0.204054859842178 0 -0.15464650771494051 0.18956347426221659 0 -0.18034616734119291 0.1870523267124376 0 -0.15464650771494051 0.18956347426221659 0 -0.13064893370559341 0.19154607560158449 0 -0.1384860713642273 0.20378456303789769 0 -0.15464650771494051 0.18956347426221659 0 -0.1384860713642273 0.20378456303789769 0 -0.15622754582290149 0.21136567895809419 0 -0.13064893370559341 0.19154607560158449 0 -0.1384860713642273 0.20378456303789769 0 -0.1173830409596499 0.20247999597290089 0 -0.13717664046980649 0.2248872922030159 0 -0.1173830409596499 0.20247999597290089 0 -0.1384860713642273 0.20378456303789769 0 -0.13717664046980649 0.2248872922030159 0 -0.1173830409596499 0.20247999597290089 0 -0.1384860713642273 0.20378456303789769 0 -0.1456166849170113 0.21547471980259419 0 -0.13717664046980649 0.2248872922030159 0 -0.1384860713642273 0.20378456303789769 0 -0.1456166849170113 0.21547471980259419 0 -0.15622754582290149 0.21136567895809419 0 -0.1456166849170113 0.21547471980259419 0 -0.15622754582290149 0.21136567895809419 0 -0.1505764820111099 0.22186134501136909 0 -0.15697023997996279 0.2472945884331311 0 -0.15330098956579469 0.23089722551006531 0 -0.13717664046980649 0.2248872922030159 0 -0.1505764820111099 0.22186134501136909 0 -0.15330098956579469 0.23089722551006531 0 -0.13717664046980649 0.2248872922030159 0 -0.15928779503994039 0.22484574945309879 0 -0.1505764820111099 0.22186134501136909 0 -0.15330098956579469 0.23089722551006531 0 -0.15928779503994039 0.22484574945309879 0 -0.15622754582290149 0.21136567895809419 0 -0.1505764820111099 0.22186134501136909 0 -0.1456166849170113 0.21547471980259419 0 -0.1505764820111099 0.22186134501136909 0 -0.13717664046980649 0.2248872922030159 0 -0.13717664046980649 0.2248872922030159 0 -0.13766890845273419 0.2378796324531513 0 -0.1218519165194759 0.23221930896006079 0 -0.13766890845273419 0.2378796324531513 0 -0.1166646777139321 0.24909936445698569 0 -0.1218519165194759 0.23221930896006079 0 -0.13472013682951001 0.25315436466535701 0 -0.13766890845273419 0.2378796324531513 0 -0.1166646777139321 0.24909936445698569 0 -0.15697023997996279 0.2472945884331311 0 -0.13717664046980649 0.2248872922030159 0 -0.15110104749046091 0.25349439835852478 0 -0.15697023997996279 0.2472945884331311 0 -0.13766890845273419 0.2378796324531513 0 -0.13472013682951001 0.25315436466535701 0 -0.15110104749046091 0.25349439835852478 0 -0.13766890845273419 0.2378796324531513 0 -0.15697023997996279 0.2472945884331311 0 -0.13717664046980649 0.2248872922030159 0 -0.13766890845273419 0.2378796324531513 0 -0.15110104749046091 0.25349439835852478 0 -0.13766890845273419 0.2378796324531513 0 -0.16557696133134789 0.14633890426075249 0 -0.15665454401227891 0.1666613663520827 0 -0.1503123231696239 0.14083953727829621 0 -0.16557696133134789 0.14633890426075249 0 -0.15845268348224029 0.12802297094882339 0 -0.18228403213518099 0.139035817716058 0 -0.15845268348224029 0.12802297094882339 0 -0.18228403213518099 0.139035817716058 0 -0.16557696133134789 0.14633890426075249 0 -0.15845268348224029 0.12802297094882339 0 -0.1503123231696239 0.14083953727829621 0 -0.1812687766166434 0.12380362318642241 0 -0.15845268348224029 0.12802297094882339 0 -0.18228403213518099 0.139035817716058 0 -0.1812687766166434 0.12380362318642241 0 -0.19774598963282539 0.13749867993617279 0 -0.18228403213518099 0.139035817716058 0 -0.16557696133134789 0.14633890426075249 0 -0.18228403213518099 0.139035817716058 0 -0.18018122385741511 0.15713482900850209 0 -0.18018122385741511 0.15713482900850209 0 -0.18379104765862761 0.17409183435230821 0 -0.1684154713656216 0.17695547097612721 0 -0.19516153305621831 0.16663305950742899 0 -0.18018122385741511 0.15713482900850209 0 -0.18379104765862761 0.17409183435230821 0 -0.1948508426726904 0.18268348555704539 0 -0.18034616734119291 0.1870523267124376 0 -0.18379104765862761 0.17409183435230821 0 -0.18034616734119291 0.1870523267124376 0 -0.18379104765862761 0.17409183435230821 0 -0.1684154713656216 0.17695547097612721 0 -0.15464650771494051 0.18956347426221659 0 -0.18034616734119291 0.1870523267124376 0 -0.1684154713656216 0.17695547097612721 0 -0.15464650771494051 0.18956347426221659 0 -0.1684154713656216 0.17695547097612721 0 -0.15665454401227891 0.1666613663520827 0 -0.18018122385741511 0.15713482900850209 0 -0.1684154713656216 0.17695547097612721 0 -0.15665454401227891 0.1666613663520827 0 -0.18018122385741511 0.15713482900850209 0 -0.15665454401227891 0.1666613663520827 0 -0.16557696133134789 0.14633890426075249 0 -0.18018122385741511 0.15713482900850209 0 -0.15665454401227891 0.1666613663520827 0 -0.15665454401227891 0.1666613663520827 0 -0.1331278641671427 0.17618790369566339 0 -0.15665454401227891 0.1666613663520827 0 -0.1331278641671427 0.17618790369566339 0 -0.1335251556610082 0.1498860369829024 0 -0.15464650771494051 0.18956347426221659 0 -0.15665454401227891 0.1666613663520827 0 -0.1331278641671427 0.17618790369566339 0 -0.15464650771494051 0.18956347426221659 0 -0.13064893370559341 0.19154607560158449 0 -0.1331278641671427 0.17618790369566339 0 -0.1331278641671427 0.17618790369566339 0 -0.1335251556610082 0.1498860369829024 0 -0.1167798590075306 0.16955638078463131 0 -0.15665454401227891 0.1666613663520827 0 -0.1335251556610082 0.1498860369829024 0 -0.1503123231696239 0.14083953727829621 0 -0.1335251556610082 0.1498860369829024 0 -0.1503123231696239 0.14083953727829621 0 -0.14318085325170099 0.12743535974639381 0 -0.15845268348224029 0.12802297094882339 0 -0.1503123231696239 0.14083953727829621 0 -0.14318085325170099 0.12743535974639381 0 -0.15671114544408199 0.1203286531459757 0 -0.15845268348224029 0.12802297094882339 0 -0.14318085325170099 0.12743535974639381 0 -0.1335251556610082 0.1498860369829024 0 -0.14318085325170099 0.12743535974639381 0 -0.1190832258571448 0.13271694655639171 0 -0.1321535142715205 0.1168536831055289 0 -0.14318085325170099 0.12743535974639381 0 -0.1190832258571448 0.13271694655639171 0 -0.1190832258571448 0.13271694655639171 0 -0.092112316966028215 0.1342892166630667 0 -0.10759588309895909 0.1133787130650822 0 -0.1190832258571448 0.13271694655639171 0 -0.10593163189365221 0.15445866977537631 0 -0.092112316966028215 0.1342892166630667 0 -0.1335251556610082 0.1498860369829024 0 -0.1190832258571448 0.13271694655639171 0 -0.10593163189365221 0.15445866977537631 0 -0.1335251556610082 0.1498860369829024 0 -0.10593163189365221 0.15445866977537631 0 -0.1167798590075306 0.16955638078463131 0 -0.1331278641671427 0.17618790369566339 0 -0.1167798590075306 0.16955638078463131 0 -0.1096011843220064 0.18571444103924409 0 -0.13064893370559341 0.19154607560158449 0 -0.1331278641671427 0.17618790369566339 0 -0.1096011843220064 0.18571444103924409 0 -0.1331278641671427 0.17618790369566339 0 -0.1096011843220064 0.18571444103924409 0 -0.1096011843220064 0.18571444103924409 0 -0.09811594253789678 0.17201798878643809 0 -0.08685519876222679 0.18688384812050921 0 -0.1167798590075306 0.16955638078463131 0 -0.1096011843220064 0.18571444103924409 0 -0.09811594253789678 0.17201798878643809 0 -0.10593163189365221 0.15445866977537631 0 -0.1167798590075306 0.16955638078463131 0 -0.09811594253789678 0.17201798878643809 0 -0.10593163189365221 0.15445866977537631 0 -0.09811594253789678 0.17201798878643809 0 -0.07997939213492454 0.16517047308963559 0 -0.07997939213492454 0.16517047308963559 0 -0.08685519876222679 0.18688384812050921 0 -0.068498337308734364 0.18598616774826551 0 -0.09811594253789678 0.17201798878643809 0 -0.07997939213492454 0.16517047308963559 0 -0.08685519876222679 0.18688384812050921 0 -0.07997939213492454 0.16517047308963559 0 -0.068498337308734364 0.18598616774826551 0 -0.058528155900559313 0.16903283794563831 0 -0.07997939213492454 0.16517047308963559 0 -0.067721710560731174 0.1433494760465529 0 -0.058528155900559313 0.16903283794563831 0 -0.07997939213492454 0.16517047308963559 0 -0.067721710560731174 0.1433494760465529 0 -0.067721710560731174 0.1433494760465529 0 -0.074584077109923652 0.1272677286844309 0 -0.055464028986537781 0.12152847900347021 0 -0.067721710560731174 0.1433494760465529 0 -0.074584077109923652 0.1272677286844309 0 -0.092112316966028215 0.1342892166630667 0 -0.07997939213492454 0.16517047308963559 0 -0.067721710560731174 0.1433494760465529 0 -0.092112316966028215 0.1342892166630667 0 -0.10593163189365221 0.15445866977537631 0 -0.07997939213492454 0.16517047308963559 0 -0.092112316966028215 0.1342892166630667 0 -0.093307328436427472 0.25068604935165562 0 -0.1166646777139321 0.24909936445698569 0 -0.1041716732715269 0.23096000081885551 0 -0.093307328436427472 0.25068604935165562 0 -0.1041716732715269 0.23096000081885551 0 -0.084016286513995994 0.2282901662083297 0 -0.1166646777139321 0.24909936445698569 0 -0.1218519165194759 0.23221930896006079 0 -0.1041716732715269 0.23096000081885551 0 -0.13717664046980649 0.2248872922030159 0 -0.1218519165194759 0.23221930896006079 0 -0.11592152988351009 0.22082789747415091 0 -0.1218519165194759 0.23221930896006079 0 -0.11592152988351009 0.22082789747415091 0 -0.1041716732715269 0.23096000081885551 0 -0.11592152988351009 0.22082789747415091 0 -0.1041716732715269 0.23096000081885551 0 -0.099024378197091173 0.21359288941592139 0 -0.1041716732715269 0.23096000081885551 0 -0.099024378197091173 0.21359288941592139 0 -0.084016286513995994 0.2282901662083297 0 -0.099024378197091173 0.21359288941592139 0 -0.1173830409596499 0.20247999597290089 0 -0.098578438101855681 0.1974906309237337 0 -0.11592152988351009 0.22082789747415091 0 -0.099024378197091173 0.21359288941592139 0 -0.1173830409596499 0.20247999597290089 0 -0.13717664046980649 0.2248872922030159 0 -0.11592152988351009 0.22082789747415091 0 -0.1173830409596499 0.20247999597290089 0 -0.13064893370559341 0.19154607560158449 0 -0.1096011843220064 0.18571444103924409 0 -0.1173830409596499 0.20247999597290089 0 -0.1096011843220064 0.18571444103924409 0 -0.1173830409596499 0.20247999597290089 0 -0.098578438101855681 0.1974906309237337 0 -0.1096011843220064 0.18571444103924409 0 -0.08685519876222679 0.18688384812050921 0 -0.098578438101855681 0.1974906309237337 0 -0.08685519876222679 0.18688384812050921 0 -0.098578438101855681 0.1974906309237337 0 -0.078434109121188922 0.20595574815684631 0 -0.068498337308734364 0.18598616774826551 0 -0.078434109121188922 0.20595574815684631 0 -0.055929084048001378 0.20650579483998391 0 -0.08685519876222679 0.18688384812050921 0 -0.068498337308734364 0.18598616774826551 0 -0.078434109121188922 0.20595574815684631 0 -0.078434109121188922 0.20595574815684631 0 -0.059903889775396763 0.22708718975426781 0 -0.055929084048001378 0.20650579483998391 0 -0.099024378197091173 0.21359288941592139 0 -0.098578438101855681 0.1974906309237337 0 -0.078434109121188922 0.20595574815684631 0 -0.099024378197091173 0.21359288941592139 0 -0.078434109121188922 0.20595574815684631 0 -0.084016286513995994 0.2282901662083297 0 -0.078434109121188922 0.20595574815684631 0 -0.084016286513995994 0.2282901662083297 0 -0.059903889775396763 0.22708718975426781 0 -0.084016286513995994 0.2282901662083297 0 -0.074332160410460257 0.2474865509888691 0 -0.059903889775396763 0.22708718975426781 0 -0.093307328436427472 0.25068604935165562 0 -0.084016286513995994 0.2282901662083297 0 -0.074332160410460257 0.2474865509888691 0 -0.03546391582915024 0.26126494821788498 0 -0.034446019561119368 0.2355491900204735 0 -0.051845203477081381 0.24947589460876871 0 -0.074332160410460257 0.2474865509888691 0 -0.051845203477081381 0.24947589460876871 0 -0.059903889775396763 0.22708718975426781 0 -0.034446019561119368 0.2355491900204735 0 -0.051845203477081381 0.24947589460876871 0 -0.059903889775396763 0.22708718975426781 0 -0.034446019561119368 0.2355491900204735 0 -0.059903889775396763 0.22708718975426781 0 -0.041120981897071918 0.21765198466926439 0 -0.034446019561119368 0.2355491900204735 0 -0.041120981897071918 0.21765198466926439 0 -0.022915024843160131 0.21764464795355981 0 -0.041120981897071918 0.21765198466926439 0 -0.055929084048001378 0.20650579483998391 0 -0.033265017370707278 0.20006824190681041 0 -0.041120981897071918 0.21765198466926439 0 -0.033265017370707278 0.20006824190681041 0 -0.022915024843160131 0.21764464795355981 0 -0.059903889775396763 0.22708718975426781 0 -0.041120981897071918 0.21765198466926439 0 -0.055929084048001378 0.20650579483998391 0 -0.068498337308734364 0.18598616774826551 0 -0.055929084048001378 0.20650579483998391 0 -0.050707206823960543 0.1893775216198732 0 -0.050707206823960543 0.1893775216198732 0 -0.033265017370707278 0.20006824190681041 0 -0.032376737469686737 0.1828364714863587 0 -0.055929084048001378 0.20650579483998391 0 -0.050707206823960543 0.1893775216198732 0 -0.033265017370707278 0.20006824190681041 0 -0.033265017370707278 0.20006824190681041 0 -0.032376737469686737 0.1828364714863587 0 -0.01946264833552741 0.18702618225850701 0 -0.033265017370707278 0.20006824190681041 0 -0.012630770939358301 0.2013245853400579 0 -0.01946264833552741 0.18702618225850701 0 -0.0084057238225411189 0.18853426110143401 0 -0.012630770939358301 0.2013245853400579 0 -0.01946264833552741 0.18702618225850701 0 -0.0084057238225411189 0.18853426110143401 0 -0.012630770939358301 0.2013245853400579 0 0.01163086560451463 0.20543144749788381 0 -0.012630770939358301 0.2013245853400579 0 -0.0020824451475201619 0.22034032605051659 0 0.01163086560451463 0.20543144749788381 0 -0.012630770939358301 0.2013245853400579 0 -0.022915024843160131 0.21764464795355981 0 -0.0020824451475201619 0.22034032605051659 0 -0.033265017370707278 0.20006824190681041 0 -0.012630770939358301 0.2013245853400579 0 -0.022915024843160131 0.21764464795355981 0 -0.034446019561119368 0.2355491900204735 0 -0.022915024843160131 0.21764464795355981 0 -0.01394491414318379 0.23093355973423599 0 -0.0020824451475201619 0.22034032605051659 0 -0.01394491414318379 0.23093355973423599 0 0.001513002895634853 0.23827743262301671 0 -0.022915024843160131 0.21764464795355981 0 -0.0020824451475201619 0.22034032605051659 0 -0.01394491414318379 0.23093355973423599 0 -0.00086476245743153171 0.25445850891889638 0 -0.015901484236324839 0.2481028301655612 0 0.001513002895634853 0.23827743262301671 0 -0.01394491414318379 0.23093355973423599 0 -0.015901484236324839 0.2481028301655612 0 0.001513002895634853 0.23827743262301671 0 -0.034446019561119368 0.2355491900204735 0 -0.01394491414318379 0.23093355973423599 0 -0.015901484236324839 0.2481028301655612 0 -0.03546391582915024 0.26126494821788498 0 -0.034446019561119368 0.2355491900204735 0 -0.015901484236324839 0.2481028301655612 0 -0.038458882628790179 0.14661125851110859 0 -0.037852542597924393 0.1621341124964461 0 -0.023172174977586758 0.14595039470192109 0 -0.038458882628790179 0.14661125851110859 0 -0.034384628223899323 0.13041512900960869 0 -0.023172174977586758 0.14595039470192109 0 -0.038458882628790179 0.14661125851110859 0 -0.04944054168777505 0.13939545502094799 0 -0.050718695451551547 0.15288497003371501 0 -0.038458882628790179 0.14661125851110859 0 -0.050718695451551547 0.15288497003371501 0 -0.037852542597924393 0.1621341124964461 0 -0.034384628223899323 0.13041512900960869 0 -0.055464028986537781 0.12152847900347021 0 -0.038458882628790179 0.14661125851110859 0 -0.034384628223899323 0.13041512900960869 0 -0.04944054168777505 0.13939545502094799 0 -0.034384628223899323 0.13041512900960869 0 -0.04944054168777505 0.13939545502094799 0 -0.055464028986537781 0.12152847900347021 0 -0.067721710560731174 0.1433494760465529 0 -0.055464028986537781 0.12152847900347021 0 -0.067721710560731174 0.1433494760465529 0 -0.04944054168777505 0.13939545502094799 0 -0.055464028986537781 0.12152847900347021 0 -0.067721710560731174 0.1433494760465529 0 -0.050718695451551547 0.15288497003371501 0 -0.058528155900559313 0.16903283794563831 0 -0.067721710560731174 0.1433494760465529 0 -0.04944054168777505 0.13939545502094799 0 -0.050718695451551547 0.15288497003371501 0 -0.050718695451551547 0.15288497003371501 0 -0.058528155900559313 0.16903283794563831 0 -0.037852542597924393 0.1621341124964461 0 -0.050707206823960543 0.1893775216198732 0 -0.058528155900559313 0.16903283794563831 0 -0.04326447415265347 0.1762349286543845 0 -0.068498337308734364 0.18598616774826551 0 -0.050707206823960543 0.1893775216198732 0 -0.058528155900559313 0.16903283794563831 0 -0.050707206823960543 0.1893775216198732 0 -0.04326447415265347 0.1762349286543845 0 -0.032376737469686737 0.1828364714863587 0 -0.04326447415265347 0.1762349286543845 0 -0.031336553250413027 0.17218067190926339 0 -0.032376737469686737 0.1828364714863587 0 -0.058528155900559313 0.16903283794563831 0 -0.04326447415265347 0.1762349286543845 0 -0.037852542597924393 0.1621341124964461 0 -0.04326447415265347 0.1762349286543845 0 -0.031336553250413027 0.17218067190926339 0 -0.037852542597924393 0.1621341124964461 0 -0.037852542597924393 0.1621341124964461 0 -0.021242701599119011 0.1639134080730201 0 -0.023172174977586758 0.14595039470192109 0 -0.031336553250413027 0.17218067190926339 0 -0.037852542597924393 0.1621341124964461 0 -0.021242701599119011 0.1639134080730201 0 -0.031336553250413027 0.17218067190926339 0 -0.021242701599119011 0.1639134080730201 0 -0.021946310432681571 0.1757844388361075 0 -0.021242701599119011 0.1639134080730201 0 -0.021946310432681571 0.1757844388361075 0 -0.00875625087587102 0.1752309117836385 0 -0.032376737469686737 0.1828364714863587 0 -0.021946310432681571 0.1757844388361075 0 -0.01946264833552741 0.18702618225850701 0 -0.031336553250413027 0.17218067190926339 0 -0.032376737469686737 0.1828364714863587 0 -0.021946310432681571 0.1757844388361075 0 -0.021946310432681571 0.1757844388361075 0 -0.01946264833552741 0.18702618225850701 0 -0.00875625087587102 0.1752309117836385 0 -0.0084057238225411189 0.18853426110143401 0 -0.01946264833552741 0.18702618225850701 0 -0.00875625087587102 0.1752309117836385 0 -0.00875625087587102 0.1752309117836385 0 0.0025848787479034788 0.16950287271148931 0 0.001793176579978791 0.17998531947887711 0 -0.0084057238225411189 0.18853426110143401 0 -0.00875625087587102 0.1752309117836385 0 0.001793176579978791 0.17998531947887711 0 -0.00875625087587102 0.1752309117836385 0 -0.0068210809946663868 0.1547065466563233 0 -0.021242701599119011 0.1639134080730201 0 -0.00875625087587102 0.1752309117836385 0 -0.0068210809946663868 0.1547065466563233 0 -0.00875625087587102 0.1752309117836385 0 -0.0068210809946663868 0.1547065466563233 0 0.0025848787479034788 0.16950287271148931 0 -0.0068210809946663868 0.1547065466563233 0 -0.023172174977586758 0.14595039470192109 0 -0.0048859111134644823 0.13418218152900799 0 -0.0068210809946663868 0.1547065466563233 0 -0.0048859111134644823 0.13418218152900799 0 0.0083964321985330621 0.15833810241627999 0 -0.0068210809946663868 0.1547065466563233 0 -0.0048859111134644823 0.13418218152900799 0 -0.021242701599119011 0.1639134080730201 0 -0.0068210809946663868 0.1547065466563233 0 -0.023172174977586758 0.14595039470192109 0 -0.034384628223899323 0.13041512900960869 0 -0.023172174977586758 0.14595039470192109 0 -0.022517275464968241 0.12502544996104559 0 -0.023172174977586758 0.14595039470192109 0 -0.022517275464968241 0.12502544996104559 0 -0.0048859111134644823 0.13418218152900799 0 -0.022517275464968241 0.12502544996104559 0 -0.0048859111134644823 0.13418218152900799 0 -0.015744957932625168 0.1144333864773263 0 -0.0048859111134644823 0.13418218152900799 0 -0.0027283207398177481 0.1112988300186621 0 -0.015744957932625168 0.1144333864773263 0 -0.0048859111134644823 0.13418218152900799 0 -0.0027283207398177481 0.1112988300186621 0 -0.0048859111134644823 0.13418218152900799 0 -0.015744957932625168 0.1144333864773263 0 -0.0091650973858481491 0.1092624310882752 0 -0.015875584330959029 0.1061170433737039 0 -0.015744957932625168 0.1144333864773263 0 -0.0027283207398177481 0.1112988300186621 0 -0.0091650973858481491 0.1092624310882752 0 -0.015744957932625168 0.1144333864773263 0 -0.0027283207398177481 0.1112988300186621 0 -0.0091650973858481491 0.1092624310882752 0 -0.0027283207398177481 0.1112988300186621 0 -0.00099188174605262941 0.091542484201397795 0 -0.0027283207398177481 0.1112988300186621 0 -0.0091650973858481491 0.1092624310882752 0 -0.00099188174605262941 0.091542484201397795 0 -0.02232598206618509 0.1007386508358324 0 -0.00099188174605262941 0.091542484201397795 0 -0.0091650973858481491 0.1092624310882752 0 -0.015875584330959029 0.1061170433737039 0 -0.00099188174605262941 0.091542484201397795 0 -0.015875584330959029 0.1061170433737039 0 -0.02232598206618509 0.1007386508358324 0 -0.00099188174605262941 0.091542484201397795 0 -0.015875584330959029 0.1061170433737039 0 -0.02232598206618509 0.1007386508358324 0 -0.022974923671888661 0.1117096618463925 0 -0.02232598206618509 0.1007386508358324 0 -0.022974923671888661 0.1117096618463925 0 -0.032764803792881728 0.11378514820674419 0 -0.034384628223899323 0.13041512900960869 0 -0.022517275464968241 0.12502544996104559 0 -0.032764803792881728 0.11378514820674419 0 -0.022517275464968241 0.12502544996104559 0 -0.022974923671888661 0.1117096618463925 0 -0.032764803792881728 0.11378514820674419 0 -0.022517275464968241 0.12502544996104559 0 -0.015744957932625168 0.1144333864773263 0 -0.022974923671888661 0.1117096618463925 0 -0.015875584330959029 0.1061170433737039 0 -0.015744957932625168 0.1144333864773263 0 -0.022974923671888661 0.1117096618463925 0 -0.003035127288852954 0.076409820205214501 0 -0.013163178525772491 0.085034670683219016 0 -0.019826747276029309 0.071888662154804356 0 -0.003035127288852954 0.076409820205214501 0 -0.011386178397956191 0.054275743328616399 0 0.0051777680653156714 0.064022599137691316 0 -0.003035127288852954 0.076409820205214501 0 -0.019826747276029309 0.071888662154804356 0 -0.011386178397956191 0.054275743328616399 0 -0.003035127288852954 0.076409820205214501 0 -0.013163178525772491 0.085034670683219016 0 0.0047653747149208892 0.089060791091408742 0 -0.013163178525772491 0.085034670683219016 0 -0.00099188174605262941 0.091542484201397795 0 0.0047653747149208892 0.089060791091408742 0 -0.02232598206618509 0.1007386508358324 0 -0.013163178525772491 0.085034670683219016 0 -0.00099188174605262941 0.091542484201397795 0 -0.02232598206618509 0.1007386508358324 0 -0.013163178525772491 0.085034670683219016 0 -0.0265822841990099 0.083812651062443982 0 -0.02232598206618509 0.1007386508358324 0 -0.0265822841990099 0.083812651062443982 0 -0.038648054847481253 0.091592857022764956 0 -0.013163178525772491 0.085034670683219016 0 -0.0265822841990099 0.083812651062443982 0 -0.019826747276029309 0.071888662154804356 0 -0.0265822841990099 0.083812651062443982 0 -0.019826747276029309 0.071888662154804356 0 -0.038947458279581383 0.06980841461559914 0 -0.019826747276029309 0.071888662154804356 0 -0.038947458279581383 0.06980841461559914 0 -0.03227920074971518 0.050182972800496543 0 -0.0265822841990099 0.083812651062443982 0 -0.038947458279581383 0.06980841461559914 0 -0.038648054847481253 0.091592857022764956 0 -0.038947458279581383 0.06980841461559914 0 -0.038648054847481253 0.091592857022764956 0 -0.051868685752512869 0.078644022472940597 0 -0.051868685752512869 0.078644022472940597 0 -0.051868430026822732 0.094579406124193161 0 -0.064370036824128049 0.086087948632850797 0 -0.038648054847481253 0.091592857022764956 0 -0.051868685752512869 0.078644022472940597 0 -0.051868430026822732 0.094579406124193161 0 -0.051868430026822732 0.094579406124193161 0 -0.061526361232963143 0.097886893305520764 0 -0.064370036824128049 0.086087948632850797 0 -0.038947458279581383 0.06980841461559914 0 -0.051868685752512869 0.078644022472940597 0 -0.058367460703562739 0.059119997852446017 0 -0.051868685752512869 0.078644022472940597 0 -0.071384472249123032 0.071002208864972605 0 -0.058367460703562739 0.059119997852446017 0 -0.034384628223899323 0.13041512900960869 0 -0.049417338847290812 0.11241651058025599 0 -0.055464028986537781 0.12152847900347021 0 -0.034384628223899323 0.13041512900960869 0 -0.032764803792881728 0.11378514820674419 0 -0.049417338847290812 0.11241651058025599 0 -0.02232598206618509 0.1007386508358324 0 -0.038648054847481253 0.091592857022764956 0 -0.047056041917009538 0.1065606680131176 0 -0.02232598206618509 0.1007386508358324 0 -0.049417338847290812 0.11241651058025599 0 -0.02232598206618509 0.1007386508358324 0 -0.047056041917009538 0.1065606680131176 0 -0.049417338847290812 0.11241651058025599 0 -0.02232598206618509 0.1007386508358324 0 -0.032764803792881728 0.11378514820674419 0 -0.049417338847290812 0.11241651058025599 0 -0.038648054847481253 0.091592857022764956 0 -0.047056041917009538 0.1065606680131176 0 -0.051868430026822732 0.094579406124193161 0 -0.038648054847481253 0.091592857022764956 0 -0.047056041917009538 0.1065606680131176 0 -0.05121506483947591 0.10540067752367049 0 -0.061526361232963143 0.097886893305520764 0 -0.067126658382936771 0.107652210274153 0 -0.047056041917009538 0.1065606680131176 0 -0.05121506483947591 0.10540067752367049 0 -0.051868430026822732 0.094579406124193161 0 -0.05121506483947591 0.10540067752367049 0 -0.067126658382936771 0.107652210274153 0 -0.05121506483947591 0.10540067752367049 0 -0.051868430026822732 0.094579406124193161 0 -0.061526361232963143 0.097886893305520764 0 -0.047056041917009538 0.1065606680131176 0 -0.05121506483947591 0.10540067752367049 0 -0.055464028986537781 0.12152847900347021 0 -0.05121506483947591 0.10540067752367049 0 -0.055464028986537781 0.12152847900347021 0 -0.067126658382936771 0.107652210274153 0 -0.047056041917009538 0.1065606680131176 0 -0.049417338847290812 0.11241651058025599 0 -0.055464028986537781 0.12152847900347021 0 -0.047056041917009538 0.1065606680131176 0 -0.055464028986537781 0.12152847900347021 0 -0.055464028986537781 0.12152847900347021 0 -0.083038251926397771 0.1099037430246345 0 -0.067126658382936771 0.107652210274153 0 -0.074584077109923652 0.1272677286844309 0 -0.055464028986537781 0.12152847900347021 0 -0.083038251926397771 0.1099037430246345 0 -0.055464028986537781 0.12152847900347021 0 -0.083038251926397771 0.1099037430246345 0 -0.074584077109923652 0.1272677286844309 0 -0.092112316966028215 0.1342892166630667 0 -0.083038251926397771 0.1099037430246345 0 -0.083038251926397771 0.1099037430246345 0 -0.072379193693475868 0.097174230546474782 0 -0.084489815305001228 0.087260370642692681 0 -0.083038251926397771 0.1099037430246345 0 -0.084489815305001228 0.087260370642692681 0 -0.1041261307150515 0.1010135188538029 0 -0.083038251926397771 0.1099037430246345 0 -0.1041261307150515 0.1010135188538029 0 -0.083038251926397771 0.1099037430246345 0 -0.067126658382936771 0.107652210274153 0 -0.083038251926397771 0.1099037430246345 0 -0.072379193693475868 0.097174230546474782 0 -0.067126658382936771 0.107652210274153 0 -0.061526361232963143 0.097886893305520764 0 -0.072379193693475868 0.097174230546474782 0 -0.067126658382936771 0.107652210274153 0 -0.061526361232963143 0.097886893305520764 0 -0.072379193693475868 0.097174230546474782 0 -0.064370036824128049 0.086087948632850797 0 -0.051868685752512869 0.078644022472940597 0 -0.064370036824128049 0.086087948632850797 0 -0.071384472249123032 0.071002208864972605 0 -0.072379193693475868 0.097174230546474782 0 -0.064370036824128049 0.086087948632850797 0 -0.084489815305001228 0.087260370642692681 0 -0.064370036824128049 0.086087948632850797 0 -0.071384472249123032 0.071002208864972605 0 -0.084489815305001228 0.087260370642692681 0 -0.071384472249123032 0.071002208864972605 0 -0.092168962332423721 0.067831224642473015 0 -0.077942303078585434 0.051076540920440068 0 -0.071384472249123032 0.071002208864972605 0 -0.092168962332423721 0.067831224642473015 0 -0.084489815305001228 0.087260370642692681 0 -0.084489815305001228 0.087260370642692681 0 -0.1051436555286426 0.083453453146451986 0 -0.1041261307150515 0.1010135188538029 0 -0.092168962332423721 0.067831224642473015 0 -0.084489815305001228 0.087260370642692681 0 -0.1051436555286426 0.083453453146451986 0 -0.092168962332423721 0.067831224642473015 0 -0.1051436555286426 0.083453453146451986 0 -0.1197193597870289 0.069038856910316179 0 -0.12854148902822821 0.090720496459719718 0 -0.1254225941229038 0.068746160900854683 0 -0.1197193597870289 0.069038856910316179 0 -0.12521400950370701 0.092123294682975254 0 -0.1051436555286426 0.083453453146451986 0 -0.1197193597870289 0.069038856910316179 0 -0.12521400950370701 0.092123294682975254 0 -0.1197193597870289 0.069038856910316179 0 -0.12521400950370701 0.092123294682975254 0 -0.12854148902822821 0.090720496459719718 0 -0.1197193597870289 0.069038856910316179 0 -0.12521400950370701 0.092123294682975254 0 -0.1051436555286426 0.083453453146451986 0 -0.1041261307150515 0.1010135188538029 0 -0.12521400950370701 0.092123294682975254 0 -0.1041261307150515 0.1010135188538029 0 -0.12925040267058449 0.1090812213373212 0 -0.1173611794797168 0.1029517990336716 0 -0.10759588309895909 0.1133787130650822 0 -0.12925040267058449 0.1090812213373212 0 -0.12521400950370701 0.092123294682975254 0 -0.1173611794797168 0.1029517990336716 0 -0.12521400950370701 0.092123294682975254 0 -0.1173611794797168 0.1029517990336716 0 -0.1041261307150515 0.1010135188538029 0 -0.1173611794797168 0.1029517990336716 0 -0.10759588309895909 0.1133787130650822 0 -0.1041261307150515 0.1010135188538029 0 -0.1321535142715205 0.1168536831055289 0 -0.1190832258571448 0.13271694655639171 0 -0.10759588309895909 0.1133787130650822 0 -0.1321535142715205 0.1168536831055289 0 -0.10759588309895909 0.1133787130650822 0 -0.1321535142715205 0.1168536831055289 0 -0.12925040267058449 0.1090812213373212 0 -0.10759588309895909 0.1133787130650822 0 -0.083038251926397771 0.1099037430246345 0 -0.10759588309895909 0.1133787130650822 0 -0.092112316966028215 0.1342892166630667 0 -0.083038251926397771 0.1099037430246345 0 -0.10759588309895909 0.1133787130650822 0 -0.083038251926397771 0.1099037430246345 0 -0.10759588309895909 0.1133787130650822 0 -0.1041261307150515 0.1010135188538029 0 -0.10873006035367171 0.02286998136499829 0 -0.094509922019120923 0.015016078684504939 0 -0.084830098546317456 0.030613361025225039 0 -0.1032354106369943 -0.00021445640766098919 0 -0.10873006035367171 0.02286998136499829 0 -0.094509922019120923 0.015016078684504939 0 -0.1032354106369943 -0.00021445640766098919 0 -0.10873006035367171 0.02286998136499829 0 -0.1032354106369943 -0.00021445640766098919 0 -0.094509922019120923 0.015016078684504939 0 -0.08860203887846485 0.0020081847372806711 0 -0.1032354106369943 -0.00021445640766098919 0 -0.116307348182752 0.014346146832091081 0 -0.119440435482564 0.0034978936377945791 0 -0.1032354106369943 -0.00021445640766098919 0 -0.10873006035367171 0.02286998136499829 0 -0.116307348182752 0.014346146832091081 0 -0.1032354106369943 -0.00021445640766098919 0 -0.116307348182752 0.014346146832091081 0 -0.1267834157359943 -0.0026565814049187282 0 -0.12876234116223551 0.0062894663790507184 0 -0.119440435482564 0.0034978936377945791 0 -0.12876234116223551 0.0062894663790507184 0 -0.12519071472699889 0.014101852870310769 0 -0.119440435482564 0.0034978936377945791 0 -0.12519071472699889 0.014101852870310769 0 -0.116307348182752 0.014346146832091081 0 -0.119440435482564 0.0034978936377945791 0 -0.10873006035367171 0.02286998136499829 0 -0.1104731758786047 0.022453319195844219 0 -0.1142247100703503 0.045954419137657243 0 -0.12519071472699889 0.014101852870310769 0 -0.116307348182752 0.014346146832091081 0 -0.118996745933825 0.02347251473980343 0 -0.1104731758786047 0.022453319195844219 0 -0.118996745933825 0.02347251473980343 0 -0.1223036992175798 0.046771825341989579 0 -0.10873006035367171 0.02286998136499829 0 -0.116307348182752 0.014346146832091081 0 -0.1104731758786047 0.022453319195844219 0 -0.116307348182752 0.014346146832091081 0 -0.1104731758786047 0.022453319195844219 0 -0.118996745933825 0.02347251473980343 0 -0.1266498071351265 0.032053537492123411 0 -0.118996745933825 0.02347251473980343 0 -0.1223036992175798 0.046771825341989579 0 -0.1104731758786047 0.022453319195844219 0 -0.1223036992175798 0.046771825341989579 0 -0.1104731758786047 0.022453319195844219 0 -0.1142247100703503 0.045954419137657243 0 -0.1223036992175798 0.046771825341989579 0 -0.118996745933825 0.02347251473980343 0 -0.1223036992175798 0.046771825341989579 0 -0.10873006035367171 0.02286998136499829 0 -0.1142247100703503 0.045954419137657243 0 -0.1197193597870289 0.069038856910316179 0 -0.1142247100703503 0.045954419137657243 0 -0.1223036992175798 0.046771825341989579 0 -0.1197193597870289 0.069038856910316179 0 -0.1142247100703503 0.045954419137657243 0 -0.1254225941229038 0.068746160900854683 0 -0.1223036992175798 0.046771825341989579 0 -0.1197193597870289 0.069038856910316179 0 -0.1142247100703503 0.045954419137657243 0 -0.096469893187734121 0.050090716967113771 0 -0.1254225941229038 0.068746160900854683 0 -0.1197193597870289 0.069038856910316179 0 -0.1223036992175798 0.046771825341989579 0 -0.092168962332423721 0.067831224642473015 0 -0.1197193597870289 0.069038856910316179 0 -0.096469893187734121 0.050090716967113771 0 -0.10873006035367171 0.02286998136499829 0 -0.1142247100703503 0.045954419137657243 0 -0.096469893187734121 0.050090716967113771 0 -0.10873006035367171 0.02286998136499829 0 -0.096469893187734121 0.050090716967113771 0 -0.084830098546317456 0.030613361025225039 0 -0.096469893187734121 0.050090716967113771 0 -0.077942303078585434 0.051076540920440068 0 -0.084830098546317456 0.030613361025225039 0 -0.092168962332423721 0.067831224642473015 0 -0.096469893187734121 0.050090716967113771 0 -0.077942303078585434 0.051076540920440068 0 -0.077942303078585434 0.051076540920440068 0 -0.058367460703562739 0.059119997852446017 0 -0.062163379014735128 0.037914456883777113 0 -0.071384472249123032 0.071002208864972605 0 -0.077942303078585434 0.051076540920440068 0 -0.058367460703562739 0.059119997852446017 0 -0.077942303078585434 0.051076540920440068 0 -0.084830098546317456 0.030613361025225039 0 -0.062163379014735128 0.037914456883777113 0 -0.065947523744300629 0.01670680837377864 0 -0.084830098546317456 0.030613361025225039 0 -0.062163379014735128 0.037914456883777113 0 -0.065947523744300629 0.01670680837377864 0 -0.084830098546317456 0.030613361025225039 0 -0.082107873429294195 0.01374414988743387 0 -0.065947523744300629 0.01670680837377864 0 -0.062163379014735128 0.037914456883777113 0 -0.094509922019120923 0.015016078684504939 0 -0.084830098546317456 0.030613361025225039 0 -0.082107873429294195 0.01374414988743387 0 -0.094509922019120923 0.015016078684504939 0 -0.08860203887846485 0.0020081847372806711 0 -0.082107873429294195 0.01374414988743387 0 -0.08860203887846485 0.0020081847372806711 0 -0.082107873429294195 0.01374414988743387 0 -0.075598923906003951 0.003113988946536814 0 -0.065947523744300629 0.01670680837377864 0 -0.082107873429294195 0.01374414988743387 0 -0.075598923906003951 0.003113988946536814 0 -0.069241940666184471 -0.0016292626576147871 0 -0.065947523744300629 0.01670680837377864 0 -0.075598923906003951 0.003113988946536814 0 -0.069241940666184471 -0.0016292626576147871 0 -0.065947523744300629 0.01670680837377864 0 -0.065947523744300629 0.01670680837377864 0 -0.075598923906003951 0.003113988946536814 0 -0.069241940666184471 -0.0016292626576147871 0 -0.045215917027402193 0.011652523540130339 0 -0.069241940666184471 -0.0016292626576147871 0 -0.065947523744300629 0.01670680837377864 0 -0.045215917027402193 0.011652523540130339 0 -0.069241940666184471 -0.0016292626576147871 0 -0.050904770718203977 -0.0065393892505411066 0 -0.045215917027402193 0.011652523540130339 0 -0.053912569656802821 0.02459803908062241 0 -0.045215917027402193 0.011652523540130339 0 -0.042323458840773362 0.03211836752480357 0 -0.065947523744300629 0.01670680837377864 0 -0.053912569656802821 0.02459803908062241 0 -0.062163379014735128 0.037914456883777113 0 -0.065947523744300629 0.01670680837377864 0 -0.053912569656802821 0.02459803908062241 0 -0.045215917027402193 0.011652523540130339 0 -0.045215917027402193 0.011652523540130339 0 -0.021189893388619239 0.024934309737873969 0 -0.045215917027402193 0.011652523540130339 0 -0.042323458840773362 0.03211836752480357 0 -0.021189893388619239 0.024934309737873969 0 -0.035419323475875557 -0.0059051719180527916 0 -0.045215917027402193 0.011652523540130339 0 -0.01923735432516601 0.0039612367865925167 0 -0.058367460703562739 0.059119997852446017 0 -0.062163379014735128 0.037914456883777113 0 -0.058367460703562739 0.059119997852446017 0 -0.062163379014735128 0.037914456883777113 0 -0.046816191517673557 0.049828841935424473 0 -0.038947458279581383 0.06980841461559914 0 -0.058367460703562739 0.059119997852446017 0 -0.046816191517673557 0.049828841935424473 0 -0.053912569656802821 0.02459803908062241 0 -0.062163379014735128 0.037914456883777113 0 -0.042323458840773362 0.03211836752480357 0 -0.062163379014735128 0.037914456883777113 0 -0.042323458840773362 0.03211836752480357 0 -0.046816191517673557 0.049828841935424473 0 -0.042323458840773362 0.03211836752480357 0 -0.03227920074971518 0.050182972800496543 0 -0.021189893388619239 0.024934309737873969 0 -0.042323458840773362 0.03211836752480357 0 -0.046816191517673557 0.049828841935424473 0 -0.03227920074971518 0.050182972800496543 0 -0.038947458279581383 0.06980841461559914 0 -0.046816191517673557 0.049828841935424473 0 -0.03227920074971518 0.050182972800496543 0 -0.019826747276029309 0.071888662154804356 0 -0.03227920074971518 0.050182972800496543 0 -0.011386178397956191 0.054275743328616399 0 -0.03227920074971518 0.050182972800496543 0 -0.011386178397956191 0.054275743328616399 0 -0.021189893388619239 0.024934309737873969 0 -0.011386178397956191 0.054275743328616399 0 -0.021189893388619239 0.024934309737873969 0 0.0028361302501638259 0.038216095935617658 0 -0.021189893388619239 0.024934309737873969 0 0.0028361302501638259 0.038216095935617658 0 -0.011386178397956191 0.054275743328616399 0 0.0028361302501638259 0.038216095935617658 0 0.0051777680653156714 0.064022599137691316 0 -0.045215917027402193 0.011652523540130339 0 -0.01923735432516601 0.0039612367865925167 0 -0.021189893388619239 0.024934309737873969 0 -0.021189893388619239 0.024934309737873969 0 0.001394510555122653 0.016748752812818749 0 0.0028361302501638259 0.038216095935617658 0 -0.01923735432516601 0.0039612367865925167 0 0.001394510555122653 0.016748752812818749 0 0.0029913831872387482 -0.0052912084592871226 0 -0.01923735432516601 0.0039612367865925167 0 -0.021189893388619239 0.024934309737873969 0 0.001394510555122653 0.016748752812818749 0 0.001394510555122653 0.016748752812818749 0 0.02076612650089784 0.0082996566370284637 0 0.0029913831872387482 -0.0052912084592871226 0 0.001394510555122653 0.016748752812818749 0 0.02295351587523849 0.02832607766333544 0 0.02076612650089784 0.0082996566370284637 0 0.001394510555122653 0.016748752812818749 0 0.02295351587523849 0.02832607766333544 0 0.0028361302501638259 0.038216095935617658 0 0.02295351587523849 0.02832607766333544 0 0.02076612650089784 0.0082996566370284637 0 0.041588967299923271 0.017257149643817919 0 0.0028361302501638259 0.038216095935617658 0 0.02686215388894686 0.051497882133361317 0 0.0051777680653156714 0.064022599137691316 0 0.0028361302501638259 0.038216095935617658 0 0.02686215388894686 0.051497882133361317 0 0.02295351587523849 0.02832607766333544 0 0.02686215388894686 0.051497882133361317 0 0.040770659363233173 0.034467497996713288 0 0.02295351587523849 0.02832607766333544 0 0.0028361302501638259 0.038216095935617658 0 0.02686215388894686 0.051497882133361317 0 0.02686215388894686 0.051497882133361317 0 0.048514489605557098 0.047173504773382197 0 0.050888177527729922 0.064779668331105017 0 0.02686215388894686 0.051497882133361317 0 0.050888177527729922 0.064779668331105017 0 0.02686215388894686 0.051497882133361317 0 0.040770659363233173 0.034467497996713288 0 0.048514489605557098 0.047173504773382197 0 0.040770659363233173 0.034467497996713288 0 0.048514489605557098 0.047173504773382197 0 0.065610046974298356 0.033244132347540409 0 0.048514489605557098 0.047173504773382197 0 0.058790551279368268 0.052953604845247408 0 0.065610046974298356 0.033244132347540409 0 0.058790551279368268 0.052953604845247408 0 0.067186822188930559 0.059571783873947667 0 0.050888177527729922 0.064779668331105017 0 0.048514489605557098 0.047173504773382197 0 0.058790551279368268 0.052953604845247408 0 0.050888177527729922 0.064779668331105017 0 0.041588967299923271 0.017257149643817919 0 0.060050954720937057 0.0064664561173888302 0 0.037869521298495842 -0.0024130821824058812 0 0.02076612650089784 0.0082996566370284637 0 0.041588967299923271 0.017257149643817919 0 0.037869521298495842 -0.0024130821824058812 0 0.02295351587523849 0.02832607766333544 0 0.040770659363233173 0.034467497996713288 0 0.041588967299923271 0.017257149643817919 0 0.041588967299923271 0.017257149643817919 0 0.060050954720937057 0.0064664561173888302 0 0.065610046974298356 0.033244132347540409 0 0.040770659363233173 0.034467497996713288 0 0.041588967299923271 0.017257149643817919 0 0.065610046974298356 0.033244132347540409 0 0.041588967299923271 0.017257149643817919 0 0.065610046974298356 0.033244132347540409 0 0.060050954720937057 0.0064664561173888302 0 0.076182375243076667 0.01733186743879735 0 0.071413030970577329 -0.0087908899577248817 0 0.076182375243076667 0.01733186743879735 0 0.073970768157536865 -0.00054468278966517819 0 0.071413030970577329 -0.0087908899577248817 0 0.076182375243076667 0.01733186743879735 0 0.071413030970577329 -0.0087908899577248817 0 0.099018903114472673 0.01401963472780658 0 0.092067821462080798 -0.00033441177277885892 0 0.073970768157536865 -0.00054468278966517819 0 0.099018903114472673 0.01401963472780658 0 0.073970768157536865 -0.00054468278966517819 0 0.076182375243076667 0.01733186743879735 0 0.099018903114472673 0.01401963472780658 0 0.073970768157536865 -0.00054468278966517819 0 0.083436587489724726 0.02470805624949873 0 0.076182375243076667 0.01733186743879735 0 0.08095171951557506 0.043454624835319762 0 0.076182375243076667 0.01733186743879735 0 0.08095171951557506 0.043454624835319762 0 0.083436587489724726 0.02470805624949873 0 0.076182375243076667 0.01733186743879735 0 0.099018903114472673 0.01401963472780658 0 0.060050954720937057 0.0064664561173888302 0 0.076182375243076667 0.01733186743879735 0 0.065610046974298356 0.033244132347540409 0 0.060050954720937057 0.0064664561173888302 0 0.065610046974298356 0.033244132347540409 0 0.076182375243076667 0.01733186743879735 0 0.065610046974298356 0.033244132347540409 0 0.08095171951557506 0.043454624835319762 0 0.065610046974298356 0.033244132347540409 0 0.069332775459548787 0.051176199945538993 0 0.058790551279368268 0.052953604845247408 0 0.065610046974298356 0.033244132347540409 0 0.069332775459548787 0.051176199945538993 0 0.065610046974298356 0.033244132347540409 0 0.069332775459548787 0.051176199945538993 0 0.08095171951557506 0.043454624835319762 0 0.065610046974298356 0.033244132347540409 0 0.08095171951557506 0.043454624835319762 0 0.069332775459548787 0.051176199945538993 0 0.084804403585996266 0.064556630802335466 0 0.073055503944793265 0.069108267543538687 0 0.069332775459548787 0.051176199945538993 0 0.073055503944793265 0.069108267543538687 0 0.067186822188930559 0.059571783873947667 0 0.069332775459548787 0.051176199945538993 0 0.073055503944793265 0.069108267543538687 0 0.058790551279368268 0.052953604845247408 0 0.067186822188930559 0.059571783873947667 0 0.069332775459548787 0.051176199945538993 0 0.08095171951557506 0.043454624835319762 0 0.084804403585996266 0.064556630802335466 0 0.069332775459548787 0.051176199945538993 0 0.08095171951557506 0.043454624835319762 0 0.084804403585996266 0.064556630802335466 0 0.095386868097821945 0.053061789618851572 0 0.096677562210499168 0.069030579129249106 0 0.084804403585996266 0.064556630802335466 0 0.08095171951557506 0.043454624835319762 0 0.095386868097821945 0.053061789618851572 0 0.084804403585996266 0.064556630802335466 0 0.08095171951557506 0.043454624835319762 0 0.095386868097821945 0.053061789618851572 0 0.083436587489724726 0.02470805624949873 0 0.08095171951557506 0.043454624835319762 0 0.091275562097269919 0.040776835589408908 0 0.083436587489724726 0.02470805624949873 0 0.091275562097269919 0.040776835589408908 0 0.10532707328595831 0.041882871653965058 0 0.08095171951557506 0.043454624835319762 0 0.091275562097269919 0.040776835589408908 0 0.095386868097821945 0.053061789618851572 0 0.083436587489724726 0.02470805624949873 0 0.10532707328595831 0.041882871653965058 0 0.099682767888764484 0.027640441658703281 0 0.083436587489724726 0.02470805624949873 0 0.10532707328595831 0.041882871653965058 0 0.091275562097269919 0.040776835589408908 0 0.10532707328595831 0.041882871653965058 0 0.095386868097821945 0.053061789618851572 0 0.10532707328595831 0.041882871653965058 0 0.10972781368369031 0.030589770507792501 0 0.099682767888764484 0.027640441658703281 0 0.10532707328595831 0.041882871653965058 0 0.095386868097821945 0.053061789618851572 0 0.10982201668006911 0.062668954402382793 0 0.095386868097821945 0.053061789618851572 0 0.10982201668006911 0.062668954402382793 0 0.096677562210499168 0.069030579129249106 0 0.095386868097821945 0.053061789618851572 0 0.10982201668006911 0.062668954402382793 0 0.10532707328595831 0.041882871653965058 0 0.1272175590821919 0.059057687058431327 0 0.10532707328595831 0.041882871653965058 0 0.1205432860578472 0.040821952253209247 0 0.1272175590821919 0.059057687058431327 0 0.10532707328595831 0.041882871653965058 0 0.10982201668006911 0.062668954402382793 0 0.1272175590821919 0.059057687058431327 0 0.10532707328595831 0.041882871653965058 0 0.1205432860578472 0.040821952253209247 0 0.10972781368369031 0.030589770507792501 0 0.1205432860578472 0.040821952253209247 0 0.12406703807140849 0.028583952245278339 0 0.10972781368369031 0.030589770507792501 0 0.12406703807140849 0.028583952245278339 0 0.10972781368369031 0.030589770507792501 0 0.099018903114472673 0.01401963472780658 0 0.12406703807140849 0.028583952245278339 0 0.1140697973221475 0.0085122026699586285 0 0.099018903114472673 0.01401963472780658 0 0.12406703807140849 0.028583952245278339 0 0.099018903114472673 0.01401963472780658 0 0.1140697973221475 0.0085122026699586285 0 0.12869539122038509 0.002219350835908105 0 0.1129183536867734 -0.0060336046019931373 0 0.12406703807140849 0.028583952245278339 0 0.1140697973221475 0.0085122026699586285 0 0.12869539122038509 0.002219350835908105 0 0.1140697973221475 0.0085122026699586285 0 0.1037614036936796 0.0018051551888032739 0 0.1129183536867734 -0.0060336046019931373 0 0.1140697973221475 0.0085122026699586285 0 0.1037614036936796 0.0018051551888032739 0 0.099018903114472673 0.01401963472780658 0 0.1037614036936796 0.0018051551888032739 0 0.099018903114472673 0.01401963472780658 0 0.092067821462080798 -0.00033441177277885892 0 0.10972781368369031 0.030589770507792501 0 0.099018903114472673 0.01401963472780658 0 0.099682767888764484 0.027640441658703281 0 0.083436587489724726 0.02470805624949873 0 0.099018903114472673 0.01401963472780658 0 0.099682767888764484 0.027640441658703281 0 0.095761154657429126 0.106004469490852 0 0.1085620844884278 0.096662284986989921 0 0.1147176577497226 0.1132000534107224 0 0.095761154657429126 0.106004469490852 0 0.1085620844884278 0.096662284986989921 0 0.088657087656411629 0.085658636769352148 0 0.095761154657429126 0.106004469490852 0 0.1147176577497226 0.1132000534107224 0 0.1110746194707164 0.130888525773349 0 0.095761154657429126 0.106004469490852 0 0.1110746194707164 0.130888525773349 0 0.095761154657429126 0.106004469490852 0 0.09722263756003785 0.1201217950412881 0 0.1110746194707164 0.130888525773349 0 0.1147176577497226 0.1132000534107224 0 0.12846708132044771 0.1076659332046209 0 0.1297233488115922 0.1247790535978003 0 0.1147176577497226 0.1132000534107224 0 0.1110746194707164 0.130888525773349 0 0.1297233488115922 0.1247790535978003 0 0.1085620844884278 0.096662284986989921 0 0.1239127955032252 0.093967289632607087 0 0.12846708132044771 0.1076659332046209 0 0.1085620844884278 0.096662284986989921 0 0.12846708132044771 0.1076659332046209 0 0.1085620844884278 0.096662284986989921 0 0.1147176577497226 0.1132000534107224 0 0.12846708132044771 0.1076659332046209 0 0.1085620844884278 0.096662284986989921 0 0.1225748144035738 0.08002933421490481 0 0.104717435032192 0.079206884053324475 0 0.1085620844884278 0.096662284986989921 0 0.1239127955032252 0.093967289632607087 0 0.1225748144035738 0.08002933421490481 0 0.1225748144035738 0.08002933421490481 0 0.10982201668006911 0.062668954402382793 0 0.1272175590821919 0.059057687058431327 0 0.1225748144035738 0.08002933421490481 0 0.10982201668006911 0.062668954402382793 0 0.104717435032192 0.079206884053324475 0 0.10982201668006911 0.062668954402382793 0 0.096677562210499168 0.069030579129249106 0 0.104717435032192 0.079206884053324475 0 0.096677562210499168 0.069030579129249106 0 0.104717435032192 0.079206884053324475 0 0.088657087656411629 0.085658636769352148 0 0.1085620844884278 0.096662284986989921 0 0.088657087656411629 0.085658636769352148 0 0.1085620844884278 0.096662284986989921 0 0.104717435032192 0.079206884053324475 0 0.088657087656411629 0.085658636769352148 0 0.095761154657429126 0.106004469490852 0 0.088657087656411629 0.085658636769352148 0 0.080447689844141468 0.081120413208355252 0 0.080447689844141468 0.081120413208355252 0 0.074914201166512984 0.078061454528848717 0 0.080661813567136115 0.105747216330557 0 0.095761154657429126 0.106004469490852 0 0.080447689844141468 0.081120413208355252 0 0.088657087656411629 0.085658636769352148 0 0.080447689844141468 0.081120413208355252 0 0.088657087656411629 0.085658636769352148 0 0.080447689844141468 0.081120413208355252 0 0.081741171257838363 0.075110987080894809 0 0.088657087656411629 0.085658636769352148 0 0.084804403585996266 0.064556630802335466 0 0.096677562210499168 0.069030579129249106 0 0.088657087656411629 0.085658636769352148 0 0.084804403585996266 0.064556630802335466 0 0.088657087656411629 0.085658636769352148 0 0.081741171257838363 0.075110987080894809 0 0.084804403585996266 0.064556630802335466 0 0.080447689844141468 0.081120413208355252 0 0.081741171257838363 0.075110987080894809 0 0.073055503944793265 0.069108267543538687 0 0.081741171257838363 0.075110987080894809 0 0.084804403585996266 0.064556630802335466 0 0.073055503944793265 0.069108267543538687 0 0.073055503944793265 0.069108267543538687 0 0.074914201166512984 0.078061454528848717 0 0.050888177527729922 0.064779668331105017 0 0.074914201166512984 0.078061454528848717 0 0.050888177527729922 0.064779668331105017 0 0.067186822188930559 0.059571783873947667 0 0.073055503944793265 0.069108267543538687 0 0.050888177527729922 0.064779668331105017 0 0.073055503944793265 0.069108267543538687 0 0.074914201166512984 0.078061454528848717 0 0.080447689844141468 0.081120413208355252 0 0.073055503944793265 0.069108267543538687 0 0.074914201166512984 0.078061454528848717 0 0.080447689844141468 0.081120413208355252 0 0.073055503944793265 0.069108267543538687 0 0.067186822188930559 0.059571783873947667 0 0.073055503944793265 0.069108267543538687 0 0.074914201166512984 0.078061454528848717 0 0.080661813567136115 0.105747216330557 0 0.074914201166512984 0.078061454528848717 0 0.080661813567136115 0.105747216330557 0 0.056878449070108743 0.082315368657813429 0 0.080447689844141468 0.081120413208355252 0 0.074914201166512984 0.078061454528848717 0 0.080661813567136115 0.105747216330557 0 0.059943259069549851 0.116284125873699 0 0.047872846764668082 0.099872898742206298 0 0.095761154657429126 0.106004469490852 0 0.080447689844141468 0.081120413208355252 0 0.080661813567136115 0.105747216330557 0 0.09722263756003785 0.1201217950412881 0 0.080661813567136115 0.105747216330557 0 0.093232084927357864 0.12737578809229799 0 0.080661813567136115 0.105747216330557 0 0.086409425967759246 0.1334329781322651 0 0.095761154657429126 0.106004469490852 0 0.09722263756003785 0.1201217950412881 0 0.080661813567136115 0.105747216330557 0 0.080661813567136115 0.105747216330557 0 0.086409425967759246 0.1334329781322651 0 0.093232084927357864 0.12737578809229799 0 0.080661813567136115 0.105747216330557 0 0.059943259069549851 0.116284125873699 0 0.067288689715800709 0.13345006704948739 0 0.080661813567136115 0.105747216330557 0 0.086409425967759246 0.1334329781322651 0 0.067288689715800709 0.13345006704948739 0 0.080661813567136115 0.105747216330557 0 0.047872846764668082 0.099872898742206298 0 0.056878449070108743 0.082315368657813429 0 0.059943259069549851 0.116284125873699 0 0.047872846764668082 0.099872898742206298 0 0.043949686230594497 0.12606632137254559 0 0.047872846764668082 0.099872898742206298 0 0.031648836016073663 0.10689025044842621 0 0.022190949976015052 0.092222797409059878 0 0.02061068274538843 0.1186825756956038 0 0.043949686230594497 0.12606632137254559 0 0.047872846764668082 0.099872898742206298 0 0.031648836016073663 0.10689025044842621 0 0.043949686230594497 0.12606632137254559 0 0.031648836016073663 0.10689025044842621 0 0.02061068274538843 0.1186825756956038 0 0.043949686230594497 0.12606632137254559 0 0.074914201166512984 0.078061454528848717 0 0.050888177527729922 0.064779668331105017 0 0.056878449070108743 0.082315368657813429 0 0.047872846764668082 0.099872898742206298 0 0.031856731496026837 0.07738293134698504 0 0.022190949976015052 0.092222797409059878 0 0.047872846764668082 0.099872898742206298 0 0.056878449070108743 0.082315368657813429 0 0.031856731496026837 0.07738293134698504 0 0.050888177527729922 0.064779668331105017 0 0.056878449070108743 0.082315368657813429 0 0.031856731496026837 0.07738293134698504 0 0.02686215388894686 0.051497882133361317 0 0.050888177527729922 0.064779668331105017 0 0.031856731496026837 0.07738293134698504 0 0.02686215388894686 0.051497882133361317 0 0.01536671916643822 0.075561596789910493 0 0.0051777680653156714 0.064022599137691316 0 0.02686215388894686 0.051497882133361317 0 0.031856731496026837 0.07738293134698504 0 0.01536671916643822 0.075561596789910493 0 0.031856731496026837 0.07738293134698504 0 0.0047653747149208892 0.089060791091408742 0 0.031856731496026837 0.07738293134698504 0 0.0047653747149208892 0.089060791091408742 0 0.01536671916643822 0.075561596789910493 0 0.031856731496026837 0.07738293134698504 0 0.022190949976015052 0.092222797409059878 0 0.0047653747149208892 0.089060791091408742 0 0.022190949976015052 0.092222797409059878 0 0.0047653747149208892 0.089060791091408742 0 0.0073259130733282583 0.097710713458034379 0 -0.00099188174605262941 0.091542484201397795 0 0.0047653747149208892 0.089060791091408742 0 0.0073259130733282583 0.097710713458034379 0 -0.00099188174605262941 0.091542484201397795 0 0.0047653747149208892 0.089060791091408742 0 -0.003035127288852954 0.076409820205214501 0 0.0047653747149208892 0.089060791091408742 0 0.0055686836644554564 0.076263701806056267 0 0.0047653747149208892 0.089060791091408742 0 0.01536671916643822 0.075561596789910493 0 0.0055686836644554564 0.076263701806056267 0 0.01536671916643822 0.075561596789910493 0 0.0055686836644554564 0.076263701806056267 0 0.0051777680653156714 0.064022599137691316 0 -0.003035127288852954 0.076409820205214501 0 0.0055686836644554564 0.076263701806056267 0 0.0051777680653156714 0.064022599137691316 0 0.031648836016073663 0.10689025044842621 0 0.02061068274538843 0.1186825756956038 0 0.013289797058211509 0.1041882169511016 0 0.031648836016073663 0.10689025044842621 0 0.022190949976015052 0.092222797409059878 0 0.013289797058211509 0.1041882169511016 0 -0.0027283207398177481 0.1112988300186621 0 -0.00099188174605262941 0.091542484201397795 0 0.0073259130733282583 0.097710713458034379 0 -0.0027283207398177481 0.1112988300186621 0 0.013289797058211509 0.1041882169511016 0 0.0073259130733282583 0.097710713458034379 0 0.022190949976015052 0.092222797409059878 0 0.013289797058211509 0.1041882169511016 0 0.0073259130733282583 0.097710713458034379 0 -0.0027283207398177481 0.1112988300186621 0 0.02061068274538843 0.1186825756956038 0 0.013289797058211509 0.1041882169511016 0 -0.0048859111134644823 0.13418218152900799 0 -0.0027283207398177481 0.1112988300186621 0 0.0087719837297385375 0.1259271669624536 0 -0.0027283207398177481 0.1112988300186621 0 0.02061068274538843 0.1186825756956038 0 -0.0027283207398177481 0.1112988300186621 0 0.02061068274538843 0.1186825756956038 0 0.0087719837297385375 0.1259271669624536 0 -0.0048859111134644823 0.13418218152900799 0 0.0087719837297385375 0.1259271669624536 0 0.022091484026847959 0.13954508060654039 0 0.02061068274538843 0.1186825756956038 0 0.0087719837297385375 0.1259271669624536 0 0.022091484026847959 0.13954508060654039 0 0.02061068274538843 0.1186825756956038 0 0.022091484026847959 0.13954508060654039 0 0.043949686230594497 0.12606632137254559 0 0.022091484026847959 0.13954508060654039 0 0.021683077009990941 0.15544613661528231 0 0.0083964321985330621 0.15833810241627999 0 0.022091484026847959 0.13954508060654039 0 0.021683077009990941 0.15544613661528231 0 0.032626333892008363 0.15530848069790659 0 -0.0048859111134644823 0.13418218152900799 0 0.0083964321985330621 0.15833810241627999 0 -0.0048859111134644823 0.13418218152900799 0 0.022091484026847959 0.13954508060654039 0 0.0083964321985330621 0.15833810241627999 0 -0.0068210809946663868 0.1547065466563233 0 0.0025848787479034788 0.16950287271148931 0 0.0083964321985330621 0.15833810241627999 0 0.0025848787479034788 0.16950287271148931 0 0.0083964321985330621 0.15833810241627999 0 0.021678775510532568 0.1824940233035508 0 0.0083964321985330621 0.15833810241627999 0 0.021678775510532568 0.1824940233035508 0 0.0025848787479034788 0.16950287271148931 0 0.001793176579978791 0.17998531947887711 0 0.021678775510532568 0.1824940233035508 0 0.021678775510532568 0.1824940233035508 0 0.027454151497857428 0.16723490151904449 0 0.042278016523786252 0.18165665121113089 0 0.021683077009990941 0.15544613661528231 0 0.0083964321985330621 0.15833810241627999 0 0.027454151497857428 0.16723490151904449 0 0.0083964321985330621 0.15833810241627999 0 0.021678775510532568 0.1824940233035508 0 0.027454151497857428 0.16723490151904449 0 0.021683077009990941 0.15544613661528231 0 0.027454151497857428 0.16723490151904449 0 0.032626333892008363 0.15530848069790659 0 0.027454151497857428 0.16723490151904449 0 0.046465149219854077 0.16476965831832591 0 0.042278016523786252 0.18165665121113089 0 0.027454151497857428 0.16723490151904449 0 0.046465149219854077 0.16476965831832591 0 0.032626333892008363 0.15530848069790659 0 0.042278016523786252 0.18165665121113089 0 0.057196665305723288 0.19109739004841869 0 0.066136829304172279 0.1739313221124841 0 0.046465149219854077 0.16476965831832591 0 0.042278016523786252 0.18165665121113089 0 0.066136829304172279 0.1739313221124841 0 0.046465149219854077 0.16476965831832591 0 0.060196856149307469 0.1599499706034356 0 0.048169709840508092 0.1454073398766754 0 0.046465149219854077 0.16476965831832591 0 0.060196856149307469 0.1599499706034356 0 0.066136829304172279 0.1739313221124841 0 0.048169709840508092 0.1454073398766754 0 0.067288689715800709 0.13345006704948739 0 0.063563982840015548 0.14777188914250769 0 0.060196856149307469 0.1599499706034356 0 0.048169709840508092 0.1454073398766754 0 0.063563982840015548 0.14777188914250769 0 0.059943259069549851 0.116284125873699 0 0.043949686230594497 0.12606632137254559 0 0.067288689715800709 0.13345006704948739 0 0.043949686230594497 0.12606632137254559 0 0.067288689715800709 0.13345006704948739 0 0.048169709840508092 0.1454073398766754 0 0.043949686230594497 0.12606632137254559 0 0.067288689715800709 0.13345006704948739 0 0.022091484026847959 0.13954508060654039 0 0.048169709840508092 0.1454073398766754 0 0.043949686230594497 0.12606632137254559 0 0.046465149219854077 0.16476965831832591 0 0.048169709840508092 0.1454073398766754 0 0.032626333892008363 0.15530848069790659 0 0.022091484026847959 0.13954508060654039 0 0.048169709840508092 0.1454073398766754 0 0.032626333892008363 0.15530848069790659 0 0.021468554629050458 0.23087757551689039 0 0.014429959116253031 0.25575914870240468 0 0.031306243653586238 0.25632370353589701 0 0.021468554629050458 0.23087757551689039 0 0.031306243653586238 0.25632370353589701 0 0.021468554629050458 0.23087757551689039 0 0.038160487077975022 0.24795670232510389 0 0.031306243653586238 0.25632370353589701 0 -0.00086476245743153171 0.25445850891889638 0 0.001513002895634853 0.23827743262301671 0 0.014429959116253031 0.25575914870240468 0 0.001513002895634853 0.23827743262301671 0 0.021468554629050458 0.23087757551689039 0 0.014429959116253031 0.25575914870240468 0 -0.0020824451475201619 0.22034032605051659 0 0.001513002895634853 0.23827743262301671 0 0.021468554629050458 0.23087757551689039 0 -0.0020824451475201619 0.22034032605051659 0 0.021468554629050458 0.23087757551689039 0 0.01163086560451463 0.20543144749788381 0 0.021468554629050458 0.23087757551689039 0 0.034961118822532153 0.2066499441908218 0 0.034865753804484853 0.234480420542581 0 0.021468554629050458 0.23087757551689039 0 0.01163086560451463 0.20543144749788381 0 0.021468554629050458 0.23087757551689039 0 0.01163086560451463 0.20543144749788381 0 0.034961118822532153 0.2066499441908218 0 0.001793176579978791 0.17998531947887711 0 0.01163086560451463 0.20543144749788381 0 -0.0084057238225411189 0.18853426110143401 0 0.001793176579978791 0.17998531947887711 0 0.01163086560451463 0.20543144749788381 0 0.001793176579978791 0.17998531947887711 0 0.021678775510532568 0.1824940233035508 0 0.01163086560451463 0.20543144749788381 0 0.021678775510532568 0.1824940233035508 0 0.034961118822532153 0.2066499441908218 0 0.021678775510532568 0.1824940233035508 0 0.01163086560451463 0.20543144749788381 0 0.034961118822532153 0.2066499441908218 0 0.021678775510532568 0.1824940233035508 0 0.042278016523786252 0.18165665121113089 0 0.034961118822532153 0.2066499441908218 0 0.042278016523786252 0.18165665121113089 0 0.057196665305723288 0.19109739004841869 0 0.034961118822532153 0.2066499441908218 0 0.057196665305723288 0.19109739004841869 0 0.061745105441412332 0.20783997598041659 0 0.034961118822532153 0.2066499441908218 0 0.061745105441412332 0.20783997598041659 0 0.034961118822532153 0.2066499441908218 0 0.04824346213453154 0.23080586507809289 0 0.034961118822532153 0.2066499441908218 0 0.04824346213453154 0.23080586507809289 0 0.034961118822532153 0.2066499441908218 0 0.04824346213453154 0.23080586507809289 0 0.034865753804484853 0.234480420542581 0 0.061745105441412332 0.20783997598041659 0 0.04824346213453154 0.23080586507809289 0 0.061745105441412332 0.20783997598041659 0 0.04824346213453154 0.23080586507809289 0 0.063420322169517929 0.2276556139624287 0 0.04824346213453154 0.23080586507809289 0 0.052804401603492937 0.2391006132558729 0 0.063420322169517929 0.2276556139624287 0 0.052804401603492937 0.2391006132558729 0 0.038160487077975022 0.24795670232510389 0 0.054762220648861562 0.25103742831865761 0 0.052804401603492937 0.2391006132558729 0 0.073232241622510824 0.23916667884285861 0 0.054762220648861562 0.25103742831865761 0 0.04824346213453154 0.23080586507809289 0 0.052804401603492937 0.2391006132558729 0 0.04824346213453154 0.23080586507809289 0 0.034865753804484853 0.234480420542581 0 0.038160487077975022 0.24795670232510389 0 0.04824346213453154 0.23080586507809289 0 0.052804401603492937 0.2391006132558729 0 0.038160487077975022 0.24795670232510389 0 0.021468554629050458 0.23087757551689039 0 0.034865753804484853 0.234480420542581 0 0.038160487077975022 0.24795670232510389 0 0.04824346213453154 0.23080586507809289 0 0.038160487077975022 0.24795670232510389 0 0.073232241622510824 0.23916667884285861 0 0.099693301234586182 0.2331139238212758 0 0.088218080968415949 0.25581349114205748 0 0.052804401603492937 0.2391006132558729 0 0.073232241622510824 0.23916667884285861 0 0.063420322169517929 0.2276556139624287 0 0.073232241622510824 0.23916667884285861 0 0.063420322169517929 0.2276556139624287 0 0.078544815493756193 0.2265229812375312 0 0.063420322169517929 0.2276556139624287 0 0.078544815493756193 0.2265229812375312 0 0.074239591320157006 0.21739971713618669 0 0.085390707878804206 0.21939272009874761 0 0.078544815493756193 0.2265229812375312 0 0.099693301234586182 0.2331139238212758 0 0.073232241622510824 0.23916667884285861 0 0.078544815493756193 0.2265229812375312 0 0.099693301234586182 0.2331139238212758 0 0.085390707878804206 0.21939272009874761 0 0.091537086757633918 0.21167295215006651 0 0.099693301234586182 0.2331139238212758 0 0.085390707878804206 0.21939272009874761 0 0.078544815493756193 0.2265229812375312 0 0.074239591320157006 0.21739971713618669 0 0.085390707878804206 0.21939272009874761 0 0.091537086757633918 0.21167295215006651 0 0.082938744587887886 0.20825402614867711 0 0.091537086757633918 0.21167295215006651 0 0.087707270989657499 0.20160517234618841 0 0.091537086757633918 0.21167295215006651 0 0.082938744587887886 0.20825402614867711 0 0.087707270989657499 0.20160517234618841 0 0.091537086757633918 0.21167295215006651 0 0.082938744587887886 0.20825402614867711 0 0.085390707878804206 0.21939272009874761 0 0.082938744587887886 0.20825402614867711 0 0.074239591320157006 0.21739971713618669 0 0.061745105441412332 0.20783997598041659 0 0.063420322169517929 0.2276556139624287 0 0.074239591320157006 0.21739971713618669 0 0.061745105441412332 0.20783997598041659 0 0.082938744587887886 0.20825402614867711 0 0.074239591320157006 0.21739971713618669 0 0.057196665305723288 0.19109739004841869 0 0.061745105441412332 0.20783997598041659 0 0.075246748748293221 0.1848740868827404 0 0.061745105441412332 0.20783997598041659 0 0.082938744587887886 0.20825402614867711 0 0.075246748748293221 0.1848740868827404 0 0.061745105441412332 0.20783997598041659 0 0.075246748748293221 0.1848740868827404 0 0.087707270989657499 0.20160517234618841 0 0.097904650769005522 0.1888045017356815 0 0.075246748748293221 0.1848740868827404 0 0.082938744587887886 0.20825402614867711 0 0.087707270989657499 0.20160517234618841 0 0.075246748748293221 0.1848740868827404 0 0.091537086757633918 0.21167295215006651 0 0.087707270989657499 0.20160517234618841 0 0.097904650769005522 0.1888045017356815 0 0.097904650769005522 0.1888045017356815 0 0.11854613779199499 0.20005913394347921 0 0.11005380424872881 0.17735567284990111 0 0.097904650769005522 0.1888045017356815 0 0.1036522631696306 0.2164902635373894 0 0.097904650769005522 0.1888045017356815 0 0.11854613779199499 0.20005913394347921 0 0.1036522631696306 0.2164902635373894 0 0.11854613779199499 0.20005913394347921 0 0.1036522631696306 0.2164902635373894 0 0.1214257659997692 0.22355747367651821 0 0.11854613779199499 0.20005913394347921 0 0.1214257659997692 0.22355747367651821 0 0.132033540969684 0.2121691892086251 0 0.091537086757633918 0.21167295215006651 0 0.097904650769005522 0.1888045017356815 0 0.1036522631696306 0.2164902635373894 0 0.091537086757633918 0.21167295215006651 0 0.1036522631696306 0.2164902635373894 0 0.1036522631696306 0.2164902635373894 0 0.1077700855092453 0.23632546474615931 0 0.091537086757633918 0.21167295215006651 0 0.1036522631696306 0.2164902635373894 0 0.099693301234586182 0.2331139238212758 0 0.091537086757633918 0.21167295215006651 0 0.099693301234586182 0.2331139238212758 0 0.1036522631696306 0.2164902635373894 0 0.099693301234586182 0.2331139238212758 0 0.1077700855092453 0.23632546474615931 0 0.1214257659997692 0.22355747367651821 0 0.12211117754279691 0.24191114690147031 0 0.1077700855092453 0.23632546474615931 0 0.1036522631696306 0.2164902635373894 0 0.1214257659997692 0.22355747367651821 0 0.1036522631696306 0.2164902635373894 0 0.1214257659997692 0.22355747367651821 0 0.1077700855092453 0.23632546474615931 0 0.12211117754279691 0.24191114690147031 0 0.1077700855092453 0.23632546474615931 0 0.11188790784886191 0.25616066595492859 0 0.1077700855092453 0.23632546474615931 0 0.11188790784886191 0.25616066595492859 0 0.099693301234586182 0.2331139238212758 0 0.1077700855092453 0.23632546474615931 0 0.1078495157115377 0.25455489549248528 0 0.099693301234586182 0.2331139238212758 0 0.1078495157115377 0.25455489549248528 0 0.1077700855092453 0.23632546474615931 0 0.11188790784886191 0.25616066595492859 0 0.1078495157115377 0.25455489549248528 0 0.099693301234586182 0.2331139238212758 0 0.088218080968415949 0.25581349114205748 0 0.1078495157115377 0.25455489549248528 0 0.082455727745563034 0.15408881251728429 0 0.086409425967759246 0.1334329781322651 0 0.074521771562223907 0.14653710521394839 0 0.086409425967759246 0.1334329781322651 0 0.092157038368382377 0.1611187399339733 0 0.093766044826469816 0.13655895260268 0 0.082455727745563034 0.15408881251728429 0 0.086409425967759246 0.1334329781322651 0 0.092157038368382377 0.1611187399339733 0 0.086409425967759246 0.1334329781322651 0 0.092157038368382377 0.1611187399339733 0 0.086409425967759246 0.1334329781322651 0 0.093232084927357864 0.12737578809229799 0 0.093766044826469816 0.13655895260268 0 0.086409425967759246 0.1334329781322651 0 0.067288689715800709 0.13345006704948739 0 0.074521771562223907 0.14653710521394839 0 0.067288689715800709 0.13345006704948739 0 0.063563982840015548 0.14777188914250769 0 0.074521771562223907 0.14653710521394839 0 0.082455727745563034 0.15408881251728429 0 0.074521771562223907 0.14653710521394839 0 0.071147611216419215 0.15789328441085471 0 0.063563982840015548 0.14777188914250769 0 0.074521771562223907 0.14653710521394839 0 0.071147611216419215 0.15789328441085471 0 0.060196856149307469 0.1599499706034356 0 0.063563982840015548 0.14777188914250769 0 0.071147611216419215 0.15789328441085471 0 0.076747061813924392 0.16653914074168549 0 0.071147611216419215 0.15789328441085471 0 0.066136829304172279 0.1739313221124841 0 0.060196856149307469 0.1599499706034356 0 0.071147611216419215 0.15789328441085471 0 0.066136829304172279 0.1739313221124841 0 0.082455727745563034 0.15408881251728429 0 0.076747061813924392 0.16653914074168549 0 0.071147611216419215 0.15789328441085471 0 0.076747061813924392 0.16653914074168549 0 0.075246748748293221 0.1848740868827404 0 0.066136829304172279 0.1739313221124841 0 0.057196665305723288 0.19109739004841869 0 0.075246748748293221 0.1848740868827404 0 0.066136829304172279 0.1739313221124841 0 0.075246748748293221 0.1848740868827404 0 0.088514207485213811 0.1741763815843648 0 0.088748392055174166 0.1619081977850641 0 0.097904650769005522 0.1888045017356815 0 0.088514207485213811 0.1741763815843648 0 0.092157038368382377 0.1611187399339733 0 0.075246748748293221 0.1848740868827404 0 0.088748392055174166 0.1619081977850641 0 0.097904650769005522 0.1888045017356815 0 0.075246748748293221 0.1848740868827404 0 0.088514207485213811 0.1741763815843648 0 0.076747061813924392 0.16653914074168549 0 0.075246748748293221 0.1848740868827404 0 0.088748392055174166 0.1619081977850641 0 0.082455727745563034 0.15408881251728429 0 0.076747061813924392 0.16653914074168549 0 0.088748392055174166 0.1619081977850641 0 0.088514207485213811 0.1741763815843648 0 0.088748392055174166 0.1619081977850641 0 0.092157038368382377 0.1611187399339733 0 0.082455727745563034 0.15408881251728429 0 0.088748392055174166 0.1619081977850641 0 0.092157038368382377 0.1611187399339733 0 0.092157038368382377 0.1611187399339733 0 0.11005380424872881 0.17735567284990111 0 0.1170667569374403 0.16320807281460889 0 0.092157038368382377 0.1611187399339733 0 0.1170667569374403 0.16320807281460889 0 0.1035106356655533 0.1495299581356091 0 0.097904650769005522 0.1888045017356815 0 0.092157038368382377 0.1611187399339733 0 0.097904650769005522 0.1888045017356815 0 0.092157038368382377 0.1611187399339733 0 0.11005380424872881 0.17735567284990111 0 0.11854613779199499 0.20005913394347921 0 0.11005380424872881 0.17735567284990111 0 0.1252355542183228 0.18295970168097159 0 0.11005380424872881 0.17735567284990111 0 0.1170667569374403 0.16320807281460889 0 0.1252355542183228 0.18295970168097159 0 0.1170667569374403 0.16320807281460889 0 0.13018238258062109 0.16643239517872821 0 0.1252355542183228 0.18295970168097159 0 0.1170667569374403 0.16320807281460889 0 0.1191511772100351 0.1510848492122463 0 0.13038245582619129 0.15548683111807071 0 0.1170667569374403 0.16320807281460889 0 0.1191511772100351 0.1510848492122463 0 0.1035106356655533 0.1495299581356091 0 0.1191511772100351 0.1510848492122463 0 0.1035106356655533 0.1495299581356091 0 0.1169955930832775 0.14050998260356951 0 0.1191511772100351 0.1510848492122463 0 0.1169955930832775 0.14050998260356951 0 0.1294143236802896 0.14121205938884629 0 0.092157038368382377 0.1611187399339733 0 0.1035106356655533 0.1495299581356091 0 0.093766044826469816 0.13655895260268 0 0.1035106356655533 0.1495299581356091 0 0.1041237994947698 0.1389234521201741 0 0.1169955930832775 0.14050998260356951 0 0.1035106356655533 0.1495299581356091 0 0.093766044826469816 0.13655895260268 0 0.1041237994947698 0.1389234521201741 0 0.093232084927357864 0.12737578809229799 0 0.093766044826469816 0.13655895260268 0 0.1110746194707164 0.130888525773349 0 0.093766044826469816 0.13655895260268 0 0.1041237994947698 0.1389234521201741 0 0.1110746194707164 0.130888525773349 0 0.09722263756003785 0.1201217950412881 0 0.093232084927357864 0.12737578809229799 0 0.1110746194707164 0.130888525773349 0 0.093766044826469816 0.13655895260268 0 0.1110746194707164 0.130888525773349 0 0.1110746194707164 0.130888525773349 0 0.1169955930832775 0.14050998260356951 0 0.1297233488115922 0.1247790535978003 0 0.1110746194707164 0.130888525773349 0 0.1297233488115922 0.1247790535978003 0 0.1110746194707164 0.130888525773349 0 0.1169955930832775 0.14050998260356951 0 0.1041237994947698 0.1389234521201741 0 0.1110746194707164 0.130888525773349 0 0.1169955930832775 0.14050998260356951 0 0.1400489574351699 0.13316698217305259 0 0.1297233488115922 0.1247790535978003 0 0.14837207815246789 0.1186695814222517 0 0.1169955930832775 0.14050998260356951 0 0.1294143236802896 0.14121205938884629 0 0.1297233488115922 0.1247790535978003 0 0.1400489574351699 0.13316698217305259 0 0.1294143236802896 0.14121205938884629 0 0.1297233488115922 0.1247790535978003 0 0.1400489574351699 0.13316698217305259 0 0.13946731248321681 0.14396201138248829 0 0.1294143236802896 0.14121205938884629 0 0.1400489574351699 0.13316698217305259 0 0.15326772404828301 0.1372122050738768 0 0.14837207815246789 0.1186695814222517 0 0.1400489574351699 0.13316698217305259 0 0.15326772404828301 0.1372122050738768 0 0.13946731248321681 0.14396201138248829 0 0.15326772404828301 0.1372122050738768 0 0.14663915531479979 0.15387398831644161 0 0.15962986839682741 0.15092942148533209 0 0.15326772404828301 0.1372122050738768 0 0.14663915531479979 0.15387398831644161 0 0.13946731248321681 0.14396201138248829 0 0.14663915531479979 0.15387398831644161 0 0.1556147777591686 0.16234344852944979 0 0.15962986839682741 0.15092942148533209 0 0.14663915531479979 0.15387398831644161 0 0.13946731248321681 0.14396201138248829 0 0.13038245582619129 0.15548683111807071 0 0.13946731248321681 0.14396201138248829 0 0.1294143236802896 0.14121205938884629 0 0.13038245582619129 0.15548683111807071 0 0.1191511772100351 0.1510848492122463 0 0.1294143236802896 0.14121205938884629 0 0.13038245582619129 0.15548683111807071 0 0.1170667569374403 0.16320807281460889 0 0.13038245582619129 0.15548683111807071 0 0.13018238258062109 0.16643239517872821 0 0.14663915531479979 0.15387398831644161 0 0.13038245582619129 0.15548683111807071 0 0.1408045968941484 0.1640220017884664 0 0.13018238258062109 0.16643239517872821 0 0.13542392390408581 0.17598057185140931 0 0.1408045968941484 0.1640220017884664 0 0.13038245582619129 0.15548683111807071 0 0.13018238258062109 0.16643239517872821 0 0.1408045968941484 0.1640220017884664 0 0.13018238258062109 0.16643239517872821 0 0.1252355542183228 0.18295970168097159 0 0.13542392390408581 0.17598057185140931 0 0.13542392390408581 0.17598057185140931 0 0.14822591859173809 0.1731401543128023 0 0.13386294486444131 0.1910318616769188 0 0.1252355542183228 0.18295970168097159 0 0.13542392390408581 0.17598057185140931 0 0.13386294486444131 0.1910318616769188 0 0.14822591859173809 0.1731401543128023 0 0.14847142356206611 0.1715767018600855 0 0.14822591859173809 0.1731401543128023 0 0.15163693879457579 0.1707171597092432 0 0.15873142760863551 0.17457651750217629 0 0.14663915531479979 0.15387398831644161 0 0.1408045968941484 0.1640220017884664 0 0.1481532535305442 0.16423193540273059 0 0.13542392390408581 0.17598057185140931 0 0.14822591859173809 0.1731401543128023 0 0.1408045968941484 0.1640220017884664 0 0.14822591859173809 0.1731401543128023 0 0.1408045968941484 0.1640220017884664 0 0.14847142356206611 0.1715767018600855 0 0.14822591859173809 0.1731401543128023 0 0.1408045968941484 0.1640220017884664 0 0.1408045968941484 0.1640220017884664 0 0.1481532535305442 0.16423193540273059 0 0.14847142356206611 0.1715767018600855 0 0.1481532535305442 0.16423193540273059 0 0.15137481075170139 0.16757804394522499 0 0.1556147777591686 0.16234344852944979 0 0.1481532535305442 0.16423193540273059 0 0.15137481075170139 0.16757804394522499 0 0.14847142356206611 0.1715767018600855 0 0.15137481075170139 0.16757804394522499 0 0.14847142356206611 0.1715767018600855 0 0.15163693879457579 0.1707171597092432 0 0.14822591859173809 0.1731401543128023 0 0.14847142356206611 0.1715767018600855 0 0.15163693879457579 0.1707171597092432 0 0.15137481075170139 0.16757804394522499 0 0.15163693879457579 0.1707171597092432 0 0.15557785288125919 0.16852198095891741 0 0.15163693879457579 0.1707171597092432 0 0.15557785288125919 0.16852198095891741 0 0.15873142760863551 0.17457651750217629 0 0.15137481075170139 0.16757804394522499 0 0.15557785288125919 0.16852198095891741 0 0.1556147777591686 0.16234344852944979 0 0.14663915531479979 0.15387398831644161 0 0.1481532535305442 0.16423193540273059 0 0.1556147777591686 0.16234344852944979 0 0.1556147777591686 0.16234344852944979 0 0.1666347339386666 0.15972949389467581 0 0.15962986839682741 0.15092942148533209 0 0.1556147777591686 0.16234344852944979 0 0.16172390812114909 0.16728479695135601 0 0.1666347339386666 0.15972949389467581 0 0.15557785288125919 0.16852198095891741 0 0.1556147777591686 0.16234344852944979 0 0.16172390812114909 0.16728479695135601 0 0.16172390812114909 0.16728479695135601 0 0.15873142760863551 0.17457651750217629 0 0.17001504542169171 0.17220362834228359 0 0.15557785288125919 0.16852198095891741 0 0.16172390812114909 0.16728479695135601 0 0.15873142760863551 0.17457651750217629 0 0.16172390812114909 0.16728479695135601 0 0.1666347339386666 0.15972949389467581 0 0.17001504542169171 0.17220362834228359 0 0.15873142760863551 0.17457651750217629 0 0.17001504542169171 0.17220362834228359 0 0.16658790025786999 0.19570046854028161 0 0.14822591859173809 0.1731401543128023 0 0.16658790025786999 0.19570046854028161 0 0.14822591859173809 0.1731401543128023 0 0.15873142760863551 0.17457651750217629 0 0.16658790025786999 0.19570046854028161 0 0.17001504542169171 0.17220362834228359 0 0.1857976981310033 0.17866911582706579 0 0.16658790025786999 0.19570046854028161 0 0.17001504542169171 0.17220362834228359 0 0.1857976981310033 0.17866911582706579 0 0.1806176388342341 0.15985885667985411 0 0.1666347339386666 0.15972949389467581 0 0.17001504542169171 0.17220362834228359 0 0.1806176388342341 0.15985885667985411 0 0.1806176388342341 0.15985885667985411 0 0.17220716509892889 0.14575681137977889 0 0.1908343707260011 0.1421430908096869 0 0.1666347339386666 0.15972949389467581 0 0.1806176388342341 0.15985885667985411 0 0.17220716509892889 0.14575681137977889 0 0.17220716509892889 0.14575681137977889 0 0.16960322443923451 0.13040633611596941 0 0.1908343707260011 0.1421430908096869 0 0.16960322443923451 0.13040633611596941 0 0.1908343707260011 0.1421430908096869 0 0.16960322443923451 0.13040633611596941 0 0.1908343707260011 0.1421430908096869 0 0.18747885201403669 0.1246225718883746 0 0.15326772404828301 0.1372122050738768 0 0.17220716509892889 0.14575681137977889 0 0.16960322443923451 0.13040633611596941 0 0.15326772404828301 0.1372122050738768 0 0.16960322443923451 0.13040633611596941 0 0.14837207815246789 0.1186695814222517 0 0.15326772404828301 0.1372122050738768 0 0.17220716509892889 0.14575681137977889 0 0.15962986839682741 0.15092942148533209 0 0.1666347339386666 0.15972949389467581 0 0.17220716509892889 0.14575681137977889 0 0.15962986839682741 0.15092942148533209 0 0.13662136877128961 0.24704155783701209 0 0.13919926882990749 0.23062468381564821 0 0.15315320407289379 0.25143692855392119 0 0.13919926882990749 0.23062468381564821 0 0.16727987371768049 0.24179026763288269 0 0.13919926882990749 0.23062468381564821 0 0.16727987371768049 0.24179026763288269 0 0.15315320407289379 0.25143692855392119 0 0.13662136877128961 0.24704155783701209 0 0.13919926882990749 0.23062468381564821 0 0.12211117754279691 0.24191114690147031 0 0.13662136877128961 0.24704155783701209 0 0.13919926882990749 0.23062468381564821 0 0.12211117754279691 0.24191114690147031 0 0.13662136877128961 0.24704155783701209 0 0.12654854198029711 0.25664805847424449 0 0.1214257659997692 0.22355747367651821 0 0.13919926882990749 0.23062468381564821 0 0.1214257659997692 0.22355747367651821 0 0.12211117754279691 0.24191114690147031 0 0.13919926882990749 0.23062468381564821 0 0.1214257659997692 0.22355747367651821 0 0.13919926882990749 0.23062468381564821 0 0.132033540969684 0.2121691892086251 0 0.13919926882990749 0.23062468381564821 0 0.16013557895953759 0.21861531447658741 0 0.16727987371768049 0.24179026763288269 0 0.13919926882990749 0.23062468381564821 0 0.14371259371082201 0.2018824190642251 0 0.16013557895953759 0.21861531447658741 0 0.13919926882990749 0.23062468381564821 0 0.14371259371082201 0.2018824190642251 0 0.13919926882990749 0.23062468381564821 0 0.132033540969684 0.2121691892086251 0 0.14371259371082201 0.2018824190642251 0 0.11854613779199499 0.20005913394347921 0 0.132033540969684 0.2121691892086251 0 0.13386294486444131 0.1910318616769188 0 0.132033540969684 0.2121691892086251 0 0.13386294486444131 0.1910318616769188 0 0.14371259371082201 0.2018824190642251 0 0.11854613779199499 0.20005913394347921 0 0.1252355542183228 0.18295970168097159 0 0.13386294486444131 0.1910318616769188 0 0.14822591859173809 0.1731401543128023 0 0.14371259371082201 0.2018824190642251 0 0.14822591859173809 0.1731401543128023 0 0.14371259371082201 0.2018824190642251 0 0.16658790025786999 0.19570046854028161 0 0.14822591859173809 0.1731401543128023 0 0.13386294486444131 0.1910318616769188 0 0.14371259371082201 0.2018824190642251 0 0.1857976981310033 0.17866911582706579 0 0.16658790025786999 0.19570046854028161 0 0.18755690692391791 0.19851169857648099 0 0.16658790025786999 0.19570046854028161 0 0.1849498819240015 0.2182607827677612 0 0.16658790025786999 0.19570046854028161 0 0.1849498819240015 0.2182607827677612 0 0.18755690692391791 0.19851169857648099 0 0.14371259371082201 0.2018824190642251 0 0.16658790025786999 0.19570046854028161 0 0.16013557895953759 0.21861531447658741 0 0.16658790025786999 0.19570046854028161 0 0.1849498819240015 0.2182607827677612 0 0.16013557895953759 0.21861531447658741 0 0.1849498819240015 0.2182607827677612 0 0.16727987371768049 0.24179026763288269 0 0.18829363027604831 0.250961673238912 0 0.1849498819240015 0.2182607827677612 0 0.16013557895953759 0.21861531447658741 0 0.16727987371768049 0.24179026763288269 0 0.1849498819240015 0.2182607827677612 0 0.20331186359013301 0.24082109699524071 0 0.18829363027604831 0.250961673238912 0 0.20331186359013301 0.24082109699524071 0 0.2277523719436961 0.23180434364907981 0 0.22152166851701249 0.25652559775186567 0 0.1849498819240015 0.2182607827677612 0 0.20331186359013301 0.24082109699524071 0 0.1849498819240015 0.2182607827677612 0 0.20331186359013301 0.24082109699524071 0 0.20666649130505529 0.21408843403314459 0 0.20331186359013301 0.24082109699524071 0 0.20666649130505529 0.21408843403314459 0 0.2277523719436961 0.23180434364907981 0 0.20666649130505529 0.21408843403314459 0 0.20637485024776481 0.19197656928893489 0 0.22695200236452631 0.2052840227508039 0 0.1849498819240015 0.2182607827677612 0 0.20666649130505529 0.21408843403314459 0 0.18755690692391791 0.19851169857648099 0 0.1857976981310033 0.17866911582706579 0 0.18755690692391791 0.19851169857648099 0 0.20637485024776481 0.19197656928893489 0 0.20666649130505529 0.21408843403314459 0 0.18755690692391791 0.19851169857648099 0 0.20637485024776481 0.19197656928893489 0 0.20637485024776481 0.19197656928893489 0 0.22695200236452631 0.2052840227508039 0 0.20637485024776481 0.19197656928893489 0 0.22308147421621879 0.1915002184579645 0 0.22695200236452631 0.2052840227508039 0 0.22308147421621879 0.1915002184579645 0 0.23964843663544541 0.19347058462254491 0 0.23583844855903691 0.18099005306331281 0 0.22308147421621879 0.1915002184579645 0 0.23964843663544541 0.19347058462254491 0 0.22695200236452631 0.2052840227508039 0 0.23964843663544541 0.19347058462254491 0 0.24752915448128771 0.21859147621267291 0 0.2588047481494174 0.19151691038237789 0 0.24752915448128771 0.21859147621267291 0 0.22695200236452631 0.2052840227508039 0 0.23964843663544541 0.19347058462254491 0 0.24752915448128771 0.21859147621267291 0 0.22695200236452631 0.2052840227508039 0 0.24752915448128771 0.21859147621267291 0 0.22695200236452631 0.2052840227508039 0 0.2277523719436961 0.23180434364907981 0 0.20666649130505529 0.21408843403314459 0 0.22695200236452631 0.2052840227508039 0 0.2277523719436961 0.23180434364907981 0 0.24752915448128771 0.21859147621267291 0 0.2277523719436961 0.23180434364907981 0 0.25107959658486639 0.2365254663968768 0 0.2277523719436961 0.23180434364907981 0 0.2382202682677608 0.24987136550520039 0 0.25107959658486639 0.2365254663968768 0 0.2382202682677608 0.24987136550520039 0 0.25444540126316278 0.25175855520636897 0 0.25107959658486639 0.2365254663968768 0 0.2277523719436961 0.23180434364907981 0 0.2382202682677608 0.24987136550520039 0 0.22152166851701249 0.25652559775186567 0 0.2120655170127678 0.15387984550340439 0 0.20607850037422459 0.1364001314990563 0 0.22210976092333701 0.133508115665433 0 0.20607850037422459 0.1364001314990563 0 0.22210976092333701 0.133508115665433 0 0.20507268417377841 0.1201411830660757 0 0.22210976092333701 0.133508115665433 0 0.20507268417377841 0.1201411830660757 0 0.20607850037422459 0.1364001314990563 0 0.20507268417377841 0.1201411830660757 0 0.18747885201403669 0.1246225718883746 0 0.20607850037422459 0.1364001314990563 0 0.1908343707260011 0.1421430908096869 0 0.18747885201403669 0.1246225718883746 0 0.2120655170127678 0.15387984550340439 0 0.20607850037422459 0.1364001314990563 0 0.1908343707260011 0.1421430908096869 0 0.1806176388342341 0.15985885667985411 0 0.1908343707260011 0.1421430908096869 0 0.19702440651793429 0.16425352517916411 0 0.2120655170127678 0.15387984550340439 0 0.1908343707260011 0.1421430908096869 0 0.2120655170127678 0.15387984550340439 0 0.1908343707260011 0.1421430908096869 0 0.19702440651793429 0.16425352517916411 0 0.1857976981310033 0.17866911582706579 0 0.1806176388342341 0.15985885667985411 0 0.19702440651793429 0.16425352517916411 0 0.1857976981310033 0.17866911582706579 0 0.20637485024776481 0.19197656928893489 0 0.2010821010855422 0.1770760799030632 0 0.1857976981310033 0.17866911582706579 0 0.20637485024776481 0.19197656928893489 0 0.1857976981310033 0.17866911582706579 0 0.19702440651793429 0.16425352517916411 0 0.2010821010855422 0.1770760799030632 0 0.20637485024776481 0.19197656928893489 0 0.22308147421621879 0.1915002184579645 0 0.2151314494454665 0.17340510931708791 0 0.20637485024776481 0.19197656928893489 0 0.2010821010855422 0.1770760799030632 0 0.2151314494454665 0.17340510931708791 0 0.2120655170127678 0.15387984550340439 0 0.19702440651793429 0.16425352517916411 0 0.2151314494454665 0.17340510931708791 0 0.19702440651793429 0.16425352517916411 0 0.2010821010855422 0.1770760799030632 0 0.2151314494454665 0.17340510931708791 0 0.2120655170127678 0.15387984550340439 0 0.2151314494454665 0.17340510931708791 0 0.23329666329953361 0.16561660019712321 0 0.2120655170127678 0.15387984550340439 0 0.23329666329953361 0.16561660019712321 0 0.2368021212900964 0.15673434302918479 0 0.2120655170127678 0.15387984550340439 0 0.23329666329953361 0.16561660019712321 0 0.22308147421621879 0.1915002184579645 0 0.2151314494454665 0.17340510931708791 0 0.23329666329953361 0.16561660019712321 0 0.22308147421621879 0.1915002184579645 0 0.23329666329953361 0.16561660019712321 0 0.22308147421621879 0.1915002184579645 0 0.23329666329953361 0.16561660019712321 0 0.23583844855903691 0.18099005306331281 0 0.23964843663544541 0.19347058462254491 0 0.24732722008495439 0.17337280897561649 0 0.2588047481494174 0.19151691038237789 0 0.23964843663544541 0.19347058462254491 0 0.23583844855903691 0.18099005306331281 0 0.24732722008495439 0.17337280897561649 0 0.23329666329953361 0.16561660019712321 0 0.23583844855903691 0.18099005306331281 0 0.24732722008495439 0.17337280897561649 0 0.24732722008495439 0.17337280897561649 0 0.2368021212900964 0.15673434302918479 0 0.24732722008495439 0.17337280897561649 0 0.2368021212900964 0.15673434302918479 0 0.2457774495435478 0.16110322538626889 0 0.23329666329953361 0.16561660019712321 0 0.24732722008495439 0.17337280897561649 0 0.2368021212900964 0.15673434302918479 0 0.23329666329953361 0.16561660019712321 0 0.2368021212900964 0.15673434302918479 0 0.23329666329953361 0.16561660019712321 0 0.24732722008495439 0.17337280897561649 0 0.24732722008495439 0.17337280897561649 0 0.24935793312848609 0.1682376363615565 0 0.2457774495435478 0.16110322538626889 0 0.2457774495435478 0.16110322538626889 0 0.24032757198822879 0.1478014276104265 0 0.25507240122598079 0.15936991095455749 0 0.24032757198822879 0.1478014276104265 0 0.25507240122598079 0.15936991095455749 0 0.2368021212900964 0.15673434302918479 0 0.2457774495435478 0.16110322538626889 0 0.24032757198822879 0.1478014276104265 0 0.2368021212900964 0.15673434302918479 0 0.24032757198822879 0.1478014276104265 0 0.2368021212900964 0.15673434302918479 0 0.24032757198822879 0.1478014276104265 0 0.22210976092333701 0.133508115665433 0 0.2120655170127678 0.15387984550340439 0 0.2368021212900964 0.15673434302918479 0 0.22210976092333701 0.133508115665433 0 0.24032757198822879 0.1478014276104265 0 0.22210976092333701 0.133508115665433 0 0.2368021212900964 0.15673434302918479 0 0.22210976092333701 0.133508115665433 0 0.24032757198822879 0.1478014276104265 0 0.25134453292116388 0.1198862506267229 0 0.25701456527999161 0.14463384931756959 0 0.24032757198822879 0.1478014276104265 0 0.22210976092333701 0.133508115665433 0 0.25134453292116388 0.1198862506267229 0 0.24032757198822879 0.1478014276104265 0 0.25134453292116388 0.1198862506267229 0 0.2296288395714336 0.11080245274363 0 0.23942410030379571 0.090766949842815886 0 0.25134453292116388 0.1198862506267229 0 0.2296288395714336 0.11080245274363 0 0.21648670675349019 0.089562826042607346 0 0.23942410030379571 0.090766949842815886 0 0.22210976092333701 0.133508115665433 0 0.2296288395714336 0.11080245274363 0 0.20782953706325641 0.1109334089539256 0 0.22210976092333701 0.133508115665433 0 0.2296288395714336 0.11080245274363 0 0.25134453292116388 0.1198862506267229 0 0.22210976092333701 0.133508115665433 0 0.20782953706325641 0.1109334089539256 0 0.22210976092333701 0.133508115665433 0 0.20782953706325641 0.1109334089539256 0 0.20507268417377841 0.1201411830660757 0 0.2296288395714336 0.11080245274363 0 0.20782953706325641 0.1109334089539256 0 0.21648670675349019 0.089562826042607346 0 0.20782953706325641 0.1109334089539256 0 0.19354931320318411 0.088358702242412906 0 0.21648670675349019 0.089562826042607346 0 0.20782953706325641 0.1109334089539256 0 0.18803560742421871 0.1067742504667198 0 0.18921615201247041 0.097483726309848279 0 0.20782953706325641 0.1109334089539256 0 0.18921615201247041 0.097483726309848279 0 0.19354931320318411 0.088358702242412906 0 0.20782953706325641 0.1109334089539256 0 0.19354931320318411 0.088358702242412906 0 0.20507268417377841 0.1201411830660757 0 0.18803560742421871 0.1067742504667198 0 0.20782953706325641 0.1109334089539256 0 0.20507268417377841 0.1201411830660757 0 0.18803560742421871 0.1067742504667198 0 0.20507268417377841 0.1201411830660757 0 0.18803560742421871 0.1067742504667198 0 0.18747885201403669 0.1246225718883746 0 0.19390234193708281 0.070057024008310695 0 0.19055783632230899 0.083629664807042703 0 0.20921228774967091 0.074304346343640332 0 0.19390234193708281 0.070057024008310695 0 0.20921228774967091 0.074304346343640332 0 0.1991012066300841 0.058776484766658157 0 0.1887699562791165 0.062695134853888779 0 0.19390234193708281 0.070057024008310695 0 0.1991012066300841 0.058776484766658157 0 0.1887699562791165 0.062695134853888779 0 0.19390234193708281 0.070057024008310695 0 0.18236057215379359 0.070671126043632945 0 0.19390234193708281 0.070057024008310695 0 0.19055783632230899 0.083629664807042703 0 0.18236057215379359 0.070671126043632945 0 0.19055783632230899 0.083629664807042703 0 0.19354931320318411 0.088358702242412906 0 0.20921228774967091 0.074304346343640332 0 0.19055783632230899 0.083629664807042703 0 0.20921228774967091 0.074304346343640332 0 0.19055783632230899 0.083629664807042703 0 0.19354931320318411 0.088358702242412906 0 0.18566777169704099 0.087944952018814554 0 0.18921615201247041 0.097483726309848279 0 0.19354931320318411 0.088358702242412906 0 0.18566777169704099 0.087944952018814554 0 0.19354931320318411 0.088358702242412906 0 0.18566777169704099 0.087944952018814554 0 0.19055783632230899 0.083629664807042703 0 0.19354931320318411 0.088358702242412906 0 0.19354931320318411 0.088358702242412906 0 0.21648670675349019 0.089562826042607346 0 0.21648670675349019 0.089562826042607346 0 0.20921228774967091 0.074304346343640332 0 0.2284791322980938 0.080188361528708271 0 0.19354931320318411 0.088358702242412906 0 0.21648670675349019 0.089562826042607346 0 0.20921228774967091 0.074304346343640332 0 0.20921228774967091 0.074304346343640332 0 0.22786673917703279 0.064979027880237877 0 0.21497972193061521 0.054017003518715558 0 0.20921228774967091 0.074304346343640332 0 0.22786673917703279 0.064979027880237877 0 0.20921228774967091 0.074304346343640332 0 0.22786673917703279 0.064979027880237877 0 0.2284791322980938 0.080188361528708271 0 0.21648670675349019 0.089562826042607346 0 0.23942410030379571 0.090766949842815886 0 0.21648670675349019 0.089562826042607346 0 0.2284791322980938 0.080188361528708271 0 0.23942410030379571 0.090766949842815886 0 0.2284791322980938 0.080188361528708271 0 0.23942410030379571 0.090766949842815886 0 0.24830316683739459 0.072908673739454255 0 0.22786673917703279 0.064979027880237877 0 0.2284791322980938 0.080188361528708271 0 0.24830316683739459 0.072908673739454255 0 0.22786673917703279 0.064979027880237877 0 0.24830316683739459 0.072908673739454255 0 0.24652119060439481 0.055653709416835388 0 0.22786673917703279 0.064979027880237877 0 0.24652119060439481 0.055653709416835388 0 0.24652119060439481 0.055653709416835388 0 0.2416838059484307 0.037814910533120583 0 0.2321681165056354 0.050262616066394337 0 0.22786673917703279 0.064979027880237877 0 0.24652119060439481 0.055653709416835388 0 0.2321681165056354 0.050262616066394337 0 0.2416838059484307 0.037814910533120583 0 0.22344390453417751 0.037065505813618303 0 0.2321681165056354 0.050262616066394337 0 0.2416838059484307 0.037814910533120583 0 0.22344390453417751 0.037065505813618303 0 0.23254198883508209 0.025349655873777951 0 0.22344390453417751 0.037065505813618303 0 0.2321681165056354 0.050262616066394337 0 0.21497972193061521 0.054017003518715558 0 0.22786673917703279 0.064979027880237877 0 0.2321681165056354 0.050262616066394337 0 0.21497972193061521 0.054017003518715558 0 0.22914471171673431 0.0072058749996883973 0 0.25664898171853662 0.0056114648194218507 0 0.24820666495033469 -0.010671503176887811 0 0.22914471171673431 0.0072058749996883973 0 0.25086627767031322 0.022580105788253649 0 0.25664898171853662 0.0056114648194218507 0 0.23254198883508209 0.025349655873777951 0 0.22914471171673431 0.0072058749996883973 0 0.25086627767031322 0.022580105788253649 0 0.2416838059484307 0.037814910533120583 0 0.23254198883508209 0.025349655873777951 0 0.25086627767031322 0.022580105788253649 0 0.23254198883508209 0.025349655873777951 0 0.22914471171673431 0.0072058749996883973 0 0.21757124430575481 0.02208188223420884 0 0.22344390453417751 0.037065505813618303 0 0.23254198883508209 0.025349655873777951 0 0.21757124430575481 0.02208188223420884 0 0.22914471171673431 0.0072058749996883973 0 0.2013280742979803 0.01493609490047443 0 0.20457007160887039 -0.0088418504407955512 0 0.22914471171673431 0.0072058749996883973 0 0.21757124430575481 0.02208188223420884 0 0.2013280742979803 0.01493609490047443 0 0.21757124430575481 0.02208188223420884 0 0.2013280742979803 0.01493609490047443 0 0.1980860769870903 0.038714040241744352 0 0.2013280742979803 0.01493609490047443 0 0.1980860769870903 0.038714040241744352 0 0.1866449782588343 0.032288214714437671 0 0.2013280742979803 0.01493609490047443 0 0.1866449782588343 0.032288214714437671 0 0.18219663552368309 0.02082502954403807 0 0.2013280742979803 0.01493609490047443 0 0.1980860769870903 0.038714040241744352 0 0.2013280742979803 0.01493609490047443 0 0.20457007160887039 -0.0088418504407955512 0 0.19105429982604319 -0.0049549345427246441 0 0.2013280742979803 0.01493609490047443 0 0.18107755721158111 0.0054153016410935758 0 0.18219663552368309 0.02082502954403807 0 0.2013280742979803 0.01493609490047443 0 0.20457007160887039 -0.0088418504407955512 0 0.2013280742979803 0.01493609490047443 0 0.18107755721158111 0.0054153016410935758 0 0.19105429982604319 -0.0049549345427246441 0 0.20921228774967091 0.074304346343640332 0 0.21497972193061521 0.054017003518715558 0 0.1991012066300841 0.058776484766658157 0 0.21497972193061521 0.054017003518715558 0 0.1980860769870903 0.038714040241744352 0 0.1991012066300841 0.058776484766658157 0 0.22344390453417751 0.037065505813618303 0 0.21757124430575481 0.02208188223420884 0 0.1980860769870903 0.038714040241744352 0 0.22344390453417751 0.037065505813618303 0 0.21497972193061521 0.054017003518715558 0 0.1980860769870903 0.038714040241744352 0 0.1980860769870903 0.038714040241744352 0 0.1827081780235055 0.04337318822908251 0 0.1866449782588343 0.032288214714437671 0 0.1980860769870903 0.038714040241744352 0 0.18795561500837921 0.052771549010747799 0 0.1827081780235055 0.04337318822908251 0 0.1980860769870903 0.038714040241744352 0 0.18795561500837921 0.052771549010747799 0 0.1991012066300841 0.058776484766658157 0 0.1887699562791165 0.062695134853888779 0 0.18795561500837921 0.052771549010747799 0 0.1991012066300841 0.058776484766658157 0 0.18795561500837921 0.052771549010747799 0 0.1788329028193098 0.060427738007319091 0 0.1802353693111689 0.052642707965793983 0 0.1887699562791165 0.062695134853888779 0 0.18795561500837921 0.052771549010747799 0 0.1788329028193098 0.060427738007319091 0 0.1788329028193098 0.060427738007319091 0 0.1741633079852791 0.057712587280222813 0 0.1788329028193098 0.060427738007319091 0 0.1741633079852791 0.057712587280222813 0 0.1802353693111689 0.052642707965793983 0 0.1741633079852791 0.057712587280222813 0 0.1802353693111689 0.052642707965793983 0 0.16851817580674139 0.048788553278599052 0 0.1802353693111689 0.052642707965793983 0 0.1827081780235055 0.04337318822908251 0 0.16851817580674139 0.048788553278599052 0 0.18795561500837921 0.052771549010747799 0 0.1802353693111689 0.052642707965793983 0 0.1827081780235055 0.04337318822908251 0 0.1827081780235055 0.04337318822908251 0 0.17365650052550921 0.033053709537851417 0 0.16851817580674139 0.048788553278599052 0 0.1827081780235055 0.04337318822908251 0 0.1866449782588343 0.032288214714437671 0 0.17365650052550921 0.033053709537851417 0 0.17365650052550921 0.033053709537851417 0 0.1623967045403325 0.038083143416928963 0 0.16851817580674139 0.048788553278599052 0 0.1623967045403325 0.038083143416928963 0 0.16851817580674139 0.048788553278599052 0 0.14911517302834409 0.043148269762749998 0 0.17365650052550921 0.033053709537851417 0 0.1623967045403325 0.038083143416928963 0 0.15701412967901479 0.028262941549290019 0 0.1741633079852791 0.057712587280222813 0 0.16851817580674139 0.048788553278599052 0 0.14911517302834409 0.043148269762749998 0 0.1741633079852791 0.057712587280222813 0 0.14911517302834409 0.043148269762749998 0 0.1741633079852791 0.057712587280222813 0 0.15745878620328749 0.057620094872164893 0 0.1670672687363069 0.063351455495768053 0 0.1741633079852791 0.057712587280222813 0 0.15745878620328749 0.057620094872164893 0 0.14911517302834409 0.043148269762749998 0 0.1741633079852791 0.057712587280222813 0 0.16851817580674139 0.048788553278599052 0 0.18107755721158111 0.0054153016410935758 0 0.18219663552368309 0.02082502954403807 0 0.16882085792813389 0.01722322473378763 0 0.17365650052550921 0.033053709537851417 0 0.18219663552368309 0.02082502954403807 0 0.16882085792813389 0.01722322473378763 0 0.1866449782588343 0.032288214714437671 0 0.17365650052550921 0.033053709537851417 0 0.18219663552368309 0.02082502954403807 0 0.15701412967901479 0.028262941549290019 0 0.16882085792813389 0.01722322473378763 0 0.1527441677386496 0.01167276314454979 0 0.17365650052550921 0.033053709537851417 0 0.15701412967901479 0.028262941549290019 0 0.16882085792813389 0.01722322473378763 0 0.18107755721158111 0.0054153016410935758 0 0.16882085792813389 0.01722322473378763 0 0.16506726594281801 -0.00051261721513644809 0 0.16882085792813389 0.01722322473378763 0 0.1527441677386496 0.01167276314454979 0 0.16506726594281801 -0.00051261721513644809 0 0.1527441677386496 0.01167276314454979 0 0.14854857140159661 -0.0069737994963625129 0 0.16506726594281801 -0.00051261721513644809 0 0.1527441677386496 0.01167276314454979 0 0.14127080817823279 0.0033430821113621962 0 0.14854857140159661 -0.0069737994963625129 0 0.1527441677386496 0.01167276314454979 0 0.14127080817823279 0.0033430821113621962 0 0.1389379977585454 0.02739555242676529 0 0.15701412967901479 0.028262941549290019 0 0.1527441677386496 0.01167276314454979 0 0.1389379977585454 0.02739555242676529 0 0.12406703807140849 0.028583952245278339 0 0.1389379977585454 0.02739555242676529 0 0.12869539122038509 0.002219350835908105 0 0.1389379977585454 0.02739555242676529 0 0.12869539122038509 0.002219350835908105 0 0.14127080817823279 0.0033430821113621962 0 0.1389379977585454 0.02739555242676529 0 0.12869539122038509 0.002219350835908105 0 0.14361116307540481 0.056138520092214511 0 0.14911517302834409 0.043148269762749998 0 0.13291084386303931 0.045550076282376693 0 0.15745878620328749 0.057620094872164893 0 0.14361116307540481 0.056138520092214511 0 0.14911517302834409 0.043148269762749998 0 0.15701412967901479 0.028262941549290019 0 0.1389379977585454 0.02739555242676529 0 0.14911517302834409 0.043148269762749998 0 0.1623967045403325 0.038083143416928963 0 0.15701412967901479 0.028262941549290019 0 0.14911517302834409 0.043148269762749998 0 0.12406703807140849 0.028583952245278339 0 0.1389379977585454 0.02739555242676529 0 0.14911517302834409 0.043148269762749998 0 0.12406703807140849 0.028583952245278339 0 0.14911517302834409 0.043148269762749998 0 0.13291084386303931 0.045550076282376693 0 0.12406703807140849 0.028583952245278339 0 0.14911517302834409 0.043148269762749998 0 0.1205432860578472 0.040821952253209247 0 0.12406703807140849 0.028583952245278339 0 0.13291084386303931 0.045550076282376693 0 0.14361116307540481 0.056138520092214511 0 0.13291084386303931 0.045550076282376693 0 0.1272175590821919 0.059057687058431327 0 0.1205432860578472 0.040821952253209247 0 0.13291084386303931 0.045550076282376693 0 0.1272175590821919 0.059057687058431327 0 0.14361116307540481 0.056138520092214511 0 0.1272175590821919 0.059057687058431327 0 0.14910804487842541 0.076232502462897589 0 0.1272175590821919 0.059057687058431327 0 0.14910804487842541 0.076232502462897589 0 0.1225748144035738 0.08002933421490481 0 0.1272175590821919 0.059057687058431327 0 0.14910804487842541 0.076232502462897589 0 0.15745878620328749 0.057620094872164893 0 0.14361116307540481 0.056138520092214511 0 0.14910804487842541 0.076232502462897589 0 0.14910804487842541 0.076232502462897589 0 0.1360472018004516 0.091511606123912737 0 0.15603362768824 0.1008882393335182 0 0.1225748144035738 0.08002933421490481 0 0.14910804487842541 0.076232502462897589 0 0.1360472018004516 0.091511606123912737 0 0.1239127955032252 0.093967289632607087 0 0.1225748144035738 0.08002933421490481 0 0.1360472018004516 0.091511606123912737 0 0.1360472018004516 0.091511606123912737 0 0.12846708132044771 0.1076659332046209 0 0.14106872470182111 0.1083691607996722 0 0.1239127955032252 0.093967289632607087 0 0.1360472018004516 0.091511606123912737 0 0.12846708132044771 0.1076659332046209 0 0.12846708132044771 0.1076659332046209 0 0.14837207815246789 0.1186695814222517 0 0.1297233488115922 0.1247790535978003 0 0.14837207815246789 0.1186695814222517 0 0.12846708132044771 0.1076659332046209 0 0.1297233488115922 0.1247790535978003 0 0.14837207815246789 0.1186695814222517 0 0.12846708132044771 0.1076659332046209 0 0.14837207815246789 0.1186695814222517 0 0.14106872470182111 0.1083691607996722 0 0.14837207815246789 0.1186695814222517 0 0.14106872470182111 0.1083691607996722 0 0.15603362768824 0.1008882393335182 0 0.1360472018004516 0.091511606123912737 0 0.14106872470182111 0.1083691607996722 0 0.15603362768824 0.1008882393335182 0 0.14106872470182111 0.1083691607996722 0 0.15603362768824 0.1008882393335182 0 0.15603362768824 0.1008882393335182 0 0.17099853067465881 0.093407317867364142 0 0.15603362768824 0.1008882393335182 0 0.1701495407434768 0.11153511132931079 0 0.17099853067465881 0.093407317867364142 0 0.14837207815246789 0.1186695814222517 0 0.1701495407434768 0.11153511132931079 0 0.16960322443923451 0.13040633611596941 0 0.14837207815246789 0.1186695814222517 0 0.16960322443923451 0.13040633611596941 0 0.14837207815246789 0.1186695814222517 0 0.1701495407434768 0.11153511132931079 0 0.14837207815246789 0.1186695814222517 0 0.15603362768824 0.1008882393335182 0 0.1701495407434768 0.11153511132931079 0 0.16960322443923451 0.13040633611596941 0 0.1701495407434768 0.11153511132931079 0 0.18747885201403669 0.1246225718883746 0 0.18803560742421871 0.1067742504667198 0 0.1701495407434768 0.11153511132931079 0 0.18747885201403669 0.1246225718883746 0 0.18803560742421871 0.1067742504667198 0 0.18921615201247041 0.097483726309848279 0 0.17099853067465881 0.093407317867364142 0 0.18803560742421871 0.1067742504667198 0 0.1701495407434768 0.11153511132931079 0 0.17099853067465881 0.093407317867364142 0 0.18803560742421871 0.1067742504667198 0 0.17099853067465881 0.093407317867364142 0 0.19055783632230899 0.083629664807042703 0 0.17099853067465881 0.093407317867364142 0 0.19055783632230899 0.083629664807042703 0 0.1771997663440113 0.079965757371601928 0 0.17099853067465881 0.093407317867364142 0 0.18921615201247041 0.097483726309848279 0 0.18566777169704099 0.087944952018814554 0 0.17099853067465881 0.093407317867364142 0 0.19055783632230899 0.083629664807042703 0 0.18566777169704099 0.087944952018814554 0 0.17099853067465881 0.093407317867364142 0 0.19055783632230899 0.083629664807042703 0 0.1771997663440113 0.079965757371601928 0 0.18236057215379359 0.070671126043632945 0 0.19055783632230899 0.083629664807042703 0 0.18236057215379359 0.070671126043632945 0 0.1887699562791165 0.062695134853888779 0 0.1788329028193098 0.060427738007319091 0 0.18236057215379359 0.070671126043632945 0 0.1741633079852791 0.057712587280222813 0 0.18236057215379359 0.070671126043632945 0 0.1741633079852791 0.057712587280222813 0 0.18236057215379359 0.070671126043632945 0 0.1731622436197269 0.068123045265524679 0 0.1788329028193098 0.060427738007319091 0 0.1741633079852791 0.057712587280222813 0 0.18236057215379359 0.070671126043632945 0 0.1771997663440113 0.079965757371601928 0 0.1731622436197269 0.068123045265524679 0 0.16553235415045101 0.072244290693238733 0 0.1771997663440113 0.079965757371601928 0 0.18236057215379359 0.070671126043632945 0 0.1731622436197269 0.068123045265524679 0 0.15745878620328749 0.057620094872164893 0 0.14910804487842541 0.076232502462897589 0 0.16553235415045101 0.072244290693238733 0 0.1731622436197269 0.068123045265524679 0 0.16553235415045101 0.072244290693238733 0 0.1670672687363069 0.063351455495768053 0 0.1741633079852791 0.057712587280222813 0 0.1731622436197269 0.068123045265524679 0 0.1670672687363069 0.063351455495768053 0 0.15745878620328749 0.057620094872164893 0 0.16553235415045101 0.072244290693238733 0 0.1670672687363069 0.063351455495768053 0 0.14910804487842541 0.076232502462897589 0 0.15603362768824 0.1008882393335182 0 0.17099853067465881 0.093407317867364142 0 0.1771997663440113 0.079965757371601928 0 0.16553235415045101 0.072244290693238733 0 0.17099853067465881 0.093407317867364142 0 0.14910804487842541 0.076232502462897589 0 0.17099853067465881 0.093407317867364142 0 0.14910804487842541 0.076232502462897589 0 0.16553235415045101 0.072244290693238733 0 0.17099853067465881 0.093407317867364142 0 0.1062898314726156 0.48537807171257602 0 0.1044103005474027 0.46529985903004728 0 0.085998841841127605 0.46794488945245061 0 0.1062898314726156 0.48537807171257602 0 0.098536068082589634 0.50000000000000466 0 0.11648848736447209 0.5 0 0.1062898314726156 0.48537807171257602 0 0.098536068082589634 0.50000000000000466 0 0.080269808833877826 0.48537225678750162 0 0.1062898314726156 0.48537807171257602 0 0.11648848736447209 0.5 0 0.13230985411135349 0.48538388663765097 0 0.1062898314726156 0.48537807171257602 0 0.13230985411135349 0.48538388663765097 0 0.1062898314726156 0.48537807171257602 0 0.11930231010123341 0.47434052006543481 0 0.13230985411135349 0.48538388663765097 0 0.1062898314726156 0.48537807171257602 0 0.11930231010123341 0.47434052006543481 0 0.1044103005474027 0.46529985903004728 0 0.11930231010123341 0.47434052006543481 0 0.1139895893674269 0.45012470654971998 0 0.1044103005474027 0.46529985903004728 0 0.11930231010123341 0.47434052006543481 0 0.1139895893674269 0.45012470654971998 0 0.1286150856976378 0.46004281545544362 0 0.1139895893674269 0.45012470654971998 0 0.1249203172839221 0.43470174427323621 0 0.1286150856976378 0.46004281545544362 0 0.1139895893674269 0.45012470654971998 0 0.095408854196065984 0.44975531735127933 0 0.100167107640893 0.42753459636640989 0 0.1139895893674269 0.45012470654971998 0 0.095408854196065984 0.44975531735127933 0 0.1044103005474027 0.46529985903004728 0 0.095408854196065984 0.44975531735127933 0 0.1044103005474027 0.46529985903004728 0 0.085998841841127605 0.46794488945245061 0 0.095408854196065984 0.44975531735127933 0 0.085998841841127605 0.46794488945245061 0 0.08028136680177958 0.45180947542904781 0 0.095408854196065984 0.44975531735127933 0 0.083894466787360067 0.43751348150487041 0 0.100167107640893 0.42753459636640989 0 0.095408854196065984 0.44975531735127933 0 0.08028136680177958 0.45180947542904781 0 0.083894466787360067 0.43751348150487041 0 0.08028136680177958 0.45180947542904781 0 0.066945654094546808 0.44360895908271691 0 0.067591378643239289 0.45967267214745139 0 0.08028136680177958 0.45180947542904781 0 0.083894466787360067 0.43751348150487041 0 0.066945654094546808 0.44360895908271691 0 0.066945654094546808 0.44360895908271691 0 0.067591378643239289 0.45967267214745139 0 0.067591378643239289 0.45967267214745139 0 0.06823710319193263 0.47573638521218592 0 0.062336090956497003 0.46430849222352633 0 0.085998841841127605 0.46794488945245061 0 0.067591378643239289 0.45967267214745139 0 0.06823710319193263 0.47573638521218592 0 0.067591378643239289 0.45967267214745139 0 0.06823710319193263 0.47573638521218592 0 0.066945654094546808 0.44360895908271691 0 0.062336090956497003 0.46430849222352633 0 0.066945654094546808 0.44360895908271691 0 0.067591378643239289 0.45967267214745139 0 0.062336090956497003 0.46430849222352633 0 0.085998841841127605 0.46794488945245061 0 0.08028136680177958 0.45180947542904781 0 0.067591378643239289 0.45967267214745139 0 0.06823710319193263 0.47573638521218592 0 0.068624338589525574 0.48536965427104878 0 0.06823710319193263 0.47573638521218592 0 0.080269808833877826 0.48537225678750162 0 0.06823710319193263 0.47573638521218592 0 0.080269808833877826 0.48537225678750162 0 0.068624338589525574 0.48536965427104878 0 0.085998841841127605 0.46794488945245061 0 0.06823710319193263 0.47573638521218592 0 0.080269808833877826 0.48537225678750162 0 0.1062898314726156 0.48537807171257602 0 0.085998841841127605 0.46794488945245061 0 0.080269808833877826 0.48537225678750162 0 0.098536068082589634 0.50000000000000466 0 0.080269808833877826 0.48537225678750162 0 0.1062898314726156 0.48537807171257602 0 0.080269808833877826 0.48537225678750162 0 0.098536068082589634 0.50000000000000466 0 0.077813471918210322 0.49262181282254708 0 0.069212445047538554 0.49999999999999978 0 0.098536068082589634 0.50000000000000466 0 0.080269808833877826 0.48537225678750162 0 0.077813471918210322 0.49262181282254708 0 0.077813471918210322 0.49262181282254708 0 0.068624338589525574 0.48536965427104878 0 0.069212445047538554 0.49999999999999978 0 0.080269808833877826 0.48537225678750162 0 0.068624338589525574 0.48536965427104878 0 0.080269808833877826 0.48537225678750162 0 0.077813471918210322 0.49262181282254708 0 0.068624338589525574 0.48536965427104878 0 0.068624338589525574 0.48536965427104878 0 0.069212445047538554 0.49999999999999978 0 0.058386807308845608 0.49310817276098018 0 0.068624338589525574 0.48536965427104878 0 0.069212445047538554 0.49999999999999978 0 0.068624338589525574 0.48536965427104878 0 0.045565849193752513 0.48536450118605923 0 0.068624338589525574 0.48536965427104878 0 0.058386807308845608 0.49310817276098018 0 0.045565849193752513 0.48536450118605923 0 0.069212445047538554 0.49999999999999978 0 0.058386807308845608 0.49310817276098018 0 0.047561169570152613 0.5 0 0.058386807308845608 0.49310817276098018 0 0.047561169570152613 0.5 0 0.045565849193752513 0.48536450118605923 0 0.06823710319193263 0.47573638521218592 0 0.045565849193752513 0.48536450118605923 0 0.046563173649778952 0.45837975671853293 0 0.06823710319193263 0.47573638521218592 0 0.068624338589525574 0.48536965427104878 0 0.045565849193752513 0.48536450118605923 0 0.045565849193752513 0.48536450118605923 0 0.02250735979797942 0.48535934810106618 0 0.029262430442233239 0.47321565616268862 0 0.045565849193752513 0.48536450118605923 0 0.046563173649778952 0.45837975671853293 0 0.033000298150930273 0.46376183095490181 0 0.045565849193752513 0.48536450118605923 0 0.029262430442233239 0.47321565616268862 0 0.033000298150930273 0.46376183095490181 0 0.047561169570152613 0.5 0 0.03577162921160474 0.49306415621819449 0 0.02590989409276662 0.5 0 0.045565849193752513 0.48536450118605923 0 0.02250735979797942 0.48535934810106618 0 0.045565849193752513 0.48536450118605923 0 0.03577162921160474 0.49306415621819449 0 0.02250735979797942 0.48535934810106618 0 0.047561169570152613 0.5 0 0.045565849193752513 0.48536450118605923 0 0.03577162921160474 0.49306415621819449 0 0.03577162921160474 0.49306415621819449 0 0.02590989409276662 0.5 0 0.02250735979797942 0.48535934810106618 0 0.02590989409276662 0.5 0 0.02250735979797942 0.48535934810106618 0 0.02590989409276662 0.5 0 0.02250735979797942 0.48535934810106618 0 0.01154720226286042 0.48535689873752208 0 0.02250735979797942 0.48535934810106618 0 0.01154720226286042 0.48535689873752208 0 0.02250735979797942 0.48535934810106618 0 0.029262430442233239 0.47321565616268862 0 0.017844443628482219 0.46529544086106572 0 0.02250735979797942 0.48535934810106618 0 0.017844443628482219 0.46529544086106572 0 0.02250735979797942 0.48535934810106618 0 0.01154720226286042 0.48535689873752208 0 0.017844443628482219 0.46529544086106572 0 -0.0040596534037184787 0.48264772043053378 0 0.017844443628482219 0.46529544086106572 0 -0.0040596534037184787 0.48264772043053378 0 0.01154720226286042 0.48535689873752208 0 0.017844443628482219 0.46529544086106572 0 -0.0072350858647425836 0.46082208319033968 0 -0.0040596534037184787 0.48264772043053378 0 0.017844443628482219 0.46529544086106572 0 -2.6928171576900969e-05 0.5 0 -0.0040596534037184787 0.48264772043053378 0 0.01154720226286042 0.48535689873752208 0 -2.6928171576900969e-05 0.5 0 0.02590989409276662 0.5 0 0.01154720226286042 0.48535689873752208 0 0.013573552288731449 0.4469183642510669 0 0.019930975205575081 0.44294138304333319 0 0.0093026609489811479 0.42854128764106802 0 -0.003123750750461876 0.435632546530903 0 -0.0072350858647425836 0.46082208319033968 0 0.013573552288731449 0.4469183642510669 0 0.013573552288731449 0.4469183642510669 0 0.0093026609489811479 0.42854128764106802 0 -0.0072350858647425836 0.46082208319033968 0 0.013573552288731449 0.4469183642510669 0 0.017844443628482219 0.46529544086106572 0 0.013573552288731449 0.4469183642510669 0 0.017844443628482219 0.46529544086106572 0 0.013573552288731449 0.4469183642510669 0 0.022521280778798679 0.4534418863206387 0 0.017844443628482219 0.46529544086106572 0 0.022521280778798679 0.4534418863206387 0 0.017844443628482219 0.46529544086106572 0 0.02416508632798248 0.46028826987295551 0 0.017844443628482219 0.46529544086106572 0 0.02416508632798248 0.46028826987295551 0 0.029262430442233239 0.47321565616268862 0 0.017844443628482219 0.46529544086106572 0 0.02416508632798248 0.46028826987295551 0 0.029262430442233239 0.47321565616268862 0 0.02416508632798248 0.46028826987295551 0 0.033000298150930273 0.46376183095490181 0 0.022521280778798679 0.4534418863206387 0 0.02992396851303579 0.45188091546853609 0 0.033000298150930273 0.46376183095490181 0 0.022521280778798679 0.4534418863206387 0 0.02416508632798248 0.46028826987295551 0 0.033000298150930273 0.46376183095490181 0 0.022521280778798679 0.4534418863206387 0 0.02992396851303579 0.45188091546853609 0 0.019930975205575081 0.44294138304333319 0 0.013573552288731449 0.4469183642510669 0 0.022521280778798679 0.4534418863206387 0 0.019930975205575081 0.44294138304333319 0 0.019930975205575081 0.44294138304333319 0 0.02488924410762338 0.44102312822488232 0 0.0093026609489811479 0.42854128764106802 0 0.02992396851303579 0.45188091546853609 0 0.019930975205575081 0.44294138304333319 0 0.02488924410762338 0.44102312822488232 0 0.02488924410762338 0.44102312822488232 0 0.04638081721446817 0.43962707142572838 0 0.046563173649778952 0.45837975671853293 0 0.02488924410762338 0.44102312822488232 0 0.046563173649778952 0.45837975671853293 0 0.02992396851303579 0.45188091546853609 0 0.02488924410762338 0.44102312822488232 0 0.046563173649778952 0.45837975671853293 0 0.02992396851303579 0.45188091546853609 0 0.046563173649778952 0.45837975671853293 0 0.033000298150930273 0.46376183095490181 0 0.046563173649778952 0.45837975671853293 0 0.062336090956497003 0.46430849222352633 0 0.056059939062482203 0.44871525828262232 0 0.06823710319193263 0.47573638521218592 0 0.046563173649778952 0.45837975671853293 0 0.06823710319193263 0.47573638521218592 0 0.046563173649778952 0.45837975671853293 0 0.062336090956497003 0.46430849222352633 0 0.066945654094546808 0.44360895908271691 0 0.062336090956497003 0.46430849222352633 0 0.056059939062482203 0.44871525828262232 0 0.04638081721446817 0.43962707142572838 0 0.046563173649778952 0.45837975671853293 0 0.056059939062482203 0.44871525828262232 0 0.04638081721446817 0.43962707142572838 0 0.056059939062482203 0.44871525828262232 0 0.057948254101455501 0.4378037972186396 0 0.066945654094546808 0.44360895908271691 0 0.056059939062482203 0.44871525828262232 0 0.057948254101455501 0.4378037972186396 0 0.057948254101455501 0.4378037972186396 0 0.053664558676899732 0.42636907594623108 0 0.066438890867551809 0.43100219186796368 0 0.053664558676899732 0.42636907594623108 0 0.06049837413220284 0.41579340855927699 0 0.066438890867551809 0.43100219186796368 0 0.04638081721446817 0.43962707142572838 0 0.057948254101455501 0.4378037972186396 0 0.053664558676899732 0.42636907594623108 0 0.06049837413220284 0.41579340855927699 0 0.048412133220522569 0.4127453550991298 0 0.061840935572437312 0.40158308739985121 0 0.053664558676899732 0.42636907594623108 0 0.06049837413220284 0.41579340855927699 0 0.048412133220522569 0.4127453550991298 0 0.053664558676899732 0.42636907594623108 0 0.048412133220522569 0.4127453550991298 0 0.038932867129223662 0.42250965938367002 0 0.048412133220522569 0.4127453550991298 0 0.038932867129223662 0.42250965938367002 0 0.036106329322936323 0.4004051518354233 0 0.038932867129223662 0.42250965938367002 0 0.023411452249003942 0.41192547896548593 0 0.036106329322936323 0.4004051518354233 0 0.02488924410762338 0.44102312822488232 0 0.04638081721446817 0.43962707142572838 0 0.038932867129223662 0.42250965938367002 0 0.04638081721446817 0.43962707142572838 0 0.053664558676899732 0.42636907594623108 0 0.038932867129223662 0.42250965938367002 0 0.02488924410762338 0.44102312822488232 0 0.038932867129223662 0.42250965938367002 0 0.023411452249003942 0.41192547896548593 0 0.02488924410762338 0.44102312822488232 0 0.023411452249003942 0.41192547896548593 0 0.02488924410762338 0.44102312822488232 0 0.023411452249003942 0.41192547896548593 0 0.0093026609489811479 0.42854128764106802 0 0.02488924410762338 0.44102312822488232 0 0.0093026609489811479 0.42854128764106802 0 0.01039266455257625 0.41490253926327952 0 0.00098758436381884453 0.4104430098714662 0 0.0116907207859931 0.39925964671664799 0 0.023411452249003942 0.41192547896548593 0 0.01039266455257625 0.41490253926327952 0 0.0087285972638417343 0.42607116806142842 0 0.01039266455257625 0.41490253926327952 0 0.00098758436381884453 0.4104430098714662 0 0.0071449681002236504 0.42681339270136898 0 0.023411452249003942 0.41192547896548593 0 0.01039266455257625 0.41490253926327952 0 0.0116907207859931 0.39925964671664799 0 0.023411452249003942 0.41192547896548593 0 0.0087285972638417343 0.42607116806142842 0 0.0093026609489811479 0.42854128764106802 0 -0.003123750750461876 0.435632546530903 0 0.00098758436381884453 0.4104430098714662 0 0.0071449681002236504 0.42681339270136898 0 -0.003123750750461876 0.435632546530903 0 0.013573552288731449 0.4469183642510669 0 0.0093026609489811479 0.42854128764106802 0 -0.003123750750461876 0.435632546530903 0 0.0071449681002236504 0.42681339270136898 0 0.0093026609489811479 0.42854128764106802 0 0.01039266455257625 0.41490253926327952 0 0.0071449681002236504 0.42681339270136898 0 0.0087285972638417343 0.42607116806142842 0 0.0087285972638417343 0.42607116806142842 0 0.0093026609489811479 0.42854128764106802 0 0.0071449681002236504 0.42681339270136898 0 0.0087285972638417343 0.42607116806142842 0 0.0093026609489811479 0.42854128764106802 0 0.0071449681002236504 0.42681339270136898 0 0.0093026609489811479 0.42854128764106802 0 0.0050989194780995568 0.38525347321202952 0 0.0116907207859931 0.39925964671664799 0 0.021933660390386241 0.38282782970608942 0 0.0050989194780995568 0.38525347321202952 0 0.021933660390386241 0.38282782970608942 0 0.0092102545923802553 0.36006393655259289 0 0.00098758436381884453 0.4104430098714662 0 0.0050989194780995568 0.38525347321202952 0 0.0116907207859931 0.39925964671664799 0 0.00098758436381884453 0.4104430098714662 0 0.0050989194780995568 0.38525347321202952 0 0.023411452249003942 0.41192547896548593 0 0.0116907207859931 0.39925964671664799 0 0.021933660390386241 0.38282782970608942 0 0.023411452249003942 0.41192547896548593 0 0.021933660390386241 0.38282782970608942 0 0.036106329322936323 0.4004051518354233 0 0.023411452249003942 0.41192547896548593 0 0.021933660390386241 0.38282782970608942 0 0.021933660390386241 0.38282782970608942 0 0.037487641641053941 0.38200749665060157 0 0.032725019024084513 0.36600660887934028 0 0.037487641641053941 0.38200749665060157 0 0.048709391054542223 0.39151810695894801 0 0.047963808413320402 0.36927978587320742 0 0.021933660390386241 0.38282782970608942 0 0.037487641641053941 0.38200749665060157 0 0.036106329322936323 0.4004051518354233 0 0.048412133220522569 0.4127453550991298 0 0.036106329322936323 0.4004051518354233 0 0.048709391054542223 0.39151810695894801 0 0.037487641641053941 0.38200749665060157 0 0.036106329322936323 0.4004051518354233 0 0.048709391054542223 0.39151810695894801 0 0.048412133220522569 0.4127453550991298 0 0.048709391054542223 0.39151810695894801 0 0.061840935572437312 0.40158308739985121 0 0.048709391054542223 0.39151810695894801 0 0.061840935572437312 0.40158308739985121 0 0.062526110248270733 0.38150785968846279 0 0.048709391054542223 0.39151810695894801 0 0.062526110248270733 0.38150785968846279 0 0.047963808413320402 0.36927978587320742 0 0.062526110248270733 0.38150785968846279 0 0.078804575664841142 0.39035572603069041 0 0.084734036449988476 0.36372910950467741 0 0.078804575664841142 0.39035572603069041 0 0.10294784555364089 0.38634157957497162 0 0.084734036449988476 0.36372910950467741 0 0.078804575664841142 0.39035572603069041 0 0.084734036449988476 0.36372910950467741 0 0.078804575664841142 0.39035572603069041 0 0.072875114879693781 0.41698234255670358 0 0.094114507021504798 0.40620293523265238 0 0.078804575664841142 0.39035572603069041 0 0.10294784555364089 0.38634157957497162 0 0.094114507021504798 0.40620293523265238 0 0.078804575664841142 0.39035572603069041 0 0.072875114879693781 0.41698234255670358 0 0.061840935572437312 0.40158308739985121 0 0.078804575664841142 0.39035572603069041 0 0.072875114879693781 0.41698234255670358 0 0.061840935572437312 0.40158308739985121 0 0.062526110248270733 0.38150785968846279 0 0.078804575664841142 0.39035572603069041 0 0.06049837413220284 0.41579340855927699 0 0.061840935572437312 0.40158308739985121 0 0.072875114879693781 0.41698234255670358 0 0.06049837413220284 0.41579340855927699 0 0.072875114879693781 0.41698234255670358 0 0.066438890867551809 0.43100219186796368 0 0.083894466787360067 0.43751348150487041 0 0.066945654094546808 0.44360895908271691 0 0.072875114879693781 0.41698234255670358 0 0.066945654094546808 0.44360895908271691 0 0.072875114879693781 0.41698234255670358 0 0.066945654094546808 0.44360895908271691 0 0.072875114879693781 0.41698234255670358 0 0.066438890867551809 0.43100219186796368 0 0.066945654094546808 0.44360895908271691 0 0.057948254101455501 0.4378037972186396 0 0.066438890867551809 0.43100219186796368 0 0.066945654094546808 0.44360895908271691 0 0.066438890867551809 0.43100219186796368 0 0.083894466787360067 0.43751348150487041 0 0.072875114879693781 0.41698234255670358 0 0.100167107640893 0.42753459636640989 0 0.072875114879693781 0.41698234255670358 0 0.100167107640893 0.42753459636640989 0 0.094114507021504798 0.40620293523265238 0 0.100167107640893 0.42753459636640989 0 0.11577789136845509 0.40980043163448621 0 0.094114507021504798 0.40620293523265238 0 0.100167107640893 0.42753459636640989 0 0.1249203172839221 0.43470174427323621 0 0.11577789136845509 0.40980043163448621 0 0.1139895893674269 0.45012470654971998 0 0.100167107640893 0.42753459636640989 0 0.1249203172839221 0.43470174427323621 0 0.11577789136845509 0.40980043163448621 0 0.10294784555364089 0.38634157957497162 0 0.12575658920963431 0.39533872230207828 0 0.10294784555364089 0.38634157957497162 0 0.12613376155385059 0.37850422339303108 0 0.12575658920963431 0.39533872230207828 0 0.10294784555364089 0.38634157957497162 0 0.1100850381989833 0.37073822646245391 0 0.12613376155385059 0.37850422339303108 0 0.11577789136845509 0.40980043163448621 0 0.10294784555364089 0.38634157957497162 0 0.094114507021504798 0.40620293523265238 0 0.1099607370479614 0.35415977216450112 0 0.090663497235135365 0.33710249297866413 0 0.084734036449988476 0.36372910950467741 0 0.1100850381989833 0.37073822646245391 0 0.1099607370479614 0.35415977216450112 0 0.084734036449988476 0.36372910950467741 0 0.10294784555364089 0.38634157957497162 0 0.1100850381989833 0.37073822646245391 0 0.084734036449988476 0.36372910950467741 0 0.11983378070683651 0.36550187280998098 0 0.1100850381989833 0.37073822646245391 0 0.1099607370479614 0.35415977216450112 0 0.11983378070683651 0.36550187280998098 0 0.1099607370479614 0.35415977216450112 0 0.1331555860265525 0.35860526921993757 0 0.11983378070683651 0.36550187280998098 0 0.1100850381989833 0.37073822646245391 0 0.12613376155385059 0.37850422339303108 0 0.1099607370479614 0.35415977216450112 0 0.1177890594294294 0.34309148566188941 0 0.1331555860265525 0.35860526921993757 0 0.1177890594294294 0.34309148566188941 0 0.12662936879825931 0.32716903395308761 0 0.12989247741240559 0.34288715158651267 0 0.1177890594294294 0.34309148566188941 0 0.10864643301669499 0.33213576346586771 0 0.12662936879825931 0.32716903395308761 0 0.10864643301669499 0.33213576346586771 0 0.12662936879825931 0.32716903395308761 0 0.1099607370479614 0.35415977216450112 0 0.1177890594294294 0.34309148566188941 0 0.10864643301669499 0.33213576346586771 0 0.1136953010825871 0.3171470635063714 0 0.1213175494933694 0.30158245055839272 0 0.12662936879825931 0.32716903395308761 0 0.1136953010825871 0.3171470635063714 0 0.10864643301669499 0.33213576346586771 0 0.12662936879825931 0.32716903395308761 0 0.1213175494933694 0.30158245055839272 0 0.12662936879825931 0.32716903395308761 0 0.096125095904857891 0.3125768407031751 0 0.10864643301669499 0.33213576346586771 0 0.090663497235135365 0.33710249297866413 0 0.1136953010825871 0.3171470635063714 0 0.096125095904857891 0.3125768407031751 0 0.10864643301669499 0.33213576346586771 0 0.10864643301669499 0.33213576346586771 0 0.090663497235135365 0.33710249297866413 0 0.1099607370479614 0.35415977216450112 0 0.10864643301669499 0.33213576346586771 0 0.090663497235135365 0.33710249297866413 0 0.087475545600001273 0.33798297732581972 0 0.090663497235135365 0.33710249297866413 0 0.082096496206209249 0.33383621936358598 0 0.087475545600001273 0.33798297732581972 0 0.090663497235135365 0.33710249297866413 0 0.082096496206209249 0.33383621936358598 0 0.08224037270804728 0.32359404843337392 0 0.072936563226675077 0.33093653774017961 0 0.090663497235135365 0.33710249297866413 0 0.082096496206209249 0.33383621936358598 0 0.08224037270804728 0.32359404843337392 0 0.087475545600001273 0.33798297732581972 0 0.082096496206209249 0.33383621936358598 0 0.077166502261186737 0.33956504033989221 0 0.087475545600001273 0.33798297732581972 0 0.077166502261186737 0.33956504033989221 0 0.076450313898004663 0.34964147696982051 0 0.096125095904857891 0.3125768407031751 0 0.090663497235135365 0.33710249297866413 0 0.08224037270804728 0.32359404843337392 0 0.096125095904857891 0.3125768407031751 0 0.08224037270804728 0.32359404843337392 0 0.079766428029295997 0.30714815456914679 0 0.096125095904857891 0.3125768407031751 0 0.090663497235135365 0.33710249297866413 0 0.08224037270804728 0.32359404843337392 0 0.07030406757371975 0.31720090127141481 0 0.079766428029295997 0.30714815456914679 0 0.08224037270804728 0.32359404843337392 0 0.07030406757371975 0.31720090127141481 0 0.072936563226675077 0.33093653774017961 0 0.07030406757371975 0.31720090127141481 0 0.072936563226675077 0.33093653774017961 0 0.059987903981774733 0.32714913951712649 0 0.07030406757371975 0.31720090127141481 0 0.059987903981774733 0.32714913951712649 0 0.057849022899645691 0.31230722253069038 0 0.072936563226675077 0.33093653774017961 0 0.065057510778559355 0.34319686830145291 0 0.059987903981774733 0.32714913951712649 0 0.077166502261186737 0.33956504033989221 0 0.072936563226675077 0.33093653774017961 0 0.065057510778559355 0.34319686830145291 0 0.082096496206209249 0.33383621936358598 0 0.077166502261186737 0.33956504033989221 0 0.072936563226675077 0.33093653774017961 0 0.076450313898004663 0.34964147696982051 0 0.084734036449988476 0.36372910950467741 0 0.065453865034281244 0.3607641066790207 0 0.065057510778559355 0.34319686830145291 0 0.076450313898004663 0.34964147696982051 0 0.065453865034281244 0.3607641066790207 0 0.077166502261186737 0.33956504033989221 0 0.065057510778559355 0.34319686830145291 0 0.076450313898004663 0.34964147696982051 0 0.087475545600001273 0.33798297732581972 0 0.090663497235135365 0.33710249297866413 0 0.084734036449988476 0.36372910950467741 0 0.087475545600001273 0.33798297732581972 0 0.076450313898004663 0.34964147696982051 0 0.084734036449988476 0.36372910950467741 0 0.090663497235135365 0.33710249297866413 0 0.084734036449988476 0.36372910950467741 0 0.062526110248270733 0.38150785968846279 0 0.084734036449988476 0.36372910950467741 0 0.065453865034281244 0.3607641066790207 0 0.065453865034281244 0.3607641066790207 0 0.047963808413320402 0.36927978587320742 0 0.053710931457174718 0.35324468989876701 0 0.062526110248270733 0.38150785968846279 0 0.065453865034281244 0.3607641066790207 0 0.047963808413320402 0.36927978587320742 0 0.047963808413320402 0.36927978587320742 0 0.053710931457174718 0.35324468989876701 0 0.040387525288303333 0.35042138353270041 0 0.065057510778559355 0.34319686830145291 0 0.065453865034281244 0.3607641066790207 0 0.053710931457174718 0.35324468989876701 0 0.065057510778559355 0.34319686830145291 0 0.053710931457174718 0.35324468989876701 0 0.046344233428075123 0.33700928251545531 0 0.040387525288303333 0.35042138353270041 0 0.032725019024084513 0.36600660887934028 0 0.03031726161914939 0.35001306628921691 0 0.053710931457174718 0.35324468989876701 0 0.040387525288303333 0.35042138353270041 0 0.046344233428075123 0.33700928251545531 0 0.040387525288303333 0.35042138353270041 0 0.03031726161914939 0.35001306628921691 0 0.0294689614433001 0.33946975190706441 0 0.047963808413320402 0.36927978587320742 0 0.040387525288303333 0.35042138353270041 0 0.032725019024084513 0.36600660887934028 0 0.037487641641053941 0.38200749665060157 0 0.047963808413320402 0.36927978587320742 0 0.032725019024084513 0.36600660887934028 0 0.021933660390386241 0.38282782970608942 0 0.032725019024084513 0.36600660887934028 0 0.020455868531768558 0.35373018044669302 0 0.021933660390386241 0.38282782970608942 0 0.020455868531768558 0.35373018044669302 0 0.0092102545923802553 0.36006393655259289 0 0.021933660390386241 0.38282782970608942 0 0.020455868531768558 0.35373018044669302 0 0.032725019024084513 0.36600660887934028 0 0.03031726161914939 0.35001306628921691 0 0.020455868531768558 0.35373018044669302 0 0.03031726161914939 0.35001306628921691 0 0.020455868531768558 0.35373018044669302 0 0.0294689614433001 0.33946975190706441 0 0.0092102545923802553 0.36006393655259289 0 0.013321589706660961 0.3348743998931562 0 0.020455868531768558 0.35373018044669302 0 0.0092102545923802553 0.36006393655259289 0 0.013321589706660961 0.3348743998931562 0 0.0031259210745794249 0.34613085015479922 0 0.0092102545923802553 0.36006393655259289 0 0.013321589706660961 0.3348743998931562 0 -0.003468337841216744 0.35628739804788773 0 0.0031259210745794249 0.34613085015479922 0 0.0092102545923802553 0.36006393655259289 0 0.0050989194780995568 0.38525347321202952 0 0.0092102545923802553 0.36006393655259289 0 -0.00010953871085904071 0.36740455511059711 0 0.0050989194780995568 0.38525347321202952 0 0.0092102545923802553 0.36006393655259289 0 -0.00010953871085904071 0.36740455511059711 0 -0.003468337841216744 0.35628739804788773 0 0.0092102545923802553 0.36006393655259289 0 0.0074519033935021694 0.32394476644713482 0 0.013321589706660961 0.3348743998931562 0 0.018978076673150868 0.32463253118729662 0 0.0074519033935021694 0.32394476644713482 0 0.018978076673150868 0.32463253118729662 0 0.01311057543353164 0.31122268957946281 0 -0.00047949844301839429 0.31304929114188801 0 0.0074519033935021694 0.32394476644713482 0 0.01311057543353164 0.31122268957946281 0 -0.003706273022432469 0.3280816776334371 0 -0.00047949844301839429 0.31304929114188801 0 0.0074519033935021694 0.32394476644713482 0 -0.003706273022432469 0.3280816776334371 0 0.0074519033935021694 0.32394476644713482 0 0.002888216492373542 0.33594177179532603 0 0.0031259210745794249 0.34613085015479922 0 0.002888216492373542 0.33594177179532603 0 0.013321589706660961 0.3348743998931562 0 0.0074519033935021694 0.32394476644713482 0 0.002888216492373542 0.33594177179532603 0 0.013321589706660961 0.3348743998931562 0 0.020455868531768558 0.35373018044669302 0 0.0294689614433001 0.33946975190706441 0 0.018978076673150868 0.32463253118729662 0 0.020455868531768558 0.35373018044669302 0 0.018978076673150868 0.32463253118729662 0 0.020455868531768558 0.35373018044669302 0 0.013321589706660961 0.3348743998931562 0 0.018978076673150868 0.32463253118729662 0 0.0294689614433001 0.33946975190706441 0 0.030754907233593441 0.32718836736199441 0 0.018978076673150868 0.32463253118729662 0 0.030754907233593441 0.32718836736199441 0 0.018978076673150868 0.32463253118729662 0 0.026674505431109479 0.31338970774805031 0 0.018978076673150868 0.32463253118729662 0 0.026674505431109479 0.31338970774805031 0 0.01311057543353164 0.31122268957946281 0 0.030754907233593441 0.32718836736199441 0 0.026674505431109479 0.31338970774805031 0 0.041777199146003453 0.32231649733100037 0 0.0294689614433001 0.33946975190706441 0 0.030754907233593441 0.32718836736199441 0 0.046344233428075123 0.33700928251545531 0 0.040387525288303333 0.35042138353270041 0 0.0294689614433001 0.33946975190706441 0 0.046344233428075123 0.33700928251545531 0 0.030754907233593441 0.32718836736199441 0 0.041777199146003453 0.32231649733100037 0 0.046344233428075123 0.33700928251545531 0 0.041777199146003453 0.32231649733100037 0 0.046344233428075123 0.33700928251545531 0 0.059987903981774733 0.32714913951712649 0 0.065057510778559355 0.34319686830145291 0 0.046344233428075123 0.33700928251545531 0 0.059987903981774733 0.32714913951712649 0 0.041777199146003453 0.32231649733100037 0 0.059987903981774733 0.32714913951712649 0 0.057849022899645691 0.31230722253069038 0 0.057849022899645691 0.31230722253069038 0 0.052262213304839239 0.2945998911682865 0 0.06601781655328888 0.30238430089102281 0 0.041777199146003453 0.32231649733100037 0 0.057849022899645691 0.31230722253069038 0 0.052262213304839239 0.2945998911682865 0 0.041777199146003453 0.32231649733100037 0 0.052262213304839239 0.2945998911682865 0 0.052262213304839239 0.2945998911682865 0 0.041143932678121997 0.28176983155490343 0 0.034490777693576037 0.29913390503712523 0 0.041143932678121997 0.28176983155490343 0 0.034490777693576037 0.29913390503712523 0 0.025531077385079419 0.28458246205901228 0 0.026674505431109479 0.31338970774805031 0 0.041777199146003453 0.32231649733100037 0 0.034490777693576037 0.29913390503712523 0 0.041777199146003453 0.32231649733100037 0 0.052262213304839239 0.2945998911682865 0 0.034490777693576037 0.29913390503712523 0 0.026674505431109479 0.31338970774805031 0 0.019555738216302649 0.2981450403614988 0 0.01311057543353164 0.31122268957946281 0 0.026674505431109479 0.31338970774805031 0 0.034490777693576037 0.29913390503712523 0 0.019555738216302649 0.2981450403614988 0 0.034490777693576037 0.29913390503712523 0 0.019555738216302649 0.2981450403614988 0 0.025531077385079419 0.28458246205901228 0 0.019555738216302649 0.2981450403614988 0 0.025531077385079419 0.28458246205901228 0 0.01088243826518826 0.28535253412909412 0 -0.0047550186418006974 0.28485755340765212 0 0.01088243826518826 0.28535253412909412 0 0.004386076792071255 0.29851808445187428 0 0.019555738216302649 0.2981450403614988 0 0.01088243826518826 0.28535253412909412 0 0.004386076792071255 0.29851808445187428 0 -0.00047949844301839429 0.31304929114188801 0 0.004386076792071255 0.29851808445187428 0 0.01311057543353164 0.31122268957946281 0 0.019555738216302649 0.2981450403614988 0 0.004386076792071255 0.29851808445187428 0 0.01311057543353164 0.31122268957946281 0 -0.00086476245743153171 0.25445850891889638 0 0.014429959116253031 0.25575914870240468 0 0.002755394739617798 0.27045101537396721 0 0.014429959116253031 0.25575914870240468 0 0.002755394739617798 0.27045101537396721 0 0.017765489389742602 0.27234182589288031 0 -0.0047550186418006974 0.28485755340765212 0 0.01088243826518826 0.28535253412909412 0 0.002755394739617798 0.27045101537396721 0 0.01088243826518826 0.28535253412909412 0 0.002755394739617798 0.27045101537396721 0 0.017765489389742602 0.27234182589288031 0 0.017765489389742602 0.27234182589288031 0 0.027945049997830901 0.27171107673711498 0 0.023188824434403781 0.26385866557187632 0 0.025531077385079419 0.28458246205901228 0 0.01088243826518826 0.28535253412909412 0 0.017765489389742602 0.27234182589288031 0 0.025531077385079419 0.28458246205901228 0 0.017765489389742602 0.27234182589288031 0 0.027945049997830901 0.27171107673711498 0 0.014429959116253031 0.25575914870240468 0 0.023188824434403781 0.26385866557187632 0 0.031306243653586238 0.25632370353589701 0 0.027945049997830901 0.27171107673711498 0 0.023188824434403781 0.26385866557187632 0 0.031306243653586238 0.25632370353589701 0 0.014429959116253031 0.25575914870240468 0 0.017765489389742602 0.27234182589288031 0 0.023188824434403781 0.26385866557187632 0 0.038160487077975022 0.24795670232510389 0 0.046866745476653981 0.26207986216388007 0 0.054762220648861562 0.25103742831865761 0 0.038160487077975022 0.24795670232510389 0 0.031306243653586238 0.25632370353589701 0 0.046866745476653981 0.26207986216388007 0 0.041143932678121997 0.28176983155490343 0 0.031306243653586238 0.25632370353589701 0 0.046866745476653981 0.26207986216388007 0 0.041143932678121997 0.28176983155490343 0 0.027945049997830901 0.27171107673711498 0 0.031306243653586238 0.25632370353589701 0 0.041143932678121997 0.28176983155490343 0 0.031306243653586238 0.25632370353589701 0 0.041143932678121997 0.28176983155490343 0 0.025531077385079419 0.28458246205901228 0 0.027945049997830901 0.27171107673711498 0 0.041143932678121997 0.28176983155490343 0 0.046866745476653981 0.26207986216388007 0 0.062747227463675032 0.26688328500557251 0 0.052262213304839239 0.2945998911682865 0 0.062747227463675032 0.26688328500557251 0 0.052262213304839239 0.2945998911682865 0 0.041143932678121997 0.28176983155490343 0 0.062747227463675032 0.26688328500557251 0 0.046866745476653981 0.26207986216388007 0 0.054762220648861562 0.25103742831865761 0 0.062747227463675032 0.26688328500557251 0 0.073232241622510824 0.23916667884285861 0 0.088218080968415949 0.25581349114205748 0 0.062747227463675032 0.26688328500557251 0 0.073232241622510824 0.23916667884285861 0 0.062747227463675032 0.26688328500557251 0 0.073232241622510824 0.23916667884285861 0 0.054762220648861562 0.25103742831865761 0 0.062747227463675032 0.26688328500557251 0 0.088218080968415949 0.25581349114205748 0 0.085784568958612001 0.27631018552294739 0 0.062747227463675032 0.26688328500557251 0 0.088218080968415949 0.25581349114205748 0 0.085784568958612001 0.27631018552294739 0 0.099888918080324823 0.27014512554977482 0 0.085784568958612001 0.27631018552294739 0 0.062747227463675032 0.26688328500557251 0 0.072962291658849918 0.28991490746804011 0 0.052262213304839239 0.2945998911682865 0 0.072962291658849918 0.28991490746804011 0 0.06601781655328888 0.30238430089102281 0 0.052262213304839239 0.2945998911682865 0 0.062747227463675032 0.26688328500557251 0 0.072962291658849918 0.28991490746804011 0 0.072962291658849918 0.28991490746804011 0 0.06601781655328888 0.30238430089102281 0 0.079766428029295997 0.30714815456914679 0 0.07030406757371975 0.31720090127141481 0 0.057849022899645691 0.31230722253069038 0 0.06601781655328888 0.30238430089102281 0 0.07030406757371975 0.31720090127141481 0 0.06601781655328888 0.30238430089102281 0 0.079766428029295997 0.30714815456914679 0 0.096125095904857891 0.3125768407031751 0 0.079766428029295997 0.30714815456914679 0 0.087245015825239164 0.29480025533819898 0 0.072962291658849918 0.28991490746804011 0 0.079766428029295997 0.30714815456914679 0 0.087245015825239164 0.29480025533819898 0 0.085784568958612001 0.27631018552294739 0 0.087245015825239164 0.29480025533819898 0 0.10158669457458 0.28805118842768579 0 0.085784568958612001 0.27631018552294739 0 0.072962291658849918 0.28991490746804011 0 0.087245015825239164 0.29480025533819898 0 0.096125095904857891 0.3125768407031751 0 0.10158669457458 0.28805118842768579 0 0.1213175494933694 0.30158245055839272 0 0.096125095904857891 0.3125768407031751 0 0.10158669457458 0.28805118842768579 0 0.096125095904857891 0.3125768407031751 0 0.087245015825239164 0.29480025533819898 0 0.10158669457458 0.28805118842768579 0 0.1213175494933694 0.30158245055839272 0 0.12531858385032879 0.30047739987790711 0 0.12662936879825931 0.32716903395308761 0 0.1136953010825871 0.3171470635063714 0 0.096125095904857891 0.3125768407031751 0 0.1213175494933694 0.30158245055839272 0 0.1213175494933694 0.30158245055839272 0 0.11600573018848399 0.27599586716369701 0 0.12531858385032879 0.30047739987790711 0 0.10158669457458 0.28805118842768579 0 0.1213175494933694 0.30158245055839272 0 0.11600573018848399 0.27599586716369701 0 0.1213175494933694 0.30158245055839272 0 0.11600573018848399 0.27599586716369701 0 0.11600573018848399 0.27599586716369701 0 0.12531858385032879 0.30047739987790711 0 0.11600573018848399 0.27599586716369701 0 0.11188790784886191 0.25616066595492859 0 0.11600573018848399 0.27599586716369701 0 0.11188790784886191 0.25616066595492859 0 0.1250678662534328 0.26838756907791672 0 0.11188790784886191 0.25616066595492859 0 0.12654854198029711 0.25664805847424449 0 0.1250678662534328 0.26838756907791672 0 0.11600573018848399 0.27599586716369701 0 0.11188790784886191 0.25616066595492859 0 0.1078495157115377 0.25455489549248528 0 0.11600573018848399 0.27599586716369701 0 0.1078495157115377 0.25455489549248528 0 0.12211117754279691 0.24191114690147031 0 0.11188790784886191 0.25616066595492859 0 0.12654854198029711 0.25664805847424449 0 0.088218080968415949 0.25581349114205748 0 0.1078495157115377 0.25455489549248528 0 0.099888918080324823 0.27014512554977482 0 0.11600573018848399 0.27599586716369701 0 0.1078495157115377 0.25455489549248528 0 0.099888918080324823 0.27014512554977482 0 0.085784568958612001 0.27631018552294739 0 0.10158669457458 0.28805118842768579 0 0.099888918080324823 0.27014512554977482 0 0.10158669457458 0.28805118842768579 0 0.11600573018848399 0.27599586716369701 0 0.099888918080324823 0.27014512554977482 0 0.14851416593409131 0.28028791940847281 0 0.1542063646768253 0.26851064270523428 0 0.135457960597828 0.27404923396877878 0 0.14851416593409131 0.28028791940847281 0 0.1542063646768253 0.26851064270523428 0 0.1635496739893815 0.272518036741002 0 0.13662136877128961 0.24704155783701209 0 0.1542063646768253 0.26851064270523428 0 0.15315320407289379 0.25143692855392119 0 0.13662136877128961 0.24704155783701209 0 0.1542063646768253 0.26851064270523428 0 0.12654854198029711 0.25664805847424449 0 0.1542063646768253 0.26851064270523428 0 0.12654854198029711 0.25664805847424449 0 0.11600573018848399 0.27599586716369701 0 0.135457960597828 0.27404923396877878 0 0.13672004442875149 0.28906423500356843 0 0.11600573018848399 0.27599586716369701 0 0.1250678662534328 0.26838756907791672 0 0.135457960597828 0.27404923396877878 0 0.12654854198029711 0.25664805847424449 0 0.1250678662534328 0.26838756907791672 0 0.135457960597828 0.27404923396877878 0 0.1542063646768253 0.26851064270523428 0 0.12654854198029711 0.25664805847424449 0 0.135457960597828 0.27404923396877878 0 0.14851416593409131 0.28028791940847281 0 0.135457960597828 0.27404923396877878 0 0.13672004442875149 0.28906423500356843 0 0.11600573018848399 0.27599586716369701 0 0.13672004442875149 0.28906423500356843 0 0.12531858385032879 0.30047739987790711 0 0.13672004442875149 0.28906423500356843 0 0.1402188911640205 0.30632121123035488 0 0.12531858385032879 0.30047739987790711 0 0.1402188911640205 0.30632121123035488 0 0.12531858385032879 0.30047739987790711 0 0.13463143751216849 0.32495893259211911 0 0.1548049348377622 0.29725377837219852 0 0.1461512325314851 0.32177726600559109 0 0.13672004442875149 0.28906423500356843 0 0.1402188911640205 0.30632121123035488 0 0.1548049348377622 0.29725377837219852 0 0.1402188911640205 0.30632121123035488 0 0.1548049348377622 0.29725377837219852 0 0.1461512325314851 0.32177726600559109 0 0.14851416593409131 0.28028791940847281 0 0.1548049348377622 0.29725377837219852 0 0.1635496739893815 0.272518036741002 0 0.14851416593409131 0.28028791940847281 0 0.13672004442875149 0.28906423500356843 0 0.1548049348377622 0.29725377837219852 0 0.1548049348377622 0.29725377837219852 0 0.16904956148376221 0.28696803017390632 0 0.1635496739893815 0.272518036741002 0 0.1548049348377622 0.29725377837219852 0 0.1635496739893815 0.272518036741002 0 0.1548049348377622 0.29725377837219852 0 0.16904956148376221 0.28696803017390632 0 0.1760704865798931 0.29751482464839679 0 0.1548049348377622 0.29725377837219852 0 0.16862448218393089 0.31557035109175008 0 0.1461512325314851 0.32177726600559109 0 0.1548049348377622 0.29725377837219852 0 0.1760704865798931 0.29751482464839679 0 0.16862448218393089 0.31557035109175008 0 0.1760704865798931 0.29751482464839679 0 0.19416157417823021 0.29658318993950311 0 0.1910977318363766 0.30936343617790829 0 0.1760704865798931 0.29751482464839679 0 0.1910977318363766 0.30936343617790829 0 0.16862448218393089 0.31557035109175008 0 0.1910977318363766 0.30936343617790829 0 0.16862448218393089 0.31557035109175008 0 0.1760704865798931 0.29751482464839679 0 0.18186418737335361 0.28037322693622402 0 0.19416157417823021 0.29658318993950311 0 0.16904956148376221 0.28696803017390632 0 0.1760704865798931 0.29751482464839679 0 0.18186418737335361 0.28037322693622402 0 0.18186418737335361 0.28037322693622402 0 0.1635496739893815 0.272518036741002 0 0.18186418737335361 0.28037322693622402 0 0.1635496739893815 0.272518036741002 0 0.17370606089125171 0.26224670873517641 0 0.18186418737335361 0.28037322693622402 0 0.17370606089125171 0.26224670873517641 0 0.19471003957901331 0.27325247972430788 0 0.16904956148376221 0.28696803017390632 0 0.18186418737335361 0.28037322693622402 0 0.1635496739893815 0.272518036741002 0 0.1542063646768253 0.26851064270523428 0 0.1635496739893815 0.272518036741002 0 0.17370606089125171 0.26224670873517641 0 0.1542063646768253 0.26851064270523428 0 0.1635496739893815 0.272518036741002 0 0.16727987371768049 0.24179026763288269 0 0.15315320407289379 0.25143692855392119 0 0.17370606089125171 0.26224670873517641 0 0.1542063646768253 0.26851064270523428 0 0.15315320407289379 0.25143692855392119 0 0.17370606089125171 0.26224670873517641 0 0.17370606089125171 0.26224670873517641 0 0.18829363027604831 0.250961673238912 0 0.19471003957901331 0.27325247972430788 0 0.16727987371768049 0.24179026763288269 0 0.17370606089125171 0.26224670873517641 0 0.18829363027604831 0.250961673238912 0 0.18829363027604831 0.250961673238912 0 0.19471003957901331 0.27325247972430788 0 0.20536509716899951 0.26547287096163907 0 0.20331186359013301 0.24082109699524071 0 0.18829363027604831 0.250961673238912 0 0.20536509716899951 0.26547287096163907 0 0.19471003957901331 0.27325247972430788 0 0.2084557362100396 0.27880258902716809 0 0.20536509716899951 0.26547287096163907 0 0.2084557362100396 0.27880258902716809 0 0.20536509716899951 0.26547287096163907 0 0.22130508806090179 0.27672693174663809 0 0.20536509716899951 0.26547287096163907 0 0.22152166851701249 0.25652559775186567 0 0.22130508806090179 0.27672693174663809 0 0.20331186359013301 0.24082109699524071 0 0.20536509716899951 0.26547287096163907 0 0.22152166851701249 0.25652559775186567 0 0.2382202682677608 0.24987136550520039 0 0.22152166851701249 0.25652559775186567 0 0.2420421461839064 0.2669531671384977 0 0.22130508806090179 0.27672693174663809 0 0.2420421461839064 0.2669531671384977 0 0.2376581688134202 0.28801498093757599 0 0.22152166851701249 0.25652559775186567 0 0.22130508806090179 0.27672693174663809 0 0.2420421461839064 0.2669531671384977 0 0.2420421461839064 0.2669531671384977 0 0.2376581688134202 0.28801498093757599 0 0.25410680245693168 0.27971439088681033 0 0.2382202682677608 0.24987136550520039 0 0.2420421461839064 0.2669531671384977 0 0.25444540126316278 0.25175855520636897 0 0.24648522543192869 0.30474403682909801 0 0.2376581688134202 0.28801498093757599 0 0.25410680245693168 0.27971439088681033 0 0.24648522543192869 0.30474403682909801 0 0.2376581688134202 0.28801498093757599 0 0.22593665412006661 0.29721321154305042 0 0.22130508806090179 0.27672693174663809 0 0.22593665412006661 0.29721321154305042 0 0.20952201006988169 0.29223581116721359 0 0.22130508806090179 0.27672693174663809 0 0.2376581688134202 0.28801498093757599 0 0.22593665412006661 0.29721321154305042 0 0.24648522543192869 0.30474403682909801 0 0.22593665412006661 0.29721321154305042 0 0.22986989383929829 0.31768748496124349 0 0.22593665412006661 0.29721321154305042 0 0.21357098148882209 0.30315652126406639 0 0.22986989383929829 0.31768748496124349 0 0.21357098148882209 0.30315652126406639 0 0.20952201006988169 0.29223581116721359 0 0.19416157417823021 0.29658318993950311 0 0.21357098148882209 0.30315652126406639 0 0.1910977318363766 0.30936343617790829 0 0.20643207499893601 0.32497093071351502 0 0.22593665412006661 0.29721321154305042 0 0.21357098148882209 0.30315652126406639 0 0.20952201006988169 0.29223581116721359 0 0.19471003957901331 0.27325247972430788 0 0.2084557362100396 0.27880258902716809 0 0.20952201006988169 0.29223581116721359 0 0.2084557362100396 0.27880258902716809 0 0.22130508806090179 0.27672693174663809 0 0.20952201006988169 0.29223581116721359 0 0.18186418737335361 0.28037322693622402 0 0.20952201006988169 0.29223581116721359 0 0.19416157417823021 0.29658318993950311 0 0.18186418737335361 0.28037322693622402 0 0.20952201006988169 0.29223581116721359 0 0.18186418737335361 0.28037322693622402 0 0.19471003957901331 0.27325247972430788 0 0.20952201006988169 0.29223581116721359 0 0.21357098148882209 0.30315652126406639 0 0.1910977318363766 0.30936343617790829 0 0.21357098148882209 0.30315652126406639 0 0.19416157417823021 0.29658318993950311 0 0.1910977318363766 0.30936343617790829 0 0.1910977318363766 0.30936343617790829 0 0.20643207499893601 0.32497093071351502 0 0.1856945299613228 0.33204033253426818 0 0.20643207499893601 0.32497093071351502 0 0.19843150246828459 0.34738976976807262 0 0.1856945299613228 0.33204033253426818 0 0.20643207499893601 0.32497093071351502 0 0.22209665114028851 0.34074615423273669 0 0.19843150246828459 0.34738976976807262 0 0.21357098148882209 0.30315652126406639 0 0.20643207499893601 0.32497093071351502 0 0.22986989383929829 0.31768748496124349 0 0.20643207499893601 0.32497093071351502 0 0.22986989383929829 0.31768748496124349 0 0.22209665114028851 0.34074615423273669 0 0.22986989383929829 0.31768748496124349 0 0.22209665114028851 0.34074615423273669 0 0.22986989383929829 0.31768748496124349 0 0.22209665114028851 0.34074615423273669 0 0.23843723915671319 0.34292457767081541 0 0.23843723915671319 0.34292457767081541 0 0.2483727893259863 0.33788647683227852 0 0.2460033787186312 0.32690602786200629 0 0.22986989383929829 0.31768748496124349 0 0.23843723915671319 0.34292457767081541 0 0.2460033787186312 0.32690602786200629 0 0.23843723915671319 0.34292457767081541 0 0.2483727893259863 0.33788647683227852 0 0.25103816627446301 0.34731886263972311 0 0.24648522543192869 0.30474403682909801 0 0.22986989383929829 0.31768748496124349 0 0.2460033787186312 0.32690602786200629 0 0.244980201338591 0.36730237241125618 0 0.24523347810792709 0.35610720783631972 0 0.23540970501051831 0.35745820420895608 0 0.244980201338591 0.36730237241125618 0 0.23540970501051831 0.35745820420895608 0 0.23437342384462539 0.37027431482020351 0 0.24137776258769869 0.37349824455408359 0 0.244980201338591 0.36730237241125618 0 0.23437342384462539 0.37027431482020351 0 0.24137776258769869 0.37349824455408359 0 0.23437342384462539 0.37027431482020351 0 0.23897001126681569 0.38021434935351739 0 0.244980201338591 0.36730237241125618 0 0.24721820277203579 0.37733550336364768 0 0.25400802697851438 0.37324681326254577 0 0.24137776258769869 0.37349824455408359 0 0.244980201338591 0.36730237241125618 0 0.24721820277203579 0.37733550336364768 0 0.244980201338591 0.36730237241125618 0 0.24523347810792709 0.35610720783631972 0 0.25579799251658891 0.36196979364631959 0 0.23843723915671319 0.34292457767081541 0 0.24523347810792709 0.35610720783631972 0 0.25103816627446301 0.34731886263972311 0 0.23843723915671319 0.34292457767081541 0 0.24523347810792709 0.35610720783631972 0 0.23540970501051831 0.35745820420895608 0 0.22209665114028851 0.34074615423273669 0 0.23843723915671319 0.34292457767081541 0 0.23540970501051831 0.35745820420895608 0 0.22209665114028851 0.34074615423273669 0 0.23540970501051831 0.35745820420895608 0 0.22585906817366649 0.36191877821759122 0 0.22209665114028851 0.34074615423273669 0 0.22585906817366649 0.36191877821759122 0 0.2143234084412787 0.36380482350422988 0 0.22585906817366649 0.36191877821759122 0 0.22413666506389229 0.37282210176715352 0 0.2143234084412787 0.36380482350422988 0 0.22413666506389229 0.37282210176715352 0 0.2143234084412787 0.36380482350422988 0 0.21884597373587289 0.38139032844788079 0 0.23540970501051831 0.35745820420895608 0 0.22585906817366649 0.36191877821759122 0 0.23437342384462539 0.37027431482020351 0 0.22585906817366649 0.36191877821759122 0 0.23437342384462539 0.37027431482020351 0 0.22413666506389229 0.37282210176715352 0 0.2143234084412787 0.36380482350422988 0 0.19843150246828459 0.34738976976807262 0 0.20249083410527671 0.36712663127189782 0 0.2143234084412787 0.36380482350422988 0 0.20249083410527671 0.36712663127189782 0 0.20655016574226889 0.38686349277572307 0 0.22209665114028851 0.34074615423273669 0 0.2143234084412787 0.36380482350422988 0 0.22209665114028851 0.34074615423273669 0 0.2143234084412787 0.36380482350422988 0 0.19843150246828459 0.34738976976807262 0 0.19843150246828459 0.34738976976807262 0 0.19193470139977159 0.36067739485510969 0 0.1824493710536223 0.35267626430830812 0 0.19843150246828459 0.34738976976807262 0 0.1824493710536223 0.35267626430830812 0 0.1856945299613228 0.33204033253426818 0 0.19843150246828459 0.34738976976807262 0 0.19193470139977159 0.36067739485510969 0 0.20249083410527671 0.36712663127189782 0 0.19843150246828459 0.34738976976807262 0 0.20249083410527671 0.36712663127189782 0 0.19193470139977159 0.36067739485510969 0 0.20249083410527671 0.36712663127189782 0 0.19443571165879439 0.37831936706025843 0 0.19193470139977159 0.36067739485510969 0 0.18358331952384321 0.36926048541846951 0 0.19443571165879439 0.37831936706025843 0 0.19193470139977159 0.36067739485510969 0 0.18358331952384321 0.36926048541846951 0 0.1824493710536223 0.35267626430830812 0 0.18358331952384321 0.36926048541846951 0 0.16813658081105029 0.36406985119979712 0 0.1779252353585781 0.3803735226757764 0 0.18358331952384321 0.36926048541846951 0 0.16813658081105029 0.36406985119979712 0 0.1824493710536223 0.35267626430830812 0 0.16813658081105029 0.36406985119979712 0 0.15177285829179871 0.36945382556047213 0 0.152104780954846 0.35157051460121391 0 0.16813658081105029 0.36406985119979712 0 0.15177285829179871 0.36945382556047213 0 0.16253303761197849 0.38342846695947519 0 0.16813658081105029 0.36406985119979712 0 0.1672866065620183 0.34202230819742979 0 0.152104780954846 0.35157051460121391 0 0.16813658081105029 0.36406985119979712 0 0.1824493710536223 0.35267626430830812 0 0.1672866065620183 0.34202230819742979 0 0.1824493710536223 0.35267626430830812 0 0.1856945299613228 0.33204033253426818 0 0.1672866065620183 0.34202230819742979 0 0.1856945299613228 0.33204033253426818 0 0.16862448218393089 0.31557035109175008 0 0.1672866065620183 0.34202230819742979 0 0.1910977318363766 0.30936343617790829 0 0.1856945299613228 0.33204033253426818 0 0.16862448218393089 0.31557035109175008 0 0.16862448218393089 0.31557035109175008 0 0.1461512325314851 0.32177726600559109 0 0.1672866065620183 0.34202230819742979 0 0.15359426278670479 0.33408314695664643 0 0.152104780954846 0.35157051460121391 0 0.16862448218393089 0.31557035109175008 0 0.1672866065620183 0.34202230819742979 0 0.15359426278670479 0.33408314695664643 0 0.1461512325314851 0.32177726600559109 0 0.13965340927901951 0.34019126761276458 0 0.1461512325314851 0.32177726600559109 0 0.13965340927901951 0.34019126761276458 0 0.13757136183838489 0.33025302173951021 0 0.15359426278670479 0.33408314695664643 0 0.1461512325314851 0.32177726600559109 0 0.13965340927901951 0.34019126761276458 0 0.15359426278670479 0.33408314695664643 0 0.13965340927901951 0.34019126761276458 0 0.152104780954846 0.35157051460121391 0 0.16862448218393089 0.31557035109175008 0 0.15359426278670479 0.33408314695664643 0 0.1461512325314851 0.32177726600559109 0 0.1402188911640205 0.30632121123035488 0 0.1461512325314851 0.32177726600559109 0 0.13463143751216849 0.32495893259211911 0 0.12531858385032879 0.30047739987790711 0 0.13463143751216849 0.32495893259211911 0 0.12662936879825931 0.32716903395308761 0 0.12531858385032879 0.30047739987790711 0 0.13463143751216849 0.32495893259211911 0 0.1461512325314851 0.32177726600559109 0 0.13463143751216849 0.32495893259211911 0 0.1461512325314851 0.32177726600559109 0 0.13463143751216849 0.32495893259211911 0 0.13757136183838489 0.33025302173951021 0 0.13463143751216849 0.32495893259211911 0 0.13757136183838489 0.33025302173951021 0 0.13466467252571701 0.32872815954401818 0 0.13463143751216849 0.32495893259211911 0 0.13466467252571701 0.32872815954401818 0 0.13274778153766131 0.32846659058909189 0 0.13463143751216849 0.32495893259211911 0 0.12662936879825931 0.32716903395308761 0 0.13274778153766131 0.32846659058909189 0 0.13463143751216849 0.32495893259211911 0 0.12662936879825931 0.32716903395308761 0 0.12662936879825931 0.32716903395308761 0 0.12989247741240559 0.34288715158651267 0 0.12662936879825931 0.32716903395308761 0 0.13209439906721751 0.33356387741587612 0 0.12989247741240559 0.34288715158651267 0 0.13965340927901951 0.34019126761276458 0 0.1358419999915261 0.3348747639510678 0 0.12989247741240559 0.34288715158651267 0 0.13965340927901951 0.34019126761276458 0 0.13757136183838489 0.33025302173951021 0 0.1358419999915261 0.3348747639510678 0 0.13432995664737921 0.33125309907554901 0 0.13209439906721751 0.33356387741587612 0 0.13274778153766131 0.32846659058909189 0 0.13757136183838489 0.33025302173951021 0 0.13432995664737921 0.33125309907554901 0 0.13466467252571701 0.32872815954401818 0 0.13432995664737921 0.33125309907554901 0 0.13466467252571701 0.32872815954401818 0 0.13274778153766131 0.32846659058909189 0 0.13757136183838489 0.33025302173951021 0 0.13432995664737921 0.33125309907554901 0 0.1358419999915261 0.3348747639510678 0 0.13432995664737921 0.33125309907554901 0 0.1358419999915261 0.3348747639510678 0 0.13209439906721751 0.33356387741587612 0 0.12662936879825931 0.32716903395308761 0 0.13209439906721751 0.33356387741587612 0 0.13274778153766131 0.32846659058909189 0 0.1358419999915261 0.3348747639510678 0 0.13209439906721751 0.33356387741587612 0 0.12989247741240559 0.34288715158651267 0 0.13965340927901951 0.34019126761276458 0 0.12989247741240559 0.34288715158651267 0 0.1331555860265525 0.35860526921993757 0 0.12989247741240559 0.34288715158651267 0 0.1331555860265525 0.35860526921993757 0 0.13965340927901951 0.34019126761276458 0 0.1331555860265525 0.35860526921993757 0 0.1177890594294294 0.34309148566188941 0 0.12989247741240559 0.34288715158651267 0 0.1331555860265525 0.35860526921993757 0 0.1331555860265525 0.35860526921993757 0 0.12613376155385059 0.37850422339303108 0 0.13902634453292509 0.38688421537594692 0 0.1331555860265525 0.35860526921993757 0 0.13902634453292509 0.38688421537594692 0 0.1331555860265525 0.35860526921993757 0 0.12613376155385059 0.37850422339303108 0 0.11983378070683651 0.36550187280998098 0 0.1331555860265525 0.35860526921993757 0 0.12613376155385059 0.37850422339303108 0 0.1331555860265525 0.35860526921993757 0 0.15177285829179871 0.36945382556047213 0 0.152104780954846 0.35157051460121391 0 0.1331555860265525 0.35860526921993757 0 0.15177285829179871 0.36945382556047213 0 0.13902634453292509 0.38688421537594692 0 0.13965340927901951 0.34019126761276458 0 0.1331555860265525 0.35860526921993757 0 0.152104780954846 0.35157051460121391 0 0.13902634453292509 0.38688421537594692 0 0.14489710303929951 0.41516316153195582 0 0.13902634453292509 0.38688421537594692 0 0.14489710303929951 0.41516316153195582 0 0.16357581588760781 0.4039607867257527 0 0.13902634453292509 0.38688421537594692 0 0.16357581588760781 0.4039607867257527 0 0.16253303761197849 0.38342846695947519 0 0.15177285829179871 0.36945382556047213 0 0.13902634453292509 0.38688421537594692 0 0.16253303761197849 0.38342846695947519 0 0.12613376155385059 0.37850422339303108 0 0.13902634453292509 0.38688421537594692 0 0.12575658920963431 0.39533872230207828 0 0.13902634453292509 0.38688421537594692 0 0.12575658920963431 0.39533872230207828 0 0.14489710303929951 0.41516316153195582 0 0.1249203172839221 0.43470174427323621 0 0.11577789136845509 0.40980043163448621 0 0.14489710303929951 0.41516316153195582 0 0.11577789136845509 0.40980043163448621 0 0.12575658920963431 0.39533872230207828 0 0.14489710303929951 0.41516316153195582 0 0.1249203172839221 0.43470174427323621 0 0.14489710303929951 0.41516316153195582 0 0.15076786154567379 0.44344210768796488 0 0.14489710303929951 0.41516316153195582 0 0.1637365151794071 0.423314054147862 0 0.15076786154567379 0.44344210768796488 0 0.14489710303929951 0.41516316153195582 0 0.15076786154567379 0.44344210768796488 0 0.1637365151794071 0.423314054147862 0 0.17905799175220641 0.41775374484244221 0 0.16357581588760781 0.4039607867257527 0 0.14489710303929951 0.41516316153195582 0 0.1637365151794071 0.423314054147862 0 0.16357581588760781 0.4039607867257527 0 0.1637365151794071 0.423314054147862 0 0.1734237646626122 0.43699015204085839 0 0.15076786154567379 0.44344210768796488 0 0.1734237646626122 0.43699015204085839 0 0.17905799175220641 0.41775374484244221 0 0.1927581415120522 0.42777637014535708 0 0.1637365151794071 0.423314054147862 0 0.1734237646626122 0.43699015204085839 0 0.17905799175220641 0.41775374484244221 0 0.17905799175220641 0.41775374484244221 0 0.17972640825738351 0.40330836713753587 0 0.16357581588760781 0.4039607867257527 0 0.17905799175220641 0.41775374484244221 0 0.19016064172352831 0.40755210067862158 0 0.1927581415120522 0.42777637014535708 0 0.17905799175220641 0.41775374484244221 0 0.17972640825738351 0.40330836713753587 0 0.19016064172352831 0.40755210067862158 0 0.17972640825738351 0.40330836713753587 0 0.18600902606230399 0.39740997905735492 0 0.19016064172352831 0.40755210067862158 0 0.17972640825738351 0.40330836713753587 0 0.17664619163467721 0.39253127445031633 0 0.16357581588760781 0.4039607867257527 0 0.18600902606230399 0.39740997905735492 0 0.17664619163467721 0.39253127445031633 0 0.18649144193346451 0.3887012032931077 0 0.17972640825738351 0.40330836713753587 0 0.18600902606230399 0.39740997905735492 0 0.17664619163467721 0.39253127445031633 0 0.17664619163467721 0.39253127445031633 0 0.16357581588760781 0.4039607867257527 0 0.16253303761197849 0.38342846695947519 0 0.16813658081105029 0.36406985119979712 0 0.16253303761197849 0.38342846695947519 0 0.1779252353585781 0.3803735226757764 0 0.18358331952384321 0.36926048541846951 0 0.1779252353585781 0.3803735226757764 0 0.19443571165879439 0.37831936706025843 0 0.1779252353585781 0.3803735226757764 0 0.18649144193346451 0.3887012032931077 0 0.19443571165879439 0.37831936706025843 0 0.17664619163467721 0.39253127445031633 0 0.16253303761197849 0.38342846695947519 0 0.1779252353585781 0.3803735226757764 0 0.17664619163467721 0.39253127445031633 0 0.1779252353585781 0.3803735226757764 0 0.18649144193346451 0.3887012032931077 0 0.20249083410527671 0.36712663127189782 0 0.19443571165879439 0.37831936706025843 0 0.20655016574226889 0.38686349277572307 0 0.18649144193346451 0.3887012032931077 0 0.19443571165879439 0.37831936706025843 0 0.19764082903296981 0.38775593027255928 0 0.19764082903296981 0.38775593027255928 0 0.2030859967973522 0.3971396579611487 0 0.20655016574226889 0.38686349277572307 0 0.19443571165879439 0.37831936706025843 0 0.19764082903296981 0.38775593027255928 0 0.20655016574226889 0.38686349277572307 0 0.18649144193346451 0.3887012032931077 0 0.19702044676246649 0.39495694972719297 0 0.2030859967973522 0.3971396579611487 0 0.18649144193346451 0.3887012032931077 0 0.19764082903296981 0.38775593027255928 0 0.2030859967973522 0.3971396579611487 0 0.18649144193346451 0.3887012032931077 0 0.2030859967973522 0.3971396579611487 0 0.18600902606230399 0.39740997905735492 0 0.19702044676246649 0.39495694972719297 0 0.19016064172352831 0.40755210067862158 0 0.18600902606230399 0.39740997905735492 0 0.18649144193346451 0.3887012032931077 0 0.19702044676246649 0.39495694972719297 0 0.19702044676246649 0.39495694972719297 0 0.2008738426228934 0.4037018268604764 0 0.19702044676246649 0.39495694972719297 0 0.2008738426228934 0.4037018268604764 0 0.19016064172352831 0.40755210067862158 0 0.19702044676246649 0.39495694972719297 0 0.2030859967973522 0.3971396579611487 0 0.2008738426228934 0.4037018268604764 0 0.2030859967973522 0.3971396579611487 0 0.2008738426228934 0.4037018268604764 0 0.2030859967973522 0.3971396579611487 0 0.2008738426228934 0.4037018268604764 0 0.20931517666979929 0.40030724229249931 0 0.2030859967973522 0.3971396579611487 0 0.20931517666979929 0.40030724229249931 0 0.2030859967973522 0.3971396579611487 0 0.20931517666979929 0.40030724229249931 0 0.20655016574226889 0.38686349277572307 0 0.20931517666979929 0.40030724229249931 0 0.21512994396949489 0.39156142785090892 0 0.20655016574226889 0.38686349277572307 0 0.2030859967973522 0.3971396579611487 0 0.20655016574226889 0.38686349277572307 0 0.20931517666979929 0.40030724229249931 0 0.20655016574226889 0.38686349277572307 0 0.20931517666979929 0.40030724229249931 0 0.21512994396949489 0.39156142785090892 0 0.22239336576093671 0.39670281095884358 0 0.20931517666979929 0.40030724229249931 0 0.22435289545534221 0.40795403422656029 0 0.20931517666979929 0.40030724229249931 0 0.22239336576093671 0.39670281095884358 0 0.22435289545534221 0.40795403422656029 0 0.2143234084412787 0.36380482350422988 0 0.20655016574226889 0.38686349277572307 0 0.21884597373587289 0.38139032844788079 0 0.20249083410527671 0.36712663127189782 0 0.20655016574226889 0.38686349277572307 0 0.2143234084412787 0.36380482350422988 0 0.20655016574226889 0.38686349277572307 0 0.21512994396949489 0.39156142785090892 0 0.20655016574226889 0.38686349277572307 0 0.21884597373587289 0.38139032844788079 0 0.22413666506389229 0.37282210176715352 0 0.21884597373587289 0.38139032844788079 0 0.23019653325392439 0.38351756857438207 0 0.23437342384462539 0.37027431482020351 0 0.22413666506389229 0.37282210176715352 0 0.23019653325392439 0.38351756857438207 0 0.23019653325392439 0.38351756857438207 0 0.22318490145602679 0.38974274346239068 0 0.2297419692443162 0.39199368379449279 0 0.23019653325392439 0.38351756857438207 0 0.2297419692443162 0.39199368379449279 0 0.23740562876207719 0.39066130385616388 0 0.21512994396949489 0.39156142785090892 0 0.21884597373587289 0.38139032844788079 0 0.22318490145602679 0.38974274346239068 0 0.21884597373587289 0.38139032844788079 0 0.23019653325392439 0.38351756857438207 0 0.22318490145602679 0.38974274346239068 0 0.21512994396949489 0.39156142785090892 0 0.22318490145602679 0.38974274346239068 0 0.22239336576093671 0.39670281095884358 0 0.22318490145602679 0.38974274346239068 0 0.22239336576093671 0.39670281095884358 0 0.2297419692443162 0.39199368379449279 0 0.22239336576093671 0.39670281095884358 0 0.23187370008169941 0.39847713991713851 0 0.22435289545534221 0.40795403422656029 0 0.23187370008169941 0.39847713991713851 0 0.23511759929543119 0.4035974077492932 0 0.22435289545534221 0.40795403422656029 0 0.23187370008169941 0.39847713991713851 0 0.2297419692443162 0.39199368379449279 0 0.23740562876207719 0.39066130385616388 0 0.22239336576093671 0.39670281095884358 0 0.23187370008169941 0.39847713991713851 0 0.2297419692443162 0.39199368379449279 0 0.23187370008169941 0.39847713991713851 0 0.23740562876207719 0.39066130385616388 0 0.2389039352054089 0.3982632547778332 0 0.23740562876207719 0.39066130385616388 0 0.2389039352054089 0.3982632547778332 0 0.24559191965963331 0.39582467248170339 0 0.23187370008169941 0.39847713991713851 0 0.2389039352054089 0.3982632547778332 0 0.23511759929543119 0.4035974077492932 0 0.2389039352054089 0.3982632547778332 0 0.23511759929543119 0.4035974077492932 0 0.24257100362570741 0.40357592004773318 0 0.23511759929543119 0.4035974077492932 0 0.24257100362570741 0.40357592004773318 0 0.2377485240035295 0.40977441571771761 0 0.2490711373868145 0.40328311896619079 0 0.24559191965963331 0.39582467248170339 0 0.25459202495693589 0.39819399382433779 0 0.24257100362570741 0.40357592004773318 0 0.2490711373868145 0.40328311896619079 0 0.24559191965963331 0.39582467248170339 0 0.2389039352054089 0.3982632547778332 0 0.24257100362570741 0.40357592004773318 0 0.24559191965963331 0.39582467248170339 0 0.24257100362570741 0.40357592004773318 0 0.2490711373868145 0.40328311896619079 0 0.247070238505155 0.41089193091972381 0 0.24559191965963331 0.39582467248170339 0 0.2458394057721659 0.38664992363107781 0 0.25155158363037378 0.39136922505643812 0 0.23740562876207719 0.39066130385616388 0 0.24559191965963331 0.39582467248170339 0 0.2458394057721659 0.38664992363107781 0 0.24137776258769869 0.37349824455408359 0 0.24721820277203579 0.37733550336364768 0 0.23897001126681569 0.38021434935351739 0 0.2458394057721659 0.38664992363107781 0 0.24721820277203579 0.37733550336364768 0 0.2543907927861988 0.38365968106877452 0 0.2458394057721659 0.38664992363107781 0 0.24721820277203579 0.37733550336364768 0 0.23897001126681569 0.38021434935351739 0 0.23437342384462539 0.37027431482020351 0 0.23019653325392439 0.38351756857438207 0 0.23897001126681569 0.38021434935351739 0 0.23019653325392439 0.38351756857438207 0 0.23740562876207719 0.39066130385616388 0 0.23897001126681569 0.38021434935351739 0 0.23740562876207719 0.39066130385616388 0 0.2458394057721659 0.38664992363107781 0 0.23897001126681569 0.38021434935351739 0 0.23939061424088551 0.41560082616062022 0 0.24660560673526891 0.44120082466157329 0 0.23690230324905029 0.43206095369221192 0 0.23939061424088551 0.41560082616062022 0 0.23343183684410371 0.42460369467437847 0 0.23939061424088551 0.41560082616062022 0 0.24660560673526891 0.44120082466157329 0 0.258596460033858 0.42536714170295359 0 0.23690230324905029 0.43206095369221192 0 0.23939061424088551 0.41560082616062022 0 0.24660560673526891 0.44120082466157329 0 0.247070238505155 0.41089193091972381 0 0.23939061424088551 0.41560082616062022 0 0.258596460033858 0.42536714170295359 0 0.23939061424088551 0.41560082616062022 0 0.258596460033858 0.42536714170295359 0 0.24257100362570741 0.40357592004773318 0 0.247070238505155 0.41089193091972381 0 0.2377485240035295 0.40977441571771761 0 0.247070238505155 0.41089193091972381 0 0.2377485240035295 0.40977441571771761 0 0.23939061424088551 0.41560082616062022 0 0.2377485240035295 0.40977441571771761 0 0.23939061424088551 0.41560082616062022 0 0.23939061424088551 0.41560082616062022 0 0.22831860360958661 0.41898022984794181 0 0.22435289545534221 0.40795403422656029 0 0.23939061424088551 0.41560082616062022 0 0.22831860360958661 0.41898022984794181 0 0.23343183684410371 0.42460369467437847 0 0.2377485240035295 0.40977441571771761 0 0.23939061424088551 0.41560082616062022 0 0.22435289545534221 0.40795403422656029 0 0.23511759929543119 0.4035974077492932 0 0.2377485240035295 0.40977441571771761 0 0.22435289545534221 0.40795403422656029 0 0.23939061424088551 0.41560082616062022 0 0.22435289545534221 0.40795403422656029 0 0.22831860360958661 0.41898022984794181 0 0.22435289545534221 0.40795403422656029 0 0.213664174517152 0.42145248881816078 0 0.22725582123695409 0.43000863765031039 0 0.213664174517152 0.42145248881816078 0 0.21801317236450421 0.44259773534382241 0 0.22831860360958661 0.41898022984794181 0 0.22725582123695409 0.43000863765031039 0 0.213664174517152 0.42145248881816078 0 0.23690230324905029 0.43206095369221192 0 0.23343183684410371 0.42460369467437847 0 0.22725582123695409 0.43000863765031039 0 0.22831860360958661 0.41898022984794181 0 0.23343183684410371 0.42460369467437847 0 0.22725582123695409 0.43000863765031039 0 0.23690230324905029 0.43206095369221192 0 0.22725582123695409 0.43000863765031039 0 0.23014049358846131 0.44002865661469798 0 0.2094435074936985 0.42314978110214951 0 0.20189031545207761 0.44033807657813318 0 0.21801317236450421 0.44259773534382241 0 0.2094435074936985 0.42314978110214951 0 0.213664174517152 0.42145248881816078 0 0.21801317236450421 0.44259773534382241 0 0.2094435074936985 0.42314978110214951 0 0.21801317236450421 0.44259773534382241 0 0.213664174517152 0.42145248881816078 0 0.21801317236450421 0.44259773534382241 0 0.2008738426228934 0.4037018268604764 0 0.20931517666979929 0.40030724229249931 0 0.213664174517152 0.42145248881816078 0 0.2008738426228934 0.4037018268604764 0 0.2094435074936985 0.42314978110214951 0 0.213664174517152 0.42145248881816078 0 0.20931517666979929 0.40030724229249931 0 0.213664174517152 0.42145248881816078 0 0.2008738426228934 0.4037018268604764 0 0.2094435074936985 0.42314978110214951 0 0.20931517666979929 0.40030724229249931 0 0.22435289545534221 0.40795403422656029 0 0.213664174517152 0.42145248881816078 0 0.2008738426228934 0.4037018268604764 0 0.1927581415120522 0.42777637014535708 0 0.2008738426228934 0.4037018268604764 0 0.2094435074936985 0.42314978110214951 0 0.1927581415120522 0.42777637014535708 0 0.2008738426228934 0.4037018268604764 0 0.19016064172352831 0.40755210067862158 0 0.1927581415120522 0.42777637014535708 0 0.2094435074936985 0.42314978110214951 0 0.1927581415120522 0.42777637014535708 0 0.20189031545207761 0.44033807657813318 0 0.20189031545207761 0.44033807657813318 0 0.20459431548892301 0.45631558286909929 0 0.18464244040121031 0.45185091343023759 0 0.1927581415120522 0.42777637014535708 0 0.18464244040121031 0.45185091343023759 0 0.1927581415120522 0.42777637014535708 0 0.20189031545207761 0.44033807657813318 0 0.18464244040121031 0.45185091343023759 0 0.1905225891135168 0.46828130765734438 0 0.20459431548892301 0.45631558286909929 0 0.18464244040121031 0.45185091343023759 0 0.1905225891135168 0.46828130765734438 0 0.20459431548892301 0.45631558286909929 0 0.20300042735490259 0.48033379116680502 0 0.20459431548892301 0.45631558286909929 0 0.21563624228664049 0.46859865990518301 0 0.2208186513118171 0.45623824427155513 0 0.20459431548892301 0.45631558286909929 0 0.21563624228664049 0.46859865990518301 0 0.20300042735490259 0.48033379116680502 0 0.20189031545207761 0.44033807657813318 0 0.20459431548892301 0.45631558286909929 0 0.21801317236450421 0.44259773534382241 0 0.20459431548892301 0.45631558286909929 0 0.21801317236450421 0.44259773534382241 0 0.2208186513118171 0.45623824427155513 0 0.22725582123695409 0.43000863765031039 0 0.21801317236450421 0.44259773534382241 0 0.23014049358846131 0.44002865661469798 0 0.21801317236450421 0.44259773534382241 0 0.23014049358846131 0.44002865661469798 0 0.2327460431198643 0.45083685110227723 0 0.21801317236450421 0.44259773534382241 0 0.2208186513118171 0.45623824427155513 0 0.21801317236450421 0.44259773534382241 0 0.2208186513118171 0.45623824427155513 0 0.22888466643854219 0.46726944917136859 0 0.21801317236450421 0.44259773534382241 0 0.22888466643854219 0.46726944917136859 0 0.21801317236450421 0.44259773534382241 0 0.2327460431198643 0.45083685110227723 0 0.22888466643854219 0.46726944917136859 0 0.2327460431198643 0.45083685110227723 0 0.22888466643854219 0.46726944917136859 0 0.24028707342940059 0.46472890762431529 0 0.21563624228664049 0.46859865990518301 0 0.2208186513118171 0.45623824427155513 0 0.22888466643854219 0.46726944917136859 0 0.24028707342940059 0.46472890762431529 0 0.24660560673526891 0.44120082466157329 0 0.25382059922965239 0.46680082316252641 0 0.2327460431198643 0.45083685110227723 0 0.24028707342940059 0.46472890762431529 0 0.24660560673526891 0.44120082466157329 0 0.23014049358846131 0.44002865661469798 0 0.2327460431198643 0.45083685110227723 0 0.24660560673526891 0.44120082466157329 0 0.23690230324905029 0.43206095369221192 0 0.23014049358846131 0.44002865661469798 0 0.24660560673526891 0.44120082466157329 0 0.24197658002327829 0.5 0 0.24615438603033929 0.48277815576469629 0 0.23502973354372139 0.47951248976776678 0 0.24197658002327829 0.5 0 0.24615438603033929 0.48277815576469629 0 0.2610355917240359 0.49240082166347932 0 0.24028707342940059 0.46472890762431529 0 0.24615438603033929 0.48277815576469629 0 0.23502973354372139 0.47951248976776678 0 0.24028707342940059 0.46472890762431529 0 0.24615438603033929 0.48277815576469629 0 0.25382059922965239 0.46680082316252641 0 0.22888466643854219 0.46726944917136859 0 0.24028707342940059 0.46472890762431529 0 0.23502973354372139 0.47951248976776678 0 0.22888466643854219 0.46726944917136859 0 0.23502973354372139 0.47951248976776678 0 0.22088315083901741 0.48283623204708698 0 0.21563624228664049 0.46859865990518301 0 0.22888466643854219 0.46726944917136859 0 0.22088315083901741 0.48283623204708698 0 0.24197658002327829 0.5 0 0.22088315083901741 0.48283623204708698 0 0.21745473274202781 0.5 0 0.24197658002327829 0.5 0 0.23502973354372139 0.47951248976776678 0 0.22088315083901741 0.48283623204708698 0 0.22088315083901741 0.48283623204708698 0 0.21745473274202781 0.5 0 0.20300042735490259 0.48033379116680502 0 0.21745473274202781 0.5 0 0.20300042735490259 0.48033379116680502 0 0.19293288546077739 0.5 0 0.21563624228664049 0.46859865990518301 0 0.22088315083901741 0.48283623204708698 0 0.20300042735490259 0.48033379116680502 0 0.1905225891135168 0.46828130765734438 0 0.20300042735490259 0.48033379116680502 0 0.1806719618201521 0.49072804309529328 0 0.20300042735490259 0.48033379116680502 0 0.19293288546077739 0.5 0 0.1806719618201521 0.49072804309529328 0 0.1806719618201521 0.49072804309529328 0 0.16841103817952691 0.49999999999999889 0 0.17652673929036841 0.47592545671511821 0 0.16841103817952691 0.49999999999999889 0 0.17652673929036841 0.47592545671511821 0 0.19293288546077739 0.5 0 0.1806719618201521 0.49072804309529328 0 0.16841103817952691 0.49999999999999889 0 0.1625093785584191 0.49999999999998329 0 0.16841103817952691 0.49999999999999889 0 0.17652673929036841 0.47592545671511821 0 0.1625093785584191 0.49999999999998329 0 0.15811305703643549 0.48538965310810228 0 0.15663862005204801 0.47172105384397373 0 0.1625093785584191 0.49999999999998329 0 0.15663862005204801 0.47172105384397373 0 0.1625093785584191 0.49999999999998329 0 0.15663862005204801 0.47172105384397373 0 0.17652673929036841 0.47592545671511821 0 0.1905225891135168 0.46828130765734438 0 0.1806719618201521 0.49072804309529328 0 0.17652673929036841 0.47592545671511821 0 0.1905225891135168 0.46828130765734438 0 0.17652673929036841 0.47592545671511821 0 0.18464244040121031 0.45185091343023759 0 0.17652673929036841 0.47592545671511821 0 0.18464244040121031 0.45185091343023759 0 0.16957963758512351 0.45780372199128688 0 0.17652673929036841 0.47592545671511821 0 0.18464244040121031 0.45185091343023759 0 0.1734237646626122 0.43699015204085839 0 0.1927581415120522 0.42777637014535708 0 0.18464244040121031 0.45185091343023759 0 0.1734237646626122 0.43699015204085839 0 0.18464244040121031 0.45185091343023759 0 0.16957963758512351 0.45780372199128688 0 0.1734237646626122 0.43699015204085839 0 0.16957963758512351 0.45780372199128688 0 0.15076786154567379 0.44344210768796488 0 0.15663862005204801 0.47172105384397373 0 0.16957963758512351 0.45780372199128688 0 0.15076786154567379 0.44344210768796488 0 0.15663862005204801 0.47172105384397373 0 0.17652673929036841 0.47592545671511821 0 0.16957963758512351 0.45780372199128688 0 0.15663862005204801 0.47172105384397373 0 0.15076786154567379 0.44344210768796488 0 0.15663862005204801 0.47172105384397373 0 0.15076786154567379 0.44344210768796488 0 0.14038275388478191 0.4712669578912656 0 0.1249203172839221 0.43470174427323621 0 0.1286150856976378 0.46004281545544362 0 0.1249203172839221 0.43470174427323621 0 0.15076786154567379 0.44344210768796488 0 0.1286150856976378 0.46004281545544362 0 0.15076786154567379 0.44344210768796488 0 0.1286150856976378 0.46004281545544362 0 0.14038275388478191 0.4712669578912656 0 0.11930231010123341 0.47434052006543481 0 0.1286150856976378 0.46004281545544362 0 0.13230985411135349 0.48538388663765097 0 0.1286150856976378 0.46004281545544362 0 0.14038275388478191 0.4712669578912656 0 0.13230985411135349 0.48538388663765097 0 0.1286150856976378 0.46004281545544362 0 0.13230985411135349 0.48538388663765097 0 0.11648848736447209 0.5 0 0.13230985411135349 0.48538388663765097 0 0.13444090664635461 0.49999999999999922 0 0.13230985411135349 0.48538388663765097 0 0.13444090664635461 0.49999999999999922 0 0.1625093785584191 0.49999999999998329 0 0.15811305703643549 0.48538965310810228 0 0.13444090664635461 0.49999999999999922 0 0.15811305703643549 0.48538965310810228 0 0.13230985411135349 0.48538388663765097 0 0.13444090664635461 0.49999999999999922 0 0.15811305703643549 0.48538965310810228 0 0.13230985411135349 0.48538388663765097 0 0.15811305703643549 0.48538965310810228 0 0.15663862005204801 0.47172105384397373 0 0.14038275388478191 0.4712669578912656 0 0.15811305703643549 0.48538965310810228 0 0.14038275388478191 0.4712669578912656 0 0.13230985411135349 0.48538388663765097 0 0.36664168209876541 0.47825291915327017 0 0.34290499170874572 0.48281738767440358 0 0.34078351541395091 0.46902638007637709 0 0.35377356207445149 0.50000000000000067 0 0.36664168209876541 0.47825291915327017 0 0.34290499170874572 0.48281738767440358 0 0.35377356207445149 0.50000000000000067 0 0.36664168209876541 0.47825291915327017 0 0.38072605722137909 0.49999999999999872 0 0.36664168209876541 0.47825291915327017 0 0.38072605722137909 0.49999999999999872 0 0.36664168209876541 0.47825291915327017 0 0.35255730697615062 0.45650583830654229 0 0.35687507965904169 0.45191421181619718 0 0.37957300368078878 0.46794280787746129 0 0.35687507965904169 0.45191421181619718 0 0.37679823720245231 0.43072743227356131 0 0.37957300368078878 0.46794280787746129 0 0.36664168209876541 0.47825291915327017 0 0.35687507965904169 0.45191421181619718 0 0.37957300368078878 0.46794280787746129 0 0.35687507965904169 0.45191421181619718 0 0.37679823720245231 0.43072743227356131 0 0.35773623194294302 0.43862668461665572 0 0.35687507965904169 0.45191421181619718 0 0.37679823720245231 0.43072743227356131 0 0.35255730697615062 0.45650583830654229 0 0.33619836121955587 0.45453675525277842 0 0.34343828735863913 0.44242555038901121 0 0.35773623194294302 0.43862668461665572 0 0.35687507965904169 0.45191421181619718 0 0.34343828735863913 0.44242555038901121 0 0.35687507965904169 0.45191421181619718 0 0.35255730697615062 0.45650583830654229 0 0.34343828735863913 0.44242555038901121 0 0.35255730697615062 0.45650583830654229 0 0.34343828735863913 0.44242555038901121 0 0.35687507965904169 0.45191421181619718 0 0.34343828735863913 0.44242555038901121 0 0.36664168209876541 0.47825291915327017 0 0.35687507965904169 0.45191421181619718 0 0.35255730697615062 0.45650583830654229 0 0.36664168209876541 0.47825291915327017 0 0.35255730697615062 0.45650583830654229 0 0.34078351541395091 0.46902638007637709 0 0.35687507965904169 0.45191421181619718 0 0.35255730697615062 0.45650583830654229 0 0.35255730697615062 0.45650583830654229 0 0.34078351541395091 0.46902638007637709 0 0.35255730697615062 0.45650583830654229 0 0.33619836121955587 0.45453675525277842 0 0.34078351541395091 0.46902638007637709 0 0.33619836121955587 0.45453675525277842 0 0.3270109082139156 0.46787125917769778 0 0.34078351541395091 0.46902638007637709 0 0.33619836121955587 0.45453675525277842 0 0.31992756461828648 0.45600343474003008 0 0.33347258473638891 0.43538806882701059 0 0.33619836121955587 0.45453675525277842 0 0.34343828735863913 0.44242555038901121 0 0.33347258473638891 0.43538806882701059 0 0.34343828735863913 0.44242555038901121 0 0.33347258473638891 0.43538806882701059 0 0.31992756461828648 0.45600343474003008 0 0.33347258473638891 0.43538806882701059 0 0.31992756461828648 0.45600343474003008 0 0.32025150268859759 0.43582149868884429 0 0.33347258473638891 0.43538806882701059 0 0.31992756461828648 0.45600343474003008 0 0.31016531305605483 0.44103696282739641 0 0.32025150268859759 0.43582149868884429 0 0.31992756461828648 0.45600343474003008 0 0.30638254450017749 0.47661880065304518 0 0.31992756461828648 0.45600343474003008 0 0.3270109082139156 0.46787125917769778 0 0.30638254450017749 0.47661880065304518 0 0.33619836121955587 0.45453675525277842 0 0.31992756461828648 0.45600343474003008 0 0.3270109082139156 0.46787125917769778 0 0.32900972385175142 0.48154692184621189 0 0.33007805328731449 0.48830940032652292 0 0.30638254450017749 0.47661880065304518 0 0.33007805328731449 0.48830940032652292 0 0.30638254450017749 0.47661880065304518 0 0.3270109082139156 0.46787125917769778 0 0.32900972385175142 0.48154692184621189 0 0.30638254450017749 0.47661880065304518 0 0.3270109082139156 0.46787125917769778 0 0.32900972385175142 0.48154692184621189 0 0.34078351541395091 0.46902638007637709 0 0.32900972385175142 0.48154692184621189 0 0.34078351541395091 0.46902638007637709 0 0.32900972385175142 0.48154692184621189 0 0.34290499170874572 0.48281738767440358 0 0.33007805328731449 0.48830940032652292 0 0.32900972385175142 0.48154692184621189 0 0.34290499170874572 0.48281738767440358 0 0.34078351541395091 0.46902638007637709 0 0.35377356207445149 0.50000000000000067 0 0.33007805328731449 0.48830940032652292 0 0.35377356207445149 0.50000000000000067 0 0.33285579957822747 0.5 0 0.33007805328731449 0.48830940032652292 0 0.35377356207445149 0.50000000000000067 0 0.34290499170874572 0.48281738767440358 0 0.33007805328731449 0.48830940032652292 0 0.33285579957822747 0.5 0 0.33007805328731449 0.48830940032652292 0 0.31193803708200341 0.5 0 0.33007805328731449 0.48830940032652292 0 0.31193803708200341 0.5 0 0.30638254450017749 0.47661880065304518 0 0.31193803708200341 0.5 0 0.30638254450017749 0.47661880065304518 0 0.29102027458577939 0.50000000000000044 0 0.30638254450017749 0.47661880065304518 0 0.29102027458577939 0.50000000000000044 0 0.30638254450017749 0.47661880065304518 0 0.29394158412238269 0.47048083211913599 0 0.30638254450017749 0.47661880065304518 0 0.29394158412238269 0.47048083211913599 0 0.28549795001921291 0.48117509162184469 0 0.29394158412238269 0.47048083211913599 0 0.28549795001921291 0.48117509162184469 0 0.28244283491765948 0.46669292746114571 0 0.30638254450017749 0.47661880065304518 0 0.28549795001921291 0.48117509162184469 0 0.29102027458577939 0.50000000000000044 0 0.28549795001921291 0.48117509162184469 0 0.29102027458577939 0.50000000000000044 0 0.27415854655621891 0.48873022711255037 0 0.29102027458577939 0.50000000000000044 0 0.26649842730452888 0.5 0 0.27415854655621891 0.48873022711255037 0 0.26649842730452888 0.5 0 0.27415854655621891 0.48873022711255037 0 0.2610355917240359 0.49240082166347932 0 0.27415854655621891 0.48873022711255037 0 0.26623718535596391 0.47734173198647811 0 0.2610355917240359 0.49240082166347932 0 0.28549795001921291 0.48117509162184469 0 0.27415854655621891 0.48873022711255037 0 0.2749278248234181 0.47643288217514063 0 0.28549795001921291 0.48117509162184469 0 0.2749278248234181 0.47643288217514063 0 0.28244283491765948 0.46669292746114571 0 0.2749278248234181 0.47643288217514063 0 0.27027912301482898 0.46446958503802338 0 0.28244283491765948 0.46669292746114571 0 0.2749278248234181 0.47643288217514063 0 0.26623718535596391 0.47734173198647811 0 0.27027912301482898 0.46446958503802338 0 0.27415854655621891 0.48873022711255037 0 0.2749278248234181 0.47643288217514063 0 0.26623718535596391 0.47734173198647811 0 0.26623718535596391 0.47734173198647811 0 0.2610355917240359 0.49240082166347932 0 0.25382059922965239 0.46680082316252641 0 0.24615438603033929 0.48277815576469629 0 0.2610355917240359 0.49240082166347932 0 0.25382059922965239 0.46680082316252641 0 0.26623718535596391 0.47734173198647811 0 0.25382059922965239 0.46680082316252641 0 0.27027912301482898 0.46446958503802338 0 0.2610355917240359 0.49240082166347932 0 0.25382059922965239 0.46680082316252641 0 0.24197658002327829 0.5 0 0.26649842730452888 0.5 0 0.2610355917240359 0.49240082166347932 0 0.24660560673526891 0.44120082466157329 0 0.26404494714776922 0.44719932829055481 0 0.25382059922965239 0.46680082316252641 0 0.24660560673526891 0.44120082466157329 0 0.26404494714776922 0.44719932829055481 0 0.258596460033858 0.42536714170295359 0 0.24660560673526891 0.44120082466157329 0 0.25382059922965239 0.46680082316252641 0 0.26404494714776922 0.44719932829055481 0 0.25382059922965239 0.46680082316252641 0 0.27027912301482898 0.46446958503802338 0 0.26404494714776922 0.44719932829055481 0 0.27027912301482898 0.46446958503802338 0 0.28020134661451129 0.45234981715229472 0 0.27027912301482898 0.46446958503802338 0 0.28020134661451129 0.45234981715229472 0 0.28244283491765948 0.46669292746114571 0 0.26404494714776922 0.44719932829055481 0 0.28020134661451129 0.45234981715229472 0 0.27780230582683041 0.4351334572452874 0 0.29700815161980287 0.44489977278762111 0 0.27780230582683041 0.4351334572452874 0 0.28020134661451129 0.45234981715229472 0 0.29210489554532332 0.45791421716777903 0 0.29700815161980287 0.44489977278762111 0 0.28020134661451129 0.45234981715229472 0 0.29700815161980287 0.44489977278762111 0 0.27780230582683041 0.4351334572452874 0 0.28020134661451129 0.45234981715229472 0 0.28244283491765948 0.46669292746114571 0 0.29210489554532332 0.45791421716777903 0 0.29394158412238269 0.47048083211913599 0 0.29210489554532332 0.45791421716777903 0 0.30337834956610771 0.45773580650116591 0 0.29394158412238269 0.47048083211913599 0 0.28244283491765948 0.46669292746114571 0 0.29210489554532332 0.45791421716777903 0 0.30638254450017749 0.47661880065304518 0 0.29394158412238269 0.47048083211913599 0 0.30337834956610771 0.45773580650116591 0 0.31992756461828648 0.45600343474003008 0 0.30638254450017749 0.47661880065304518 0 0.30337834956610771 0.45773580650116591 0 0.29210489554532332 0.45791421716777903 0 0.30337834956610771 0.45773580650116591 0 0.29700815161980287 0.44489977278762111 0 0.30337834956610771 0.45773580650116591 0 0.29700815161980287 0.44489977278762111 0 0.31016531305605483 0.44103696282739641 0 0.31992756461828648 0.45600343474003008 0 0.30337834956610771 0.45773580650116591 0 0.31016531305605483 0.44103696282739641 0 0.29700815161980287 0.44489977278762111 0 0.31016531305605483 0.44103696282739641 0 0.2972667899361342 0.43171641878146849 0 0.31016531305605483 0.44103696282739641 0 0.3104970187859436 0.43101024509381081 0 0.2972667899361342 0.43171641878146849 0 0.3104970187859436 0.43101024509381081 0 0.30555099314295858 0.42410934702255049 0 0.31725455603771191 0.42393538131814201 0 0.30555099314295858 0.42410934702255049 0 0.2972667899361342 0.43171641878146849 0 0.29759957208165488 0.41984582482813138 0 0.3104970187859436 0.43101024509381081 0 0.30555099314295858 0.42410934702255049 0 0.2972667899361342 0.43171641878146849 0 0.30555099314295858 0.42410934702255049 0 0.30103652733903591 0.41248269380927199 0 0.31725455603771191 0.42393538131814201 0 0.30103652733903591 0.41248269380927199 0 0.3123325725497616 0.39922703736525839 0 0.31725455603771191 0.42393538131814201 0 0.30103652733903591 0.41248269380927199 0 0.31725455603771191 0.42393538131814201 0 0.30555099314295858 0.42410934702255049 0 0.29759957208165488 0.41984582482813138 0 0.30103652733903591 0.41248269380927199 0 0.29759957208165488 0.41984582482813138 0 0.29645693772176551 0.40924872439289611 0 0.30555099314295858 0.42410934702255049 0 0.30103652733903591 0.41248269380927199 0 0.29759957208165488 0.41984582482813138 0 0.30103652733903591 0.41248269380927199 0 0.29645693772176551 0.40924872439289611 0 0.30103652733903591 0.41248269380927199 0 0.29645693772176551 0.40924872439289611 0 0.2951790458024981 0.39739720872942658 0 0.30103652733903591 0.41248269380927199 0 0.29645693772176551 0.40924872439289611 0 0.29759957208165488 0.41984582482813138 0 0.29645693772176551 0.40924872439289611 0 0.28935545025557508 0.41274290629244881 0 0.29234682810229501 0.40634628772975029 0 0.28935545025557508 0.41274290629244881 0 0.28755409834946499 0.40620921864495452 0 0.29234682810229501 0.40634628772975029 0 0.29645693772176551 0.40924872439289611 0 0.28935545025557508 0.41274290629244881 0 0.29234682810229501 0.40634628772975029 0 0.29645693772176551 0.40924872439289611 0 0.29759957208165488 0.41984582482813138 0 0.28935545025557508 0.41274290629244881 0 0.28964017057165342 0.42255666716930818 0 0.28935545025557508 0.41274290629244881 0 0.28964017057165342 0.42255666716930818 0 0.28044188996997271 0.4185561191282261 0 0.28935545025557508 0.41274290629244881 0 0.2820067566606283 0.4073507017793031 0 0.28044188996997271 0.4185561191282261 0 0.28935545025557508 0.41274290629244881 0 0.2820067566606283 0.4073507017793031 0 0.28755409834946499 0.40620921864495452 0 0.29700815161980287 0.44489977278762111 0 0.2972667899361342 0.43171641878146849 0 0.27780230582683041 0.4351334572452874 0 0.28964017057165342 0.42255666716930818 0 0.27780230582683041 0.4351334572452874 0 0.28044188996997271 0.4185561191282261 0 0.2972667899361342 0.43171641878146849 0 0.28964017057165342 0.42255666716930818 0 0.27780230582683041 0.4351334572452874 0 0.2972667899361342 0.43171641878146849 0 0.29759957208165488 0.41984582482813138 0 0.28964017057165342 0.42255666716930818 0 0.26404494714776922 0.44719932829055481 0 0.27780230582683041 0.4351334572452874 0 0.258596460033858 0.42536714170295359 0 0.27780230582683041 0.4351334572452874 0 0.28044188996997271 0.4185561191282261 0 0.27039755819294697 0.42073228185733558 0 0.27780230582683041 0.4351334572452874 0 0.258596460033858 0.42536714170295359 0 0.27780230582683041 0.4351334572452874 0 0.27039755819294697 0.42073228185733558 0 0.258596460033858 0.42536714170295359 0 0.28044188996997271 0.4185561191282261 0 0.27242422266233901 0.40958952122572501 0 0.27039755819294697 0.42073228185733558 0 0.2820067566606283 0.4073507017793031 0 0.27242422266233901 0.40958952122572501 0 0.27631154706633132 0.40377595315260678 0 0.2820067566606283 0.4073507017793031 0 0.28044188996997271 0.4185561191282261 0 0.27242422266233901 0.40958952122572501 0 0.27242422266233901 0.40958952122572501 0 0.26380716414091648 0.41362036002303171 0 0.263101885900624 0.40402789788949628 0 0.27242422266233901 0.40958952122572501 0 0.27039755819294697 0.42073228185733558 0 0.26380716414091648 0.41362036002303171 0 0.26380716414091648 0.41362036002303171 0 0.25451569391481482 0.40838495743964809 0 0.258596460033858 0.42536714170295359 0 0.27039755819294697 0.42073228185733558 0 0.26380716414091648 0.41362036002303171 0 0.258596460033858 0.42536714170295359 0 0.247070238505155 0.41089193091972381 0 0.25451569391481482 0.40838495743964809 0 0.258596460033858 0.42536714170295359 0 0.26380716414091648 0.41362036002303171 0 0.25451569391481482 0.40838495743964809 0 0.263101885900624 0.40402789788949628 0 0.2490711373868145 0.40328311896619079 0 0.247070238505155 0.41089193091972381 0 0.25451569391481482 0.40838495743964809 0 0.263214952880098 0.38413475385926182 0 0.2543907927861988 0.38365968106877452 0 0.25864715834382668 0.39069696899361078 0 0.263214952880098 0.38413475385926182 0 0.25864715834382668 0.39069696899361078 0 0.26677266282676171 0.38987707439970709 0 0.263214952880098 0.38413475385926182 0 0.26021703736392338 0.37819569717877338 0 0.2543907927861988 0.38365968106877452 0 0.263214952880098 0.38413475385926182 0 0.26021703736392338 0.37819569717877338 0 0.26768916320259278 0.37603775013983443 0 0.26021703736392338 0.37819569717877338 0 0.26768916320259278 0.37603775013983443 0 0.26144393509374908 0.3710178319065035 0 0.24721820277203579 0.37733550336364768 0 0.2543907927861988 0.38365968106877452 0 0.25400802697851438 0.37324681326254577 0 0.26021703736392338 0.37819569717877338 0 0.2543907927861988 0.38365968106877452 0 0.25400802697851438 0.37324681326254577 0 0.2458394057721659 0.38664992363107781 0 0.2543907927861988 0.38365968106877452 0 0.25155158363037378 0.39136922505643812 0 0.2543907927861988 0.38365968106877452 0 0.25155158363037378 0.39136922505643812 0 0.25864715834382668 0.39069696899361078 0 0.24559191965963331 0.39582467248170339 0 0.25155158363037378 0.39136922505643812 0 0.25459202495693589 0.39819399382433779 0 0.25155158363037378 0.39136922505643812 0 0.25459202495693589 0.39819399382433779 0 0.25864715834382668 0.39069696899361078 0 0.25451569391481482 0.40838495743964809 0 0.25459202495693589 0.39819399382433779 0 0.263101885900624 0.40402789788949628 0 0.2490711373868145 0.40328311896619079 0 0.25451569391481482 0.40838495743964809 0 0.25459202495693589 0.39819399382433779 0 0.25459202495693589 0.39819399382433779 0 0.263101885900624 0.40402789788949628 0 0.26417046664233829 0.39539612632657412 0 0.25459202495693589 0.39819399382433779 0 0.26417046664233829 0.39539612632657412 0 0.25864715834382668 0.39069696899361078 0 0.26417046664233829 0.39539612632657412 0 0.25864715834382668 0.39069696899361078 0 0.26677266282676171 0.38987707439970709 0 0.26417046664233829 0.39539612632657412 0 0.27230913660012468 0.39256172038705012 0 0.26677266282676171 0.38987707439970709 0 0.26417046664233829 0.39539612632657412 0 0.27230913660012468 0.39256172038705012 0 0.27119334435192871 0.40076722878070081 0 0.27242422266233901 0.40958952122572501 0 0.27119334435192871 0.40076722878070081 0 0.27631154706633132 0.40377595315260678 0 0.27242422266233901 0.40958952122572501 0 0.263101885900624 0.40402789788949628 0 0.27119334435192871 0.40076722878070081 0 0.263101885900624 0.40402789788949628 0 0.26417046664233829 0.39539612632657412 0 0.27119334435192871 0.40076722878070081 0 0.27119334435192871 0.40076722878070081 0 0.27631154706633132 0.40377595315260678 0 0.27962186459042931 0.39739636082469848 0 0.2820067566606283 0.4073507017793031 0 0.27631154706633132 0.40377595315260678 0 0.27962186459042931 0.39739636082469848 0 0.27230913660012468 0.39256172038705012 0 0.27119334435192871 0.40076722878070081 0 0.27962186459042931 0.39739636082469848 0 0.27230913660012468 0.39256172038705012 0 0.27962186459042931 0.39739636082469848 0 0.27890584774593108 0.38865976363506433 0 0.27890584774593108 0.38865976363506433 0 0.27242290128608221 0.38432626437848749 0 0.28014224515384772 0.3805209599525754 0 0.27230913660012468 0.39256172038705012 0 0.27890584774593108 0.38865976363506433 0 0.27242290128608221 0.38432626437848749 0 0.27230913660012468 0.39256172038705012 0 0.26677266282676171 0.38987707439970709 0 0.27242290128608221 0.38432626437848749 0 0.263214952880098 0.38413475385926182 0 0.26677266282676171 0.38987707439970709 0 0.27242290128608221 0.38432626437848749 0 0.27242290128608221 0.38432626437848749 0 0.26768916320259278 0.37603775013983443 0 0.27465863403082758 0.37687877841281842 0 0.263214952880098 0.38413475385926182 0 0.27242290128608221 0.38432626437848749 0 0.26768916320259278 0.37603775013983443 0 0.27242290128608221 0.38432626437848749 0 0.27465863403082758 0.37687877841281842 0 0.28014224515384772 0.3805209599525754 0 0.27465863403082758 0.37687877841281842 0 0.28014224515384772 0.3805209599525754 0 0.27760803503462572 0.37312420166631027 0 0.2951790458024981 0.39739720872942658 0 0.28619755205258252 0.37426607479176721 0 0.28014224515384772 0.3805209599525754 0 0.28529897900162399 0.38677291992318369 0 0.28619755205258252 0.37426607479176721 0 0.29297500304462332 0.37695631942252539 0 0.2951790458024981 0.39739720872942658 0 0.30155176641825537 0.37787123374044113 0 0.29297500304462332 0.37695631942252539 0 0.2951790458024981 0.39739720872942658 0 0.29297500304462332 0.37695631942252539 0 0.2951790458024981 0.39739720872942658 0 0.28619755205258252 0.37426607479176721 0 0.28529897900162399 0.38677291992318369 0 0.2951790458024981 0.39739720872942658 0 0.28619755205258252 0.37426607479176721 0 0.28014224515384772 0.3805209599525754 0 0.28619755205258252 0.37426607479176721 0 0.27760803503462572 0.37312420166631027 0 0.27890584774593108 0.38865976363506433 0 0.28014224515384772 0.3805209599525754 0 0.28529897900162399 0.38677291992318369 0 0.27890584774593108 0.38865976363506433 0 0.28529897900162399 0.38677291992318369 0 0.28528121163785952 0.39401687025827481 0 0.2820067566606283 0.4073507017793031 0 0.27962186459042931 0.39739636082469848 0 0.28740032104881569 0.39985809817900059 0 0.2820067566606283 0.4073507017793031 0 0.28755409834946499 0.40620921864495452 0 0.28740032104881569 0.39985809817900059 0 0.27962186459042931 0.39739636082469848 0 0.27890584774593108 0.38865976363506433 0 0.28528121163785952 0.39401687025827481 0 0.28529897900162399 0.38677291992318369 0 0.28528121163785952 0.39401687025827481 0 0.2951790458024981 0.39739720872942658 0 0.27962186459042931 0.39739636082469848 0 0.28740032104881569 0.39985809817900059 0 0.28528121163785952 0.39401687025827481 0 0.28740032104881569 0.39985809817900059 0 0.28528121163785952 0.39401687025827481 0 0.2951790458024981 0.39739720872942658 0 0.29645693772176551 0.40924872439289611 0 0.2951790458024981 0.39739720872942658 0 0.29234682810229501 0.40634628772975029 0 0.29645693772176551 0.40924872439289611 0 0.2951790458024981 0.39739720872942658 0 0.29234682810229501 0.40634628772975029 0 0.28740032104881569 0.39985809817900059 0 0.2951790458024981 0.39739720872942658 0 0.29234682810229501 0.40634628772975029 0 0.28755409834946499 0.40620921864495452 0 0.28740032104881569 0.39985809817900059 0 0.2951790458024981 0.39739720872942658 0 0.3123325725497616 0.39922703736525839 0 0.30155176641825537 0.37787123374044113 0 0.30103652733903591 0.41248269380927199 0 0.2951790458024981 0.39739720872942658 0 0.3123325725497616 0.39922703736525839 0 0.30103652733903591 0.41248269380927199 0 0.2951790458024981 0.39739720872942658 0 0.3123325725497616 0.39922703736525839 0 0.30155176641825537 0.37787123374044113 0 0.31985727556018068 0.38234154841986628 0 0.3123325725497616 0.39922703736525839 0 0.30155176641825537 0.37787123374044113 0 0.30155176641825537 0.37787123374044113 0 0.31985727556018068 0.38234154841986628 0 0.31195292303499927 0.37068776317154378 0 0.31985727556018068 0.38234154841986628 0 0.34238682224966199 0.38805526002523982 0 0.33487212728351351 0.37444957434749682 0 0.31985727556018068 0.38234154841986628 0 0.34238682224966199 0.38805526002523982 0 0.32994354700739581 0.39850562627172598 0 0.34238682224966199 0.38805526002523982 0 0.341853382107981 0.40230187724921318 0 0.32994354700739581 0.39850562627172598 0 0.32994354700739581 0.39850562627172598 0 0.32453213966135558 0.40833136266112441 0 0.33337532654510971 0.40990156497197577 0 0.341853382107981 0.40230187724921318 0 0.32994354700739581 0.39850562627172598 0 0.33337532654510971 0.40990156497197577 0 0.3123325725497616 0.39922703736525839 0 0.31985727556018068 0.38234154841986628 0 0.32994354700739581 0.39850562627172598 0 0.3123325725497616 0.39922703736525839 0 0.32994354700739581 0.39850562627172598 0 0.32453213966135558 0.40833136266112441 0 0.3123325725497616 0.39922703736525839 0 0.32311337868126772 0.42058284099007581 0 0.3123325725497616 0.39922703736525839 0 0.32311337868126772 0.42058284099007581 0 0.31725455603771191 0.42393538131814201 0 0.3123325725497616 0.39922703736525839 0 0.32311337868126772 0.42058284099007581 0 0.32453213966135558 0.40833136266112441 0 0.32311337868126772 0.42058284099007581 0 0.32746559688881111 0.41467577756075008 0 0.32453213966135558 0.40833136266112441 0 0.32311337868126772 0.42058284099007581 0 0.32746559688881111 0.41467577756075008 0 0.32884154266751109 0.41988734161982427 0 0.32025150268859759 0.43582149868884429 0 0.31725455603771191 0.42393538131814201 0 0.33347258473638891 0.43538806882701059 0 0.32311337868126772 0.42058284099007581 0 0.31725455603771191 0.42393538131814201 0 0.33347258473638891 0.43538806882701059 0 0.31725455603771191 0.42393538131814201 0 0.33347258473638891 0.43538806882701059 0 0.3104970187859436 0.43101024509381081 0 0.32025150268859759 0.43582149868884429 0 0.31725455603771191 0.42393538131814201 0 0.31016531305605483 0.44103696282739641 0 0.3104970187859436 0.43101024509381081 0 0.32025150268859759 0.43582149868884429 0 0.33619600569767688 0.43124305322995571 0 0.34658574014513732 0.41542999606902631 0 0.33619600569767688 0.43124305322995571 0 0.32884154266751109 0.41988734161982427 0 0.34658574014513732 0.41542999606902631 0 0.33347258473638891 0.43538806882701059 0 0.33619600569767688 0.43124305322995571 0 0.32311337868126772 0.42058284099007581 0 0.33347258473638891 0.43538806882701059 0 0.32884154266751109 0.41988734161982427 0 0.33347258473638891 0.43538806882701059 0 0.33619600569767688 0.43124305322995571 0 0.32884154266751109 0.41988734161982427 0 0.33619600569767688 0.43124305322995571 0 0.32884154266751109 0.41988734161982427 0 0.34343828735863913 0.44242555038901121 0 0.33347258473638891 0.43538806882701059 0 0.33619600569767688 0.43124305322995571 0 0.34343828735863913 0.44242555038901121 0 0.33619600569767688 0.43124305322995571 0 0.33337532654510971 0.40990156497197577 0 0.32884154266751109 0.41988734161982427 0 0.34658574014513732 0.41542999606902631 0 0.32746559688881111 0.41467577756075008 0 0.32453213966135558 0.40833136266112441 0 0.33337532654510971 0.40990156497197577 0 0.32746559688881111 0.41467577756075008 0 0.33337532654510971 0.40990156497197577 0 0.32884154266751109 0.41988734161982427 0 0.341853382107981 0.40230187724921318 0 0.33337532654510971 0.40990156497197577 0 0.34658574014513732 0.41542999606902631 0 0.34658574014513732 0.41542999606902631 0 0.36178337054939252 0.41529699101315781 0 0.35697547459260009 0.39961693890809818 0 0.34658574014513732 0.41542999606902631 0 0.35697547459260009 0.39961693890809818 0 0.34658574014513732 0.41542999606902631 0 0.35383332355163849 0.42943954398785339 0 0.36178337054939252 0.41529699101315781 0 0.33619600569767688 0.43124305322995571 0 0.34658574014513732 0.41542999606902631 0 0.35383332355163849 0.42943954398785339 0 0.34343828735863913 0.44242555038901121 0 0.33619600569767688 0.43124305322995571 0 0.35383332355163849 0.42943954398785339 0 0.35773623194294302 0.43862668461665572 0 0.34343828735863913 0.44242555038901121 0 0.35383332355163849 0.42943954398785339 0 0.35773623194294302 0.43862668461665572 0 0.35383332355163849 0.42943954398785339 0 0.37679823720245231 0.43072743227356131 0 0.35383332355163849 0.42943954398785339 0 0.36178337054939252 0.41529699101315781 0 0.37679823720245231 0.43072743227356131 0 0.36178337054939252 0.41529699101315781 0 0.37469307111402661 0.4037041701685542 0 0.37679823720245231 0.43072743227356131 0 0.37469307111402661 0.4037041701685542 0 0.35697547459260009 0.39961693890809818 0 0.38091650492936541 0.38455569761320157 0 0.36178337054939252 0.41529699101315781 0 0.37469307111402661 0.4037041701685542 0 0.35697547459260009 0.39961693890809818 0 0.35564365627336442 0.37849675143461131 0 0.35697547459260009 0.39961693890809818 0 0.38091650492936541 0.38455569761320157 0 0.34238682224966199 0.38805526002523982 0 0.35564365627336442 0.37849675143461131 0 0.33487212728351351 0.37444957434749682 0 0.34238682224966199 0.38805526002523982 0 0.35564365627336442 0.37849675143461131 0 0.35697547459260009 0.39961693890809818 0 0.34238682224966199 0.38805526002523982 0 0.341853382107981 0.40230187724921318 0 0.35697547459260009 0.39961693890809818 0 0.341853382107981 0.40230187724921318 0 0.34658574014513732 0.41542999606902631 0 0.35697547459260009 0.39961693890809818 0 0.36511161511286833 0.35957074249547788 0 0.3493067252963713 0.33458578737775441 0 0.36511161511286833 0.35957074249547788 0 0.35442491499760859 0.3398351418551836 0 0.3493067252963713 0.33458578737775441 0 0.36511161511286833 0.35957074249547788 0 0.3493067252963713 0.33458578737775441 0 0.34277229157726657 0.35822019846197761 0 0.35564365627336442 0.37849675143461131 0 0.36511161511286833 0.35957074249547788 0 0.34277229157726657 0.35822019846197761 0 0.35564365627336442 0.37849675143461131 0 0.34277229157726657 0.35822019846197761 0 0.33487212728351351 0.37444957434749682 0 0.36511161511286833 0.35957074249547788 0 0.38091650492936541 0.38455569761320157 0 0.35564365627336442 0.37849675143461131 0 0.36511161511286833 0.35957074249547788 0 0.38091650492936541 0.38455569761320157 0 0.36511161511286833 0.35957074249547788 0 0.3680217707526674 0.34681917669097778 0 0.37898580562215478 0.34834699925771168 0 0.36511161511286833 0.35957074249547788 0 0.3680217707526674 0.34681917669097778 0 0.35442491499760859 0.3398351418551836 0 0.3680217707526674 0.34681917669097778 0 0.37034381261662302 0.34287964466133353 0 0.37898580562215478 0.34834699925771168 0 0.37034381261662302 0.34287964466133353 0 0.35442491499760859 0.3398351418551836 0 0.37994275909406089 0.33651726084146089 0 0.37329813251097949 0.33351056758012182 0 0.36904392552396542 0.33145176725645298 0 0.35442491499760859 0.3398351418551836 0 0.37329813251097949 0.33351056758012182 0 0.35442491499760859 0.3398351418551836 0 0.38189082604309438 0.33517715749148402 0 0.35442491499760859 0.3398351418551836 0 0.38189082604309438 0.33517715749148402 0 0.37994275909406089 0.33651726084146089 0 0.3680217707526674 0.34681917669097778 0 0.37034381261662302 0.34287964466133353 0 0.35442491499760859 0.3398351418551836 0 0.35442491499760859 0.3398351418551836 0 0.38189082604309438 0.33517715749148402 0 0.37329813251097949 0.33351056758012182 0 0.36904392552396542 0.33145176725645298 0 0.37507363504334079 0.33104044787222492 0 0.36904392552396542 0.33145176725645298 0 0.37482520563358068 0.32791521167312832 0 0.37507363504334079 0.33104044787222492 0 0.36904392552396542 0.33145176725645298 0 0.37482520563358068 0.32791521167312832 0 0.36933449693776232 0.32556239071376952 0 0.36904392552396542 0.33145176725645298 0 0.36324586562687711 0.32987968359516873 0 0.36933449693776232 0.32556239071376952 0 0.36904392552396542 0.33145176725645298 0 0.36324586562687711 0.32987968359516873 0 0.35442491499760859 0.3398351418551836 0 0.37468942596683208 0.31374646967734732 0 0.36979450958219612 0.32030001403820552 0 0.36634378513966159 0.31306317000299172 0 0.37468942596683208 0.31374646967734732 0 0.36979450958219612 0.32030001403820552 0 0.37468646450948012 0.32254658311145301 0 0.36979450958219612 0.32030001403820552 0 0.37468646450948012 0.32254658311145301 0 0.36933449693776232 0.32556239071376952 0 0.37468646450948012 0.32254658311145301 0 0.37482520563358068 0.32791521167312832 0 0.36933449693776232 0.32556239071376952 0 0.36324586562687711 0.32987968359516873 0 0.36933449693776232 0.32556239071376952 0 0.36229109231298567 0.32260202413767708 0 0.36324586562687711 0.32987968359516873 0 0.36229109231298567 0.32260202413767708 0 0.35629576204157021 0.32951032418156051 0 0.36979450958219612 0.32030001403820552 0 0.36933449693776232 0.32556239071376952 0 0.36229109231298567 0.32260202413767708 0 0.36979450958219612 0.32030001403820552 0 0.36440801048991339 0.31783081495497978 0 0.36634378513966159 0.31306317000299172 0 0.36979450958219612 0.32030001403820552 0 0.36229109231298567 0.32260202413767708 0 0.36440801048991339 0.31783081495497978 0 0.36229109231298567 0.32260202413767708 0 0.36440801048991339 0.31783081495497978 0 0.35920265492481013 0.31535805164104469 0 0.36440801048991339 0.31783081495497978 0 0.36634378513966159 0.31306317000299172 0 0.35920265492481013 0.31535805164104469 0 0.35204808323363129 0.32080672683017669 0 0.33350183547987428 0.30960083226003082 0 0.35022789059686787 0.31093813229071571 0 0.35204808323363129 0.32080672683017669 0 0.3493067252963713 0.33458578737775441 0 0.33350183547987428 0.30960083226003082 0 0.36229109231298567 0.32260202413767708 0 0.35920265492481013 0.31535805164104469 0 0.35204808323363129 0.32080672683017669 0 0.35920265492481013 0.31535805164104469 0 0.35204808323363129 0.32080672683017669 0 0.35022789059686787 0.31093813229071571 0 0.36229109231298567 0.32260202413767708 0 0.35204808323363129 0.32080672683017669 0 0.35629576204157021 0.32951032418156051 0 0.35204808323363129 0.32080672683017669 0 0.35629576204157021 0.32951032418156051 0 0.3493067252963713 0.33458578737775441 0 0.36324586562687711 0.32987968359516873 0 0.35442491499760859 0.3398351418551836 0 0.35629576204157021 0.32951032418156051 0 0.35442491499760859 0.3398351418551836 0 0.35629576204157021 0.32951032418156051 0 0.3493067252963713 0.33458578737775441 0 0.3493067252963713 0.33458578737775441 0 0.32370483847687209 0.32710555742130942 0 0.32306916681894648 0.3455021313864674 0 0.32370483847687209 0.32710555742130942 0 0.3020494542551424 0.31258645712945388 0 0.33350183547987428 0.30960083226003082 0 0.3493067252963713 0.33458578737775441 0 0.32370483847687209 0.32710555742130942 0 0.33350183547987428 0.30960083226003082 0 0.3493067252963713 0.33458578737775441 0 0.33350183547987428 0.30960083226003082 0 0.32370483847687209 0.32710555742130942 0 0.32306916681894648 0.3455021313864674 0 0.30769416134954231 0.3337123504654671 0 0.32306916681894648 0.3455021313864674 0 0.32460448771260447 0.36265306961498878 0 0.3094689791930747 0.35878686560058548 0 0.3493067252963713 0.33458578737775441 0 0.32306916681894648 0.3455021313864674 0 0.34277229157726657 0.35822019846197761 0 0.32306916681894648 0.3455021313864674 0 0.34277229157726657 0.35822019846197761 0 0.32460448771260447 0.36265306961498878 0 0.34277229157726657 0.35822019846197761 0 0.33487212728351351 0.37444957434749682 0 0.32460448771260447 0.36265306961498878 0 0.31985727556018068 0.38234154841986628 0 0.33487212728351351 0.37444957434749682 0 0.32460448771260447 0.36265306961498878 0 0.31985727556018068 0.38234154841986628 0 0.32460448771260447 0.36265306961498878 0 0.31195292303499927 0.37068776317154378 0 0.32460448771260447 0.36265306961498878 0 0.31195292303499927 0.37068776317154378 0 0.3094689791930747 0.35878686560058548 0 0.30155176641825537 0.37787123374044113 0 0.3034361572332695 0.36596532315704872 0 0.29077096028674859 0.35651543011562398 0 0.3034361572332695 0.36596532315704872 0 0.3094689791930747 0.35878686560058548 0 0.29077096028674859 0.35651543011562398 0 0.30155176641825537 0.37787123374044113 0 0.31195292303499927 0.37068776317154378 0 0.3034361572332695 0.36596532315704872 0 0.31195292303499927 0.37068776317154378 0 0.3034361572332695 0.36596532315704872 0 0.3094689791930747 0.35878686560058548 0 0.3094689791930747 0.35878686560058548 0 0.302505842644062 0.34722625734584739 0 0.29077096028674859 0.35651543011562398 0 0.32306916681894648 0.3455021313864674 0 0.3094689791930747 0.35878686560058548 0 0.302505842644062 0.34722625734584739 0 0.29077096028674859 0.35651543011562398 0 0.28249938812516417 0.34013019244447379 0 0.302505842644062 0.34722625734584739 0 0.29077096028674859 0.35651543011562398 0 0.28906049880761348 0.34065214723067461 0 0.29077096028674859 0.35651543011562398 0 0.28906049880761348 0.34065214723067461 0 0.29077096028674859 0.35651543011562398 0 0.27721605830266732 0.35113494085410751 0 0.28249938812516417 0.34013019244447379 0 0.29077096028674859 0.35651543011562398 0 0.28249938812516417 0.34013019244447379 0 0.28906049880761348 0.34065214723067461 0 0.29077096028674859 0.35651543011562398 0 0.28619755205258252 0.37426607479176721 0 0.27721605830266732 0.35113494085410751 0 0.30155176641825537 0.37787123374044113 0 0.29077096028674859 0.35651543011562398 0 0.29297500304462332 0.37695631942252539 0 0.30155176641825537 0.37787123374044113 0 0.29077096028674859 0.35651543011562398 0 0.28619755205258252 0.37426607479176721 0 0.27721605830266732 0.35113494085410751 0 0.29297500304462332 0.37695631942252539 0 0.29077096028674859 0.35651543011562398 0 0.28619755205258252 0.37426607479176721 0 0.29297500304462332 0.37695631942252539 0 0.29077096028674859 0.35651543011562398 0 0.27760803503462572 0.37312420166631027 0 0.27291012278683491 0.37073899870337829 0 0.27413162114903611 0.36321619647101211 0 0.28619755205258252 0.37426607479176721 0 0.27413162114903611 0.36321619647101211 0 0.27721605830266732 0.35113494085410751 0 0.28619755205258252 0.37426607479176721 0 0.27760803503462572 0.37312420166631027 0 0.27413162114903611 0.36321619647101211 0 0.27465863403082758 0.37687877841281842 0 0.27760803503462572 0.37312420166631027 0 0.27291012278683491 0.37073899870337829 0 0.26768916320259278 0.37603775013983443 0 0.26807222776617923 0.36622734199073431 0 0.26144393509374908 0.3710178319065035 0 0.26768916320259278 0.37603775013983443 0 0.27291012278683491 0.37073899870337829 0 0.26807222776617923 0.36622734199073431 0 0.26768916320259278 0.37603775013983443 0 0.27465863403082758 0.37687877841281842 0 0.27291012278683491 0.37073899870337829 0 0.26807222776617923 0.36622734199073431 0 0.27413162114903611 0.36321619647101211 0 0.26534912608726069 0.35751078835088318 0 0.27291012278683491 0.37073899870337829 0 0.26807222776617923 0.36622734199073431 0 0.27413162114903611 0.36321619647101211 0 0.27721605830266732 0.35113494085410751 0 0.26888334688578031 0.35122307318506141 0 0.26604789499451797 0.34216212070529622 0 0.27413162114903611 0.36321619647101211 0 0.26888334688578031 0.35122307318506141 0 0.26534912608726069 0.35751078835088318 0 0.27413162114903611 0.36321619647101211 0 0.27721605830266732 0.35113494085410751 0 0.26888334688578031 0.35122307318506141 0 0.26534912608726069 0.35751078835088318 0 0.26068821109604562 0.34939682724443732 0 0.25579799251658891 0.36196979364631959 0 0.26888334688578031 0.35122307318506141 0 0.26534912608726069 0.35751078835088318 0 0.26068821109604562 0.34939682724443732 0 0.26888334688578031 0.35122307318506141 0 0.26068821109604562 0.34939682724443732 0 0.26604789499451797 0.34216212070529622 0 0.26068821109604562 0.34939682724443732 0 0.25103816627446301 0.34731886263972311 0 0.25701273981766237 0.33619632493934032 0 0.26068821109604562 0.34939682724443732 0 0.25103816627446301 0.34731886263972311 0 0.25579799251658891 0.36196979364631959 0 0.24523347810792709 0.35610720783631972 0 0.25103816627446301 0.34731886263972311 0 0.25579799251658891 0.36196979364631959 0 0.244980201338591 0.36730237241125618 0 0.25579799251658891 0.36196979364631959 0 0.25400802697851438 0.37324681326254577 0 0.25579799251658891 0.36196979364631959 0 0.25400802697851438 0.37324681326254577 0 0.26144393509374908 0.3710178319065035 0 0.26021703736392338 0.37819569717877338 0 0.25400802697851438 0.37324681326254577 0 0.26144393509374908 0.3710178319065035 0 0.26807222776617923 0.36622734199073431 0 0.26534912608726069 0.35751078835088318 0 0.25579799251658891 0.36196979364631959 0 0.26807222776617923 0.36622734199073431 0 0.25579799251658891 0.36196979364631959 0 0.26144393509374908 0.3710178319065035 0 0.24648522543192869 0.30474403682909801 0 0.2460033787186312 0.32690602786200629 0 0.25795223702547659 0.32077978941612062 0 0.25795223702547659 0.32077978941612062 0 0.27124744726192418 0.31718152658864063 0 0.26331582443984902 0.30938456988020019 0 0.2460033787186312 0.32690602786200629 0 0.25795223702547659 0.32077978941612062 0 0.25701273981766237 0.33619632493934032 0 0.2483727893259863 0.33788647683227852 0 0.2460033787186312 0.32690602786200629 0 0.25701273981766237 0.33619632493934032 0 0.2483727893259863 0.33788647683227852 0 0.25103816627446301 0.34731886263972311 0 0.25701273981766237 0.33619632493934032 0 0.26068821109604562 0.34939682724443732 0 0.25701273981766237 0.33619632493934032 0 0.26604789499451797 0.34216212070529622 0 0.25701273981766237 0.33619632493934032 0 0.26604789499451797 0.34216212070529622 0 0.26823456455275207 0.32800380691644782 0 0.25795223702547659 0.32077978941612062 0 0.25701273981766237 0.33619632493934032 0 0.26823456455275207 0.32800380691644782 0 0.27422781596357909 0.32374495477332399 0 0.26823456455275207 0.32800380691644782 0 0.28249938812516417 0.34013019244447379 0 0.27422781596357909 0.32374495477332399 0 0.28249938812516417 0.34013019244447379 0 0.27721605830266732 0.35113494085410751 0 0.26823456455275207 0.32800380691644782 0 0.28249938812516417 0.34013019244447379 0 0.27721605830266732 0.35113494085410751 0 0.26604789499451797 0.34216212070529622 0 0.26823456455275207 0.32800380691644782 0 0.27721605830266732 0.35113494085410751 0 0.26823456455275207 0.32800380691644782 0 0.27422781596357909 0.32374495477332399 0 0.28196986953600528 0.31611444412815898 0 0.28735003732847919 0.32478886434572513 0 0.27422781596357909 0.32374495477332399 0 0.26823456455275207 0.32800380691644782 0 0.27124744726192418 0.31718152658864063 0 0.25795223702547659 0.32077978941612062 0 0.26823456455275207 0.32800380691644782 0 0.27124744726192418 0.31718152658864063 0 0.27422781596357909 0.32374495477332399 0 0.27124744726192418 0.31718152658864063 0 0.28196986953600528 0.31611444412815898 0 0.27124744726192418 0.31718152658864063 0 0.28196986953600528 0.31611444412815898 0 0.28229995194356999 0.30527291911580112 0 0.28196986953600528 0.31611444412815898 0 0.28735003732847919 0.32478886434572513 0 0.3020494542551424 0.31258645712945388 0 0.28735003732847919 0.32478886434572513 0 0.29616503060309862 0.33114513074738222 0 0.3020494542551424 0.31258645712945388 0 0.28735003732847919 0.32478886434572513 0 0.28906049880761348 0.34065214723067461 0 0.28735003732847919 0.32478886434572513 0 0.28906049880761348 0.34065214723067461 0 0.29616503060309862 0.33114513074738222 0 0.27422781596357909 0.32374495477332399 0 0.28735003732847919 0.32478886434572513 0 0.28249938812516417 0.34013019244447379 0 0.28735003732847919 0.32478886434572513 0 0.28249938812516417 0.34013019244447379 0 0.28906049880761348 0.34065214723067461 0 0.28906049880761348 0.34065214723067461 0 0.29616503060309862 0.33114513074738222 0 0.29885638335107911 0.3381839714473428 0 0.302505842644062 0.34722625734584739 0 0.28906049880761348 0.34065214723067461 0 0.29885638335107911 0.3381839714473428 0 0.32306916681894648 0.3455021313864674 0 0.302505842644062 0.34722625734584739 0 0.30769416134954231 0.3337123504654671 0 0.302505842644062 0.34722625734584739 0 0.29885638335107911 0.3381839714473428 0 0.30769416134954231 0.3337123504654671 0 0.29616503060309862 0.33114513074738222 0 0.29885638335107911 0.3381839714473428 0 0.30769416134954231 0.3337123504654671 0 0.32370483847687209 0.32710555742130942 0 0.30769416134954231 0.3337123504654671 0 0.3020494542551424 0.31258645712945388 0 0.29616503060309862 0.33114513074738222 0 0.30769416134954231 0.3337123504654671 0 0.3020494542551424 0.31258645712945388 0 0.3020494542551424 0.31258645712945388 0 0.28846525762645919 0.28237169315323901 0 0.31769694566337708 0.28461587714230702 0 0.3020494542551424 0.31258645712945388 0 0.28846525762645919 0.28237169315323901 0 0.28229995194356999 0.30527291911580112 0 0.28196986953600528 0.31611444412815898 0 0.3020494542551424 0.31258645712945388 0 0.28229995194356999 0.30527291911580112 0 0.28229995194356999 0.30527291911580112 0 0.2654153007552939 0.29426001600796831 0 0.26331582443984902 0.30938456988020019 0 0.27124744726192418 0.31718152658864063 0 0.28229995194356999 0.30527291911580112 0 0.26331582443984902 0.30938456988020019 0 0.28846525762645919 0.28237169315323901 0 0.28229995194356999 0.30527291911580112 0 0.2654153007552939 0.29426001600796831 0 0.24648522543192869 0.30474403682909801 0 0.2654153007552939 0.29426001600796831 0 0.25410680245693168 0.27971439088681033 0 0.24648522543192869 0.30474403682909801 0 0.25795223702547659 0.32077978941612062 0 0.26331582443984902 0.30938456988020019 0 0.24648522543192869 0.30474403682909801 0 0.2654153007552939 0.29426001600796831 0 0.26331582443984902 0.30938456988020019 0 0.2420421461839064 0.2669531671384977 0 0.25444540126316278 0.25175855520636897 0 0.26703762590815522 0.26606034793502459 0 0.25444540126316278 0.25175855520636897 0 0.26703762590815522 0.26606034793502459 0 0.26865995106101642 0.23786067986208109 0 0.2420421461839064 0.2669531671384977 0 0.25410680245693168 0.27971439088681033 0 0.26703762590815522 0.26606034793502459 0 0.2654153007552939 0.29426001600796831 0 0.25410680245693168 0.27971439088681033 0 0.26703762590815522 0.26606034793502459 0 0.2654153007552939 0.29426001600796831 0 0.26703762590815522 0.26606034793502459 0 0.28846525762645919 0.28237169315323901 0 0.26703762590815522 0.26606034793502459 0 0.28286546901279602 0.2541753127175353 0 0.28846525762645919 0.28237169315323901 0 0.2654153007552939 0.29426001600796831 0 0.26703762590815522 0.26606034793502459 0 0.26703762590815522 0.26606034793502459 0 0.26865995106101642 0.23786067986208109 0 0.26703762590815522 0.26606034793502459 0 0.28286546901279602 0.2541753127175353 0 0.26865995106101642 0.23786067986208109 0 0.28846525762645919 0.28237169315323901 0 0.28286546901279602 0.2541753127175353 0 0.30189205584688011 0.25963092202458321 0 0.28846525762645919 0.28237169315323901 0 0.30189205584688011 0.25963092202458321 0 0.31769694566337708 0.28461587714230702 0 0.30189205584688011 0.25963092202458321 0 0.31157072399365621 0.26050280826396088 0 0.31831303569394492 0.28265434953863211 0 0.30189205584688011 0.25963092202458321 0 0.31769694566337708 0.28461587714230702 0 0.30189205584688011 0.25963092202458321 0 0.31157072399365621 0.26050280826396088 0 0.30482841229336738 0.2383512669892898 0 0.32295172191333288 0.25486780088420963 0 0.34057765869050649 0.25802325432773521 0 0.31933187964179099 0.2371114900211779 0 0.31157072399365621 0.26050280826396088 0 0.32295172191333288 0.25486780088420963 0 0.31480198050771557 0.2478617752562236 0 0.31157072399365621 0.26050280826396088 0 0.32295172191333288 0.25486780088420963 0 0.32595548262716328 0.26789374919392062 0 0.32295172191333288 0.25486780088420963 0 0.34057765869050649 0.25802325432773521 0 0.32595548262716328 0.26789374919392062 0 0.34057765869050649 0.25802325432773521 0 0.33492104401723161 0.27313764046425082 0 0.34566589167634321 0.27632983368734299 0 0.33492104401723161 0.27313764046425082 0 0.33128594766888192 0.28536499557764777 0 0.34566589167634321 0.27632983368734299 0 0.34057765869050649 0.25802325432773521 0 0.33492104401723161 0.27313764046425082 0 0.32595548262716328 0.26789374919392062 0 0.33492104401723161 0.27313764046425082 0 0.32779221225039251 0.27730296517088981 0 0.32595548262716328 0.26789374919392062 0 0.33492104401723161 0.27313764046425082 0 0.32779221225039251 0.27730296517088981 0 0.33128594766888192 0.28536499557764777 0 0.32779221225039251 0.27730296517088981 0 0.32595548262716328 0.26789374919392062 0 0.31831303569394492 0.28265434953863211 0 0.31157072399365621 0.26050280826396088 0 0.32595548262716328 0.26789374919392062 0 0.31831303569394492 0.28265434953863211 0 0.31157072399365621 0.26050280826396088 0 0.31831303569394492 0.28265434953863211 0 0.30189205584688011 0.25963092202458321 0 0.31769694566337708 0.28461587714230702 0 0.31831303569394492 0.28265434953863211 0 0.31769694566337708 0.28461587714230702 0 0.33350183547987428 0.30960083226003082 0 0.33128594766888192 0.28536499557764777 0 0.3020494542551424 0.31258645712945388 0 0.31769694566337708 0.28461587714230702 0 0.33350183547987428 0.30960083226003082 0 0.32779221225039251 0.27730296517088981 0 0.31831303569394492 0.28265434953863211 0 0.33128594766888192 0.28536499557764777 0 0.31769694566337708 0.28461587714230702 0 0.31831303569394492 0.28265434953863211 0 0.33128594766888192 0.28536499557764777 0 0.31769694566337708 0.28461587714230702 0 0.33350183547987428 0.30960083226003082 0 0.33350183547987428 0.30960083226003082 0 0.3442421229588426 0.29398375969296298 0 0.34832196775926982 0.3030323811035428 0 0.33350183547987428 0.30960083226003082 0 0.33128594766888192 0.28536499557764777 0 0.3442421229588426 0.29398375969296298 0 0.33128594766888192 0.28536499557764777 0 0.3442421229588426 0.29398375969296298 0 0.35902803127152572 0.28602713352368092 0 0.33128594766888192 0.28536499557764777 0 0.35902803127152572 0.28602713352368092 0 0.34566589167634321 0.27632983368734299 0 0.33128594766888192 0.28536499557764777 0 0.35902803127152572 0.28602713352368092 0 0.3442421229588426 0.29398375969296298 0 0.35586802905462839 0.29646142972835582 0 0.35902803127152572 0.28602713352368092 0 0.35586802905462839 0.29646142972835582 0 0.35902803127152572 0.28602713352368092 0 0.36292585745445388 0.29403748406014463 0 0.33350183547987428 0.30960083226003082 0 0.35022789059686787 0.31093813229071571 0 0.34832196775926982 0.3030323811035428 0 0.3442421229588426 0.29398375969296298 0 0.35586802905462839 0.29646142972835582 0 0.34832196775926982 0.3030323811035428 0 0.35586802905462839 0.29646142972835582 0 0.34832196775926982 0.3030323811035428 0 0.35884544402305452 0.30673069148380983 0 0.35920265492481013 0.31535805164104469 0 0.35022789059686787 0.31093813229071571 0 0.35884544402305452 0.30673069148380983 0 0.35022789059686787 0.31093813229071571 0 0.34832196775926982 0.3030323811035428 0 0.35884544402305452 0.30673069148380983 0 0.36634378513966159 0.31306317000299172 0 0.35884544402305452 0.30673069148380983 0 0.37094633449803038 0.30494160921983471 0 0.36634378513966159 0.31306317000299172 0 0.35920265492481013 0.31535805164104469 0 0.35884544402305452 0.30673069148380983 0 0.35586802905462839 0.29646142972835582 0 0.35884544402305452 0.30673069148380983 0 0.36397532926866732 0.29896922236204171 0 0.35884544402305452 0.30673069148380983 0 0.36397532926866732 0.29896922236204171 0 0.37094633449803038 0.30494160921983471 0 0.36397532926866732 0.29896922236204171 0 0.37094633449803038 0.30494160921983471 0 0.37283204022299432 0.29469215062649978 0 0.37468942596683208 0.31374646967734732 0 0.36634378513966159 0.31306317000299172 0 0.37094633449803038 0.30494160921983471 0 0.35902803127152572 0.28602713352368092 0 0.38677011487416962 0.28668927146971412 0 0.35902803127152572 0.28602713352368092 0 0.37423063499829889 0.27561899900605408 0 0.38677011487416962 0.28668927146971412 0 0.35902803127152572 0.28602713352368092 0 0.37283204022299432 0.29469215062649978 0 0.38677011487416962 0.28668927146971412 0 0.36397532926866732 0.29896922236204171 0 0.36292585745445388 0.29403748406014463 0 0.37283204022299432 0.29469215062649978 0 0.35586802905462839 0.29646142972835582 0 0.36397532926866732 0.29896922236204171 0 0.36292585745445388 0.29403748406014463 0 0.35902803127152572 0.28602713352368092 0 0.36292585745445388 0.29403748406014463 0 0.37283204022299432 0.29469215062649978 0 0.36182343773922221 0.27893501863429282 0 0.36888267446906531 0.26871100467362891 0 0.36096040083936881 0.25856339386989252 0 0.37423063499829889 0.27561899900605408 0 0.36182343773922221 0.27893501863429282 0 0.36888267446906531 0.26871100467362891 0 0.35902803127152572 0.28602713352368092 0 0.37423063499829889 0.27561899900605408 0 0.36182343773922221 0.27893501863429282 0 0.37423063499829889 0.27561899900605408 0 0.36888267446906531 0.26871100467362891 0 0.37851622429937148 0.26172660718427598 0 0.36888267446906531 0.26871100467362891 0 0.36096040083936881 0.25856339386989252 0 0.37851622429937148 0.26172660718427598 0 0.36096040083936881 0.25856339386989252 0 0.37851622429937148 0.26172660718427598 0 0.37692826582088329 0.2449998410245251 0 0.34057765869050649 0.25802325432773521 0 0.36096040083936881 0.25856339386989252 0 0.3486195408250311 0.23778695413278009 0 0.34057765869050649 0.25802325432773521 0 0.36182343773922221 0.27893501863429282 0 0.36096040083936881 0.25856339386989252 0 0.34057765869050649 0.25802325432773521 0 0.36182343773922221 0.27893501863429282 0 0.35902803127152572 0.28602713352368092 0 0.36182343773922221 0.27893501863429282 0 0.34566589167634321 0.27632983368734299 0 0.34057765869050649 0.25802325432773521 0 0.36182343773922221 0.27893501863429282 0 0.34566589167634321 0.27632983368734299 0 0.39289395225977658 0.2713417388681677 0 0.41451219847681359 0.28735140941574733 0 0.40930003003062038 0.26433724347865423 0 0.39403451087938568 0.25232690265456059 0 0.40930003003062038 0.26433724347865423 0 0.41211135859945858 0.23859957228918491 0 0.39289395225977658 0.2713417388681677 0 0.39403451087938568 0.25232690265456059 0 0.40930003003062038 0.26433724347865423 0 0.39403451087938568 0.25232690265456059 0 0.37851622429937148 0.26172660718427598 0 0.37692826582088329 0.2449998410245251 0 0.39289395225977658 0.2713417388681677 0 0.39403451087938568 0.25232690265456059 0 0.37851622429937148 0.26172660718427598 0 0.37423063499829889 0.27561899900605408 0 0.39289395225977658 0.2713417388681677 0 0.37851622429937148 0.26172660718427598 0 0.37423063499829889 0.27561899900605408 0 0.39289395225977658 0.2713417388681677 0 0.38677011487416962 0.28668927146971412 0 0.38677011487416962 0.28668927146971412 0 0.38160744320187379 0.30343426112010757 0 0.39525518076027533 0.29957073849760069 0 0.37283204022299432 0.29469215062649978 0 0.38677011487416962 0.28668927146971412 0 0.38160744320187379 0.30343426112010757 0 0.37468942596683208 0.31374646967734732 0 0.37094633449803038 0.30494160921983471 0 0.38160744320187379 0.30343426112010757 0 0.37468942596683208 0.31374646967734732 0 0.38160744320187379 0.30343426112010757 0 0.38326804585601632 0.31418673981577899 0 0.37094633449803038 0.30494160921983471 0 0.37283204022299432 0.29469215062649978 0 0.38160744320187379 0.30343426112010757 0 0.38160744320187379 0.30343426112010757 0 0.3928006403135752 0.31252555936857213 0 0.38326804585601632 0.31418673981577899 0 0.38160744320187379 0.30343426112010757 0 0.39525518076027533 0.29957073849760069 0 0.3928006403135752 0.31252555936857213 0 0.39525518076027533 0.29957073849760069 0 0.40476198149526638 0.30894791851966358 0 0.41451219847681359 0.28735140941574733 0 0.39525518076027533 0.29957073849760069 0 0.40476198149526638 0.30894791851966358 0 0.3928006403135752 0.31252555936857213 0 0.38677011487416962 0.28668927146971412 0 0.41451219847681359 0.28735140941574733 0 0.39289395225977658 0.2713417388681677 0 0.38677011487416962 0.28668927146971412 0 0.41451219847681359 0.28735140941574733 0 0.38677011487416962 0.28668927146971412 0 0.39525518076027533 0.29957073849760069 0 0.41451219847681359 0.28735140941574733 0 0.40476198149526638 0.30894791851966358 0 0.42674007626924548 0.30093116591541252 0 0.42079231481466578 0.31740455364187581 0 0.40476198149526638 0.30894791851966358 0 0.41451219847681359 0.28735140941574733 0 0.42674007626924548 0.30093116591541252 0 0.42674007626924548 0.30093116591541252 0 0.43547946024697409 0.31610916107935949 0 0.42079231481466578 0.31740455364187581 0 0.42674007626924548 0.30093116591541252 0 0.44214425533435597 0.29259692108837593 0 0.43547946024697409 0.31610916107935949 0 0.42674007626924548 0.30093116591541252 0 0.43020325090214317 0.2800970030387922 0 0.44214425533435597 0.29259692108837593 0 0.41451219847681359 0.28735140941574733 0 0.42674007626924548 0.30093116591541252 0 0.43020325090214317 0.2800970030387922 0 0.43020325090214317 0.2800970030387922 0 0.40930003003062038 0.26433724347865423 0 0.42881036932591698 0.26049773150289751 0 0.43020325090214317 0.2800970030387922 0 0.42881036932591698 0.26049773150289751 0 0.44880905042173791 0.26908468109739231 0 0.41451219847681359 0.28735140941574733 0 0.43020325090214317 0.2800970030387922 0 0.40930003003062038 0.26433724347865423 0 0.40930003003062038 0.26433724347865423 0 0.42881036932591698 0.26049773150289751 0 0.41211135859945858 0.23859957228918491 0 0.42881036932591698 0.26049773150289751 0 0.44172146682776492 0.25431021510112339 0 0.43379260205428782 0.2420860066977962 0 0.42881036932591698 0.26049773150289751 0 0.44172146682776492 0.25431021510112339 0 0.44880905042173791 0.26908468109739231 0 0.44172146682776492 0.25431021510112339 0 0.44880905042173791 0.26908468109739231 0 0.45547384550911679 0.24557244110640769 0 0.44880905042173791 0.26908468109739231 0 0.45547384550911679 0.24557244110640769 0 0.44880905042173791 0.26908468109739231 0 0.44214425533435597 0.29259692108837593 0 0.43020325090214317 0.2800970030387922 0 0.44880905042173791 0.26908468109739231 0 0.44214425533435597 0.29259692108837593 0 0.44880905042173791 0.26908468109739231 0 0.46322881921194359 0.27501169468731201 0 0.44214425533435597 0.29259692108837593 0 0.44880905042173791 0.26908468109739231 0 0.46322881921194359 0.27501169468731201 0 0.45978196869434879 0.26236043550722687 0 0.46322881921194359 0.27501169468731201 0 0.45978196869434879 0.26236043550722687 0 0.47003806060666142 0.25987385333938617 0 0.45978196869434879 0.26236043550722687 0 0.46408427701748561 0.25440272181502671 0 0.45547384550911679 0.24557244110640769 0 0.44880905042173791 0.26908468109739231 0 0.45978196869434879 0.26236043550722687 0 0.45547384550911679 0.24557244110640769 0 0.45978196869434879 0.26236043550722687 0 0.46408427701748561 0.25440272181502671 0 0.47003806060666142 0.25987385333938617 0 0.46408427701748561 0.25440272181502671 0 0.47003806060666142 0.25987385333938617 0 0.47161077686298242 0.24816732699654209 0 0.47003806060666142 0.25987385333938617 0 0.48479612761319513 0.26076513460741702 0 0.47161077686298242 0.24816732699654209 0 0.47003806060666142 0.25987385333938617 0 0.47161077686298242 0.24816732699654209 0 0.47003806060666142 0.25987385333938617 0 0.47832939243866768 0.27263885186166092 0 0.48479612761319513 0.26076513460741702 0 0.46322881921194359 0.27501169468731201 0 0.47832939243866768 0.27263885186166092 0 0.47189555383156939 0.28970737413077002 0 0.46322881921194359 0.27501169468731201 0 0.47003806060666142 0.25987385333938617 0 0.47832939243866768 0.27263885186166092 0 0.47832939243866768 0.27263885186166092 0 0.5 0.27952752396211378 0 0.47189555383156939 0.28970737413077002 0 0.47832939243866768 0.27263885186166092 0 0.5 0.27952752396211378 0 0.48479612761319513 0.26076513460741702 0 0.50000000000000133 0.25273243252588418 0 0.48479612761319513 0.26076513460741702 0 0.47161077686298242 0.24816732699654209 0 0.5 0.27952752396211378 0 0.50000000000000133 0.25273243252588418 0 0.48479612761319513 0.26076513460741702 0 0.50000000000000133 0.25273243252588418 0 0.47161077686298242 0.24816732699654209 0 0.5 0.27952752396211378 0 0.5 0.30632261539834349 0 0.47189555383156939 0.28970737413077002 0 0.47189555383156939 0.28970737413077002 0 0.48009427883803779 0.31245884807392382 0 0.46409439738356351 0.30521749313538371 0 0.5 0.30632261539834349 0 0.47189555383156939 0.28970737413077002 0 0.48009427883803779 0.31245884807392382 0 0.46409439738356351 0.30521749313538371 0 0.45072164870380832 0.31115093408847622 0 0.46340958021555129 0.3209450505774753 0 0.47189555383156939 0.28970737413077002 0 0.46409439738356351 0.30521749313538371 0 0.44214425533435597 0.29259692108837593 0 0.46322881921194359 0.27501169468731201 0 0.47189555383156939 0.28970737413077002 0 0.44214425533435597 0.29259692108837593 0 0.46409439738356351 0.30521749313538371 0 0.44214425533435597 0.29259692108837593 0 0.45072164870380832 0.31115093408847622 0 0.44214425533435597 0.29259692108837593 0 0.43547946024697409 0.31610916107935949 0 0.44214425533435597 0.29259692108837593 0 0.45072164870380832 0.31115093408847622 0 0.43547946024697409 0.31610916107935949 0 0.44248479562082632 0.32490093682069893 0 0.44538609342785601 0.31865368623037088 0 0.43547946024697409 0.31610916107935949 0 0.45072164870380832 0.31115093408847622 0 0.44538609342785601 0.31865368623037088 0 0.43547946024697409 0.31610916107935949 0 0.44248479562082632 0.32490093682069893 0 0.43547946024697409 0.31610916107935949 0 0.43682264813406613 0.32586118876408632 0 0.44248479562082632 0.32490093682069893 0 0.43682264813406613 0.32586118876408632 0 0.44248479562082632 0.32490093682069893 0 0.45285846913981498 0.32245371293294911 0 0.44538609342785601 0.31865368623037088 0 0.45072164870380832 0.31115093408847622 0 0.45285846913981498 0.32245371293294911 0 0.44538609342785601 0.31865368623037088 0 0.44079984123829918 0.33707086967600253 0 0.46358164960813031 0.33997762085518352 0 0.43682264813406613 0.32586118876408632 0 0.46358164960813031 0.33997762085518352 0 0.43682264813406613 0.32586118876408632 0 0.44079984123829918 0.33707086967600253 0 0.46358164960813031 0.33997762085518352 0 0.44261518205203199 0.34583245486650721 0 0.44248479562082632 0.32490093682069893 0 0.45285846913981498 0.32245371293294911 0 0.46358164960813031 0.33997762085518352 0 0.44248479562082632 0.32490093682069893 0 0.46358164960813031 0.33997762085518352 0 0.43682264813406613 0.32586118876408632 0 0.44079984123829918 0.33707086967600253 0 0.44261518205203199 0.34583245486650721 0 0.42995036479937693 0.3419143081821151 0 0.46358164960813031 0.33997762085518352 0 0.46340958021555129 0.3209450505774753 0 0.47751163107996569 0.33033461991529828 0 0.46358164960813031 0.33997762085518352 0 0.46340958021555129 0.3209450505774753 0 0.45285846913981498 0.32245371293294911 0 0.46358164960813031 0.33997762085518352 0 0.46340958021555129 0.3209450505774753 0 0.45072164870380832 0.31115093408847622 0 0.45285846913981498 0.32245371293294911 0 0.46340958021555129 0.3209450505774753 0 0.48009427883803779 0.31245884807392382 0 0.46409439738356351 0.30521749313538371 0 0.46340958021555129 0.3209450505774753 0 0.48009427883803779 0.31245884807392382 0 0.46340958021555129 0.3209450505774753 0 0.47751163107996569 0.33033461991529828 0 0.46358164960813031 0.33997762085518352 0 0.47751163107996569 0.33033461991529828 0 0.47741710416152477 0.34727637058026828 0 0.46358164960813031 0.33997762085518352 0 0.47741710416152477 0.34727637058026828 0 0.47751163107996569 0.33033461991529828 0 0.5 0.33311770683457309 0 0.47741710416152477 0.34727637058026828 0 0.5 0.30632261539834349 0 0.48009427883803779 0.31245884807392382 0 0.5 0.33311770683457309 0 0.48009427883803779 0.31245884807392382 0 0.47751163107996569 0.33033461991529828 0 0.5 0.33311770683457309 0 0.5 0.35991279827080269 0 0.47782889937599682 0.36327114119592269 0 0.48193378174846307 0.3791552019355604 0 0.5 0.35991279827080269 0 0.47741710416152477 0.34727637058026828 0 0.47782889937599682 0.36327114119592269 0 0.5 0.33311770683457309 0 0.5 0.35991279827080269 0 0.47741710416152477 0.34727637058026828 0 0.47741710416152477 0.34727637058026828 0 0.47782889937599682 0.36327114119592269 0 0.46372460655253128 0.35579006750963399 0 0.47782889937599682 0.36327114119592269 0 0.46386756349693181 0.37160251416408452 0 0.48193378174846307 0.3791552019355604 0 0.46386756349693181 0.37160251416408452 0 0.46372460655253128 0.35579006750963399 0 0.47782889937599682 0.36327114119592269 0 0.46386756349693181 0.37160251416408452 0 0.46372460655253128 0.35579006750963399 0 0.46386756349693181 0.37160251416408452 0 0.44288636239621348 0.36283120083343051 0 0.46386756349693181 0.37160251416408452 0 0.46372460655253128 0.35579006750963399 0 0.44288636239621348 0.36283120083343051 0 0.46358164960813031 0.33997762085518352 0 0.45378775608296701 0.35020839559249872 0 0.44261518205203199 0.34583245486650721 0 0.46358164960813031 0.33997762085518352 0 0.46372460655253128 0.35579006750963399 0 0.45378775608296701 0.35020839559249872 0 0.46372460655253128 0.35579006750963399 0 0.45378775608296701 0.35020839559249872 0 0.44288636239621348 0.36283120083343051 0 0.46358164960813031 0.33997762085518352 0 0.47741710416152477 0.34727637058026828 0 0.46372460655253128 0.35579006750963399 0 0.46358164960813031 0.33997762085518352 0 0.46372460655253128 0.35579006750963399 0 0.45378775608296701 0.35020839559249872 0 0.44261518205203199 0.34583245486650721 0 0.44288636239621348 0.36283120083343051 0 0.46386756349693181 0.37160251416408452 0 0.44288636239621348 0.36283120083343051 0 0.44893756586603228 0.37671736309498882 0 0.44288636239621348 0.36283120083343051 0 0.42840173683077037 0.36799935200550887 0 0.44893756586603228 0.37671736309498882 0 0.44288636239621348 0.36283120083343051 0 0.42840173683077037 0.36799935200550887 0 0.42190516129549588 0.35405988750277401 0 0.42840173683077037 0.36799935200550887 0 0.42190516129549588 0.35405988750277401 0 0.40364776469790631 0.36825260144537481 0 0.42840173683077037 0.36799935200550887 0 0.40364776469790631 0.36825260144537481 0 0.42245014065086728 0.38218006662854148 0 0.42190516129549588 0.35405988750277401 0 0.40092396019477838 0.34528857417211739 0 0.42190516129549588 0.35405988750277401 0 0.40364776469790631 0.36825260144537481 0 0.40092396019477838 0.34528857417211739 0 0.42190516129549588 0.35405988750277401 0 0.41774197400099278 0.34145603075195408 0 0.40092396019477838 0.34528857417211739 0 0.42190516129549588 0.35405988750277401 0 0.42995036479937693 0.3419143081821151 0 0.41774197400099278 0.34145603075195408 0 0.44288636239621348 0.36283120083343051 0 0.42190516129549588 0.35405988750277401 0 0.44261518205203199 0.34583245486650721 0 0.42190516129549588 0.35405988750277401 0 0.42995036479937693 0.3419143081821151 0 0.44261518205203199 0.34583245486650721 0 0.44288636239621348 0.36283120083343051 0 0.42190516129549588 0.35405988750277401 0 0.43682264813406613 0.32586118876408632 0 0.40935673708858022 0.33051917312778428 0 0.42657364662673231 0.33549821077497988 0 0.43682264813406613 0.32586118876408632 0 0.40935673708858022 0.33051917312778428 0 0.44079984123829918 0.33707086967600253 0 0.42995036479937693 0.3419143081821151 0 0.42657364662673231 0.33549821077497988 0 0.44079984123829918 0.33707086967600253 0 0.42657364662673231 0.33549821077497988 0 0.43682264813406613 0.32586118876408632 0 0.42995036479937693 0.3419143081821151 0 0.42657364662673231 0.33549821077497988 0 0.41774197400099278 0.34145603075195408 0 0.43682264813406613 0.32586118876408632 0 0.42079231481466578 0.31740455364187581 0 0.40935673708858022 0.33051917312778428 0 0.43547946024697409 0.31610916107935949 0 0.43682264813406613 0.32586118876408632 0 0.42079231481466578 0.31740455364187581 0 0.43682264813406613 0.32586118876408632 0 0.42079231481466578 0.31740455364187581 0 0.40476198149526638 0.30894791851966358 0 0.42079231481466578 0.31740455364187581 0 0.40461920194460799 0.31958598254532578 0 0.42079231481466578 0.31740455364187581 0 0.40935673708858022 0.33051917312778428 0 0.40461920194460799 0.31958598254532578 0 0.40476198149526638 0.30894791851966358 0 0.42079231481466578 0.31740455364187581 0 0.42657364662673231 0.33549821077497988 0 0.41774197400099278 0.34145603075195408 0 0.40935673708858022 0.33051917312778428 0 0.41774197400099278 0.34145603075195408 0 0.40935673708858022 0.33051917312778428 0 0.40092396019477838 0.34528857417211739 0 0.40935673708858022 0.33051917312778428 0 0.38189082604309438 0.33517715749148402 0 0.40092396019477838 0.34528857417211739 0 0.40935673708858022 0.33051917312778428 0 0.39002103012396339 0.32771562149276828 0 0.38189082604309438 0.33517715749148402 0 0.40935673708858022 0.33051917312778428 0 0.38189082604309438 0.33517715749148402 0 0.40935673708858022 0.33051917312778428 0 0.39606303418716982 0.32256906315634931 0 0.39002103012396339 0.32771562149276828 0 0.40476198149526638 0.30894791851966358 0 0.40461920194460799 0.31958598254532578 0 0.3928006403135752 0.31252555936857213 0 0.40935673708858022 0.33051917312778428 0 0.40461920194460799 0.31958598254532578 0 0.39606303418716982 0.32256906315634931 0 0.39606303418716982 0.32256906315634931 0 0.38721933784308099 0.32063126059531838 0 0.39002103012396339 0.32771562149276828 0 0.40461920194460799 0.31958598254532578 0 0.39606303418716982 0.32256906315634931 0 0.3928006403135752 0.31252555936857213 0 0.39606303418716982 0.32256906315634931 0 0.3928006403135752 0.31252555936857213 0 0.38721933784308099 0.32063126059531838 0 0.3928006403135752 0.31252555936857213 0 0.38326804585601632 0.31418673981577899 0 0.38721933784308099 0.32063126059531838 0 0.38326804585601632 0.31418673981577899 0 0.38721933784308099 0.32063126059531838 0 0.38002338195471919 0.3205961483175499 0 0.38721933784308099 0.32063126059531838 0 0.3828765686296019 0.32650909630545472 0 0.38002338195471919 0.3205961483175499 0 0.38721933784308099 0.32063126059531838 0 0.39002103012396339 0.32771562149276828 0 0.3828765686296019 0.32650909630545472 0 0.3828765686296019 0.32650909630545472 0 0.3782740019627539 0.32567811482127501 0 0.3789583890863874 0.33082353469878922 0 0.3828765686296019 0.32650909630545472 0 0.3782740019627539 0.32567811482127501 0 0.38002338195471919 0.3205961483175499 0 0.37468646450948012 0.32254658311145301 0 0.37482520563358068 0.32791521167312832 0 0.3782740019627539 0.32567811482127501 0 0.37468646450948012 0.32254658311145301 0 0.3782740019627539 0.32567811482127501 0 0.38002338195471919 0.3205961483175499 0 0.37468942596683208 0.31374646967734732 0 0.37468646450948012 0.32254658311145301 0 0.38002338195471919 0.3205961483175499 0 0.37468942596683208 0.31374646967734732 0 0.38326804585601632 0.31418673981577899 0 0.38002338195471919 0.3205961483175499 0 0.38189082604309438 0.33517715749148402 0 0.37994275909406089 0.33651726084146089 0 0.40092396019477838 0.34528857417211739 0 0.37994275909406089 0.33651726084146089 0 0.37898580562215478 0.34834699925771168 0 0.40092396019477838 0.34528857417211739 0 0.37994275909406089 0.33651726084146089 0 0.40092396019477838 0.34528857417211739 0 0.39002103012396339 0.32771562149276828 0 0.38189082604309438 0.33517715749148402 0 0.38271967695225317 0.33088797828021982 0 0.39002103012396339 0.32771562149276828 0 0.3828765686296019 0.32650909630545472 0 0.38271967695225317 0.33088797828021982 0 0.37329813251097949 0.33351056758012182 0 0.38189082604309438 0.33517715749148402 0 0.38039710437148128 0.33273535630659612 0 0.38189082604309438 0.33517715749148402 0 0.38039710437148128 0.33273535630659612 0 0.38271967695225317 0.33088797828021982 0 0.3828765686296019 0.32650909630545472 0 0.38271967695225317 0.33088797828021982 0 0.3789583890863874 0.33082353469878922 0 0.38039710437148128 0.33273535630659612 0 0.38271967695225317 0.33088797828021982 0 0.3789583890863874 0.33082353469878922 0 0.37482520563358068 0.32791521167312832 0 0.3782740019627539 0.32567811482127501 0 0.3789583890863874 0.33082353469878922 0 0.37329813251097949 0.33351056758012182 0 0.3789583890863874 0.33082353469878922 0 0.37507363504334079 0.33104044787222492 0 0.37482520563358068 0.32791521167312832 0 0.3789583890863874 0.33082353469878922 0 0.37507363504334079 0.33104044787222492 0 0.37329813251097949 0.33351056758012182 0 0.38039710437148128 0.33273535630659612 0 0.3789583890863874 0.33082353469878922 0 0.37034381261662302 0.34287964466133353 0 0.37994275909406089 0.33651726084146089 0 0.37898580562215478 0.34834699925771168 0 0.36511161511286833 0.35957074249547788 0 0.37898580562215478 0.34834699925771168 0 0.38580891731413919 0.36091304919829642 0 0.37898580562215478 0.34834699925771168 0 0.38580891731413919 0.36091304919829642 0 0.40092396019477838 0.34528857417211739 0 0.36511161511286833 0.35957074249547788 0 0.38580891731413919 0.36091304919829642 0 0.38091650492936541 0.38455569761320157 0 0.38580891731413919 0.36091304919829642 0 0.40364776469790631 0.36825260144537481 0 0.38091650492936541 0.38455569761320157 0 0.38580891731413919 0.36091304919829642 0 0.40364776469790631 0.36825260144537481 0 0.40092396019477838 0.34528857417211739 0 0.38091650492936541 0.38455569761320157 0 0.39672139474586271 0.40954065273092499 0 0.40958576769836502 0.39586035967973332 0 0.39672139474586271 0.40954065273092499 0 0.40958576769836502 0.39586035967973332 0 0.40364776469790631 0.36825260144537481 0 0.38091650492936541 0.38455569761320157 0 0.40824103531771649 0.38170712532611112 0 0.38091650492936541 0.38455569761320157 0 0.40958576769836502 0.39586035967973332 0 0.40824103531771649 0.38170712532611112 0 0.37469307111402661 0.4037041701685542 0 0.38091650492936541 0.38455569761320157 0 0.39672139474586271 0.40954065273092499 0 0.38091650492936541 0.38455569761320157 0 0.39672139474586271 0.40954065273092499 0 0.37679823720245231 0.43072743227356131 0 0.39672139474586271 0.40954065273092499 0 0.41102700395872072 0.43215548954819188 0 0.37469307111402661 0.4037041701685542 0 0.37679823720245231 0.43072743227356131 0 0.39672139474586271 0.40954065273092499 0 0.37679823720245231 0.43072743227356131 0 0.39672139474586271 0.40954065273092499 0 0.39672139474586271 0.40954065273092499 0 0.41102700395872072 0.43215548954819188 0 0.39672139474586271 0.40954065273092499 0 0.41818853840575598 0.41148153485236222 0 0.41102700395872072 0.43215548954819188 0 0.41818853840575598 0.41148153485236222 0 0.41102700395872072 0.43215548954819188 0 0.42980955705513268 0.42416159789598129 0 0.41102700395872072 0.43215548954819188 0 0.42980955705513268 0.42416159789598129 0 0.42533261317157922 0.45477032636545872 0 0.41818853840575598 0.41148153485236222 0 0.42980955705513268 0.42416159789598129 0 0.4364722231738597 0.40922000625291871 0 0.41818853840575598 0.41148153485236222 0 0.4364722231738597 0.40922000625291871 0 0.42551132873941899 0.3978829104840832 0 0.4364722231738597 0.40922000625291871 0 0.42551132873941899 0.3978829104840832 0 0.44082548561734503 0.39007794621205699 0 0.41818853840575598 0.41148153485236222 0 0.42551132873941899 0.3978829104840832 0 0.40958576769836502 0.39586035967973332 0 0.39672139474586271 0.40954065273092499 0 0.41818853840575598 0.41148153485236222 0 0.40958576769836502 0.39586035967973332 0 0.42551132873941899 0.3978829104840832 0 0.40958576769836502 0.39586035967973332 0 0.42245014065086728 0.38218006662854148 0 0.40364776469790631 0.36825260144537481 0 0.40824103531771649 0.38170712532611112 0 0.42245014065086728 0.38218006662854148 0 0.40958576769836502 0.39586035967973332 0 0.40824103531771649 0.38170712532611112 0 0.42245014065086728 0.38218006662854148 0 0.40958576769836502 0.39586035967973332 0 0.42245014065086728 0.38218006662854148 0 0.42840173683077037 0.36799935200550887 0 0.42245014065086728 0.38218006662854148 0 0.44082548561734503 0.39007794621205699 0 0.42551132873941899 0.3978829104840832 0 0.42245014065086728 0.38218006662854148 0 0.44082548561734503 0.39007794621205699 0 0.42840173683077037 0.36799935200550887 0 0.44082548561734503 0.39007794621205699 0 0.44893756586603228 0.37671736309498882 0 0.49999999999999589 0.3867078897070324 0 0.48721789553276762 0.40942125414641362 0 0.5 0.45146468067451068 0 0.44082548561734503 0.39007794621205699 0 0.44893756586603228 0.37671736309498882 0 0.46409480830450262 0.39673802900206429 0 0.44082548561734503 0.39007794621205699 0 0.46409480830450262 0.39673802900206429 0 0.45069475116836782 0.4071578941692815 0 0.4364722231738597 0.40922000625291871 0 0.44082548561734503 0.39007794621205699 0 0.45069475116836782 0.4071578941692815 0 0.46386756349693181 0.37160251416408452 0 0.44893756586603228 0.37671736309498882 0 0.46409480830450262 0.39673802900206429 0 0.46386756349693181 0.37160251416408452 0 0.46409480830450262 0.39673802900206429 0 0.46386756349693181 0.37160251416408452 0 0.46409480830450262 0.39673802900206429 0 0.48193378174846307 0.3791552019355604 0 0.46386756349693181 0.37160251416408452 0 0.48193378174846307 0.3791552019355604 0 0.46409480830450262 0.39673802900206429 0 0.48193378174846307 0.3791552019355604 0 0.48721789553276762 0.40942125414641362 0 0.48193378174846307 0.3791552019355604 0 0.49999999999999589 0.3867078897070324 0 0.48721789553276762 0.40942125414641362 0 0.5 0.35991279827080269 0 0.48193378174846307 0.3791552019355604 0 0.49999999999999589 0.3867078897070324 0 0.48193378174846307 0.3791552019355604 0 0.49999999999999589 0.3867078897070324 0 0.48721789553276762 0.40942125414641362 0 0.47646006483186037 0.43316042425360179 0 0.5 0.45146468067451068 0 0.46409480830450262 0.39673802900206429 0 0.48721789553276762 0.40942125414641362 0 0.47539158167459089 0.41734983669682307 0 0.48721789553276762 0.40942125414641362 0 0.47539158167459089 0.41734983669682307 0 0.47646006483186037 0.43316042425360179 0 0.47539158167459089 0.41734983669682307 0 0.47646006483186037 0.43316042425360179 0 0.46432205311207242 0.42187354384004411 0 0.46432205311207242 0.42187354384004411 0 0.45287148861127391 0.43641071981754448 0 0.44664260388814908 0.42207841096026433 0 0.46432205311207242 0.42187354384004411 0 0.46454929791964222 0.44700905867802382 0 0.46432205311207242 0.42187354384004411 0 0.45287148861127391 0.43641071981754448 0 0.46454929791964222 0.44700905867802382 0 0.47646006483186037 0.43316042425360179 0 0.46432205311207242 0.42187354384004411 0 0.46454929791964222 0.44700905867802382 0 0.46409480830450262 0.39673802900206429 0 0.46432205311207242 0.42187354384004411 0 0.46432205311207242 0.42187354384004411 0 0.45069475116836782 0.4071578941692815 0 0.44664260388814908 0.42207841096026433 0 0.46409480830450262 0.39673802900206429 0 0.46432205311207242 0.42187354384004411 0 0.45069475116836782 0.4071578941692815 0 0.46409480830450262 0.39673802900206429 0 0.47539158167459089 0.41734983669682307 0 0.46432205311207242 0.42187354384004411 0 0.42980955705513268 0.42416159789598129 0 0.4364722231738597 0.40922000625291871 0 0.44664260388814908 0.42207841096026433 0 0.4364722231738597 0.40922000625291871 0 0.45069475116836782 0.4071578941692815 0 0.44664260388814908 0.42207841096026433 0 0.42980955705513268 0.42416159789598129 0 0.44664260388814908 0.42207841096026433 0 0.44122473360210163 0.437646087616681 0 0.45287148861127391 0.43641071981754448 0 0.44664260388814908 0.42207841096026433 0 0.44122473360210163 0.437646087616681 0 0.45287148861127391 0.43641071981754448 0 0.44122473360210163 0.437646087616681 0 0.44761875453440397 0.45344649799270897 0 0.44122473360210163 0.437646087616681 0 0.44761875453440397 0.45344649799270897 0 0.42533261317157922 0.45477032636545872 0 0.44761875453440397 0.45344649799270897 0 0.46282289592383369 0.4664117454024882 0 0.43963822238443762 0.47738516318272528 0 0.44761875453440397 0.45344649799270897 0 0.43963822238443762 0.47738516318272528 0 0.42533261317157922 0.45477032636545872 0 0.44761875453440397 0.45344649799270897 0 0.46282289592383369 0.4664117454024882 0 0.46454929791964222 0.44700905867802382 0 0.45287148861127391 0.43641071981754448 0 0.44761875453440397 0.45344649799270897 0 0.46454929791964222 0.44700905867802382 0 0.47646006483186037 0.43316042425360179 0 0.46454929791964222 0.44700905867802382 0 0.48034458092777671 0.45544028283573401 0 0.47646006483186037 0.43316042425360179 0 0.48034458092777671 0.45544028283573401 0 0.48034458092777671 0.45544028283573401 0 0.48422909702369288 0.47772014141786628 0 0.46282289592383369 0.4664117454024882 0 0.46454929791964222 0.44700905867802382 0 0.48034458092777671 0.45544028283573401 0 0.46282289592383369 0.4664117454024882 0 0.48034458092777671 0.45544028283573401 0 0.48422909702369288 0.47772014141786628 0 0.48034458092777671 0.45544028283573401 0 0.5 0.45146468067451068 0 0.48422909702369288 0.47772014141786628 0 0.47646006483186037 0.43316042425360179 0 0.48034458092777671 0.45544028283573401 0 0.5 0.45146468067451068 0 0.5 0.45146468067451068 0 0.5 0.5 0 0.48422909702369288 0.47772014141786628 0 0.48811361311960882 0.49999999999999872 0 0.48422909702369288 0.47772014141786628 0 0.5 0.5 0 0.48811361311960882 0.49999999999999872 0 0.48422909702369288 0.47772014141786628 0 0.46282289592383369 0.4664117454024882 0 0.48422909702369288 0.47772014141786628 0 0.46233255385754168 0.48430341000061589 0 0.48811361311960882 0.49999999999999872 0 0.48422909702369288 0.47772014141786628 0 0.471028722358451 0.5 0 0.48422909702369288 0.47772014141786628 0 0.471028722358451 0.5 0 0.46233255385754168 0.48430341000061589 0 0.471028722358451 0.5 0 0.45394383159729318 0.49999999999999378 0 0.46233255385754168 0.48430341000061589 0 0.46282289592383369 0.4664117454024882 0 0.46233255385754168 0.48430341000061589 0 0.43963822238443762 0.47738516318272528 0 0.45394383159729318 0.49999999999999378 0 0.43963822238443762 0.47738516318272528 0 0.42496885172427928 0.4999999999999955 0 0.45394383159729318 0.49999999999999378 0 0.46233255385754168 0.48430341000061589 0 0.43963822238443762 0.47738516318272528 0 0.45394383159729318 0.49999999999999378 0 0.43963822238443762 0.47738516318272528 0 0.42496885172427928 0.4999999999999955 0 0.41979595348669768 0.47410479881559708 0 0.40227092770253498 0.48397140393872679 0 0.42496885172427928 0.4999999999999955 0 0.40284745447282932 0.5 0 0.40227092770253498 0.48397140393872679 0 0.42496885172427928 0.4999999999999955 0 0.40227092770253498 0.48397140393872679 0 0.41979595348669768 0.47410479881559708 0 0.40051801768727319 0.45463533782398308 0 0.40227092770253498 0.48397140393872679 0 0.43963822238443762 0.47738516318272528 0 0.41979595348669768 0.47410479881559708 0 0.42533261317157922 0.45477032636545872 0 0.43963822238443762 0.47738516318272528 0 0.42496885172427928 0.4999999999999955 0 0.41979595348669768 0.47410479881559708 0 0.43963822238443762 0.47738516318272528 0 0.42533261317157922 0.45477032636545872 0 0.42980955705513268 0.42416159789598129 0 0.44122473360210163 0.437646087616681 0 0.42533261317157922 0.45477032636545872 0 0.41102700395872072 0.43215548954819188 0 0.42533261317157922 0.45477032636545872 0 0.41102700395872072 0.43215548954819188 0 0.42533261317157922 0.45477032636545872 0 0.40051801768727319 0.45463533782398308 0 0.41979595348669768 0.47410479881559708 0 0.42533261317157922 0.45477032636545872 0 0.40051801768727319 0.45463533782398308 0 0.37679823720245231 0.43072743227356131 0 0.40051801768727319 0.45463533782398308 0 0.37957300368078878 0.46794280787746129 0 0.37679823720245231 0.43072743227356131 0 0.41102700395872072 0.43215548954819188 0 0.40051801768727319 0.45463533782398308 0 0.36664168209876541 0.47825291915327017 0 0.37957300368078878 0.46794280787746129 0 0.38459015926647849 0.48449401573618972 0 0.37957300368078878 0.46794280787746129 0 0.38459015926647849 0.48449401573618972 0 0.40227092770253498 0.48397140393872679 0 0.36664168209876541 0.47825291915327017 0 0.38072605722137909 0.49999999999999872 0 0.38459015926647849 0.48449401573618972 0 0.38072605722137909 0.49999999999999872 0 0.38459015926647849 0.48449401573618972 0 0.39260864966580561 0.49211635491872918 0 0.38459015926647849 0.48449401573618972 0 0.39260864966580561 0.49211635491872918 0 0.40227092770253498 0.48397140393872679 0 0.40284745447282932 0.5 0 0.39260864966580561 0.49211635491872918 0 0.40227092770253498 0.48397140393872679 0 0.38072605722137909 0.49999999999999872 0 0.40284745447282932 0.5 0 0.39260864966580561 0.49211635491872918 0 0.37957300368078878 0.46794280787746129 0 0.40227092770253498 0.48397140393872679 0 0.40051801768727319 0.45463533782398308 0 0.37957300368078878 0.46794280787746129 0 0.40227092770253498 0.48397140393872679 0 0.33419894087582502 0.080675741691628403 0 0.32757915156589767 0.092649938279372096 0 0.33126893708072402 0.098394344284652741 0 0.33419894087582502 0.080675741691628403 0 0.33801832532439041 0.1046803996435306 0 0.34387933443982621 0.089718590435097112 0 0.33419894087582502 0.080675741691628403 0 0.33801832532439041 0.1046803996435306 0 0.33419894087582502 0.080675741691628403 0 0.32487602184927677 0.083671112072079779 0 0.32757915156589767 0.092649938279372096 0 0.33419894087582502 0.080675741691628403 0 0.32757915156589767 0.092649938279372096 0 0.33419894087582502 0.080675741691628403 0 0.34387933443982621 0.089718590435097112 0 0.34391937865754718 0.07739999013119922 0 0.33419894087582502 0.080675741691628403 0 0.33985131791449391 0.070451447430840919 0 0.34391937865754718 0.07739999013119922 0 0.33419894087582502 0.080675741691628403 0 0.33985131791449391 0.070451447430840919 0 0.33985131791449391 0.070451447430840919 0 0.33176231955451602 0.065361687250673067 0 0.33760431207473701 0.058322225317784512 0 0.33985131791449391 0.070451447430840919 0 0.33176231955451602 0.065361687250673067 0 0.33419894087582502 0.080675741691628403 0 0.33176231955451602 0.065361687250673067 0 0.32515368879357731 0.074839296321740925 0 0.33419894087582502 0.080675741691628403 0 0.33985131791449391 0.070451447430840919 0 0.33176231955451602 0.065361687250673067 0 0.33419894087582502 0.080675741691628403 0 0.33176231955451602 0.065361687250673067 0 0.33176231955451602 0.065361687250673067 0 0.32515368879357731 0.074839296321740925 0 0.3155271692970999 0.068083096168644941 0 0.32515368879357731 0.074839296321740925 0 0.3155271692970999 0.068083096168644941 0 0.31618385360962098 0.081933260100759506 0 0.31618385360962098 0.081933260100759506 0 0.32089519243110248 0.088891316590187022 0 0.30422390552602668 0.094168687165142415 0 0.32089519243110248 0.088891316590187022 0 0.31828844118172511 0.094907020493415553 0 0.30422390552602668 0.094168687165142415 0 0.33419894087582502 0.080675741691628403 0 0.32515368879357731 0.074839296321740925 0 0.32487602184927677 0.083671112072079779 0 0.32515368879357731 0.074839296321740925 0 0.31618385360962098 0.081933260100759506 0 0.32487602184927677 0.083671112072079779 0 0.31618385360962098 0.081933260100759506 0 0.32487602184927677 0.083671112072079779 0 0.32089519243110248 0.088891316590187022 0 0.32487602184927677 0.083671112072079779 0 0.32757915156589767 0.092649938279372096 0 0.32089519243110248 0.088891316590187022 0 0.32757915156589767 0.092649938279372096 0 0.32089519243110248 0.088891316590187022 0 0.32515511136198949 0.095267493926201402 0 0.32089519243110248 0.088891316590187022 0 0.31828844118172511 0.094907020493415553 0 0.32515511136198949 0.095267493926201402 0 0.32515511136198949 0.095267493926201402 0 0.32739407440255019 0.11449653610232979 0 0.33126893708072402 0.098394344284652741 0 0.31828844118172511 0.094907020493415553 0 0.32515511136198949 0.095267493926201402 0 0.32739407440255019 0.11449653610232979 0 0.31828844118172511 0.094907020493415553 0 0.32739407440255019 0.11449653610232979 0 0.31828844118172511 0.094907020493415553 0 0.32739407440255019 0.11449653610232979 0 0.31121452546318068 0.1048736697011784 0 0.32757915156589767 0.092649938279372096 0 0.32515511136198949 0.095267493926201402 0 0.33126893708072402 0.098394344284652741 0 0.31828844118172511 0.094907020493415553 0 0.32515511136198949 0.095267493926201402 0 0.30900645554692968 0.1148101194087484 0 0.30833732554016358 0.131391246677655 0 0.32274719733189822 0.12845008037485181 0 0.32739407440255019 0.11449653610232979 0 0.30900645554692968 0.1148101194087484 0 0.31121452546318068 0.1048736697011784 0 0.32739407440255019 0.11449653610232979 0 0.30900645554692968 0.1148101194087484 0 0.32274719733189822 0.12845008037485181 0 0.32739407440255019 0.11449653610232979 0 0.33652558431203489 0.1335931258248326 0 0.32739407440255019 0.11449653610232979 0 0.33801832532439041 0.1046803996435306 0 0.34183770977295652 0.1286850575954325 0 0.33801832532439041 0.1046803996435306 0 0.34183770977295652 0.1286850575954325 0 0.33419894087582502 0.080675741691628403 0 0.33126893708072402 0.098394344284652741 0 0.33801832532439041 0.1046803996435306 0 0.32739407440255019 0.11449653610232979 0 0.33126893708072402 0.098394344284652741 0 0.33801832532439041 0.1046803996435306 0 0.33801832532439041 0.1046803996435306 0 0.35149220366435852 0.097277278253948302 0 0.35370602711478022 0.1152257291054284 0 0.35149220366435852 0.097277278253948302 0 0.35370602711478022 0.1152257291054284 0 0.36441482364936861 0.1109814076483773 0 0.33801832532439041 0.1046803996435306 0 0.35149220366435852 0.097277278253948302 0 0.34387933443982621 0.089718590435097112 0 0.35370602711478022 0.1152257291054284 0 0.34183770977295652 0.1286850575954325 0 0.35944931917726008 0.1288775326312549 0 0.33801832532439041 0.1046803996435306 0 0.35370602711478022 0.1152257291054284 0 0.34183770977295652 0.1286850575954325 0 0.35370602711478022 0.1152257291054284 0 0.36825940068727891 0.1201696056674174 0 0.35944931917726008 0.1288775326312549 0 0.35370602711478022 0.1152257291054284 0 0.36441482364936861 0.1109814076483773 0 0.36825940068727891 0.1201696056674174 0 0.36441482364936861 0.1109814076483773 0 0.37360001330739268 0.1114708337735964 0 0.36825940068727891 0.1201696056674174 0 0.35149220366435852 0.097277278253948302 0 0.36738998525987793 0.1020302299904744 0 0.36360357275647209 0.09209158592910005 0 0.35149220366435852 0.097277278253948302 0 0.36441482364936861 0.1109814076483773 0 0.36738998525987793 0.1020302299904744 0 0.37360001330739268 0.1114708337735964 0 0.36738998525987793 0.1020302299904744 0 0.38328776685539723 0.1067831817270007 0 0.35149220366435852 0.097277278253948302 0 0.36738998525987793 0.1020302299904744 0 0.36360357275647209 0.09209158592910005 0 0.38328776685539723 0.1067831817270007 0 0.36738998525987793 0.1020302299904744 0 0.36360357275647209 0.09209158592910005 0 0.38328776685539723 0.1067831817270007 0 0.36441482364936861 0.1109814076483773 0 0.37360001330739268 0.1114708337735964 0 0.36738998525987793 0.1020302299904744 0 0.37150953892954941 0.090371435731814859 0 0.36787124715384972 0.079243996051601137 0 0.35568042842202158 0.080411441581328014 0 0.37150953892954941 0.090371435731814859 0 0.36360357275647209 0.09209158592910005 0 0.35568042842202158 0.080411441581328014 0 0.37150953892954941 0.090371435731814859 0 0.36360357275647209 0.09209158592910005 0 0.37822129919108233 0.095476496790246668 0 0.37150953892954941 0.090371435731814859 0 0.35568042842202158 0.080411441581328014 0 0.37150953892954941 0.090371435731814859 0 0.36787124715384972 0.079243996051601137 0 0.37798135154881018 0.081823587903253725 0 0.36360357275647209 0.09209158592910005 0 0.34387933443982621 0.089718590435097112 0 0.34391937865754718 0.07739999013119922 0 0.36360357275647209 0.09209158592910005 0 0.34391937865754718 0.07739999013119922 0 0.35149220366435852 0.097277278253948302 0 0.36360357275647209 0.09209158592910005 0 0.34387933443982621 0.089718590435097112 0 0.36360357275647209 0.09209158592910005 0 0.35568042842202158 0.080411441581328014 0 0.34391937865754718 0.07739999013119922 0 0.33985131791449391 0.070451447430840919 0 0.35568042842202158 0.080411441581328014 0 0.33985131791449391 0.070451447430840919 0 0.35568042842202158 0.080411441581328014 0 0.35262947993899102 0.067701864761773145 0 0.33985131791449391 0.070451447430840919 0 0.35568042842202158 0.080411441581328014 0 0.34391937865754718 0.07739999013119922 0 0.33985131791449391 0.070451447430840919 0 0.35262947993899102 0.067701864761773145 0 0.34816218785803149 0.055418342016173523 0 0.33985131791449391 0.070451447430840919 0 0.34816218785803149 0.055418342016173523 0 0.35568042842202158 0.080411441581328014 0 0.35262947993899102 0.067701864761773145 0 0.36123173686202559 0.072357863377566084 0 0.35262947993899102 0.067701864761773145 0 0.36123173686202559 0.072357863377566084 0 0.361729268240923 0.061053853774941193 0 0.36123173686202559 0.072357863377566084 0 0.37295318000684141 0.071255651664042921 0 0.361729268240923 0.061053853774941193 0 0.37295318000684141 0.071255651664042921 0 0.361729268240923 0.061053853774941193 0 0.37892596697808262 0.059204164228587368 0 0.36787124715384972 0.079243996051601137 0 0.35568042842202158 0.080411441581328014 0 0.36123173686202559 0.072357863377566084 0 0.36787124715384972 0.079243996051601137 0 0.37295318000684141 0.071255651664042921 0 0.37798135154881018 0.081823587903253725 0 0.36787124715384972 0.079243996051601137 0 0.36123173686202559 0.072357863377566084 0 0.37295318000684141 0.071255651664042921 0 0.361729268240923 0.061053853774941193 0 0.35647305780156602 0.040385236601504317 0 0.37892596697808262 0.059204164228587368 0 0.35647305780156602 0.040385236601504317 0 0.37892596697808262 0.059204164228587368 0 0.36952203436557951 0.041267906698185822 0 0.35647305780156602 0.040385236601504317 0 0.37892596697808262 0.059204164228587368 0 0.36952203436557951 0.041267906698185822 0 0.36373647425086247 0.027246815967462711 0 0.37895263843180721 0.038235409995188797 0 0.36373647425086247 0.027246815967462711 0 0.37895263843180721 0.038235409995188797 0 0.35647305780156602 0.040385236601504317 0 0.36373647425086247 0.027246815967462711 0 0.36952203436557951 0.041267906698185822 0 0.35647305780156602 0.040385236601504317 0 0.36373647425086247 0.027246815967462711 0 0.35647305780156602 0.040385236601504317 0 0.3385079253911269 0.047741915492173499 0 0.33907351984892758 0.037713751368350909 0 0.35647305780156602 0.040385236601504317 0 0.34816218785803149 0.055418342016173523 0 0.3385079253911269 0.047741915492173499 0 0.361729268240923 0.061053853774941193 0 0.35647305780156602 0.040385236601504317 0 0.34816218785803149 0.055418342016173523 0 0.35262947993899102 0.067701864761773145 0 0.361729268240923 0.061053853774941193 0 0.34816218785803149 0.055418342016173523 0 0.35647305780156602 0.040385236601504317 0 0.34816218785803149 0.055418342016173523 0 0.36440139366547541 0.001895178755615623 0 0.37294253482707579 0.01059444623525683 0 0.35605137196995201 0.017602112930007279 0 0.36440139366547541 0.001895178755615623 0 0.37294253482707579 0.01059444623525683 0 0.37760379982886788 -0.00043313421310100028 0 0.37294253482707579 0.01059444623525683 0 0.36373647425086247 0.027246815967462711 0 0.37294253482707579 0.01059444623525683 0 0.36373647425086247 0.027246815967462711 0 0.35605137196995201 0.017602112930007279 0 0.37294253482707579 0.01059444623525683 0 0.37474526637297229 0.023556796941533242 0 0.36373647425086247 0.027246815967462711 0 0.37474526637297229 0.023556796941533242 0 0.36373647425086247 0.027246815967462711 0 0.37895263843180721 0.038235409995188797 0 0.36373647425086247 0.027246815967462711 0 0.34406579174448798 0.01304132095962619 0 0.35647305780156602 0.040385236601504317 0 0.33340265554345111 0.021048756548515901 0 0.36373647425086247 0.027246815967462711 0 0.35605137196995201 0.017602112930007279 0 0.34406579174448798 0.01304132095962619 0 0.35647305780156602 0.040385236601504317 0 0.36373647425086247 0.027246815967462711 0 0.34406579174448798 0.01304132095962619 0 0.35647305780156602 0.040385236601504317 0 0.34406579174448798 0.01304132095962619 0 0.33340265554345111 0.021048756548515901 0 0.35605137196995201 0.017602112930007279 0 0.34406579174448798 0.01304132095962619 0 0.3468963480347198 -0.0083866267754060184 0 0.36440139366547541 0.001895178755615623 0 0.35605137196995201 0.017602112930007279 0 0.3468963480347198 -0.0083866267754060184 0 0.35605137196995201 0.017602112930007279 0 0.3468963480347198 -0.0083866267754060184 0 0.34406579174448798 0.01304132095962619 0 0.33340265554345111 0.021048756548515901 0 0.32439510923811371 -0.0011641740482105779 0 0.34406579174448798 0.01304132095962619 0 0.32439510923811371 -0.0011641740482105779 0 0.34406579174448798 0.01304132095962619 0 0.3468963480347198 -0.0083866267754060184 0 0.32439510923811371 -0.0011641740482105779 0 0.33340265554345111 0.021048756548515901 0 0.33093292911642808 0.031186525112136779 0 0.33907351984892758 0.037713751368350909 0 0.33340265554345111 0.021048756548515901 0 0.33093292911642808 0.031186525112136779 0 0.3210831270372741 0.021662063845630731 0 0.3210831270372741 0.021662063845630731 0 0.32355214628590762 0.038519418496953013 0 0.30963339126106981 0.025572958800778811 0 0.33093292911642808 0.031186525112136779 0 0.3210831270372741 0.021662063845630731 0 0.32355214628590762 0.038519418496953013 0 0.3210831270372741 0.021662063845630731 0 0.31176024539324942 0.014607124327608049 0 0.30963339126106981 0.025572958800778811 0 0.3210831270372741 0.021662063845630731 0 0.31033225328533481 0.001712276495528905 0 0.31176024539324942 0.014607124327608049 0 0.33340265554345111 0.021048756548515901 0 0.3210831270372741 0.021662063845630731 0 0.31033225328533481 0.001712276495528905 0 0.33340265554345111 0.021048756548515901 0 0.31033225328533481 0.001712276495528905 0 0.32439510923811371 -0.0011641740482105779 0 0.33340265554345111 0.021048756548515901 0 0.31033225328533481 0.001712276495528905 0 0.32973780965551752 0.052637734399060443 0 0.33760431207473701 0.058322225317784512 0 0.3385079253911269 0.047741915492173499 0 0.33176231955451602 0.065361687250673067 0 0.32973780965551752 0.052637734399060443 0 0.33760431207473701 0.058322225317784512 0 0.33176231955451602 0.065361687250673067 0 0.32973780965551752 0.052637734399060443 0 0.33985131791449391 0.070451447430840919 0 0.34816218785803149 0.055418342016173523 0 0.33760431207473701 0.058322225317784512 0 0.34816218785803149 0.055418342016173523 0 0.33760431207473701 0.058322225317784512 0 0.3385079253911269 0.047741915492173499 0 0.35647305780156602 0.040385236601504317 0 0.33340265554345111 0.021048756548515901 0 0.33907351984892758 0.037713751368350909 0 0.33093292911642808 0.031186525112136779 0 0.33907351984892758 0.037713751368350909 0 0.32355214628590762 0.038519418496953013 0 0.3385079253911269 0.047741915492173499 0 0.33907351984892758 0.037713751368350909 0 0.32355214628590762 0.038519418496953013 0 0.32973780965551752 0.052637734399060443 0 0.3385079253911269 0.047741915492173499 0 0.32355214628590762 0.038519418496953013 0 0.32355214628590762 0.038519418496953013 0 0.31060597869062828 0.052049692799070887 0 0.30645447534339532 0.03702764793310144 0 0.32355214628590762 0.038519418496953013 0 0.30645447534339532 0.03702764793310144 0 0.30963339126106981 0.025572958800778811 0 0.33176231955451602 0.065361687250673067 0 0.31060597869062828 0.052049692799070887 0 0.32973780965551752 0.052637734399060443 0 0.32355214628590762 0.038519418496953013 0 0.31060597869062828 0.052049692799070887 0 0.33176231955451602 0.065361687250673067 0 0.3155271692970999 0.068083096168644941 0 0.31060597869062828 0.052049692799070887 0 0.33176231955451602 0.065361687250673067 0 0.32973780965551752 0.052637734399060443 0 0.31060597869062828 0.052049692799070887 0 0.3155271692970999 0.068083096168644941 0 0.31060597869062828 0.052049692799070887 0 0.30286878527152628 0.065841221667380601 0 0.31060597869062828 0.052049692799070887 0 0.29303439878011889 0.056198386083636427 0 0.30286878527152628 0.065841221667380601 0 0.31060597869062828 0.052049692799070887 0 0.28944963782674121 0.038737698347467847 0 0.29303439878011889 0.056198386083636427 0 0.31060597869062828 0.052049692799070887 0 0.28944963782674121 0.038737698347467847 0 0.30645447534339532 0.03702764793310144 0 0.28944963782674121 0.038737698347467847 0 0.29903122265262932 0.030258471221236628 0 0.31060597869062828 0.052049692799070887 0 0.30645447534339532 0.03702764793310144 0 0.28944963782674121 0.038737698347467847 0 0.28944963782674121 0.038737698347467847 0 0.28811392128480412 0.026718634802204069 0 0.27952977880790281 0.048469447749142608 0 0.28811392128480412 0.026718634802204069 0 0.27952977880790281 0.048469447749142608 0 0.28944963782674121 0.038737698347467847 0 0.29903122265262932 0.030258471221236628 0 0.28811392128480412 0.026718634802204069 0 0.28944963782674121 0.038737698347467847 0 0.29303439878011889 0.056198386083636427 0 0.27952977880790281 0.048469447749142608 0 0.28302060083307568 0.062416438940867972 0 0.29303439878011889 0.056198386083636427 0 0.27952977880790281 0.048469447749142608 0 0.30159417052975152 0.006546902001735572 0 0.31033225328533481 0.001712276495528905 0 0.29669806376170488 0.0049678218552653636 0 0.30159417052975152 0.006546902001735572 0 0.29669806376170488 0.0049678218552653636 0 0.30159417052975152 0.006546902001735572 0 0.31033225328533481 0.001712276495528905 0 0.30696748980593219 0.0091472017399270578 0 0.31033225328533481 0.001712276495528905 0 0.30696748980593219 0.0091472017399270578 0 0.31176024539324942 0.014607124327608049 0 0.30696748980593219 0.0091472017399270578 0 0.31176024539324942 0.014607124327608049 0 0.3041832900153934 0.0137225041348357 0 0.3041832900153934 0.0137225041348357 0 0.29952050368460831 0.020515481782751772 0 0.29669806376170488 0.0049678218552653636 0 0.30159417052975152 0.006546902001735572 0 0.3041832900153934 0.0137225041348357 0 0.29669806376170488 0.0049678218552653636 0 0.30159417052975152 0.006546902001735572 0 0.30696748980593219 0.0091472017399270578 0 0.3041832900153934 0.0137225041348357 0 0.3041832900153934 0.0137225041348357 0 0.29952050368460831 0.020515481782751772 0 0.30963339126106981 0.025572958800778811 0 0.31176024539324942 0.014607124327608049 0 0.3041832900153934 0.0137225041348357 0 0.30963339126106981 0.025572958800778811 0 0.30645447534339532 0.03702764793310144 0 0.30963339126106981 0.025572958800778811 0 0.29903122265262932 0.030258471221236628 0 0.29952050368460831 0.020515481782751772 0 0.30963339126106981 0.025572958800778811 0 0.29903122265262932 0.030258471221236628 0 0.28811392128480412 0.026718634802204069 0 0.29669806376170488 0.0049678218552653636 0 0.27031644215909922 0.01721210995424579 0 0.28811392128480412 0.026718634802204069 0 0.29669806376170488 0.0049678218552653636 0 0.29952050368460831 0.020515481782751772 0 0.28811392128480412 0.026718634802204069 0 0.29669806376170488 0.0049678218552653636 0 0.29952050368460831 0.020515481782751772 0 0.29903122265262932 0.030258471221236628 0 0.28811392128480412 0.026718634802204069 0 0.29669806376170488 0.0049678218552653636 0 0.27245236435601983 -0.0028518406608112538 0 0.27031644215909922 0.01721210995424579 0 0.25664898171853662 0.0056114648194218507 0 0.27245236435601983 -0.0028518406608112538 0 0.29669806376170488 0.0049678218552653636 0 0.27031644215909922 0.01721210995424579 0 0.27245236435601983 -0.0028518406608112538 0 0.28811392128480412 0.026718634802204069 0 0.27031644215909922 0.01721210995424579 0 0.26231954521215051 0.038746013259031348 0 0.27031644215909922 0.01721210995424579 0 0.25086627767031322 0.022580105788253649 0 0.26231954521215051 0.038746013259031348 0 0.27031644215909922 0.01721210995424579 0 0.25086627767031322 0.022580105788253649 0 0.25664898171853662 0.0056114648194218507 0 0.27952977880790281 0.048469447749142608 0 0.26215943952994147 0.056806656712077602 0 0.27094563633100138 0.070220260696081158 0 0.27952977880790281 0.048469447749142608 0 0.27094563633100138 0.070220260696081158 0 0.27952977880790281 0.048469447749142608 0 0.26231954521215051 0.038746013259031348 0 0.26215943952994147 0.056806656712077602 0 0.28302060083307568 0.062416438940867972 0 0.27952977880790281 0.048469447749142608 0 0.27094563633100138 0.070220260696081158 0 0.28811392128480412 0.026718634802204069 0 0.27952977880790281 0.048469447749142608 0 0.26231954521215051 0.038746013259031348 0 0.2416838059484307 0.037814910533120583 0 0.25086627767031322 0.022580105788253649 0 0.26231954521215051 0.038746013259031348 0 0.24652119060439481 0.055653709416835388 0 0.2416838059484307 0.037814910533120583 0 0.26231954521215051 0.038746013259031348 0 0.24652119060439481 0.055653709416835388 0 0.26231954521215051 0.038746013259031348 0 0.26215943952994147 0.056806656712077602 0 0.24830316683739459 0.072908673739454255 0 0.24652119060439481 0.055653709416835388 0 0.26215943952994147 0.056806656712077602 0 0.24830316683739459 0.072908673739454255 0 0.26215943952994147 0.056806656712077602 0 0.27094563633100138 0.070220260696081158 0 0.23942410030379571 0.090766949842815886 0 0.2623614938541014 0.091971073643020165 0 0.23942410030379571 0.090766949842815886 0 0.24830316683739459 0.072908673739454255 0 0.2623614938541014 0.091971073643020165 0 0.24830316683739459 0.072908673739454255 0 0.2623614938541014 0.091971073643020165 0 0.27094563633100138 0.070220260696081158 0 0.2623614938541014 0.091971073643020165 0 0.27094563633100138 0.070220260696081158 0 0.2623614938541014 0.091971073643020165 0 0.28329269969006388 0.093069880404083413 0 0.2623614938541014 0.091971073643020165 0 0.27094563633100138 0.070220260696081158 0 0.28329269969006388 0.093069880404083413 0 0.28302060083307568 0.062416438940867972 0 0.27094563633100138 0.070220260696081158 0 0.29223581026497752 0.072016954094534069 0 0.28302060083307568 0.062416438940867972 0 0.29303439878011889 0.056198386083636427 0 0.29223581026497752 0.072016954094534069 0 0.29303439878011889 0.056198386083636427 0 0.29223581026497752 0.072016954094534069 0 0.30286878527152628 0.065841221667380601 0 0.28329269969006388 0.093069880404083413 0 0.30294056932480701 0.080857979191016754 0 0.30422390552602668 0.094168687165142415 0 0.28329269969006388 0.093069880404083413 0 0.30422390552602668 0.094168687165142415 0 0.29223581026497752 0.072016954094534069 0 0.28329269969006388 0.093069880404083413 0 0.30294056932480701 0.080857979191016754 0 0.27094563633100138 0.070220260696081158 0 0.29223581026497752 0.072016954094534069 0 0.28329269969006388 0.093069880404083413 0 0.31618385360962098 0.081933260100759506 0 0.30294056932480701 0.080857979191016754 0 0.30422390552602668 0.094168687165142415 0 0.3155271692970999 0.068083096168644941 0 0.30294056932480701 0.080857979191016754 0 0.30286878527152628 0.065841221667380601 0 0.3155271692970999 0.068083096168644941 0 0.31618385360962098 0.081933260100759506 0 0.30294056932480701 0.080857979191016754 0 0.29223581026497752 0.072016954094534069 0 0.30294056932480701 0.080857979191016754 0 0.30286878527152628 0.065841221667380601 0 0.30900645554692968 0.1148101194087484 0 0.29718562734733173 0.1054930594498443 0 0.2863340169385814 0.1156961875294126 0 0.2863340169385814 0.1156961875294126 0 0.30833732554016358 0.131391246677655 0 0.30900645554692968 0.1148101194087484 0 0.2863340169385814 0.1156961875294126 0 0.30833732554016358 0.131391246677655 0 0.30900645554692968 0.1148101194087484 0 0.31121452546318068 0.1048736697011784 0 0.29718562734733173 0.1054930594498443 0 0.31828844118172511 0.094907020493415553 0 0.30422390552602668 0.094168687165142415 0 0.31828844118172511 0.094907020493415553 0 0.31121452546318068 0.1048736697011784 0 0.30422390552602668 0.094168687165142415 0 0.31121452546318068 0.1048736697011784 0 0.30422390552602668 0.094168687165142415 0 0.29718562734733173 0.1054930594498443 0 0.28329269969006388 0.093069880404083413 0 0.30422390552602668 0.094168687165142415 0 0.29718562734733173 0.1054930594498443 0 0.28329269969006388 0.093069880404083413 0 0.29718562734733173 0.1054930594498443 0 0.2863340169385814 0.1156961875294126 0 0.2863340169385814 0.1156961875294126 0 0.26838420719444761 0.1177005142887734 0 0.26433070833699918 0.1000011283811701 0 0.2863340169385814 0.1156961875294126 0 0.26838420719444761 0.1177005142887734 0 0.27011075122550909 0.13763122837261421 0 0.2863340169385814 0.1156961875294126 0 0.26433070833699918 0.1000011283811701 0 0.2623614938541014 0.091971073643020165 0 0.28329269969006388 0.093069880404083413 0 0.26433070833699918 0.1000011283811701 0 0.28329269969006388 0.093069880404083413 0 0.2863340169385814 0.1156961875294126 0 0.26433070833699918 0.1000011283811701 0 0.23942410030379571 0.090766949842815886 0 0.2623614938541014 0.091971073643020165 0 0.25134453292116388 0.1198862506267229 0 0.2623614938541014 0.091971073643020165 0 0.25134453292116388 0.1198862506267229 0 0.2623614938541014 0.091971073643020165 0 0.26433070833699918 0.1000011283811701 0 0.25134453292116388 0.1198862506267229 0 0.26838420719444761 0.1177005142887734 0 0.26433070833699918 0.1000011283811701 0 0.25134453292116388 0.1198862506267229 0 0.26838420719444761 0.1177005142887734 0 0.25134453292116388 0.1198862506267229 0 0.27011075122550909 0.13763122837261421 0 0.25134453292116388 0.1198862506267229 0 0.27011075122550909 0.13763122837261421 0 0.25701456527999161 0.14463384931756959 0 0.27011075122550909 0.13763122837261421 0 0.28120053588908278 0.16072301385173141 0 0.26656322516512371 0.1574409920173713 0 0.27011075122550909 0.13763122837261421 0 0.28120053588908278 0.16072301385173141 0 0.29157596064005142 0.1433247683572004 0 0.24032757198822879 0.1478014276104265 0 0.25701456527999161 0.14463384931756959 0 0.25507240122598079 0.15936991095455749 0 0.27011075122550909 0.13763122837261421 0 0.25701456527999161 0.14463384931756959 0 0.26656322516512371 0.1574409920173713 0 0.25701456527999161 0.14463384931756959 0 0.25507240122598079 0.15936991095455749 0 0.26656322516512371 0.1574409920173713 0 0.24935793312848609 0.1682376363615565 0 0.2457774495435478 0.16110322538626889 0 0.25507240122598079 0.15936991095455749 0 0.24935793312848609 0.1682376363615565 0 0.25507240122598079 0.15936991095455749 0 0.26221358857169208 0.16860192731032941 0 0.25507240122598079 0.15936991095455749 0 0.26221358857169208 0.16860192731032941 0 0.26656322516512371 0.1574409920173713 0 0.24732722008495439 0.17337280897561649 0 0.2588047481494174 0.19151691038237789 0 0.24732722008495439 0.17337280897561649 0 0.24935793312848609 0.1682376363615565 0 0.26386129336237918 0.18251298254532469 0 0.24732722008495439 0.17337280897561649 0 0.26386129336237918 0.18251298254532469 0 0.24732722008495439 0.17337280897561649 0 0.26386129336237918 0.18251298254532469 0 0.2588047481494174 0.19151691038237789 0 0.24935793312848609 0.1682376363615565 0 0.26386129336237918 0.18251298254532469 0 0.24935793312848609 0.1682376363615565 0 0.26221358857169208 0.16860192731032941 0 0.26386129336237918 0.18251298254532469 0 0.26386129336237918 0.18251298254532469 0 0.2737675087984861 0.17368602229742591 0 0.27827173756780649 0.19047919625711179 0 0.2737675087984861 0.17368602229742591 0 0.28694135883115418 0.1795842119103182 0 0.27827173756780649 0.19047919625711179 0 0.26386129336237918 0.18251298254532469 0 0.27827173756780649 0.19047919625711179 0 0.26221358857169208 0.16860192731032941 0 0.26386129336237918 0.18251298254532469 0 0.2737675087984861 0.17368602229742591 0 0.2737675087984861 0.17368602229742591 0 0.28120053588908278 0.16072301385173141 0 0.28694135883115418 0.1795842119103182 0 0.2737675087984861 0.17368602229742591 0 0.28120053588908278 0.16072301385173141 0 0.26656322516512371 0.1574409920173713 0 0.26221358857169208 0.16860192731032941 0 0.2737675087984861 0.17368602229742591 0 0.26656322516512371 0.1574409920173713 0 0.28120053588908278 0.16072301385173141 0 0.28694135883115418 0.1795842119103182 0 0.2979190492826489 0.16533782159497221 0 0.28120053588908278 0.16072301385173141 0 0.2979190492826489 0.16533782159497221 0 0.29157596064005142 0.1433247683572004 0 0.28120053588908278 0.16072301385173141 0 0.28694135883115418 0.1795842119103182 0 0.28694135883115418 0.1795842119103182 0 0.30332451532168042 0.18535159235402529 0 0.2979190492826489 0.16533782159497221 0 0.30332451532168042 0.18535159235402529 0 0.2979190492826489 0.16533782159497221 0 0.31669613387569878 0.1715084441434479 0 0.2979190492826489 0.16533782159497221 0 0.30936272411958482 0.15322474669331951 0 0.31669613387569878 0.1715084441434479 0 0.2979190492826489 0.16533782159497221 0 0.30936272411958482 0.15322474669331951 0 0.29157596064005142 0.1433247683572004 0 0.30936272411958482 0.15322474669331951 0 0.30833732554016358 0.131391246677655 0 0.29157596064005142 0.1433247683572004 0 0.2863340169385814 0.1156961875294126 0 0.30833732554016358 0.131391246677655 0 0.29157596064005142 0.1433247683572004 0 0.2863340169385814 0.1156961875294126 0 0.27011075122550909 0.13763122837261421 0 0.29157596064005142 0.1433247683572004 0 0.28286546901279602 0.2541753127175353 0 0.26865995106101642 0.23786067986208109 0 0.28608716603038298 0.2346459669068596 0 0.25444540126316278 0.25175855520636897 0 0.26865995106101642 0.23786067986208109 0 0.25107959658486639 0.2365254663968768 0 0.26865995106101642 0.23786067986208109 0 0.25107959658486639 0.2365254663968768 0 0.26810630659804913 0.23189892967454179 0 0.24752915448128771 0.21859147621267291 0 0.26810630659804913 0.23189892967454179 0 0.27028227621388251 0.2096610117891379 0 0.24752915448128771 0.21859147621267291 0 0.25107959658486639 0.2365254663968768 0 0.26810630659804913 0.23189892967454179 0 0.24752915448128771 0.21859147621267291 0 0.26810630659804913 0.23189892967454179 0 0.26865995106101642 0.23786067986208109 0 0.27028227621388251 0.2096610117891379 0 0.28608716603038298 0.2346459669068596 0 0.26865995106101642 0.23786067986208109 0 0.26810630659804913 0.23189892967454179 0 0.27028227621388251 0.2096610117891379 0 0.27028227621388251 0.2096610117891379 0 0.28608716603038298 0.2346459669068596 0 0.26865995106101642 0.23786067986208109 0 0.27028227621388251 0.2096610117891379 0 0.27474801450363218 0.21172517353697201 0 0.27604096983628912 0.20359605149110291 0 0.2904567050586 0.20869027544439839 0 0.27474801450363218 0.21172517353697201 0 0.27028227621388251 0.2096610117891379 0 0.28608716603038298 0.2346459669068596 0 0.27474801450363218 0.21172517353697201 0 0.27604096983628912 0.20359605149110291 0 0.27028227621388251 0.2096610117891379 0 0.24752915448128771 0.21859147621267291 0 0.27028227621388251 0.2096610117891379 0 0.2588047481494174 0.19151691038237789 0 0.27028227621388251 0.2096610117891379 0 0.2588047481494174 0.19151691038237789 0 0.26386129336237918 0.18251298254532469 0 0.2588047481494174 0.19151691038237789 0 0.27131436333517428 0.1917210111723717 0 0.27604096983628912 0.20359605149110291 0 0.27028227621388251 0.2096610117891379 0 0.27131436333517428 0.1917210111723717 0 0.26386129336237918 0.18251298254532469 0 0.27715899921048948 0.19560162899486161 0 0.27827173756780649 0.19047919625711179 0 0.27028227621388251 0.2096610117891379 0 0.27131436333517428 0.1917210111723717 0 0.26386129336237918 0.18251298254532469 0 0.27715899921048948 0.19560162899486161 0 0.27028227621388251 0.2096610117891379 0 0.2588047481494174 0.19151691038237789 0 0.27131436333517428 0.1917210111723717 0 0.26386129336237918 0.18251298254532469 0 0.27131436333517428 0.1917210111723717 0 0.27715899921048948 0.19560162899486161 0 0.27604096983628912 0.20359605149110291 0 0.27715899921048948 0.19560162899486161 0 0.2904567050586 0.20869027544439839 0 0.27604096983628912 0.20359605149110291 0 0.27131436333517428 0.1917210111723717 0 0.27715899921048948 0.19560162899486161 0 0.28694135883115418 0.1795842119103182 0 0.29268218177323169 0.19844540996890311 0 0.28694135883115418 0.1795842119103182 0 0.27827173756780649 0.19047919625711179 0 0.29268218177323169 0.19844540996890311 0 0.28694135883115418 0.1795842119103182 0 0.30332451532168042 0.18535159235402529 0 0.29268218177323169 0.19844540996890311 0 0.27715899921048948 0.19560162899486161 0 0.27827173756780649 0.19047919625711179 0 0.29268218177323169 0.19844540996890311 0 0.27827173756780649 0.19047919625711179 0 0.29268218177323169 0.19844540996890311 0 0.27715899921048948 0.19560162899486161 0 0.29268218177323169 0.19844540996890311 0 0.2904567050586 0.20869027544439839 0 0.27715899921048948 0.19560162899486161 0 0.2904567050586 0.20869027544439839 0 0.29268218177323169 0.19844540996890311 0 0.29550365117402699 0.20771521217700309 0 0.30332451532168042 0.18535159235402529 0 0.3058387691211355 0.20571848115512351 0 0.31797304822844391 0.1890335044146027 0 0.30332451532168042 0.18535159235402529 0 0.29268218177323169 0.19844540996890311 0 0.3058387691211355 0.20571848115512351 0 0.29268218177323169 0.19844540996890311 0 0.3058387691211355 0.20571848115512351 0 0.3058387691211355 0.20571848115512351 0 0.29550365117402699 0.20771521217700309 0 0.3058387691211355 0.20571848115512351 0 0.29808610059307672 0.21619972571461921 0 0.29550365117402699 0.20771521217700309 0 0.29268218177323169 0.19844540996890311 0 0.3058387691211355 0.20571848115512351 0 0.29550365117402699 0.20771521217700309 0 0.3103995052412698 0.21523574135692969 0 0.29808610059307672 0.21619972571461921 0 0.31896876282740688 0.22403038914724449 0 0.3058387691211355 0.20571848115512351 0 0.3103995052412698 0.21523574135692969 0 0.32030140625346232 0.2137135475520878 0 0.3058387691211355 0.20571848115512351 0 0.3103995052412698 0.21523574135692969 0 0.29808610059307672 0.21619972571461921 0 0.27474801450363218 0.21172517353697201 0 0.2904567050586 0.20869027544439839 0 0.29808610059307672 0.21619972571461921 0 0.2904567050586 0.20869027544439839 0 0.28896503162999171 0.21977399107885631 0 0.29808610059307672 0.21619972571461921 0 0.29550365117402699 0.20771521217700309 0 0.27474801450363218 0.21172517353697201 0 0.2904567050586 0.20869027544439839 0 0.28896503162999171 0.21977399107885631 0 0.29808610059307672 0.21619972571461921 0 0.2904567050586 0.20869027544439839 0 0.29550365117402699 0.20771521217700309 0 0.2904567050586 0.20869027544439839 0 0.29268218177323169 0.19844540996890311 0 0.29550365117402699 0.20771521217700309 0 0.2904567050586 0.20869027544439839 0 0.29808610059307672 0.21619972571461921 0 0.29550365117402699 0.20771521217700309 0 0.2904567050586 0.20869027544439839 0 0.27474801450363218 0.21172517353697201 0 0.28896503162999171 0.21977399107885631 0 0.28608716603038298 0.2346459669068596 0 0.29449167763670431 0.22724273767240649 0 0.30482841229336738 0.2383512669892898 0 0.28608716603038298 0.2346459669068596 0 0.28896503162999171 0.21977399107885631 0 0.29449167763670431 0.22724273767240649 0 0.28608716603038298 0.2346459669068596 0 0.29808610059307672 0.21619972571461921 0 0.28896503162999171 0.21977399107885631 0 0.29449167763670431 0.22724273767240649 0 0.29808610059307672 0.21619972571461921 0 0.31933187964179099 0.2371114900211779 0 0.31896876282740688 0.22403038914724449 0 0.29808610059307672 0.21619972571461921 0 0.30482841229336738 0.2383512669892898 0 0.31933187964179099 0.2371114900211779 0 0.29808610059307672 0.21619972571461921 0 0.29449167763670431 0.22724273767240649 0 0.30482841229336738 0.2383512669892898 0 0.29808610059307672 0.21619972571461921 0 0.31933187964179099 0.2371114900211779 0 0.29808610059307672 0.21619972571461921 0 0.30482841229336738 0.2383512669892898 0 0.31157072399365621 0.26050280826396088 0 0.30482841229336738 0.2383512669892898 0 0.31157072399365621 0.26050280826396088 0 0.30482841229336738 0.2383512669892898 0 0.31480198050771557 0.2478617752562236 0 0.30189205584688011 0.25963092202458321 0 0.30482841229336738 0.2383512669892898 0 0.28608716603038298 0.2346459669068596 0 0.30189205584688011 0.25963092202458321 0 0.28608716603038298 0.2346459669068596 0 0.28286546901279602 0.2541753127175353 0 0.30189205584688011 0.25963092202458321 0 0.28608716603038298 0.2346459669068596 0 0.34057765869050649 0.25802325432773521 0 0.33476248464105629 0.23713924382885679 0 0.31933187964179099 0.2371114900211779 0 0.34057765869050649 0.25802325432773521 0 0.31933187964179099 0.2371114900211779 0 0.34057765869050649 0.25802325432773521 0 0.33476248464105629 0.23713924382885679 0 0.3486195408250311 0.23778695413278009 0 0.32295172191333288 0.25486780088420963 0 0.31480198050771557 0.2478617752562236 0 0.31933187964179099 0.2371114900211779 0 0.30482841229336738 0.2383512669892898 0 0.31480198050771557 0.2478617752562236 0 0.31933187964179099 0.2371114900211779 0 0.31896876282740688 0.22403038914724449 0 0.33476404338578902 0.22170861394905239 0 0.32030140625346232 0.2137135475520878 0 0.33476248464105629 0.23713924382885679 0 0.31933187964179099 0.2371114900211779 0 0.31896876282740688 0.22403038914724449 0 0.33476248464105629 0.23713924382885679 0 0.31896876282740688 0.22403038914724449 0 0.33476404338578902 0.22170861394905239 0 0.33476248464105629 0.23713924382885679 0 0.33476404338578902 0.22170861394905239 0 0.3486195408250311 0.23778695413278009 0 0.33476404338578902 0.22170861394905239 0 0.34307266607757603 0.20872765059878501 0 0.32924707071505138 0.20119602846505541 0 0.3058387691211355 0.20571848115512351 0 0.32924707071505138 0.20119602846505541 0 0.33476404338578902 0.22170861394905239 0 0.32030140625346232 0.2137135475520878 0 0.3058387691211355 0.20571848115512351 0 0.32030140625346232 0.2137135475520878 0 0.32924707071505138 0.20119602846505541 0 0.33476404338578902 0.22170861394905239 0 0.32030140625346232 0.2137135475520878 0 0.32924707071505138 0.20119602846505541 0 0.3103995052412698 0.21523574135692969 0 0.31896876282740688 0.22403038914724449 0 0.32030140625346232 0.2137135475520878 0 0.3058387691211355 0.20571848115512351 0 0.32030140625346232 0.2137135475520878 0 0.31797304822844391 0.1890335044146027 0 0.32924707071505138 0.20119602846505541 0 0.33304385809230791 0.18297429690280309 0 0.3058387691211355 0.20571848115512351 0 0.31797304822844391 0.1890335044146027 0 0.32924707071505138 0.20119602846505541 0 0.34307266607757603 0.20872765059878501 0 0.32924707071505138 0.20119602846505541 0 0.35265537230896737 0.1966735757749889 0 0.32924707071505138 0.20119602846505541 0 0.35265537230896737 0.1966735757749889 0 0.32924707071505138 0.20119602846505541 0 0.35265537230896737 0.1966735757749889 0 0.33304385809230791 0.18297429690280309 0 0.35265537230896737 0.1966735757749889 0 0.36550224296116102 0.19419157747592511 0 0.3555796685913406 0.1734406465116301 0 0.35265537230896737 0.1966735757749889 0 0.36550224296116102 0.19419157747592511 0 0.36550224296116102 0.19419157747592511 0 0.36993612691743277 0.19076335988640261 0 0.36944367673679163 0.18460589250079371 0 0.36550224296116102 0.19419157747592511 0 0.36832630984393561 0.19516385875954009 0 0.36943808105392201 0.193616850172081 0 0.36550224296116102 0.19419157747592511 0 0.36993612691743277 0.19076335988640261 0 0.36943808105392201 0.193616850172081 0 0.36832630984393561 0.19516385875954009 0 0.36943808105392201 0.193616850172081 0 0.37009275034049299 0.19598019479328049 0 0.36993612691743277 0.19076335988640261 0 0.36943808105392201 0.193616850172081 0 0.374015624345653 0.19480245735417129 0 0.36943808105392201 0.193616850172081 0 0.374015624345653 0.19480245735417129 0 0.37009275034049299 0.19598019479328049 0 0.36993612691743277 0.19076335988640261 0 0.374015624345653 0.19480245735417129 0 0.37674707336207858 0.18922182986519309 0 0.36993612691743277 0.19076335988640261 0 0.36944367673679163 0.18460589250079371 0 0.37674707336207858 0.18922182986519309 0 0.37161413123265291 0.1997157465725343 0 0.37363481024089218 0.20686709004715931 0 0.3784490857752954 0.20019611894740469 0 0.374015624345653 0.19480245735417129 0 0.37161413123265291 0.1997157465725343 0 0.3784490857752954 0.20019611894740469 0 0.374015624345653 0.19480245735417129 0 0.37161413123265291 0.1997157465725343 0 0.37009275034049299 0.19598019479328049 0 0.37161413123265291 0.1997157465725343 0 0.37009275034049299 0.19598019479328049 0 0.36705468898173099 0.19743818455569739 0 0.36832630984393561 0.19516385875954009 0 0.37009275034049299 0.19598019479328049 0 0.36705468898173099 0.19743818455569739 0 0.37161413123265291 0.1997157465725343 0 0.36740305678314811 0.20254808671514801 0 0.36705468898173099 0.19743818455569739 0 0.37161413123265291 0.1997157465725343 0 0.36740305678314811 0.20254808671514801 0 0.37363481024089218 0.20686709004715931 0 0.36740305678314811 0.20254808671514801 0 0.36705468898173099 0.19743818455569739 0 0.36027273074481192 0.20086584203251909 0 0.35265537230896737 0.1966735757749889 0 0.36550224296116102 0.19419157747592511 0 0.36027273074481192 0.20086584203251909 0 0.36550224296116102 0.19419157747592511 0 0.36705468898173099 0.19743818455569739 0 0.36027273074481192 0.20086584203251909 0 0.36550224296116102 0.19419157747592511 0 0.36705468898173099 0.19743818455569739 0 0.36550224296116102 0.19419157747592511 0 0.36832630984393561 0.19516385875954009 0 0.36705468898173099 0.19743818455569739 0 0.36903224375851029 0.21444349510298341 0 0.3556241779004965 0.21533238420604511 0 0.37259986426957498 0.226314169942749 0 0.36027273074481192 0.20086584203251909 0 0.36443892271565231 0.2078535703678295 0 0.3556241779004965 0.21533238420604511 0 0.36740305678314811 0.20254808671514801 0 0.36027273074481192 0.20086584203251909 0 0.36443892271565231 0.2078535703678295 0 0.36443892271565231 0.2078535703678295 0 0.37363481024089218 0.20686709004715931 0 0.36903224375851029 0.21444349510298341 0 0.36740305678314811 0.20254808671514801 0 0.36443892271565231 0.2078535703678295 0 0.37363481024089218 0.20686709004715931 0 0.37363481024089218 0.20686709004715931 0 0.36903224375851029 0.21444349510298341 0 0.37901632661250961 0.21610570472152529 0 0.36443892271565231 0.2078535703678295 0 0.36903224375851029 0.21444349510298341 0 0.3556241779004965 0.21533238420604511 0 0.34307266607757603 0.20872765059878501 0 0.35265537230896737 0.1966735757749889 0 0.3556241779004965 0.21533238420604511 0 0.35265537230896737 0.1966735757749889 0 0.3556241779004965 0.21533238420604511 0 0.33476404338578902 0.22170861394905239 0 0.34307266607757603 0.20872765059878501 0 0.3556241779004965 0.21533238420604511 0 0.35265537230896737 0.1966735757749889 0 0.36027273074481192 0.20086584203251909 0 0.3556241779004965 0.21533238420604511 0 0.3556241779004965 0.21533238420604511 0 0.3650284794929699 0.23595483461509889 0 0.3486195408250311 0.23778695413278009 0 0.33476404338578902 0.22170861394905239 0 0.3556241779004965 0.21533238420604511 0 0.3486195408250311 0.23778695413278009 0 0.3556241779004965 0.21533238420604511 0 0.37259986426957498 0.226314169942749 0 0.3650284794929699 0.23595483461509889 0 0.36903224375851029 0.21444349510298341 0 0.37259986426957498 0.226314169942749 0 0.37901632661250961 0.21610570472152529 0 0.36096040083936881 0.25856339386989252 0 0.3650284794929699 0.23595483461509889 0 0.37692826582088329 0.2449998410245251 0 0.37259986426957498 0.226314169942749 0 0.3650284794929699 0.23595483461509889 0 0.37692826582088329 0.2449998410245251 0 0.36096040083936881 0.25856339386989252 0 0.3650284794929699 0.23595483461509889 0 0.3486195408250311 0.23778695413278009 0 0.33034063414174558 0.14708630582589741 0 0.33253529016044092 0.1647525829575624 0 0.34565709422152102 0.15268971554733471 0 0.34183770977295652 0.1286850575954325 0 0.34565709422152102 0.15268971554733471 0 0.33652558431203489 0.1335931258248326 0 0.34565709422152102 0.15268971554733471 0 0.33034063414174558 0.14708630582589741 0 0.33652558431203489 0.1335931258248326 0 0.34565709422152102 0.15268971554733471 0 0.34183770977295652 0.1286850575954325 0 0.33652558431203489 0.1335931258248326 0 0.34565709422152102 0.15268971554733471 0 0.32739407440255019 0.11449653610232979 0 0.33652558431203489 0.1335931258248326 0 0.32274719733189822 0.12845008037485181 0 0.33034063414174558 0.14708630582589741 0 0.33652558431203489 0.1335931258248326 0 0.32274719733189822 0.12845008037485181 0 0.32739407440255019 0.11449653610232979 0 0.34183770977295652 0.1286850575954325 0 0.33652558431203489 0.1335931258248326 0 0.30833732554016358 0.131391246677655 0 0.33034063414174558 0.14708630582589741 0 0.30833732554016358 0.131391246677655 0 0.33034063414174558 0.14708630582589741 0 0.32274719733189822 0.12845008037485181 0 0.30936272411958482 0.15322474669331951 0 0.30833732554016358 0.131391246677655 0 0.33034063414174558 0.14708630582589741 0 0.30936272411958482 0.15322474669331951 0 0.33034063414174558 0.14708630582589741 0 0.32223369557436748 0.1591430199050568 0 0.32223369557436748 0.1591430199050568 0 0.31669613387569878 0.1715084441434479 0 0.33253529016044092 0.1647525829575624 0 0.30936272411958482 0.15322474669331951 0 0.32223369557436748 0.1591430199050568 0 0.31669613387569878 0.1715084441434479 0 0.31797304822844391 0.1890335044146027 0 0.31669613387569878 0.1715084441434479 0 0.33304385809230791 0.18297429690280309 0 0.31669613387569878 0.1715084441434479 0 0.33304385809230791 0.18297429690280309 0 0.33253529016044092 0.1647525829575624 0 0.30332451532168042 0.18535159235402529 0 0.31797304822844391 0.1890335044146027 0 0.31669613387569878 0.1715084441434479 0 0.33304385809230791 0.18297429690280309 0 0.33253529016044092 0.1647525829575624 0 0.34915623326524498 0.17468164566116171 0 0.33034063414174558 0.14708630582589741 0 0.32223369557436748 0.1591430199050568 0 0.33253529016044092 0.1647525829575624 0 0.33253529016044092 0.1647525829575624 0 0.34915623326524498 0.17468164566116171 0 0.34565709422152102 0.15268971554733471 0 0.3555796685913406 0.1734406465116301 0 0.34565709422152102 0.15268971554733471 0 0.34915623326524498 0.17468164566116171 0 0.3555796685913406 0.1734406465116301 0 0.34565709422152102 0.15268971554733471 0 0.34915623326524498 0.17468164566116171 0 0.34565709422152102 0.15268971554733471 0 0.3555796685913406 0.1734406465116301 0 0.36585530987976739 0.1551581633561489 0 0.34565709422152102 0.15268971554733471 0 0.35265537230896737 0.1966735757749889 0 0.33304385809230791 0.18297429690280309 0 0.34915623326524498 0.17468164566116171 0 0.35265537230896737 0.1966735757749889 0 0.34915623326524498 0.17468164566116171 0 0.35265537230896737 0.1966735757749889 0 0.34915623326524498 0.17468164566116171 0 0.3555796685913406 0.1734406465116301 0 0.3555796685913406 0.1734406465116301 0 0.3719813342835141 0.1765815502499099 0 0.36944367673679163 0.18460589250079371 0 0.36550224296116102 0.19419157747592511 0 0.3555796685913406 0.1734406465116301 0 0.36550224296116102 0.19419157747592511 0 0.3555796685913406 0.1734406465116301 0 0.36944367673679163 0.18460589250079371 0 0.36944367673679163 0.18460589250079371 0 0.37868821560282889 0.1821627733024184 0 0.37674707336207858 0.18922182986519309 0 0.3719813342835141 0.1765815502499099 0 0.36944367673679163 0.18460589250079371 0 0.37868821560282889 0.1821627733024184 0 0.3555796685913406 0.1734406465116301 0 0.37391297678728858 0.16554233000905519 0 0.36585530987976739 0.1551581633561489 0 0.3555796685913406 0.1734406465116301 0 0.3719813342835141 0.1765815502499099 0 0.37391297678728858 0.16554233000905519 0 0.37391297678728858 0.16554233000905519 0 0.36585530987976739 0.1551581633561489 0 0.38048567437745168 0.15121413435142619 0 0.36050012222480021 0.14362702031996619 0 0.36585530987976739 0.1551581633561489 0 0.3729433360864845 0.13668025046803009 0 0.36585530987976739 0.1551581633561489 0 0.3729433360864845 0.13668025046803009 0 0.38048567437745168 0.15121413435142619 0 0.36050012222480021 0.14362702031996619 0 0.36585530987976739 0.1551581633561489 0 0.34565709422152102 0.15268971554733471 0 0.34183770977295652 0.1286850575954325 0 0.36050012222480021 0.14362702031996619 0 0.34565709422152102 0.15268971554733471 0 0.34183770977295652 0.1286850575954325 0 0.36050012222480021 0.14362702031996619 0 0.35944931917726008 0.1288775326312549 0 0.36825940068727891 0.1201696056674174 0 0.35944931917726008 0.1288775326312549 0 0.3729433360864845 0.13668025046803009 0 0.36050012222480021 0.14362702031996619 0 0.35944931917726008 0.1288775326312549 0 0.3729433360864845 0.13668025046803009 0 0.36825940068727891 0.1201696056674174 0 0.3729433360864845 0.13668025046803009 0 0.38433036034418039 0.1209483736269318 0 0.3729433360864845 0.13668025046803009 0 0.38908056233843558 0.13611845775366421 0 0.38433036034418039 0.1209483736269318 0 0.38908056233843558 0.13611845775366421 0 0.39473513970358098 0.12854290425844639 0 0.38433036034418039 0.1209483736269318 0 0.38908056233843558 0.13611845775366421 0 0.39473513970358098 0.12854290425844639 0 0.40686713537665758 0.13884643888672771 0 0.40686713537665758 0.13884643888672771 0 0.39866250075504972 0.1182583467664623 0 0.39473513970358098 0.12854290425844639 0 0.40686713537665758 0.13884643888672771 0 0.39866250075504972 0.1182583467664623 0 0.40784013254787072 0.12510821097753899 0 0.40686713537665758 0.13884643888672771 0 0.39866250075504972 0.1182583467664623 0 0.38908056233843558 0.13611845775366421 0 0.39416977992171898 0.1499733707439164 0 0.40686713537665758 0.13884643888672771 0 0.39416977992171898 0.1499733707439164 0 0.41507176999826467 0.15943453100699351 0 0.40686713537665758 0.13884643888672771 0 0.39416977992171898 0.1499733707439164 0 0.38048567437745168 0.15121413435142619 0 0.38696668242563659 0.1633008213670592 0 0.3729433360864845 0.13668025046803009 0 0.38908056233843558 0.13611845775366421 0 0.38048567437745168 0.15121413435142619 0 0.38908056233843558 0.13611845775366421 0 0.39416977992171898 0.1499733707439164 0 0.38048567437745168 0.15121413435142619 0 0.37391297678728858 0.16554233000905519 0 0.38048567437745168 0.15121413435142619 0 0.38696668242563659 0.1633008213670592 0 0.37391297678728858 0.16554233000905519 0 0.38696668242563659 0.1633008213670592 0 0.38179831695709121 0.17371663772951451 0 0.38696668242563659 0.1633008213670592 0 0.38179831695709121 0.17371663772951451 0 0.39334912795776528 0.17215309239046281 0 0.37868821560282889 0.1821627733024184 0 0.37674707336207858 0.18922182986519309 0 0.38476682246741772 0.1888559951450019 0 0.3719813342835141 0.1765815502499099 0 0.37391297678728858 0.16554233000905519 0 0.38179831695709121 0.17371663772951451 0 0.3719813342835141 0.1765815502499099 0 0.37868821560282889 0.1821627733024184 0 0.38179831695709121 0.17371663772951451 0 0.37868821560282889 0.1821627733024184 0 0.38179831695709121 0.17371663772951451 0 0.38815313606359259 0.18129501024237629 0 0.38179831695709121 0.17371663772951451 0 0.38815313606359259 0.18129501024237629 0 0.39334912795776528 0.17215309239046281 0 0.38815313606359259 0.18129501024237629 0 0.38476682246741772 0.1888559951450019 0 0.39561309132680222 0.18929008946206871 0 0.37868821560282889 0.1821627733024184 0 0.38815313606359259 0.18129501024237629 0 0.38476682246741772 0.1888559951450019 0 0.38815313606359259 0.18129501024237629 0 0.40349965368664509 0.17631150874670279 0 0.39561309132680222 0.18929008946206871 0 0.38815313606359259 0.18129501024237629 0 0.39334912795776528 0.17215309239046281 0 0.40349965368664509 0.17631150874670279 0 0.40349965368664509 0.17631150874670279 0 0.39561309132680222 0.18929008946206871 0 0.40813544341014718 0.1894234335714223 0 0.40349965368664509 0.17631150874670279 0 0.39907331154613618 0.16392322307121221 0 0.41507176999826467 0.15943453100699351 0 0.39416977992171898 0.1499733707439164 0 0.39907331154613618 0.16392322307121221 0 0.41507176999826467 0.15943453100699351 0 0.39416977992171898 0.1499733707439164 0 0.38696668242563659 0.1633008213670592 0 0.39907331154613618 0.16392322307121221 0 0.38696668242563659 0.1633008213670592 0 0.39334912795776528 0.17215309239046281 0 0.39907331154613618 0.16392322307121221 0 0.39334912795776528 0.17215309239046281 0 0.40349965368664509 0.17631150874670279 0 0.39907331154613618 0.16392322307121221 0 0.41507176999826467 0.15943453100699351 0 0.42327640461987182 0.18002262312725911 0 0.40349965368664509 0.17631150874670279 0 0.42327640461987182 0.18002262312725911 0 0.40813544341014718 0.1894234335714223 0 0.40349965368664509 0.17631150874670279 0 0.41507176999826467 0.15943453100699351 0 0.42327640461987182 0.18002262312725911 0 0.42327640461987182 0.18002262312725911 0 0.43265840359834212 0.19362333930019149 0 0.44166596344978948 0.181606965634209 0 0.42327640461987182 0.18002262312725911 0 0.43911803778611358 0.16252290646227241 0 0.44166596344978948 0.181606965634209 0 0.41507176999826467 0.15943453100699351 0 0.42327640461987182 0.18002262312725911 0 0.43911803778611358 0.16252290646227241 0 0.41507176999826467 0.15943453100699351 0 0.43137069993090188 0.14551661572495589 0 0.43911803778611358 0.16252290646227241 0 0.43137069993090188 0.14551661572495589 0 0.42152907262639933 0.13294792744816941 0 0.41870966948305588 0.1441863782667116 0 0.42152907262639933 0.13294792744816941 0 0.44518713843701591 0.12528920559461021 0 0.42036882790173341 0.1178692878251045 0 0.43137069993090188 0.14551661572495589 0 0.42152907262639933 0.13294792744816941 0 0.44518713843701591 0.12528920559461021 0 0.42152907262639933 0.13294792744816941 0 0.40686713537665758 0.13884643888672771 0 0.41870966948305588 0.1441863782667116 0 0.42152907262639933 0.13294792744816941 0 0.40784013254787072 0.12510821097753899 0 0.42036882790173341 0.1178692878251045 0 0.42152907262639933 0.13294792744816941 0 0.40784013254787072 0.12510821097753899 0 0.40686713537665758 0.13884643888672771 0 0.41507176999826467 0.15943453100699351 0 0.40686713537665758 0.13884643888672771 0 0.41870966948305588 0.1441863782667116 0 0.41507176999826467 0.15943453100699351 0 0.40686713537665758 0.13884643888672771 0 0.41507176999826467 0.15943453100699351 0 0.43137069993090188 0.14551661572495589 0 0.41870966948305588 0.1441863782667116 0 0.39043011514462961 0.2351131378805737 0 0.41211135859945858 0.23859957228918491 0 0.39403451087938568 0.25232690265456059 0 0.39043011514462961 0.2351131378805737 0 0.41211135859945858 0.23859957228918491 0 0.37259986426957498 0.226314169942749 0 0.37692826582088329 0.2449998410245251 0 0.39043011514462961 0.2351131378805737 0 0.39403451087938568 0.25232690265456059 0 0.37692826582088329 0.2449998410245251 0 0.39043011514462961 0.2351131378805737 0 0.39043011514462961 0.2351131378805737 0 0.39162063004833542 0.21624783810509871 0 0.37901632661250961 0.21610570472152529 0 0.37259986426957498 0.226314169942749 0 0.39043011514462961 0.2351131378805737 0 0.37901632661250961 0.21610570472152529 0 0.39043011514462961 0.2351131378805737 0 0.40485360141808602 0.21918297158117189 0 0.39162063004833542 0.21624783810509871 0 0.39043011514462961 0.2351131378805737 0 0.40485360141808602 0.21918297158117189 0 0.41211135859945858 0.23859957228918491 0 0.40485360141808602 0.21918297158117189 0 0.3988537881723313 0.20331136170110889 0 0.39162063004833542 0.21624783810509871 0 0.3988537881723313 0.20331136170110889 0 0.39162063004833542 0.21624783810509871 0 0.38500982755850061 0.20696052044022339 0 0.39162063004833542 0.21624783810509871 0 0.37901632661250961 0.21610570472152529 0 0.38500982755850061 0.20696052044022339 0 0.37363481024089218 0.20686709004715931 0 0.37901632661250961 0.21610570472152529 0 0.38500982755850061 0.20696052044022339 0 0.37363481024089218 0.20686709004715931 0 0.38500982755850061 0.20696052044022339 0 0.3784490857752954 0.20019611894740469 0 0.38500982755850061 0.20696052044022339 0 0.38786138963732142 0.197087776036317 0 0.3784490857752954 0.20019611894740469 0 0.3988537881723313 0.20331136170110889 0 0.38500982755850061 0.20696052044022339 0 0.38786138963732142 0.197087776036317 0 0.38786138963732142 0.197087776036317 0 0.3784490857752954 0.20019611894740469 0 0.38153802881188242 0.19407849196163809 0 0.374015624345653 0.19480245735417129 0 0.3784490857752954 0.20019611894740469 0 0.38153802881188242 0.19407849196163809 0 0.37674707336207858 0.18922182986519309 0 0.38153802881188242 0.19407849196163809 0 0.38476682246741772 0.1888559951450019 0 0.374015624345653 0.19480245735417129 0 0.37674707336207858 0.18922182986519309 0 0.38153802881188242 0.19407849196163809 0 0.38786138963732142 0.197087776036317 0 0.38476682246741772 0.1888559951450019 0 0.39561309132680222 0.18929008946206871 0 0.38786138963732142 0.197087776036317 0 0.38153802881188242 0.19407849196163809 0 0.38476682246741772 0.1888559951450019 0 0.3988537881723313 0.20331136170110889 0 0.38786138963732142 0.197087776036317 0 0.39561309132680222 0.18929008946206871 0 0.3988537881723313 0.20331136170110889 0 0.39561309132680222 0.18929008946206871 0 0.40813544341014718 0.1894234335714223 0 0.42327640461987182 0.18002262312725911 0 0.41730424488867152 0.2013805942877995 0 0.40813544341014718 0.1894234335714223 0 0.3988537881723313 0.20331136170110889 0 0.41730424488867152 0.2013805942877995 0 0.40813544341014718 0.1894234335714223 0 0.42327640461987182 0.18002262312725911 0 0.41730424488867152 0.2013805942877995 0 0.43265840359834212 0.19362333930019149 0 0.41730424488867152 0.2013805942877995 0 0.43265840359834212 0.19362333930019149 0 0.43703063874675091 0.20918072868622609 0 0.41730424488867152 0.2013805942877995 0 0.43703063874675091 0.20918072868622609 0 0.42120026928626342 0.2210349685837176 0 0.43703063874675091 0.20918072868622609 0 0.42120026928626342 0.2210349685837176 0 0.4376281912163929 0.22558561624805651 0 0.40485360141808602 0.21918297158117189 0 0.3988537881723313 0.20331136170110889 0 0.41730424488867152 0.2013805942877995 0 0.40485360141808602 0.21918297158117189 0 0.41730424488867152 0.2013805942877995 0 0.42120026928626342 0.2210349685837176 0 0.40485360141808602 0.21918297158117189 0 0.42120026928626342 0.2210349685837176 0 0.41211135859945858 0.23859957228918491 0 0.42120026928626342 0.2210349685837176 0 0.43379260205428782 0.2420860066977962 0 0.41211135859945858 0.23859957228918491 0 0.42120026928626342 0.2210349685837176 0 0.43379260205428782 0.2420860066977962 0 0.4376281912163929 0.22558561624805651 0 0.42881036932591698 0.26049773150289751 0 0.43379260205428782 0.2420860066977962 0 0.41211135859945858 0.23859957228918491 0 0.43379260205428782 0.2420860066977962 0 0.41211135859945858 0.23859957228918491 0 0.46508968338692852 0.2382364646876555 0 0.45547384550911679 0.24557244110640769 0 0.47161077686298242 0.24816732699654209 0 0.45547384550911679 0.24557244110640769 0 0.47161077686298242 0.24816732699654209 0 0.46408427701748561 0.25440272181502671 0 0.45547384550911679 0.24557244110640769 0 0.47161077686298242 0.24816732699654209 0 0.46508968338692852 0.2382364646876555 0 0.45547384550911679 0.24557244110640769 0 0.45913781455856889 0.23264659440284169 0 0.45547384550911679 0.24557244110640769 0 0.45913781455856889 0.23264659440284169 0 0.45547384550911679 0.24557244110640769 0 0.44661568554913522 0.2336163065862589 0 0.45913781455856889 0.23264659440284169 0 0.43379260205428782 0.2420860066977962 0 0.45547384550911679 0.24557244110640769 0 0.44661568554913522 0.2336163065862589 0 0.44172146682776492 0.25431021510112339 0 0.43379260205428782 0.2420860066977962 0 0.45547384550911679 0.24557244110640769 0 0.43379260205428782 0.2420860066977962 0 0.45547384550911679 0.24557244110640769 0 0.44661568554913522 0.2336163065862589 0 0.44950176044552731 0.22201007068628359 0 0.45913781455856889 0.23264659440284169 0 0.43703063874675091 0.20918072868622609 0 0.4376281912163929 0.22558561624805651 0 0.44950176044552731 0.22201007068628359 0 0.43379260205428782 0.2420860066977962 0 0.44661568554913522 0.2336163065862589 0 0.4376281912163929 0.22558561624805651 0 0.44661568554913522 0.2336163065862589 0 0.4376281912163929 0.22558561624805651 0 0.44950176044552731 0.22201007068628359 0 0.46045405434045172 0.22128415683626479 0 0.45913781455856889 0.23264659440284169 0 0.47513749835107139 0.22191614669744991 0 0.46508968338692852 0.2382364646876555 0 0.45913781455856889 0.23264659440284169 0 0.47513749835107139 0.22191614669744991 0 0.44950176044552731 0.22201007068628359 0 0.46045405434045172 0.22128415683626479 0 0.45913781455856889 0.23264659440284169 0 0.46045405434045172 0.22128415683626479 0 0.45803914400663942 0.2085638155584838 0 0.47513749835107139 0.22191614669744991 0 0.44950176044552731 0.22201007068628359 0 0.46045405434045172 0.22128415683626479 0 0.45803914400663942 0.2085638155584838 0 0.43703063874675091 0.20918072868622609 0 0.45803914400663942 0.2085638155584838 0 0.44624767127928888 0.19639470466390119 0 0.43703063874675091 0.20918072868622609 0 0.44950176044552731 0.22201007068628359 0 0.45803914400663942 0.2085638155584838 0 0.43265840359834212 0.19362333930019149 0 0.43703063874675091 0.20918072868622609 0 0.44624767127928888 0.19639470466390119 0 0.43265840359834212 0.19362333930019149 0 0.44624767127928888 0.19639470466390119 0 0.44166596344978948 0.181606965634209 0 0.44624767127928888 0.19639470466390119 0 0.45128315255907098 0.18808830691262671 0 0.44166596344978948 0.181606965634209 0 0.44624767127928888 0.19639470466390119 0 0.45128315255907098 0.18808830691262671 0 0.45792058718566048 0.19655644906007549 0 0.45792058718566048 0.19655644906007549 0 0.47866421983915552 0.19566496639835729 0 0.45908250144974022 0.18566287530771031 0 0.45803914400663942 0.2085638155584838 0 0.45792058718566048 0.19655644906007549 0 0.47866421983915552 0.19566496639835729 0 0.45128315255907098 0.18808830691262671 0 0.45792058718566048 0.19655644906007549 0 0.45908250144974022 0.18566287530771031 0 0.45803914400663942 0.2085638155584838 0 0.44624767127928888 0.19639470466390119 0 0.45792058718566048 0.19655644906007549 0 0.47866421983915552 0.19566496639835729 0 0.46334846987602002 0.17968274937143 0 0.47866421983915552 0.19566496639835729 0 0.48933210991957682 0.20679707125088301 0 0.47866421983915552 0.19566496639835729 0 0.49109866885568632 0.19400826991936471 0 0.4874970145196989 0.18445806376551499 0 0.49109866885568632 0.19400826991936471 0 0.5 0.2003501414284922 0 0.49999999999999972 0.18277110675357619 0 0.49109866885568632 0.19400826991936471 0 0.5 0.2003501414284922 0 0.48933210991957682 0.20679707125088301 0 0.47866421983915552 0.19566496639835729 0 0.49109866885568632 0.19400826991936471 0 0.48933210991957682 0.20679707125088301 0 0.5 0.2003501414284922 0 0.48933210991957682 0.20679707125088301 0 0.49999999999999872 0.21792917610340801 0 0.48933210991957682 0.20679707125088301 0 0.49999999999999872 0.21792917610340801 0 0.48791563526972859 0.2263229059557407 0 0.48933210991957682 0.20679707125088301 0 0.49999999999999872 0.21792917610340801 0 0.45803914400663942 0.2085638155584838 0 0.47866421983915552 0.19566496639835729 0 0.47513749835107139 0.22191614669744991 0 0.47866421983915552 0.19566496639835729 0 0.47513749835107139 0.22191614669744991 0 0.47866421983915552 0.19566496639835729 0 0.48933210991957682 0.20679707125088301 0 0.47513749835107139 0.22191614669744991 0 0.48933210991957682 0.20679707125088301 0 0.47513749835107139 0.22191614669744991 0 0.48791563526972859 0.2263229059557407 0 0.47513749835107139 0.22191614669744991 0 0.48791563526972859 0.2263229059557407 0 0.47161077686298242 0.24816732699654209 0 0.49999999999999872 0.21792917610340801 0 0.48791563526972859 0.2263229059557407 0 0.5 0.23533080431464601 0 0.48791563526972859 0.2263229059557407 0 0.5 0.23533080431464601 0 0.47161077686298242 0.24816732699654209 0 0.50000000000000133 0.25273243252588418 0 0.5 0.23533080431464601 0 0.47161077686298242 0.24816732699654209 0 0.47513749835107139 0.22191614669744991 0 0.47161077686298242 0.24816732699654209 0 0.46508968338692852 0.2382364646876555 0 0.47513749835107139 0.22191614669744991 0 0.47161077686298242 0.24816732699654209 0 0.45217657514271448 0.14798385802710509 0 0.47014161716765301 0.16105181347295619 0 0.47164977684918491 0.1441850108231679 0 0.45217657514271448 0.14798385802710509 0 0.47014161716765301 0.16105181347295619 0 0.46070618895057341 0.13989732003755351 0 0.45217657514271448 0.14798385802710509 0 0.47164977684918491 0.1441850108231679 0 0.44518713843701591 0.12528920559461021 0 0.47000544897229851 0.13270912336411619 0 0.46070618895057341 0.13989732003755351 0 0.47164977684918491 0.1441850108231679 0 0.47000544897229851 0.13270912336411619 0 0.44518713843701591 0.12528920559461021 0 0.47000544897229851 0.13270912336411619 0 0.45913155583250892 0.120108938453116 0 0.46070618895057341 0.13989732003755351 0 0.44518713843701591 0.12528920559461021 0 0.47000544897229851 0.13270912336411619 0 0.43137069993090188 0.14551661572495589 0 0.44518713843701591 0.12528920559461021 0 0.45217657514271448 0.14798385802710509 0 0.46070618895057341 0.13989732003755351 0 0.44518713843701591 0.12528920559461021 0 0.45217657514271448 0.14798385802710509 0 0.43137069993090188 0.14551661572495589 0 0.45217657514271448 0.14798385802710509 0 0.43911803778611358 0.16252290646227241 0 0.45217657514271448 0.14798385802710509 0 0.43911803778611358 0.16252290646227241 0 0.45682251369937732 0.16339258637356949 0 0.43911803778611358 0.16252290646227241 0 0.44910149919756698 0.1716271062324265 0 0.45682251369937732 0.16339258637356949 0 0.43911803778611358 0.16252290646227241 0 0.44910149919756698 0.1716271062324265 0 0.44166596344978948 0.181606965634209 0 0.44910149919756698 0.1716271062324265 0 0.44166596344978948 0.181606965634209 0 0.45149903943087588 0.18022053989723741 0 0.44910149919756698 0.1716271062324265 0 0.45149903943087588 0.18022053989723741 0 0.45836375182032862 0.1744811205921766 0 0.45128315255907098 0.18808830691262671 0 0.44166596344978948 0.181606965634209 0 0.45149903943087588 0.18022053989723741 0 0.47866421983915552 0.19566496639835729 0 0.45908250144974022 0.18566287530771031 0 0.46334846987602002 0.17968274937143 0 0.45908250144974022 0.18566287530771031 0 0.45836375182032862 0.1744811205921766 0 0.46334846987602002 0.17968274937143 0 0.45128315255907098 0.18808830691262671 0 0.45149903943087588 0.18022053989723741 0 0.45908250144974022 0.18566287530771031 0 0.45149903943087588 0.18022053989723741 0 0.45908250144974022 0.18566287530771031 0 0.45836375182032862 0.1744811205921766 0 0.45836375182032862 0.1744811205921766 0 0.46334846987602002 0.17968274937143 0 0.45836375182032862 0.1744811205921766 0 0.46334846987602002 0.17968274937143 0 0.46273414905609561 0.16868632014310089 0 0.45908250144974022 0.18566287530771031 0 0.46334846987602002 0.17968274937143 0 0.45217657514271448 0.14798385802710509 0 0.45682251369937732 0.16339258637356949 0 0.47014161716765301 0.16105181347295619 0 0.45836375182032862 0.1744811205921766 0 0.45682251369937732 0.16339258637356949 0 0.46273414905609561 0.16868632014310089 0 0.44910149919756698 0.1716271062324265 0 0.45836375182032862 0.1744811205921766 0 0.45682251369937732 0.16339258637356949 0 0.46334846987602002 0.17968274937143 0 0.46273414905609561 0.16868632014310089 0 0.4696546117761401 0.16649833477215639 0 0.45682251369937732 0.16339258637356949 0 0.46273414905609561 0.16868632014310089 0 0.47014161716765301 0.16105181347295619 0 0.46273414905609561 0.16868632014310089 0 0.47014161716765301 0.16105181347295619 0 0.4696546117761401 0.16649833477215639 0 0.474419290028334 0.16416343649491871 0 0.48720964501416669 0.1598504572364132 0 0.48720964501416603 0.14623364284857901 0 0.47014161716765301 0.16105181347295619 0 0.474419290028334 0.16416343649491871 0 0.47243109693155649 0.14963790222081619 0 0.47014161716765301 0.16105181347295619 0 0.4696546117761401 0.16649833477215639 0 0.47014161716765301 0.16105181347295619 0 0.474419290028334 0.16416343649491871 0 0.47014161716765301 0.16105181347295619 0 0.4696546117761401 0.16649833477215639 0 0.474419290028334 0.16416343649491871 0 0.46334846987602002 0.17968274937143 0 0.4696546117761401 0.16649833477215639 0 0.474419290028334 0.16416343649491871 0 0.474419290028334 0.16416343649491871 0 0.48720964501416669 0.17346727162424749 0 0.474419290028334 0.16416343649491871 0 0.48152268906781692 0.1743879272688055 0 0.48720964501416669 0.17346727162424749 0 0.474419290028334 0.16416343649491871 0 0.48720964501416669 0.17346727162424749 0 0.48720964501416669 0.1598504572364132 0 0.47866421983915552 0.19566496639835729 0 0.48152268906781692 0.1743879272688055 0 0.4874970145196989 0.18445806376551499 0 0.46334846987602002 0.17968274937143 0 0.474419290028334 0.16416343649491871 0 0.48152268906781692 0.1743879272688055 0 0.47866421983915552 0.19566496639835729 0 0.48152268906781692 0.1743879272688055 0 0.47866421983915552 0.19566496639835729 0 0.46334846987602002 0.17968274937143 0 0.48152268906781692 0.1743879272688055 0 0.46334846987602002 0.17968274937143 0 0.474419290028334 0.16416343649491871 0 0.4874970145196989 0.18445806376551499 0 0.48720964501416669 0.17346727162424749 0 0.49999999999999972 0.18277110675357619 0 0.48152268906781692 0.1743879272688055 0 0.4874970145196989 0.18445806376551499 0 0.48720964501416669 0.17346727162424749 0 0.48720964501416669 0.17346727162424749 0 0.49999999999999972 0.18277110675357619 0 0.49109866885568632 0.19400826991936471 0 0.4874970145196989 0.18445806376551499 0 0.49999999999999972 0.18277110675357619 0 0.48720964501416669 0.17346727162424749 0 0.49999999999999972 0.18277110675357619 0 0.5 0.15553747797790771 0 0.48720964501416669 0.17346727162424749 0 0.48720964501416669 0.1598504572364132 0 0.5 0.15553747797790771 0 0.5 0.15553747797790771 0 0.48720964501416603 0.14623364284857901 0 0.49999999999999828 0.1283038492022395 0 0.48720964501416669 0.1598504572364132 0 0.5 0.15553747797790771 0 0.48720964501416603 0.14623364284857901 0 0.474419290028334 0.16416343649491871 0 0.48720964501416603 0.14623364284857901 0 0.47243109693155649 0.14963790222081619 0 0.47014161716765301 0.16105181347295619 0 0.47164977684918491 0.1441850108231679 0 0.47243109693155649 0.14963790222081619 0 0.47014161716765301 0.16105181347295619 0 0.47164977684918491 0.1441850108231679 0 0.474419290028334 0.16416343649491871 0 0.48720964501416603 0.14623364284857901 0 0.48720964501416603 0.14623364284857901 0 0.47810353229876201 0.14215059571179389 0 0.47243109693155649 0.14963790222081619 0 0.48720964501416603 0.14623364284857901 0 0.47810353229876201 0.14215059571179389 0 0.48219086346301232 0.1366612709065127 0 0.47810353229876201 0.14215059571179389 0 0.47164977684918491 0.1441850108231679 0 0.47243109693155649 0.14963790222081619 0 0.47164977684918491 0.1441850108231679 0 0.47243109693155649 0.14963790222081619 0 0.47000544897229851 0.13270912336411619 0 0.47260637368864761 0.13348672051330729 0 0.46686637733987219 0.1108013072369516 0 0.47164977684918491 0.1441850108231679 0 0.47000544897229851 0.13270912336411619 0 0.47260637368864761 0.13348672051330729 0 0.47164977684918491 0.1441850108231679 0 0.47000544897229851 0.13270912336411619 0 0.47810353229876201 0.14215059571179389 0 0.47164977684918491 0.1441850108231679 0 0.47627466636298732 0.13458342812196539 0 0.47164977684918491 0.1441850108231679 0 0.47260637368864761 0.13348672051330729 0 0.47164977684918491 0.1441850108231679 0 0.47260637368864761 0.13348672051330729 0 0.47627466636298732 0.13458342812196539 0 0.47000544897229851 0.13270912336411619 0 0.47260637368864761 0.13348672051330729 0 0.47260637368864761 0.13348672051330729 0 0.47627466636298732 0.13458342812196539 0 0.47627466636298732 0.13458342812196539 0 0.48219086346301232 0.1366612709065127 0 0.48115545177917779 0.12861664063486791 0 0.47810353229876201 0.14215059571179389 0 0.47627466636298732 0.13458342812196539 0 0.48219086346301232 0.1366612709065127 0 0.47260637368864761 0.13348672051330729 0 0.47627466636298732 0.13458342812196539 0 0.48115545177917779 0.12861664063486791 0 0.48219086346301232 0.1366612709065127 0 0.48115545177917779 0.12861664063486791 0 0.48821102185996862 0.13172204721535721 0 0.48720964501416603 0.14623364284857901 0 0.48821102185996862 0.13172204721535721 0 0.49999999999999828 0.1283038492022395 0 0.48720964501416603 0.14623364284857901 0 0.49999999999999828 0.1283038492022395 0 0.48115545177917779 0.12861664063486791 0 0.48821102185996862 0.13172204721535721 0 0.48888759172059848 0.1200542258339161 0 0.48720964501416603 0.14623364284857901 0 0.48219086346301232 0.1366612709065127 0 0.48821102185996862 0.13172204721535721 0 0.48821102185996862 0.13172204721535721 0 0.49999999999999828 0.1283038492022395 0 0.48888759172059848 0.1200542258339161 0 0.48888759172059848 0.1200542258339161 0 0.50000000000000189 0.1057109320273929 0 0.47507148496384599 0.1059176600897231 0 0.49999999999999828 0.1283038492022395 0 0.48888759172059848 0.1200542258339161 0 0.50000000000000189 0.1057109320273929 0 0.50000000000000189 0.1057109320273929 0 0.47507148496384599 0.1059176600897231 0 0.48876829811952388 0.092029765846765227 0 0.50000000000000189 0.1057109320273929 0 0.48876829811952388 0.092029765846765227 0 0.47260637368864761 0.13348672051330729 0 0.48115545177917779 0.12861664063486791 0 0.47507148496384599 0.1059176600897231 0 0.47260637368864761 0.13348672051330729 0 0.47507148496384599 0.1059176600897231 0 0.46686637733987219 0.1108013072369516 0 0.47260637368864761 0.13348672051330729 0 0.47507148496384599 0.1059176600897231 0 0.48115545177917779 0.12861664063486791 0 0.48888759172059848 0.1200542258339161 0 0.47507148496384599 0.1059176600897231 0 0.5 0.075970339595171077 0 0.48790330556602229 0.070805068181427608 0 0.48957163609828802 0.059021418257163137 0 0.48790330556602229 0.070805068181427608 0 0.47916382372148719 0.060150178670802169 0 0.48957163609828802 0.059021418257163137 0 0.48790330556602229 0.070805068181427608 0 0.48876829811952388 0.092029765846765227 0 0.47753659623904438 0.078348599666138746 0 0.5 0.075970339595171077 0 0.48790330556602229 0.070805068181427608 0 0.48876829811952388 0.092029765846765227 0 0.50000000000000189 0.1057109320273929 0 0.5 0.075970339595171077 0 0.48876829811952388 0.092029765846765227 0 0.47507148496384599 0.1059176600897231 0 0.47753659623904438 0.078348599666138746 0 0.46372730570744658 0.088893491109786921 0 0.47753659623904438 0.078348599666138746 0 0.47187465747179402 0.07145187769082309 0 0.46372730570744658 0.088893491109786921 0 0.47507148496384599 0.1059176600897231 0 0.48876829811952388 0.092029765846765227 0 0.47753659623904438 0.078348599666138746 0 0.47507148496384599 0.1059176600897231 0 0.47753659623904438 0.078348599666138746 0 0.48876829811952388 0.092029765846765227 0 0.47753659623904438 0.078348599666138746 0 0.47753659623904438 0.078348599666138746 0 0.47187465747179402 0.07145187769082309 0 0.47916382372148719 0.060150178670802169 0 0.47753659623904438 0.078348599666138746 0 0.47916382372148719 0.060150178670802169 0 0.48790330556602229 0.070805068181427608 0 0.47753659623904438 0.078348599666138746 0 0.47916382372148719 0.060150178670802169 0 0.47753659623904438 0.078348599666138746 0 0.47187465747179402 0.07145187769082309 0 0.47187465747179402 0.07145187769082309 0 0.4663678179680843 0.060682917552954033 0 0.47916382372148719 0.060150178670802169 0 0.47187465747179402 0.07145187769082309 0 0.46058823407502097 0.066985674982622173 0 0.46372730570744658 0.088893491109786921 0 0.46058823407502097 0.066985674982622173 0 0.46372730570744658 0.088893491109786921 0 0.47187465747179402 0.07145187769082309 0 0.46058823407502097 0.066985674982622173 0 0.4663678179680843 0.060682917552954033 0 0.46058823407502097 0.066985674982622173 0 0.46372730570744658 0.088893491109786921 0 0.45077303619932901 0.078528081983653672 0 0.46372730570744658 0.088893491109786921 0 0.44483200127060701 0.0914317099359932 0 0.45077303619932901 0.078528081983653672 0 0.44483200127060701 0.0914317099359932 0 0.43850234565852603 0.079629794414266708 0 0.42944964306037681 0.087292122167837022 0 0.44483200127060701 0.0914317099359932 0 0.43850234565852603 0.079629794414266708 0 0.45077303619932901 0.078528081983653672 0 0.46058823407502097 0.066985674982622173 0 0.45077303619932901 0.078528081983653672 0 0.44370396942264201 0.066844321228942988 0 0.46058823407502097 0.066985674982622173 0 0.44370396942264201 0.066844321228942988 0 0.45343200437782821 0.056102739844168401 0 0.43850234565852603 0.079629794414266708 0 0.45077303619932901 0.078528081983653672 0 0.44370396942264201 0.066844321228942988 0 0.47000544897229851 0.13270912336411619 0 0.45913155583250892 0.120108938453116 0 0.46686637733987219 0.1108013072369516 0 0.47000544897229851 0.13270912336411619 0 0.46686637733987219 0.1108013072369516 0 0.45913155583250892 0.120108938453116 0 0.46686637733987219 0.1108013072369516 0 0.45185340951664532 0.1122029504522008 0 0.47507148496384599 0.1059176600897231 0 0.46372730570744658 0.088893491109786921 0 0.46686637733987219 0.1108013072369516 0 0.46372730570744658 0.088893491109786921 0 0.46686637733987219 0.1108013072369516 0 0.45446142679718748 0.1013754336447142 0 0.46372730570744658 0.088893491109786921 0 0.44483200127060701 0.0914317099359932 0 0.45446142679718748 0.1013754336447142 0 0.46372730570744658 0.088893491109786921 0 0.46686637733987219 0.1108013072369516 0 0.46686637733987219 0.1108013072369516 0 0.45446142679718748 0.1013754336447142 0 0.45185340951664532 0.1122029504522008 0 0.45446142679718748 0.1013754336447142 0 0.44502804015136638 0.1035477094886383 0 0.45185340951664532 0.1122029504522008 0 0.44483200127060701 0.0914317099359932 0 0.44502804015136638 0.1035477094886383 0 0.42842227070386502 0.1023447597038671 0 0.44483200127060701 0.0914317099359932 0 0.45446142679718748 0.1013754336447142 0 0.44502804015136638 0.1035477094886383 0 0.44502804015136638 0.1035477094886383 0 0.43817193734212517 0.1122507826128842 0 0.45185340951664532 0.1122029504522008 0 0.44518713843701591 0.12528920559461021 0 0.43817193734212517 0.1122507826128842 0 0.45185340951664532 0.1122029504522008 0 0.44518713843701591 0.12528920559461021 0 0.45913155583250892 0.120108938453116 0 0.45185340951664532 0.1122029504522008 0 0.44518713843701591 0.12528920559461021 0 0.43817193734212517 0.1122507826128842 0 0.42036882790173341 0.1178692878251045 0 0.43817193734212517 0.1122507826128842 0 0.42036882790173341 0.1178692878251045 0 0.42842227070386502 0.1023447597038671 0 0.44518713843701591 0.12528920559461021 0 0.42036882790173341 0.1178692878251045 0 0.42036882790173341 0.1178692878251045 0 0.3955505173664503 0.11044937005560029 0 0.40784013254787072 0.12510821097753899 0 0.42036882790173341 0.1178692878251045 0 0.39866250075504972 0.1182583467664623 0 0.42036882790173341 0.1178692878251045 0 0.41135042092314028 0.1034412122041926 0 0.3955505173664503 0.11044937005560029 0 0.41135042092314028 0.1034412122041926 0 0.42842227070386502 0.1023447597038671 0 0.41261219828502921 0.089148557345228696 0 0.42036882790173341 0.1178692878251045 0 0.41135042092314028 0.1034412122041926 0 0.42842227070386502 0.1023447597038671 0 0.41135042092314028 0.1034412122041926 0 0.41261219828502921 0.089148557345228696 0 0.40125721395625058 0.095659105618179086 0 0.44502804015136638 0.1035477094886383 0 0.43817193734212517 0.1122507826128842 0 0.42842227070386502 0.1023447597038671 0 0.44483200127060701 0.0914317099359932 0 0.42842227070386502 0.1023447597038671 0 0.42944964306037681 0.087292122167837022 0 0.42842227070386502 0.1023447597038671 0 0.42944964306037681 0.087292122167837022 0 0.41261219828502921 0.089148557345228696 0 0.43850234565852603 0.079629794414266708 0 0.42944964306037681 0.087292122167837022 0 0.42350212274493992 0.071626947634559179 0 0.43850234565852603 0.079629794414266708 0 0.44370396942264201 0.066844321228942988 0 0.42350212274493992 0.071626947634559179 0 0.42350212274493992 0.071626947634559179 0 0.40389880935373967 0.073410242209850179 0 0.40918989873610762 0.056909124071894593 0 0.42350212274493992 0.071626947634559179 0 0.41261219828502921 0.089148557345228696 0 0.40389880935373967 0.073410242209850179 0 0.42944964306037681 0.087292122167837022 0 0.42350212274493992 0.071626947634559179 0 0.41261219828502921 0.089148557345228696 0 0.41261219828502921 0.089148557345228696 0 0.39859066790368008 0.084782737740281083 0 0.40389880935373967 0.073410242209850179 0 0.41261219828502921 0.089148557345228696 0 0.39859066790368008 0.084782737740281083 0 0.40125721395625058 0.095659105618179086 0 0.39859066790368008 0.084782737740281083 0 0.38744967664430979 0.074856976749807694 0 0.387735441279071 0.090838806778339803 0 0.39859066790368008 0.084782737740281083 0 0.387735441279071 0.090838806778339803 0 0.40125721395625058 0.095659105618179086 0 0.40389880935373967 0.073410242209850179 0 0.39320280942062069 0.062881506583354799 0 0.38744967664430979 0.074856976749807694 0 0.39859066790368008 0.084782737740281083 0 0.40389880935373967 0.073410242209850179 0 0.38744967664430979 0.074856976749807694 0 0.40389880935373967 0.073410242209850179 0 0.39320280942062069 0.062881506583354799 0 0.40918989873610762 0.056909124071894593 0 0.37295318000684141 0.071255651664042921 0 0.38744967664430979 0.074856976749807694 0 0.37892596697808262 0.059204164228587368 0 0.39320280942062069 0.062881506583354799 0 0.38744967664430979 0.074856976749807694 0 0.37892596697808262 0.059204164228587368 0 0.37295318000684141 0.071255651664042921 0 0.38744967664430979 0.074856976749807694 0 0.37798135154881018 0.081823587903253725 0 0.38744967664430979 0.074856976749807694 0 0.387735441279071 0.090838806778339803 0 0.37798135154881018 0.081823587903253725 0 0.387735441279071 0.090838806778339803 0 0.37798135154881018 0.081823587903253725 0 0.37900038752675902 0.089529955834906624 0 0.387735441279071 0.090838806778339803 0 0.37900038752675902 0.089529955834906624 0 0.37822129919108233 0.095476496790246668 0 0.37150953892954941 0.090371435731814859 0 0.37798135154881018 0.081823587903253725 0 0.37900038752675902 0.089529955834906624 0 0.37150953892954941 0.090371435731814859 0 0.37900038752675902 0.089529955834906624 0 0.37822129919108233 0.095476496790246668 0 0.36360357275647209 0.09209158592910005 0 0.37822129919108233 0.095476496790246668 0 0.38328776685539723 0.1067831817270007 0 0.387735441279071 0.090838806778339803 0 0.38328776685539723 0.1067831817270007 0 0.3955505173664503 0.11044937005560029 0 0.36738998525987793 0.1020302299904744 0 0.38328776685539723 0.1067831817270007 0 0.387735441279071 0.090838806778339803 0 0.37822129919108233 0.095476496790246668 0 0.38328776685539723 0.1067831817270007 0 0.38328776685539723 0.1067831817270007 0 0.3955505173664503 0.11044937005560029 0 0.37360001330739268 0.1114708337735964 0 0.38328776685539723 0.1067831817270007 0 0.38433036034418039 0.1209483736269318 0 0.37360001330739268 0.1114708337735964 0 0.36825940068727891 0.1201696056674174 0 0.38433036034418039 0.1209483736269318 0 0.38328776685539723 0.1067831817270007 0 0.38433036034418039 0.1209483736269318 0 0.39866250075504972 0.1182583467664623 0 0.42036882790173341 0.1178692878251045 0 0.3955505173664503 0.11044937005560029 0 0.39866250075504972 0.1182583467664623 0 0.38328776685539723 0.1067831817270007 0 0.3955505173664503 0.11044937005560029 0 0.39866250075504972 0.1182583467664623 0 0.38328776685539723 0.1067831817270007 0 0.39866250075504972 0.1182583467664623 0 0.3955505173664503 0.11044937005560029 0 0.39866250075504972 0.1182583467664623 0 0.39473513970358098 0.12854290425844639 0 0.38433036034418039 0.1209483736269318 0 0.39866250075504972 0.1182583467664623 0 0.40784013254787072 0.12510821097753899 0 0.39866250075504972 0.1182583467664623 0 0.387735441279071 0.090838806778339803 0 0.3955505173664503 0.11044937005560029 0 0.41135042092314028 0.1034412122041926 0 0.3955505173664503 0.11044937005560029 0 0.40125721395625058 0.095659105618179086 0 0.387735441279071 0.090838806778339803 0 0.3955505173664503 0.11044937005560029 0 0.40125721395625058 0.095659105618179086 0 0.40246218748004359 0.01757150151273525 0 0.38537425054082453 0.021021628684759871 0 0.3939496420866902 0.032544644991895362 0 0.40246218748004359 0.01757150151273525 0 0.3939496420866902 0.032544644991895362 0 0.40879033136802378 0.036670680743878192 0 0.40246218748004359 0.01757150151273525 0 0.39119130555459242 0.0034535885157415879 0 0.4134326330300091 -0.0081425240949818956 0 0.40246218748004359 0.01757150151273525 0 0.39119130555459242 0.0034535885157415879 0 0.38537425054082453 0.021021628684759871 0 0.37294253482707579 0.01059444623525683 0 0.39119130555459242 0.0034535885157415879 0 0.37760379982886788 -0.00043313421310100028 0 0.37294253482707579 0.01059444623525683 0 0.39119130555459242 0.0034535885157415879 0 0.38537425054082453 0.021021628684759871 0 0.37474526637297229 0.023556796941533242 0 0.38537425054082453 0.021021628684759871 0 0.37895263843180721 0.038235409995188797 0 0.38537425054082453 0.021021628684759871 0 0.37895263843180721 0.038235409995188797 0 0.3939496420866902 0.032544644991895362 0 0.37294253482707579 0.01059444623525683 0 0.37474526637297229 0.023556796941533242 0 0.38537425054082453 0.021021628684759871 0 0.37895263843180721 0.038235409995188797 0 0.39416880261275211 0.049224004022914672 0 0.3939496420866902 0.032544644991895362 0 0.36952203436557951 0.041267906698185822 0 0.37895263843180721 0.038235409995188797 0 0.37892596697808262 0.059204164228587368 0 0.37895263843180721 0.038235409995188797 0 0.39416880261275211 0.049224004022914672 0 0.37895263843180721 0.038235409995188797 0 0.37892596697808262 0.059204164228587368 0 0.39416880261275211 0.049224004022914672 0 0.39320280942062069 0.062881506583354799 0 0.37892596697808262 0.059204164228587368 0 0.39416880261275211 0.049224004022914672 0 0.39416880261275211 0.049224004022914672 0 0.40879033136802378 0.036670680743878192 0 0.40918989873610762 0.056909124071894593 0 0.39320280942062069 0.062881506583354799 0 0.39416880261275211 0.049224004022914672 0 0.40918989873610762 0.056909124071894593 0 0.39416880261275211 0.049224004022914672 0 0.3939496420866902 0.032544644991895362 0 0.40879033136802378 0.036670680743878192 0 0.40879033136802378 0.036670680743878192 0 0.43316383092112948 0.047474067063119033 0 0.42401079164864769 0.01592493151882745 0 0.40879033136802378 0.036670680743878192 0 0.40918989873610762 0.056909124071894593 0 0.43316383092112948 0.047474067063119033 0 0.44370396942264201 0.066844321228942988 0 0.42350212274493992 0.071626947634559179 0 0.43316383092112948 0.047474067063119033 0 0.42350212274493992 0.071626947634559179 0 0.40918989873610762 0.056909124071894593 0 0.43316383092112948 0.047474067063119033 0 0.43316383092112948 0.047474067063119033 0 0.42401079164864769 0.01592493151882745 0 0.44761521743379967 0.02295556668807603 0 0.40246218748004359 0.01757150151273525 0 0.40879033136802378 0.036670680743878192 0 0.42401079164864769 0.01592493151882745 0 0.40246218748004359 0.01757150151273525 0 0.42401079164864769 0.01592493151882745 0 0.4134326330300091 -0.0081425240949818956 0 0.42401079164864769 0.01592493151882745 0 0.4134326330300091 -0.0081425240949818956 0 0.43672458657571889 -0.0025103731928187091 0 0.42401079164864769 0.01592493151882745 0 0.44761521743379967 0.02295556668807603 0 0.43672458657571889 -0.0025103731928187091 0 0.44761521743379967 0.02295556668807603 0 0.46206660394646992 -0.0015629336869669511 0 0.43672458657571889 -0.0025103731928187091 0 0.44761521743379967 0.02295556668807603 0 0.46470950129832062 0.033878531054115472 0 0.47329374978099181 0.018513024492546 0 0.44761521743379967 0.02295556668807603 0 0.47329374978099181 0.018513024492546 0 0.46206660394646992 -0.0015629336869669511 0 0.44761521743379967 0.02295556668807603 0 0.46206660394646992 -0.0015629336869669511 0 0.44370396942264201 0.066844321228942988 0 0.43316383092112948 0.047474067063119033 0 0.45343200437782821 0.056102739844168401 0 0.43316383092112948 0.047474067063119033 0 0.45273150915446608 0.041255708323844002 0 0.45343200437782821 0.056102739844168401 0 0.43316383092112948 0.047474067063119033 0 0.44761521743379967 0.02295556668807603 0 0.43316383092112948 0.047474067063119033 0 0.44761521743379967 0.02295556668807603 0 0.45273150915446608 0.041255708323844002 0 0.44761521743379967 0.02295556668807603 0 0.45273150915446608 0.041255708323844002 0 0.46470950129832062 0.033878531054115472 0 0.45273150915446608 0.041255708323844002 0 0.46470950129832062 0.033878531054115472 0 0.46678037019429103 0.048724116576354323 0 0.45273150915446608 0.041255708323844002 0 0.46678037019429103 0.048724116576354323 0 0.45343200437782821 0.056102739844168401 0 0.46678037019429103 0.048724116576354323 0 0.4663678179680843 0.060682917552954033 0 0.45343200437782821 0.056102739844168401 0 0.46058823407502097 0.066985674982622173 0 0.4663678179680843 0.060682917552954033 0 0.45343200437782821 0.056102739844168401 0 0.47916382372148719 0.060150178670802169 0 0.48079105120393067 0.041951757675465592 0 0.48957163609828802 0.059021418257163137 0 0.47916382372148719 0.060150178670802169 0 0.48079105120393067 0.041951757675465592 0 0.46678037019429103 0.048724116576354323 0 0.47916382372148719 0.060150178670802169 0 0.48079105120393067 0.041951757675465592 0 0.46678037019429103 0.048724116576354323 0 0.4663678179680843 0.060682917552954033 0 0.47916382372148719 0.060150178670802169 0 0.46470950129832062 0.033878531054115472 0 0.48079105120393067 0.041951757675465592 0 0.47329374978099181 0.018513024492546 0 0.46470950129832062 0.033878531054115472 0 0.46678037019429103 0.048724116576354323 0 0.48079105120393067 0.041951757675465592 0 0.48079105120393067 0.041951757675465592 0 0.5 0.046229747162949253 0 0.5 0.016489154730727429 0 0.48079105120393067 0.041951757675465592 0 0.5 0.046229747162949253 0 0.48957163609828802 0.059021418257163137 0 0.5 0.075970339595171077 0 0.5 0.046229747162949253 0 0.48957163609828802 0.059021418257163137 0 0.47329374978099181 0.018513024492546 0 0.48263320695525741 -0.001259818267235968 0 0.46206660394646992 -0.0015629336869669511 0 0.48079105120393067 0.041951757675465592 0 0.47329374978099181 0.018513024492546 0 0.5 0.016489154730727429 0 0.47329374978099181 0.018513024492546 0 0.5 0.016489154730727429 0 0.48263320695525741 -0.001259818267235968 0 0.5 0.016489154730727429 0 0.5 -0.01325143770149434 0 0.48263320695525741 -0.001259818267235968 0 0.5 -0.01325143770149434 0 0.48263320695525741 -0.001259818267235968 0 0.47651799045914017 -0.026081434062009929 0 0.48263320695525741 -0.001259818267235968 0 0.47651799045914017 -0.026081434062009929 0 0.46206660394646992 -0.0015629336869669511 0 0.47651799045914017 -0.026081434062009929 0 0.46206660394646992 -0.0015629336869669511 0 0.5 -0.01325143770149434 0 0.47651799045914017 -0.026081434062009929 0 0.5 -0.042992030133716053 0 0.47651799045914017 -0.026081434062009929 0 0.5 -0.042992030133716053 0 0.49096937697181042 -0.050599934437052858 0 0.49096937697181042 -0.050599934437052858 0 0.5 -0.072732622565937877 0 0.48258035506707248 -0.063004075549666763 0 0.5 -0.042992030133716053 0 0.49096937697181042 -0.050599934437052858 0 0.5 -0.072732622565937877 0 0.47232566782281088 -0.048983320219932631 0 0.48258035506707248 -0.063004075549666763 0 0.47019678055464098 -0.065668823985100724 0 0.49096937697181042 -0.050599934437052858 0 0.47232566782281088 -0.048983320219932631 0 0.48258035506707248 -0.063004075549666763 0 0.47651799045914017 -0.026081434062009929 0 0.49096937697181042 -0.050599934437052858 0 0.47651799045914017 -0.026081434062009929 0 0.47232566782281088 -0.048983320219932631 0 0.45875439794227402 -0.02882640142248458 0 0.47651799045914017 -0.026081434062009929 0 0.49096937697181042 -0.050599934437052858 0 0.47232566782281088 -0.048983320219932631 0 0.47232566782281088 -0.048983320219932631 0 0.4538617057114176 -0.044079584214913307 0 0.45875439794227402 -0.02882640142248458 0 0.47232566782281088 -0.048983320219932631 0 0.45511729529136352 -0.06222671487200658 0 0.47019678055464098 -0.065668823985100724 0 0.47232566782281088 -0.048983320219932631 0 0.4538617057114176 -0.044079584214913307 0 0.45511729529136352 -0.06222671487200658 0 0.45511729529136352 -0.06222671487200658 0 0.44307935810926308 -0.048823446648810789 0 0.43822633048198778 -0.064784374623206742 0 0.4538617057114176 -0.044079584214913307 0 0.45511729529136352 -0.06222671487200658 0 0.44307935810926308 -0.048823446648810789 0 0.4538617057114176 -0.044079584214913307 0 0.44198735359050012 -0.034946027704050253 0 0.45875439794227402 -0.02882640142248458 0 0.4538617057114176 -0.044079584214913307 0 0.44307935810926308 -0.048823446648810789 0 0.44198735359050012 -0.034946027704050253 0 0.44307935810926308 -0.048823446648810789 0 0.44198735359050012 -0.034946027704050253 0 0.42819931832662428 -0.040644377849193163 0 0.44198735359050012 -0.034946027704050253 0 0.44405683565171461 -0.020171104529534752 0 0.45875439794227402 -0.02882640142248458 0 0.44198735359050012 -0.034946027704050253 0 0.44405683565171461 -0.020171104529534752 0 0.429165437743673 -0.024066175052332141 0 0.44405683565171461 -0.020171104529534752 0 0.46206660394646992 -0.0015629336869669511 0 0.43672458657571889 -0.0025103731928187091 0 0.47651799045914017 -0.026081434062009929 0 0.46206660394646992 -0.0015629336869669511 0 0.45875439794227402 -0.02882640142248458 0 0.44405683565171461 -0.020171104529534752 0 0.46206660394646992 -0.0015629336869669511 0 0.45875439794227402 -0.02882640142248458 0 0.4775061862933267 -0.1115557727057918 0 0.45828035479271489 -0.113064368171234 0 0.47574630687967312 -0.12579017742597401 0 0.4775061862933267 -0.1115557727057918 0 0.49054818325236282 -0.1257619253337465 0 0.47574630687967312 -0.12579017742597401 0 0.49999999999999939 -0.1024732149981596 0 0.49054818325236282 -0.1257619253337465 0 0.4775061862933267 -0.1115557727057918 0 0.49999999999999939 -0.1024732149981596 0 0.49054818325236282 -0.1257619253337465 0 0.49999999999999939 -0.1024732149981596 0 0.5 -0.1262086412738998 0 0.49054818325236282 -0.1257619253337465 0 0.4775061862933267 -0.1115557727057918 0 0.49999999999999939 -0.1024732149981596 0 0.47255829066553712 -0.094800718336932308 0 0.4775061862933267 -0.1115557727057918 0 0.47255829066553712 -0.094800718336932308 0 0.45828035479271489 -0.113064368171234 0 0.47255829066553712 -0.094800718336932308 0 0.4794099499861002 -0.077035676540309739 0 0.46520923065291081 -0.078808572695637569 0 0.49999999999999939 -0.1024732149981596 0 0.47255829066553712 -0.094800718336932308 0 0.4794099499861002 -0.077035676540309739 0 0.49999999999999939 -0.1024732149981596 0 0.5 -0.072732622565937877 0 0.4794099499861002 -0.077035676540309739 0 0.5 -0.072732622565937877 0 0.48258035506707248 -0.063004075549666763 0 0.4794099499861002 -0.077035676540309739 0 0.48258035506707248 -0.063004075549666763 0 0.4794099499861002 -0.077035676540309739 0 0.47019678055464098 -0.065668823985100724 0 0.4794099499861002 -0.077035676540309739 0 0.47019678055464098 -0.065668823985100724 0 0.46520923065291081 -0.078808572695637569 0 0.45511729529136352 -0.06222671487200658 0 0.47019678055464098 -0.065668823985100724 0 0.46520923065291081 -0.078808572695637569 0 0.45511729529136352 -0.06222671487200658 0 0.44825334263735128 -0.088924371397220314 0 0.46520923065291081 -0.078808572695637569 0 0.43822633048198778 -0.064784374623206742 0 0.44825334263735128 -0.088924371397220314 0 0.43118506422657582 -0.080427924141739604 0 0.43822633048198778 -0.064784374623206742 0 0.44825334263735128 -0.088924371397220314 0 0.45511729529136352 -0.06222671487200658 0 0.43822633048198778 -0.064784374623206742 0 0.44825334263735128 -0.088924371397220314 0 0.44825334263735128 -0.088924371397220314 0 0.43433976774389738 -0.10058550739423811 0 0.43118506422657582 -0.080427924141739604 0 0.47255829066553712 -0.094800718336932308 0 0.44825334263735128 -0.088924371397220314 0 0.46520923065291081 -0.078808572695637569 0 0.44825334263735128 -0.088924371397220314 0 0.45828035479271489 -0.113064368171234 0 0.47255829066553712 -0.094800718336932308 0 0.44825334263735128 -0.088924371397220314 0 0.45828035479271489 -0.113064368171234 0 0.44825334263735128 -0.088924371397220314 0 0.45828035479271489 -0.113064368171234 0 0.43433976774389738 -0.10058550739423811 0 0.45828035479271489 -0.113064368171234 0 0.43433976774389738 -0.10058550739423811 0 0.44092479249240568 -0.12747828222871169 0 0.45828035479271489 -0.113064368171234 0 0.46488475554209879 -0.13446621701837519 0 0.47574630687967312 -0.12579017742597401 0 0.42099662251237358 -0.1139954922210559 0 0.40432748380727751 -0.10687384111152259 0 0.40139278968641212 -0.1348833127229925 0 0.42099662251237358 -0.1139954922210559 0 0.43433976774389738 -0.10058550739423811 0 0.44092479249240568 -0.12747828222871169 0 0.42099662251237358 -0.1139954922210559 0 0.43433976774389738 -0.10058550739423811 0 0.4191056251417824 -0.087532250189537392 0 0.4191056251417824 -0.087532250189537392 0 0.40429151935213259 -0.088252215223455749 0 0.40432748380727751 -0.10687384111152259 0 0.42099662251237358 -0.1139954922210559 0 0.4191056251417824 -0.087532250189537392 0 0.42099662251237358 -0.1139954922210559 0 0.4191056251417824 -0.087532250189537392 0 0.40432748380727751 -0.10687384111152259 0 0.41074272277956181 -0.07780775255226928 0 0.40427429161796702 -0.074652520128837635 0 0.40429151935213259 -0.088252215223455749 0 0.4191056251417824 -0.087532250189537392 0 0.41074272277956181 -0.07780775255226928 0 0.40429151935213259 -0.088252215223455749 0 0.43433976774389738 -0.10058550739423811 0 0.4191056251417824 -0.087532250189537392 0 0.43118506422657582 -0.080427924141739604 0 0.43822633048198778 -0.064784374623206742 0 0.43118506422657582 -0.080427924141739604 0 0.41721462777119128 -0.06106900815801887 0 0.4191056251417824 -0.087532250189537392 0 0.43118506422657582 -0.080427924141739604 0 0.41721462777119128 -0.06106900815801887 0 0.4191056251417824 -0.087532250189537392 0 0.41721462777119128 -0.06106900815801887 0 0.4191056251417824 -0.087532250189537392 0 0.41074272277956181 -0.07780775255226928 0 0.41721462777119128 -0.06106900815801887 0 0.41074272277956181 -0.07780775255226928 0 0.40791498501523621 -0.069832814129058812 0 0.41721462777119128 -0.06106900815801887 0 0.41074272277956181 -0.07780775255226928 0 0.40791498501523621 -0.069832814129058812 0 0.40427429161796702 -0.074652520128837635 0 0.40791498501523621 -0.069832814129058812 0 0.41721462777119128 -0.06106900815801887 0 0.40633542717299431 -0.056711080866164852 0 0.40055157323471702 -0.075073731473784419 0 0.40633542717299431 -0.056711080866164852 0 0.39858367780637061 -0.065585730932760225 0 0.40055157323471702 -0.075073731473784419 0 0.40633542717299431 -0.056711080866164852 0 0.40791498501523621 -0.069832814129058812 0 0.40055157323471702 -0.075073731473784419 0 0.40633542717299431 -0.056711080866164852 0 0.40791498501523621 -0.069832814129058812 0 0.40427429161796702 -0.074652520128837635 0 0.40055157323471702 -0.075073731473784419 0 0.40427429161796702 -0.074652520128837635 0 0.40055157323471702 -0.075073731473784419 0 0.39858367780637061 -0.065585730932760225 0 0.40055157323471702 -0.075073731473784419 0 0.39174618846870402 -0.068846464144115313 0 0.39174618846870402 -0.068846464144115313 0 0.39570152234906719 -0.061711647246976337 0 0.38686666596285008 -0.061042029071852341 0 0.39858367780637061 -0.065585730932760225 0 0.39174618846870402 -0.068846464144115313 0 0.39570152234906719 -0.061711647246976337 0 0.40055157323471702 -0.075073731473784419 0 0.39174618846870402 -0.068846464144115313 0 0.37755868796990011 -0.077675288489263417 0 0.40055157323471702 -0.075073731473784419 0 0.37755868796990011 -0.077675288489263417 0 0.37755868796990011 -0.077675288489263417 0 0.38686666596285008 -0.061042029071852341 0 0.37352032859163709 -0.057721304058238852 0 0.39174618846870402 -0.068846464144115313 0 0.37755868796990011 -0.077675288489263417 0 0.38686666596285008 -0.061042029071852341 0 0.40055157323471702 -0.075073731473784419 0 0.37755868796990011 -0.077675288489263417 0 0.38990559274031639 -0.083891000392820991 0 0.37755868796990011 -0.077675288489263417 0 0.38990559274031639 -0.083891000392820991 0 0.37084200097384118 -0.099948852110232814 0 0.38990559274031639 -0.083891000392820991 0 0.39357663979522689 -0.097217835928626123 0 0.37084200097384118 -0.099948852110232814 0 0.40055157323471702 -0.075073731473784419 0 0.38990559274031639 -0.083891000392820991 0 0.39357663979522689 -0.097217835928626123 0 0.40055157323471702 -0.075073731473784419 0 0.40429151935213259 -0.088252215223455749 0 0.39357663979522689 -0.097217835928626123 0 0.40055157323471702 -0.075073731473784419 0 0.39357663979522689 -0.097217835928626123 0 0.40427429161796702 -0.074652520128837635 0 0.40055157323471702 -0.075073731473784419 0 0.40429151935213259 -0.088252215223455749 0 0.40429151935213259 -0.088252215223455749 0 0.39357663979522689 -0.097217835928626123 0 0.40432748380727751 -0.10687384111152259 0 0.39357663979522689 -0.097217835928626123 0 0.40432748380727751 -0.10687384111152259 0 0.38660170635573687 -0.1193619403834678 0 0.39357663979522689 -0.097217835928626123 0 0.38660170635573687 -0.1193619403834678 0 0.39357663979522689 -0.097217835928626123 0 0.38660170635573687 -0.1193619403834678 0 0.37084200097384118 -0.099948852110232814 0 0.38660170635573687 -0.1193619403834678 0 0.36892844815853321 -0.1249047661769056 0 0.37084200097384118 -0.099948852110232814 0 0.40432748380727751 -0.10687384111152259 0 0.38660170635573687 -0.1193619403834678 0 0.40139278968641212 -0.1348833127229925 0 0.4134326330300091 -0.0081425240949818956 0 0.41532363040060022 -0.034605766126500383 0 0.4134326330300091 -0.0081425240949818956 0 0.429165437743673 -0.024066175052332141 0 0.41532363040060022 -0.034605766126500383 0 0.4134326330300091 -0.0081425240949818956 0 0.41532363040060022 -0.034605766126500383 0 0.40224711486815518 -0.028031482465191462 0 0.44405683565171461 -0.020171104529534752 0 0.43672458657571889 -0.0025103731928187091 0 0.429165437743673 -0.024066175052332141 0 0.4134326330300091 -0.0081425240949818956 0 0.43672458657571889 -0.0025103731928187091 0 0.429165437743673 -0.024066175052332141 0 0.44198735359050012 -0.034946027704050253 0 0.429165437743673 -0.024066175052332141 0 0.42819931832662428 -0.040644377849193163 0 0.429165437743673 -0.024066175052332141 0 0.42819931832662428 -0.040644377849193163 0 0.41532363040060022 -0.034605766126500383 0 0.44307935810926308 -0.048823446648810789 0 0.43822633048198778 -0.064784374623206742 0 0.42819931832662428 -0.040644377849193163 0 0.43822633048198778 -0.064784374623206742 0 0.42819931832662428 -0.040644377849193163 0 0.43822633048198778 -0.064784374623206742 0 0.42819931832662428 -0.040644377849193163 0 0.41721462777119128 -0.06106900815801887 0 0.41721462777119128 -0.06106900815801887 0 0.41532363040060022 -0.034605766126500383 0 0.40602299778419532 -0.046040878963086528 0 0.41721462777119128 -0.06106900815801887 0 0.41532363040060022 -0.034605766126500383 0 0.41721462777119128 -0.06106900815801887 0 0.40633542717299431 -0.056711080866164852 0 0.40602299778419532 -0.046040878963086528 0 0.41532363040060022 -0.034605766126500383 0 0.40602299778419532 -0.046040878963086528 0 0.40224711486815518 -0.028031482465191462 0 0.42819931832662428 -0.040644377849193163 0 0.41721462777119128 -0.06106900815801887 0 0.41532363040060022 -0.034605766126500383 0 0.40602299778419532 -0.046040878963086528 0 0.39711033158737702 -0.041469027592932077 0 0.40224711486815518 -0.028031482465191462 0 0.40602299778419532 -0.046040878963086528 0 0.39711033158737702 -0.041469027592932077 0 0.39584205906601722 -0.051802106749802207 0 0.39711033158737702 -0.041469027592932077 0 0.39584205906601722 -0.051802106749802207 0 0.38528172147808271 -0.046293809005382332 0 0.39711033158737702 -0.041469027592932077 0 0.39064136687458723 -0.033000376427584542 0 0.38528172147808271 -0.046293809005382332 0 0.39711033158737702 -0.041469027592932077 0 0.39064136687458723 -0.033000376427584542 0 0.40224711486815518 -0.028031482465191462 0 0.39858367780637061 -0.065585730932760225 0 0.40633542717299431 -0.056711080866164852 0 0.39570152234906719 -0.061711647246976337 0 0.40633542717299431 -0.056711080866164852 0 0.39584205906601722 -0.051802106749802207 0 0.39570152234906719 -0.061711647246976337 0 0.40633542717299431 -0.056711080866164852 0 0.40602299778419532 -0.046040878963086528 0 0.39584205906601722 -0.051802106749802207 0 0.39584205906601722 -0.051802106749802207 0 0.39570152234906719 -0.061711647246976337 0 0.38686666596285008 -0.061042029071852341 0 0.39584205906601722 -0.051802106749802207 0 0.38686666596285008 -0.061042029071852341 0 0.38528172147808271 -0.046293809005382332 0 0.38528172147808271 -0.046293809005382332 0 0.37192838111640042 -0.043090146468552297 0 0.37352032859163709 -0.057721304058238852 0 0.38686666596285008 -0.061042029071852341 0 0.38528172147808271 -0.046293809005382332 0 0.37352032859163709 -0.057721304058238852 0 0.39064136687458723 -0.033000376427584542 0 0.38528172147808271 -0.046293809005382332 0 0.37988335971156523 -0.035240291177815027 0 0.38528172147808271 -0.046293809005382332 0 0.37988335971156523 -0.035240291177815027 0 0.37192838111640042 -0.043090146468552297 0 0.37988335971156523 -0.035240291177815027 0 0.38077512566197291 -0.021900963600091281 0 0.36997392698673037 -0.02947005184619925 0 0.38077512566197291 -0.021900963600091281 0 0.39351290218816271 -0.022393525105217828 0 0.38595964092693391 -0.0094489484630412984 0 0.39064136687458723 -0.033000376427584542 0 0.38077512566197291 -0.021900963600091281 0 0.39351290218816271 -0.022393525105217828 0 0.39064136687458723 -0.033000376427584542 0 0.37988335971156523 -0.035240291177815027 0 0.38077512566197291 -0.021900963600091281 0 0.4134326330300091 -0.0081425240949818956 0 0.40224711486815518 -0.028031482465191462 0 0.39726871931357072 -0.012912578322538179 0 0.39064136687458723 -0.033000376427584542 0 0.39351290218816271 -0.022393525105217828 0 0.40224711486815518 -0.028031482465191462 0 0.39351290218816271 -0.022393525105217828 0 0.40224711486815518 -0.028031482465191462 0 0.39726871931357072 -0.012912578322538179 0 0.39119130555459242 0.0034535885157415879 0 0.4134326330300091 -0.0081425240949818956 0 0.39726871931357072 -0.012912578322538179 0 0.39119130555459242 0.0034535885157415879 0 0.39726871931357072 -0.012912578322538179 0 0.38595964092693391 -0.0094489484630412984 0 0.39351290218816271 -0.022393525105217828 0 0.39726871931357072 -0.012912578322538179 0 0.38595964092693391 -0.0094489484630412984 0 0.39119130555459242 0.0034535885157415879 0 0.38595964092693391 -0.0094489484630412984 0 0.37760379982886788 -0.00043313421310100028 0 0.38077512566197291 -0.021900963600091281 0 0.38595964092693391 -0.0094489484630412984 0 0.37352412417026198 -0.0086599361090777417 0 0.38595964092693391 -0.0094489484630412984 0 0.37760379982886788 -0.00043313421310100028 0 0.37352412417026198 -0.0086599361090777417 0 0.36440139366547541 0.001895178755615623 0 0.36345533559157062 -0.01295525424199459 0 0.3510713588824817 -0.016240093862602011 0 0.36440139366547541 0.001895178755615623 0 0.37760379982886788 -0.00043313421310100028 0 0.37352412417026198 -0.0086599361090777417 0 0.37352412417026198 -0.0086599361090777417 0 0.36345533559157062 -0.01295525424199459 0 0.36924913884153671 -0.01921360069563512 0 0.36440139366547541 0.001895178755615623 0 0.37352412417026198 -0.0086599361090777417 0 0.36345533559157062 -0.01295525424199459 0 0.38077512566197291 -0.021900963600091281 0 0.36997392698673037 -0.02947005184619925 0 0.36924913884153671 -0.01921360069563512 0 0.38077512566197291 -0.021900963600091281 0 0.37352412417026198 -0.0086599361090777417 0 0.36924913884153671 -0.01921360069563512 0 0.36345533559157062 -0.01295525424199459 0 0.36924913884153671 -0.01921360069563512 0 0.36224890888928402 -0.02238009810630957 0 0.36997392698673037 -0.02947005184619925 0 0.36224890888928402 -0.02238009810630957 0 0.35749478414410069 -0.034021489885116878 0 0.36997392698673037 -0.02947005184619925 0 0.36924913884153671 -0.01921360069563512 0 0.36224890888928402 -0.02238009810630957 0 0.3510713588824817 -0.016240093862602011 0 0.33774132409948793 -0.034375366480819423 0 0.35749478414410069 -0.034021489885116878 0 0.36224890888928402 -0.02238009810630957 0 0.3510713588824817 -0.016240093862602011 0 0.35749478414410069 -0.034021489885116878 0 0.3510713588824817 -0.016240093862602011 0 0.3468963480347198 -0.0083866267754060184 0 0.33774132409948793 -0.034375366480819423 0 0.3510713588824817 -0.016240093862602011 0 0.33774132409948793 -0.034375366480819423 0 0.36345533559157062 -0.01295525424199459 0 0.36224890888928402 -0.02238009810630957 0 0.3510713588824817 -0.016240093862602011 0 0.36440139366547541 0.001895178755615623 0 0.3510713588824817 -0.016240093862602011 0 0.3468963480347198 -0.0083866267754060184 0 0.36440139366547541 0.001895178755615623 0 0.3510713588824817 -0.016240093862602011 0 0.3468963480347198 -0.0083866267754060184 0 0.33158447523820522 -0.017207141832551169 0 0.32439510923811371 -0.0011641740482105779 0 0.33158447523820522 -0.017207141832551169 0 0.31885421456356922 -0.02191393541025069 0 0.33774132409948793 -0.034375366480819423 0 0.3468963480347198 -0.0083866267754060184 0 0.33774132409948793 -0.034375366480819423 0 0.3468963480347198 -0.0083866267754060184 0 0.33158447523820522 -0.017207141832551169 0 0.33774132409948793 -0.034375366480819423 0 0.31885421456356922 -0.02191393541025069 0 0.31293184394702928 -0.036165921810200452 0 0.33774132409948793 -0.034375366480819423 0 0.33158447523820522 -0.017207141832551169 0 0.31885421456356922 -0.02191393541025069 0 0.32439510923811371 -0.0011641740482105779 0 0.32439510923811371 -0.0011641740482105779 0 0.30472442673173888 -0.015369669056047039 0 0.31033225328533481 0.001712276495528905 0 0.32439510923811371 -0.0011641740482105779 0 0.30472442673173888 -0.015369669056047039 0 0.31885421456356922 -0.02191393541025069 0 0.32439510923811371 -0.0011641740482105779 0 0.30472442673173888 -0.015369669056047039 0 0.32113926116232222 -0.056962174564352798 0 0.31293184394702928 -0.036165921810200452 0 0.30532118393206892 -0.053814837618057471 0 0.32113926116232222 -0.056962174564352798 0 0.31197687842134653 -0.06942743152317532 0 0.30532118393206892 -0.053814837618057471 0 0.32113926116232222 -0.056962174564352798 0 0.3292957039179002 -0.058350292827584402 0 0.32509827068645208 -0.066993657131916851 0 0.32113926116232222 -0.056962174564352798 0 0.32509827068645208 -0.066993657131916851 0 0.32113926116232222 -0.056962174564352798 0 0.31293184394702928 -0.036165921810200452 0 0.32113926116232222 -0.056962174564352798 0 0.31293184394702928 -0.036165921810200452 0 0.33774132409948793 -0.034375366480819423 0 0.33774132409948793 -0.034375366480819423 0 0.3292957039179002 -0.058350292827584402 0 0.32113926116232222 -0.056962174564352798 0 0.33774132409948793 -0.034375366480819423 0 0.33774132409948793 -0.034375366480819423 0 0.3292957039179002 -0.058350292827584402 0 0.34415169163497172 -0.055363247628415227 0 0.32113926116232222 -0.056962174564352798 0 0.33774132409948793 -0.034375366480819423 0 0.3292957039179002 -0.058350292827584402 0 0.3292957039179002 -0.058350292827584402 0 0.34415169163497172 -0.055363247628415227 0 0.33546907660555991 -0.06427764789246293 0 0.34415169163497172 -0.055363247628415227 0 0.35171765223484469 -0.044456469090844879 0 0.36032382230281312 -0.052714669916820389 0 0.34415169163497172 -0.055363247628415227 0 0.36032382230281312 -0.052714669916820389 0 0.35324138356223311 -0.063597671460010413 0 0.33774132409948793 -0.034375366480819423 0 0.35171765223484469 -0.044456469090844879 0 0.35749478414410069 -0.034021489885116878 0 0.33774132409948793 -0.034375366480819423 0 0.34415169163497172 -0.055363247628415227 0 0.35171765223484469 -0.044456469090844879 0 0.35171765223484469 -0.044456469090844879 0 0.35749478414410069 -0.034021489885116878 0 0.36032382230281312 -0.052714669916820389 0 0.35749478414410069 -0.034021489885116878 0 0.37192838111640042 -0.043090146468552297 0 0.36032382230281312 -0.052714669916820389 0 0.36997392698673037 -0.02947005184619925 0 0.35749478414410069 -0.034021489885116878 0 0.37192838111640042 -0.043090146468552297 0 0.37988335971156523 -0.035240291177815027 0 0.36997392698673037 -0.02947005184619925 0 0.37192838111640042 -0.043090146468552297 0 0.36032382230281312 -0.052714669916820389 0 0.36520154789890491 -0.068453604598504636 0 0.35324138356223311 -0.063597671460010413 0 0.36032382230281312 -0.052714669916820389 0 0.37352032859163709 -0.057721304058238852 0 0.36520154789890491 -0.068453604598504636 0 0.37192838111640042 -0.043090146468552297 0 0.36032382230281312 -0.052714669916820389 0 0.37352032859163709 -0.057721304058238852 0 0.37755868796990011 -0.077675288489263417 0 0.36520154789890491 -0.068453604598504636 0 0.3545658027050832 -0.080276845504742567 0 0.37755868796990011 -0.077675288489263417 0 0.37352032859163709 -0.057721304058238852 0 0.36520154789890491 -0.068453604598504636 0 0.37755868796990011 -0.077675288489263417 0 0.3545658027050832 -0.080276845504742567 0 0.37084200097384118 -0.099948852110232814 0 0.37755868796990011 -0.077675288489263417 0 0.3545658027050832 -0.080276845504742567 0 0.3545658027050832 -0.080276845504742567 0 0.35026822601345392 -0.096187322991804339 0 0.33157291744026629 -0.082878402520221689 0 0.3545658027050832 -0.080276845504742567 0 0.37084200097384118 -0.099948852110232814 0 0.35026822601345392 -0.096187322991804339 0 0.36520154789890491 -0.068453604598504636 0 0.3545658027050832 -0.080276845504742567 0 0.35324138356223311 -0.063597671460010413 0 0.3545658027050832 -0.080276845504742567 0 0.35324138356223311 -0.063597671460010413 0 0.34171045588828802 -0.069567459402758547 0 0.34415169163497172 -0.055363247628415227 0 0.35324138356223311 -0.063597671460010413 0 0.34171045588828802 -0.069567459402758547 0 0.36892844815853321 -0.1249047661769056 0 0.37084200097384118 -0.099948852110232814 0 0.35689380213083172 -0.11116844221524851 0 0.37084200097384118 -0.099948852110232814 0 0.35026822601345392 -0.096187322991804339 0 0.35689380213083172 -0.11116844221524851 0 0.35026822601345392 -0.096187322991804339 0 0.35689380213083172 -0.11116844221524851 0 0.34381027128102121 -0.1101777240538945 0 0.36892844815853321 -0.1249047661769056 0 0.35689380213083172 -0.11116844221524851 0 0.35062006422730879 -0.1246235457434051 0 0.35689380213083172 -0.11116844221524851 0 0.34381027128102121 -0.1101777240538945 0 0.35062006422730879 -0.1246235457434051 0 0.34381027128102121 -0.1101777240538945 0 0.33602192972224632 -0.11937813502018881 0 0.32800565052154712 -0.1079998951708631 0 0.33602192972224632 -0.11937813502018881 0 0.31866132604247832 -0.1160164442581503 0 0.33216815925553361 -0.12959872546738541 0 0.34381027128102121 -0.1101777240538945 0 0.35062006422730879 -0.1246235457434051 0 0.33602192972224632 -0.11937813502018881 0 0.35062006422730879 -0.1246235457434051 0 0.33602192972224632 -0.11937813502018881 0 0.3407950552388328 -0.12900565341057441 0 0.34381027128102121 -0.1101777240538945 0 0.33422411998396268 -0.097393205281082945 0 0.32800565052154712 -0.1079998951708631 0 0.35026822601345392 -0.096187322991804339 0 0.34381027128102121 -0.1101777240538945 0 0.33422411998396268 -0.097393205281082945 0 0.33422411998396268 -0.097393205281082945 0 0.32230140413567132 -0.098132234369835841 0 0.32800565052154712 -0.1079998951708631 0 0.33422411998396268 -0.097393205281082945 0 0.32230140413567132 -0.098132234369835841 0 0.32675052847285302 -0.092152092547096984 0 0.32230140413567132 -0.098132234369835841 0 0.31890367233151212 -0.090204528017247473 0 0.30929982741991202 -0.095365087495263665 0 0.32230140413567132 -0.098132234369835841 0 0.31355989373455428 -0.106633998459426 0 0.30929982741991202 -0.095365087495263665 0 0.32230140413567132 -0.098132234369835841 0 0.31355989373455428 -0.106633998459426 0 0.32800565052154712 -0.1079998951708631 0 0.33602192972224632 -0.11937813502018881 0 0.32800565052154712 -0.1079998951708631 0 0.31866132604247832 -0.1160164442581503 0 0.31355989373455428 -0.106633998459426 0 0.32800565052154712 -0.1079998951708631 0 0.31866132604247832 -0.1160164442581503 0 0.3545658027050832 -0.080276845504742567 0 0.34171045588828802 -0.069567459402758547 0 0.33157291744026629 -0.082878402520221689 0 0.33169213208440029 -0.071520435628996556 0 0.34171045588828802 -0.069567459402758547 0 0.33157291744026629 -0.082878402520221689 0 0.3292957039179002 -0.058350292827584402 0 0.33169213208440029 -0.071520435628996556 0 0.33546907660555991 -0.06427764789246293 0 0.33169213208440029 -0.071520435628996556 0 0.33546907660555991 -0.06427764789246293 0 0.34171045588828802 -0.069567459402758547 0 0.34415169163497172 -0.055363247628415227 0 0.33546907660555991 -0.06427764789246293 0 0.34171045588828802 -0.069567459402758547 0 0.35026822601345392 -0.096187322991804339 0 0.33422411998396268 -0.097393205281082945 0 0.33157291744026629 -0.082878402520221689 0 0.3545658027050832 -0.080276845504742567 0 0.33157291744026629 -0.082878402520221689 0 0.33422411998396268 -0.097393205281082945 0 0.33157291744026629 -0.082878402520221689 0 0.32675052847285302 -0.092152092547096984 0 0.33157291744026629 -0.082878402520221689 0 0.31890367233151212 -0.090204528017247473 0 0.30858003217544938 -0.085479959535700839 0 0.33157291744026629 -0.082878402520221689 0 0.32085008373631269 -0.082325219174349581 0 0.30858003217544938 -0.085479959535700839 0 0.33169213208440029 -0.071520435628996556 0 0.33157291744026629 -0.082878402520221689 0 0.32085008373631269 -0.082325219174349581 0 0.33157291744026629 -0.082878402520221689 0 0.30858003217544938 -0.085479959535700839 0 0.32230140413567132 -0.098132234369835841 0 0.32675052847285302 -0.092152092547096984 0 0.31890367233151212 -0.090204528017247473 0 0.33157291744026629 -0.082878402520221689 0 0.32675052847285302 -0.092152092547096984 0 0.31890367233151212 -0.090204528017247473 0 0.32085008373631269 -0.082325219174349581 0 0.31354700770139288 -0.077640947536551208 0 0.30858003217544938 -0.085479959535700839 0 0.31354700770139288 -0.077640947536551208 0 0.32509827068645208 -0.066993657131916851 0 0.31197687842134653 -0.06942743152317532 0 0.32085008373631269 -0.082325219174349581 0 0.31354700770139288 -0.077640947536551208 0 0.32509827068645208 -0.066993657131916851 0 0.3292957039179002 -0.058350292827584402 0 0.32085008373631269 -0.082325219174349581 0 0.32509827068645208 -0.066993657131916851 0 0.3292957039179002 -0.058350292827584402 0 0.33169213208440029 -0.071520435628996556 0 0.32085008373631269 -0.082325219174349581 0 0.3292957039179002 -0.058350292827584402 0 0.32085008373631269 -0.082325219174349581 0 0.32113926116232222 -0.056962174564352798 0 0.32509827068645208 -0.066993657131916851 0 0.31197687842134653 -0.06942743152317532 0 0.32113926116232222 -0.056962174564352798 0 0.31197687842134653 -0.06942743152317532 0 0.31197687842134653 -0.06942743152317532 0 0.29746708839017277 -0.065294396005272079 0 0.30532118393206892 -0.053814837618057471 0 0.31197687842134653 -0.06942743152317532 0 0.29746708839017277 -0.065294396005272079 0 0.29796765102505879 -0.075831122741836066 0 0.31197687842134653 -0.06942743152317532 0 0.29796765102505879 -0.075831122741836066 0 0.30281449568037039 -0.081892688481997489 0 0.31197687842134653 -0.06942743152317532 0 0.30281449568037039 -0.081892688481997489 0 0.31354700770139288 -0.077640947536551208 0 0.31197687842134653 -0.06942743152317532 0 0.30281449568037039 -0.081892688481997489 0 0.31354700770139288 -0.077640947536551208 0 0.30858003217544938 -0.085479959535700839 0 0.30281449568037039 -0.081892688481997489 0 0.30858003217544938 -0.085479959535700839 0 0.30333581767267259 -0.08868675337516263 0 0.30281449568037039 -0.081892688481997489 0 0.31890367233151212 -0.090204528017247473 0 0.30858003217544938 -0.085479959535700839 0 0.30929982741991202 -0.095365087495263665 0 0.30858003217544938 -0.085479959535700839 0 0.30333581767267259 -0.08868675337516263 0 0.30929982741991202 -0.095365087495263665 0 0.30333581767267259 -0.08868675337516263 0 0.29676012201103702 -0.086020116996308918 0 0.29922461107659443 -0.094675914366542269 0 0.30333581767267259 -0.08868675337516263 0 0.30929982741991202 -0.095365087495263665 0 0.29922461107659443 -0.094675914366542269 0 0.29796765102505879 -0.075831122741836066 0 0.30281449568037039 -0.081892688481997489 0 0.29676012201103702 -0.086020116996308918 0 0.30333581767267259 -0.08868675337516263 0 0.30281449568037039 -0.081892688481997489 0 0.29676012201103702 -0.086020116996308918 0 0.29796765102505879 -0.075831122741836066 0 0.29205293743667432 -0.080856124781875052 0 0.29676012201103702 -0.086020116996308918 0 0.29205293743667432 -0.080856124781875052 0 0.29676012201103702 -0.086020116996308918 0 0.28957947409416168 -0.085944541206644715 0 0.29676012201103702 -0.086020116996308918 0 0.29083927870337639 -0.091588588899327555 0 0.29922461107659443 -0.094675914366542269 0 0.29676012201103702 -0.086020116996308918 0 0.28957947409416168 -0.085944541206644715 0 0.29083927870337639 -0.091588588899327555 0 0.29083927870337639 -0.091588588899327555 0 0.28411670599782418 -0.088363773107860977 0 0.2831736068808276 -0.094881664156623358 0 0.28957947409416168 -0.085944541206644715 0 0.29083927870337639 -0.091588588899327555 0 0.28411670599782418 -0.088363773107860977 0 0.28411670599782418 -0.088363773107860977 0 0.2831736068808276 -0.094881664156623358 0 0.2790859651114902 -0.090785505276985465 0 0.29205293743667432 -0.080856124781875052 0 0.28957947409416168 -0.085944541206644715 0 0.28412832632189661 -0.082894102247851056 0 0.28412832632189661 -0.082894102247851056 0 0.28349581259803092 -0.0736853291005376 0 0.27630006534501639 -0.079283753968901693 0 0.29205293743667432 -0.080856124781875052 0 0.28412832632189661 -0.082894102247851056 0 0.28349581259803092 -0.0736853291005376 0 0.28957947409416168 -0.085944541206644715 0 0.28411670599782418 -0.088363773107860977 0 0.28412832632189661 -0.082894102247851056 0 0.28411670599782418 -0.088363773107860977 0 0.28412832632189661 -0.082894102247851056 0 0.27851754450974281 -0.085799803214711257 0 0.29205293743667432 -0.080856124781875052 0 0.28349581259803092 -0.0736853291005376 0 0.29135861405319491 -0.070890170016920759 0 0.28349581259803092 -0.0736853291005376 0 0.29135861405319491 -0.070890170016920759 0 0.28580958081603758 -0.058783877455082963 0 0.29746708839017277 -0.065294396005272079 0 0.29135861405319491 -0.070890170016920759 0 0.28580958081603758 -0.058783877455082963 0 0.29746708839017277 -0.065294396005272079 0 0.29796765102505879 -0.075831122741836066 0 0.29135861405319491 -0.070890170016920759 0 0.29796765102505879 -0.075831122741836066 0 0.29205293743667432 -0.080856124781875052 0 0.29135861405319491 -0.070890170016920759 0 0.30445699924468722 -0.11600664888952909 0 0.29159390878913022 -0.1279808632143741 0 0.30913965066518317 -0.12703223380977521 0 0.31866132604247832 -0.1160164442581503 0 0.30445699924468722 -0.11600664888952909 0 0.30913965066518317 -0.12703223380977521 0 0.31355989373455428 -0.106633998459426 0 0.31866132604247832 -0.1160164442581503 0 0.30445699924468722 -0.11600664888952909 0 0.30445699924468722 -0.11600664888952909 0 0.30177359564198231 -0.1047421341771365 0 0.29026758383940959 -0.1120104203448173 0 0.31355989373455428 -0.106633998459426 0 0.30177359564198231 -0.1047421341771365 0 0.30929982741991202 -0.095365087495263665 0 0.31355989373455428 -0.106633998459426 0 0.30445699924468722 -0.11600664888952909 0 0.30177359564198231 -0.1047421341771365 0 0.30177359564198231 -0.1047421341771365 0 0.30929982741991202 -0.095365087495263665 0 0.29922461107659443 -0.094675914366542269 0 0.30177359564198231 -0.1047421341771365 0 0.29922461107659443 -0.094675914366542269 0 0.29069749223535679 -0.1001450051612086 0 0.29083927870337639 -0.091588588899327555 0 0.29922461107659443 -0.094675914366542269 0 0.29069749223535679 -0.1001450051612086 0 0.29069749223535679 -0.1001450051612086 0 0.2831736068808276 -0.094881664156623358 0 0.27919296665720139 -0.1020011156025817 0 0.29083927870337639 -0.091588588899327555 0 0.29069749223535679 -0.1001450051612086 0 0.2831736068808276 -0.094881664156623358 0 0.29069749223535679 -0.1001450051612086 0 0.29026758383940959 -0.1120104203448173 0 0.27919296665720139 -0.1020011156025817 0 0.30177359564198231 -0.1047421341771365 0 0.29069749223535679 -0.1001450051612086 0 0.29026758383940959 -0.1120104203448173 0 0.29026758383940959 -0.1120104203448173 0 0.27446166226678481 -0.11539201534628341 0 0.27919296665720139 -0.1020011156025817 0 0.29026758383940959 -0.1120104203448173 0 0.27446166226678481 -0.11539201534628341 0 0.29159390878913022 -0.1279808632143741 0 0.27446166226678481 -0.11539201534628341 0 0.27863529775215118 -0.13130885407456161 0 0.29159390878913022 -0.1279808632143741 0 0.30445699924468722 -0.11600664888952909 0 0.29026758383940959 -0.1120104203448173 0 0.29159390878913022 -0.1279808632143741 0 0.27446166226678481 -0.11539201534628341 0 0.29159390878913022 -0.1279808632143741 0 0.27446166226678481 -0.11539201534628341 0 0.27863529775215118 -0.13130885407456161 0 0.27446166226678481 -0.11539201534628341 0 0.25875100621879649 -0.12504953296095059 0 0.27863529775215118 -0.13130885407456161 0 0.27446166226678481 -0.11539201534628341 0 0.26848811655621441 -0.092610925803507813 0 0.27446166226678481 -0.11539201534628341 0 0.25721619871458618 -0.10271997512142091 0 0.26848811655621441 -0.092610925803507813 0 0.27446166226678481 -0.11539201534628341 0 0.25721619871458618 -0.10271997512142091 0 0.27446166226678481 -0.11539201534628341 0 0.27919296665720139 -0.1020011156025817 0 0.26848811655621441 -0.092610925803507813 0 0.27919296665720139 -0.1020011156025817 0 0.27581600977518889 -0.094569171557080639 0 0.26848811655621441 -0.092610925803507813 0 0.2831736068808276 -0.094881664156623358 0 0.27919296665720139 -0.1020011156025817 0 0.27581600977518889 -0.094569171557080639 0 0.25721619871458618 -0.10271997512142091 0 0.26848811655621441 -0.092610925803507813 0 0.26050825240686448 -0.091533934836894496 0 0.25721619871458618 -0.10271997512142091 0 0.26848811655621441 -0.092610925803507813 0 0.25721619871458618 -0.10271997512142091 0 0.26050825240686448 -0.091533934836894496 0 0.25174049021884548 -0.087486636901796727 0 0.27446166226678481 -0.11539201534628341 0 0.25721619871458618 -0.10271997512142091 0 0.25875100621879649 -0.12504953296095059 0 0.25721619871458618 -0.10271997512142091 0 0.25875100621879649 -0.12504953296095059 0 0.23946377219984241 -0.11864097079151539 0 0.26639566211606319 -0.077486903324068934 0 0.2740550190205176 -0.065911157801392645 0 0.25782929842336338 -0.063524329579946456 0 0.26639566211606319 -0.077486903324068934 0 0.2740550190205176 -0.065911157801392645 0 0.27630006534501639 -0.079283753968901693 0 0.28349581259803092 -0.0736853291005376 0 0.2740550190205176 -0.065911157801392645 0 0.28580958081603758 -0.058783877455082963 0 0.28349581259803092 -0.0736853291005376 0 0.2740550190205176 -0.065911157801392645 0 0.27630006534501639 -0.079283753968901693 0 0.28412832632189661 -0.082894102247851056 0 0.27851754450974281 -0.085799803214711257 0 0.27630006534501639 -0.079283753968901693 0 0.27851754450974281 -0.085799803214711257 0 0.27630006534501639 -0.079283753968901693 0 0.27234198765136769 -0.084720763533666227 0 0.2831736068808276 -0.094881664156623358 0 0.27581600977518889 -0.094569171557080639 0 0.2790859651114902 -0.090785505276985465 0 0.27851754450974281 -0.085799803214711257 0 0.2790859651114902 -0.090785505276985465 0 0.27515093929693291 -0.089242560026841944 0 0.28411670599782418 -0.088363773107860977 0 0.27851754450974281 -0.085799803214711257 0 0.2790859651114902 -0.090785505276985465 0 0.27851754450974281 -0.085799803214711257 0 0.27515093929693291 -0.089242560026841944 0 0.27234198765136769 -0.084720763533666227 0 0.27581600977518889 -0.094569171557080639 0 0.2790859651114902 -0.090785505276985465 0 0.27515093929693291 -0.089242560026841944 0 0.27581600977518889 -0.094569171557080639 0 0.27515093929693291 -0.089242560026841944 0 0.27075843380955422 -0.090574826055110275 0 0.27581600977518889 -0.094569171557080639 0 0.27075843380955422 -0.090574826055110275 0 0.26848811655621441 -0.092610925803507813 0 0.27075843380955422 -0.090574826055110275 0 0.26848811655621441 -0.092610925803507813 0 0.27515093929693291 -0.089242560026841944 0 0.27075843380955422 -0.090574826055110275 0 0.27234198765136769 -0.084720763533666227 0 0.27075843380955422 -0.090574826055110275 0 0.26693290225906591 -0.086679862766885551 0 0.27234198765136769 -0.084720763533666227 0 0.26693290225906591 -0.086679862766885551 0 0.26848811655621441 -0.092610925803507813 0 0.27075843380955422 -0.090574826055110275 0 0.26693290225906591 -0.086679862766885551 0 0.26848811655621441 -0.092610925803507813 0 0.26639566211606319 -0.077486903324068934 0 0.27630006534501639 -0.079283753968901693 0 0.27234198765136769 -0.084720763533666227 0 0.26639566211606319 -0.077486903324068934 0 0.26693290225906591 -0.086679862766885551 0 0.27234198765136769 -0.084720763533666227 0 0.26639566211606319 -0.077486903324068934 0 0.26693290225906591 -0.086679862766885551 0 0.26017862556604782 -0.084465736959569215 0 0.26639566211606319 -0.077486903324068934 0 0.26017862556604782 -0.084465736959569215 0 0.25531582082939952 -0.079141346968200396 0 0.26693290225906591 -0.086679862766885551 0 0.26848811655621441 -0.092610925803507813 0 0.26050825240686448 -0.091533934836894496 0 0.26693290225906591 -0.086679862766885551 0 0.26017862556604782 -0.084465736959569215 0 0.26050825240686448 -0.091533934836894496 0 0.26017862556604782 -0.084465736959569215 0 0.26050825240686448 -0.091533934836894496 0 0.25174049021884548 -0.087486636901796727 0 0.26017862556604782 -0.084465736959569215 0 0.25174049021884548 -0.087486636901796727 0 0.25531582082939952 -0.079141346968200396 0 0.25531582082939952 -0.079141346968200396 0 0.25782929842336338 -0.063524329579946456 0 0.23974687695672151 -0.083316692675018428 0 0.26639566211606319 -0.077486903324068934 0 0.25531582082939952 -0.079141346968200396 0 0.25782929842336338 -0.063524329579946456 0 0.25782929842336338 -0.063524329579946456 0 0.25002440808248971 -0.049070108055649597 0 0.2424790725628117 -0.068061140075458951 0 0.25782929842336338 -0.063524329579946456 0 0.25002440808248971 -0.049070108055649597 0 0.27591171989000529 -0.04373196648487454 0 0.2740550190205176 -0.065911157801392645 0 0.25782929842336338 -0.063524329579946456 0 0.27591171989000529 -0.04373196648487454 0 0.2740550190205176 -0.065911157801392645 0 0.27591171989000529 -0.04373196648487454 0 0.28580958081603758 -0.058783877455082963 0 0.25782929842336338 -0.063524329579946456 0 0.27591171989000529 -0.04373196648487454 0 0.27591171989000529 -0.04373196648487454 0 0.27735903868336192 -0.031740056614602073 0 0.25548622622839667 -0.03190991485936516 0 0.25002440808248971 -0.049070108055649597 0 0.27591171989000529 -0.04373196648487454 0 0.25548622622839667 -0.03190991485936516 0 0.25548622622839667 -0.03190991485936516 0 0.26316610588291889 -0.01548425961105131 0 0.27770230622727071 -0.019666001727380249 0 0.25548622622839667 -0.03190991485936516 0 0.26316610588291889 -0.01548425961105131 0 0.24820666495033469 -0.010671503176887811 0 0.27245236435601983 -0.0028518406608112538 0 0.24820666495033469 -0.010671503176887811 0 0.26316610588291889 -0.01548425961105131 0 0.27245236435601983 -0.0028518406608112538 0 0.24820666495033469 -0.010671503176887811 0 0.25664898171853662 0.0056114648194218507 0 0.27245236435601983 -0.0028518406608112538 0 0.24820666495033469 -0.010671503176887811 0 0.27245236435601983 -0.0028518406608112538 0 0.27770230622727071 -0.019666001727380249 0 0.2901426303658472 -0.0085593345258249982 0 0.26316610588291889 -0.01548425961105131 0 0.27245236435601983 -0.0028518406608112538 0 0.27770230622727071 -0.019666001727380249 0 0.27735903868336192 -0.031740056614602073 0 0.25548622622839667 -0.03190991485936516 0 0.27770230622727071 -0.019666001727380249 0 0.25548622622839667 -0.03190991485936516 0 0.27770230622727071 -0.019666001727380249 0 0.27735903868336192 -0.031740056614602073 0 0.27770230622727071 -0.019666001727380249 0 0.2866154472820816 -0.022962069510895591 0 0.27735903868336192 -0.031740056614602073 0 0.2866154472820816 -0.022962069510895591 0 0.29405855385444818 -0.023072198130139231 0 0.27770230622727071 -0.019666001727380249 0 0.2866154472820816 -0.022962069510895591 0 0.28956375000426021 -0.017283932756289359 0 0.2866154472820816 -0.022962069510895591 0 0.28956375000426021 -0.017283932756289359 0 0.29405855385444818 -0.023072198130139231 0 0.28956375000426021 -0.017283932756289359 0 0.29541094877832041 -0.016176344353092832 0 0.29405855385444818 -0.023072198130139231 0 0.29405855385444818 -0.023072198130139231 0 0.29692197467967968 -0.029018650600014181 0 0.29230268948280203 -0.034585818718675138 0 0.29669806376170488 0.0049678218552653636 0 0.27245236435601983 -0.0028518406608112538 0 0.2901426303658472 -0.0085593345258249982 0 0.27770230622727071 -0.019666001727380249 0 0.28956375000426021 -0.017283932756289359 0 0.2901426303658472 -0.0085593345258249982 0 0.29541094877832041 -0.016176344353092832 0 0.2901426303658472 -0.0085593345258249982 0 0.30472442673173888 -0.015369669056047039 0 0.28956375000426021 -0.017283932756289359 0 0.29541094877832041 -0.016176344353092832 0 0.2901426303658472 -0.0085593345258249982 0 0.31033225328533481 0.001712276495528905 0 0.29669806376170488 0.0049678218552653636 0 0.30472442673173888 -0.015369669056047039 0 0.29669806376170488 0.0049678218552653636 0 0.2901426303658472 -0.0085593345258249982 0 0.30472442673173888 -0.015369669056047039 0 0.29669806376170488 0.0049678218552653636 0 0.30472442673173888 -0.015369669056047039 0 0.31293184394702928 -0.036165921810200452 0 0.30472442673173888 -0.015369669056047039 0 0.29982370446671958 -0.023936405684760399 0 0.31885421456356922 -0.02191393541025069 0 0.31293184394702928 -0.036165921810200452 0 0.30472442673173888 -0.015369669056047039 0 0.31293184394702928 -0.036165921810200452 0 0.30472442673173888 -0.015369669056047039 0 0.31293184394702928 -0.036165921810200452 0 0.29982370446671958 -0.023936405684760399 0 0.29999230420119688 -0.033034672256742982 0 0.29692197467967968 -0.029018650600014181 0 0.29982370446671958 -0.023936405684760399 0 0.29999230420119688 -0.033034672256742982 0 0.29405855385444818 -0.023072198130139231 0 0.29692197467967968 -0.029018650600014181 0 0.29982370446671958 -0.023936405684760399 0 0.29541094877832041 -0.016176344353092832 0 0.29405855385444818 -0.023072198130139231 0 0.30472442673173888 -0.015369669056047039 0 0.29405855385444818 -0.023072198130139231 0 0.30472442673173888 -0.015369669056047039 0 0.29405855385444818 -0.023072198130139231 0 0.30472442673173888 -0.015369669056047039 0 0.29982370446671958 -0.023936405684760399 0 0.31293184394702928 -0.036165921810200452 0 0.30532118393206892 -0.053814837618057471 0 0.29455473577647268 -0.043153340224441887 0 0.31293184394702928 -0.036165921810200452 0 0.29999230420119688 -0.033034672256742982 0 0.29455473577647268 -0.043153340224441887 0 0.29746708839017277 -0.065294396005272079 0 0.30532118393206892 -0.053814837618057471 0 0.29578814722868801 -0.055261612825713603 0 0.30532118393206892 -0.053814837618057471 0 0.29578814722868801 -0.055261612825713603 0 0.29455473577647268 -0.043153340224441887 0 0.29578814722868801 -0.055261612825713603 0 0.28580958081603758 -0.058783877455082963 0 0.29455473577647268 -0.043153340224441887 0 0.27591171989000529 -0.04373196648487454 0 0.28580958081603758 -0.058783877455082963 0 0.29455473577647268 -0.043153340224441887 0 0.29746708839017277 -0.065294396005272079 0 0.29578814722868801 -0.055261612825713603 0 0.28580958081603758 -0.058783877455082963 0 0.27591171989000529 -0.04373196648487454 0 0.29230268948280203 -0.034585818718675138 0 0.29455473577647268 -0.043153340224441887 0 0.27591171989000529 -0.04373196648487454 0 0.29405855385444818 -0.023072198130139231 0 0.27591171989000529 -0.04373196648487454 0 0.27735903868336192 -0.031740056614602073 0 0.29405855385444818 -0.023072198130139231 0 0.27591171989000529 -0.04373196648487454 0 0.29405855385444818 -0.023072198130139231 0 0.29230268948280203 -0.034585818718675138 0 0.29999230420119688 -0.033034672256742982 0 0.29230268948280203 -0.034585818718675138 0 0.29455473577647268 -0.043153340224441887 0 0.29692197467967968 -0.029018650600014181 0 0.29999230420119688 -0.033034672256742982 0 0.29230268948280203 -0.034585818718675138 0 0.28304456934196132 -0.21040780225078121 0 0.29955686468219622 -0.21101085745181289 0 0.28686681690347782 -0.2230811129199767 0 0.28304456934196132 -0.21040780225078121 0 0.28468493947340812 -0.19756035861734769 0 0.29955686468219622 -0.21101085745181289 0 0.28468493947340812 -0.19756035861734769 0 0.30188457884086728 -0.1986535637700283 0 0.29955686468219622 -0.21101085745181289 0 0.28468493947340812 -0.19756035861734769 0 0.30188457884086728 -0.1986535637700283 0 0.29515411624069271 -0.18660141202939279 0 0.28468493947340812 -0.19756035861734769 0 0.27808265084970107 -0.17922403302440629 0 0.29515411624069271 -0.18660141202939279 0 0.30188457884086728 -0.1986535637700283 0 0.29515411624069271 -0.18660141202939279 0 0.31453580060441111 -0.18999111815888561 0 0.30188457884086728 -0.1986535637700283 0 0.31882006570172122 -0.20594305790058409 0 0.31453580060441111 -0.18999111815888561 0 0.29955686468219622 -0.21101085745181289 0 0.31669537675115972 -0.2175556610923958 0 0.31882006570172122 -0.20594305790058409 0 0.30188457884086728 -0.1986535637700283 0 0.29955686468219622 -0.21101085745181289 0 0.31882006570172122 -0.20594305790058409 0 0.29955686468219622 -0.21101085745181289 0 0.30395357075514462 -0.2253582266454619 0 0.31669537675115972 -0.2175556610923958 0 0.30395357075514462 -0.2253582266454619 0 0.31669537675115972 -0.2175556610923958 0 0.31526495809652272 -0.22717434466432981 0 0.30909257150035152 -0.23414456314565871 0 0.30395357075514462 -0.2253582266454619 0 0.31526495809652272 -0.22717434466432981 0 0.30909257150035152 -0.23414456314565871 0 0.30395357075514462 -0.2253582266454619 0 0.29675187277504089 -0.24077871660993291 0 0.30909257150035152 -0.23414456314565871 0 0.29675187277504089 -0.24077871660993291 0 0.31440153750881022 -0.25585096765320098 0 0.29675187277504089 -0.24077871660993291 0 0.27951171511203837 -0.23820816909590339 0 0.2808859915677191 -0.25298064889964872 0 0.29675187277504089 -0.24077871660993291 0 0.28686681690347782 -0.2230811129199767 0 0.27951171511203837 -0.23820816909590339 0 0.30395357075514462 -0.2253582266454619 0 0.29675187277504089 -0.24077871660993291 0 0.28686681690347782 -0.2230811129199767 0 0.29955686468219622 -0.21101085745181289 0 0.30395357075514462 -0.2253582266454619 0 0.28686681690347782 -0.2230811129199767 0 0.28686681690347782 -0.2230811129199767 0 0.26818020838970469 -0.23053346047278001 0 0.27951171511203837 -0.23820816909590339 0 0.28686681690347782 -0.2230811129199767 0 0.26818020838970469 -0.23053346047278001 0 0.27028664558422588 -0.21672853691687041 0 0.27951171511203837 -0.23820816909590339 0 0.26487368592424948 -0.2436669065771791 0 0.2808859915677191 -0.25298064889964872 0 0.26818020838970469 -0.23053346047278001 0 0.27951171511203837 -0.23820816909590339 0 0.26487368592424948 -0.2436669065771791 0 0.26487368592424948 -0.2436669065771791 0 0.25436638690304969 -0.22747799096314841 0 0.2484788525112992 -0.25384991982673899 0 0.25436638690304969 -0.22747799096314841 0 0.2484788525112992 -0.25384991982673899 0 0.26818020838970469 -0.23053346047278001 0 0.25436638690304969 -0.22747799096314841 0 0.27028664558422588 -0.21672853691687041 0 0.26818020838970469 -0.23053346047278001 0 0.26487368592424948 -0.2436669065771791 0 0.25436638690304969 -0.22747799096314841 0 0.25436638690304969 -0.22747799096314841 0 0.27028664558422588 -0.21672853691687041 0 0.26025392129480029 -0.20110606209955781 0 0.25436638690304969 -0.22747799096314841 0 0.26025392129480029 -0.20110606209955781 0 0.24494309261358449 -0.20972046551627541 0 0.25436638690304969 -0.22747799096314841 0 0.26025392129480029 -0.20110606209955781 0 0.28304456934196132 -0.21040780225078121 0 0.28686681690347782 -0.2230811129199767 0 0.27028664558422588 -0.21672853691687041 0 0.27028664558422588 -0.21672853691687041 0 0.27382758006649832 -0.20365814534789789 0 0.26025392129480029 -0.20110606209955781 0 0.28304456934196132 -0.21040780225078121 0 0.27028664558422588 -0.21672853691687041 0 0.27382758006649832 -0.20365814534789789 0 0.28304456934196132 -0.21040780225078121 0 0.28468493947340812 -0.19756035861734769 0 0.27382758006649832 -0.20365814534789789 0 0.27238630044348999 -0.19141820492325179 0 0.26025392129480029 -0.20110606209955781 0 0.26614145568655168 -0.17473413323596751 0 0.28468493947340812 -0.19756035861734769 0 0.27238630044348999 -0.19141820492325179 0 0.27808265084970107 -0.17922403302440629 0 0.28468493947340812 -0.19756035861734769 0 0.27382758006649832 -0.20365814534789789 0 0.27238630044348999 -0.19141820492325179 0 0.27382758006649832 -0.20365814534789789 0 0.27238630044348999 -0.19141820492325179 0 0.26025392129480029 -0.20110606209955781 0 0.25554227415006853 -0.19222729937612171 0 0.24494309261358449 -0.20972046551627541 0 0.26025392129480029 -0.20110606209955781 0 0.25554227415006853 -0.19222729937612171 0 0.26614145568655168 -0.17473413323596751 0 0.26025392129480029 -0.20110606209955781 0 0.26614145568655168 -0.17473413323596751 0 0.26025392129480029 -0.20110606209955781 0 0.25554227415006853 -0.19222729937612171 0 0.24494309261358449 -0.20972046551627541 0 0.25554227415006853 -0.19222729937612171 0 0.25796616033780118 -0.1725408592901749 0 0.26614145568655168 -0.17473413323596751 0 0.25554227415006853 -0.19222729937612171 0 0.25796616033780118 -0.1725408592901749 0 0.24543199639070409 -0.18264300804967451 0 0.25554227415006853 -0.19222729937612171 0 0.26614145568655168 -0.17473413323596751 0 0.25796616033780118 -0.1725408592901749 0 0.26687517087673929 -0.17144761573742009 0 0.26614145568655168 -0.17473413323596751 0 0.25796616033780118 -0.1725408592901749 0 0.2486145811112937 -0.16884638692669571 0 0.24543199639070409 -0.18264300804967451 0 0.25796616033780118 -0.1725408592901749 0 0.26114861347281387 -0.15977193974449311 0 0.2486145811112937 -0.16884638692669571 0 0.26114861347281387 -0.15977193974449311 0 0.25179086874915613 -0.15330806089431401 0 0.2486145811112937 -0.16884638692669571 0 0.26114861347281387 -0.15977193974449311 0 0.2631367956739285 -0.16708258574927529 0 0.26655723800835968 -0.16456992822501321 0 0.25796616033780118 -0.1725408592901749 0 0.2631367956739285 -0.16708258574927529 0 0.26687517087673929 -0.17144761573742009 0 0.25796616033780118 -0.1725408592901749 0 0.26114861347281387 -0.15977193974449311 0 0.2631367956739285 -0.16708258574927529 0 0.2631367956739285 -0.16708258574927529 0 0.26687517087673929 -0.17144761573742009 0 0.26655723800835968 -0.16456992822501321 0 0.26687517087673929 -0.17144761573742009 0 0.26655723800835968 -0.16456992822501321 0 0.27447519446203428 -0.1609799130194034 0 0.26687517087673929 -0.17144761573742009 0 0.27447519446203428 -0.1609799130194034 0 0.26614145568655168 -0.17473413323596751 0 0.27447519446203428 -0.1609799130194034 0 0.27808265084970107 -0.17922403302440629 0 0.29001797670027391 -0.1747185542623565 0 0.27447519446203428 -0.1609799130194034 0 0.26614145568655168 -0.17473413323596751 0 0.27447519446203428 -0.1609799130194034 0 0.27808265084970107 -0.17922403302440629 0 0.26614145568655168 -0.17473413323596751 0 0.26114861347281387 -0.15977193974449311 0 0.26655723800835968 -0.16456992822501321 0 0.27447519446203428 -0.1609799130194034 0 0.27238630044348999 -0.19141820492325179 0 0.27808265084970107 -0.17922403302440629 0 0.26614145568655168 -0.17473413323596751 0 0.26687517087673929 -0.17144761573742009 0 0.26614145568655168 -0.17473413323596751 0 0.25875100621879649 -0.12504953296095059 0 0.26488398849809469 -0.1442874953964805 0 0.24289792203789021 -0.14188522053962821 0 0.26488398849809469 -0.1442874953964805 0 0.25179086874915613 -0.15330806089431401 0 0.24289792203789021 -0.14188522053962821 0 0.26114861347281387 -0.15977193974449311 0 0.26488398849809469 -0.1442874953964805 0 0.25179086874915613 -0.15330806089431401 0 0.27447519446203428 -0.1609799130194034 0 0.26488398849809469 -0.1442874953964805 0 0.28280893323751788 -0.14722569280283981 0 0.26114861347281387 -0.15977193974449311 0 0.27447519446203428 -0.1609799130194034 0 0.26488398849809469 -0.1442874953964805 0 0.26488398849809469 -0.1442874953964805 0 0.27863529775215118 -0.13130885407456161 0 0.28280893323751788 -0.14722569280283981 0 0.27447519446203428 -0.1609799130194034 0 0.28280893323751788 -0.14722569280283981 0 0.27863529775215118 -0.13130885407456161 0 0.28280893323751788 -0.14722569280283981 0 0.25875100621879649 -0.12504953296095059 0 0.26488398849809469 -0.1442874953964805 0 0.27863529775215118 -0.13130885407456161 0 0.27863529775215118 -0.13130885407456161 0 0.28498135069571562 -0.1407963566948027 0 0.28280893323751788 -0.14722569280283981 0 0.27863529775215118 -0.13130885407456161 0 0.29159390878913022 -0.1279808632143741 0 0.2878149751139682 -0.13732215674795509 0 0.27863529775215118 -0.13130885407456161 0 0.2878149751139682 -0.13732215674795509 0 0.28498135069571562 -0.1407963566948027 0 0.2878149751139682 -0.13732215674795509 0 0.2891716175379242 -0.14350990039156411 0 0.28498135069571562 -0.1407963566948027 0 0.29159390878913022 -0.1279808632143741 0 0.2878149751139682 -0.13732215674795509 0 0.29480499231202062 -0.1413047434370715 0 0.29480499231202062 -0.1413047434370715 0 0.29232739532889712 -0.15166901370818339 0 0.3020706719889299 -0.1498438365519392 0 0.29480499231202062 -0.1413047434370715 0 0.2891716175379242 -0.14350990039156411 0 0.29232739532889712 -0.15166901370818339 0 0.2891716175379242 -0.14350990039156411 0 0.28648590678767699 -0.14597597275722191 0 0.29232739532889712 -0.15166901370818339 0 0.2878149751139682 -0.13732215674795509 0 0.29480499231202062 -0.1413047434370715 0 0.2891716175379242 -0.14350990039156411 0 0.2891716175379242 -0.14350990039156411 0 0.28498135069571562 -0.1407963566948027 0 0.28648590678767699 -0.14597597275722191 0 0.28280893323751788 -0.14722569280283981 0 0.28648590678767699 -0.14597597275722191 0 0.29232739532889712 -0.15166901370818339 0 0.28498135069571562 -0.1407963566948027 0 0.28280893323751788 -0.14722569280283981 0 0.28648590678767699 -0.14597597275722191 0 0.29232739532889712 -0.15166901370818339 0 0.3020706719889299 -0.1498438365519392 0 0.30235872082449983 -0.1614315138179224 0 0.3020706719889299 -0.1498438365519392 0 0.31213609616775778 -0.15424420071405209 0 0.30235872082449983 -0.1614315138179224 0 0.3020706719889299 -0.1498438365519392 0 0.31213609616775778 -0.15424420071405209 0 0.30872615531147418 -0.14056971108246669 0 0.29480499231202062 -0.1413047434370715 0 0.3020706719889299 -0.1498438365519392 0 0.30872615531147418 -0.14056971108246669 0 0.29159390878913022 -0.1279808632143741 0 0.30872615531147418 -0.14056971108246669 0 0.29159390878913022 -0.1279808632143741 0 0.30872615531147418 -0.14056971108246669 0 0.30913965066518317 -0.12703223380977521 0 0.29159390878913022 -0.1279808632143741 0 0.29480499231202062 -0.1413047434370715 0 0.30872615531147418 -0.14056971108246669 0 0.27808265084970107 -0.17922403302440629 0 0.29001797670027391 -0.1747185542623565 0 0.29515411624069271 -0.18660141202939279 0 0.29001797670027391 -0.1747185542623565 0 0.29515411624069271 -0.18660141202939279 0 0.30543569606404458 -0.17606482478382801 0 0.29232739532889712 -0.15166901370818339 0 0.29001797670027391 -0.1747185542623565 0 0.30235872082449983 -0.1614315138179224 0 0.27447519446203428 -0.1609799130194034 0 0.28280893323751788 -0.14722569280283981 0 0.29001797670027391 -0.1747185542623565 0 0.28280893323751788 -0.14722569280283981 0 0.29232739532889712 -0.15166901370818339 0 0.29001797670027391 -0.1747185542623565 0 0.28280893323751788 -0.14722569280283981 0 0.29001797670027391 -0.1747185542623565 0 0.29001797670027391 -0.1747185542623565 0 0.30235872082449983 -0.1614315138179224 0 0.30543569606404458 -0.17606482478382801 0 0.31213609616775778 -0.15424420071405209 0 0.30235872082449983 -0.1614315138179224 0 0.31350609690106901 -0.16582061841154461 0 0.30235872082449983 -0.1614315138179224 0 0.30543569606404458 -0.17606482478382801 0 0.31350609690106901 -0.16582061841154461 0 0.29515411624069271 -0.18660141202939279 0 0.30543569606404458 -0.17606482478382801 0 0.31453580060441111 -0.18999111815888561 0 0.30543569606404458 -0.17606482478382801 0 0.31859019223355067 -0.17641072387307269 0 0.31453580060441111 -0.18999111815888561 0 0.32592812551767258 -0.18457636524275189 0 0.31859019223355067 -0.17641072387307269 0 0.31453580060441111 -0.18999111815888561 0 0.31859019223355067 -0.17641072387307269 0 0.32210844871179151 -0.1667705269762525 0 0.32979061491708561 -0.17345162151767621 0 0.32592812551767258 -0.18457636524275189 0 0.31859019223355067 -0.17641072387307269 0 0.32979061491708561 -0.17345162151767621 0 0.30543569606404458 -0.17606482478382801 0 0.31859019223355067 -0.17641072387307269 0 0.31350609690106901 -0.16582061841154461 0 0.31859019223355067 -0.17641072387307269 0 0.31350609690106901 -0.16582061841154461 0 0.32210844871179151 -0.1667705269762525 0 0.31350609690106901 -0.16582061841154461 0 0.31840226090360879 -0.15999847626310251 0 0.32210844871179151 -0.1667705269762525 0 0.32210844871179151 -0.1667705269762525 0 0.32979061491708561 -0.17345162151767621 0 0.32585840183381709 -0.1531585589505608 0 0.32979061491708561 -0.17345162151767621 0 0.32585840183381709 -0.1531585589505608 0 0.31213609616775778 -0.15424420071405209 0 0.31350609690106901 -0.16582061841154461 0 0.31840226090360879 -0.15999847626310251 0 0.31840226090360879 -0.15999847626310251 0 0.32210844871179151 -0.1667705269762525 0 0.32585840183381709 -0.1531585589505608 0 0.33509768675375662 -0.15994762494464171 0 0.33556749571157168 -0.17901167732769929 0 0.34787529092781982 -0.16933666302882869 0 0.33509768675375662 -0.15994762494464171 0 0.32979061491708561 -0.17345162151767621 0 0.33556749571157168 -0.17901167732769929 0 0.33509768675375662 -0.15994762494464171 0 0.32979061491708561 -0.17345162151767621 0 0.32585840183381709 -0.1531585589505608 0 0.33509768675375662 -0.15994762494464171 0 0.33556749571157168 -0.17901167732769929 0 0.33509768675375662 -0.15994762494464171 0 0.32585840183381709 -0.1531585589505608 0 0.33509768675375662 -0.15994762494464171 0 0.34787529092781982 -0.16933666302882869 0 0.3453057120017497 -0.15667167558393219 0 0.33509768675375662 -0.15994762494464171 0 0.34787529092781982 -0.16933666302882869 0 0.32979061491708561 -0.17345162151767621 0 0.33556749571157168 -0.17901167732769929 0 0.33372282800035669 -0.19374468408479101 0 0.34063015670432079 -0.1810560539250041 0 0.33556749571157168 -0.17901167732769929 0 0.35284401263924348 -0.17667040057744501 0 0.32979061491708561 -0.17345162151767621 0 0.33372282800035669 -0.19374468408479101 0 0.32592812551767258 -0.18457636524275189 0 0.32979061491708561 -0.17345162151767621 0 0.33372282800035669 -0.19374468408479101 0 0.34063015670432079 -0.1810560539250041 0 0.3384740200401718 -0.18741812857892531 0 0.33556749571157168 -0.17901167732769929 0 0.34063015670432079 -0.1810560539250041 0 0.3430915906280847 -0.18385278586231221 0 0.3384740200401718 -0.18741812857892531 0 0.3430915906280847 -0.18385278586231221 0 0.3384740200401718 -0.18741812857892531 0 0.34229522890714942 -0.18989707570219619 0 0.31866132604247832 -0.1160164442581503 0 0.32225986393814637 -0.13458750160435581 0 0.33216815925553361 -0.12959872546738541 0 0.31866132604247832 -0.1160164442581503 0 0.32225986393814637 -0.13458750160435581 0 0.31866132604247832 -0.1160164442581503 0 0.30913965066518317 -0.12703223380977521 0 0.32225986393814637 -0.13458750160435581 0 0.30872615531147418 -0.14056971108246669 0 0.30913965066518317 -0.12703223380977521 0 0.32225986393814637 -0.13458750160435581 0 0.30872615531147418 -0.14056971108246669 0 0.32225986393814637 -0.13458750160435581 0 0.32585840183381709 -0.1531585589505608 0 0.32225986393814637 -0.13458750160435581 0 0.32585840183381709 -0.1531585589505608 0 0.32225986393814637 -0.13458750160435581 0 0.32585840183381709 -0.1531585589505608 0 0.33038522870242337 -0.13926111298166699 0 0.30872615531147418 -0.14056971108246669 0 0.32585840183381709 -0.1531585589505608 0 0.31213609616775778 -0.15424420071405209 0 0.30872615531147418 -0.14056971108246669 0 0.32585840183381709 -0.1531585589505608 0 0.31213609616775778 -0.15424420071405209 0 0.31840226090360879 -0.15999847626310251 0 0.32585840183381709 -0.1531585589505608 0 0.3353241011422235 -0.14428031328248789 0 0.33776741136425631 -0.13667295059041931 0 0.3453057120017497 -0.15667167558393219 0 0.33776741136425631 -0.13667295059041931 0 0.3453057120017497 -0.15667167558393219 0 0.33509768675375662 -0.15994762494464171 0 0.3353241011422235 -0.14428031328248789 0 0.33509768675375662 -0.15994762494464171 0 0.32585840183381709 -0.1531585589505608 0 0.3353241011422235 -0.14428031328248789 0 0.33509768675375662 -0.15994762494464171 0 0.3353241011422235 -0.14428031328248789 0 0.3453057120017497 -0.15667167558393219 0 0.32585840183381709 -0.1531585589505608 0 0.3353241011422235 -0.14428031328248789 0 0.33038522870242337 -0.13926111298166699 0 0.32225986393814637 -0.13458750160435581 0 0.33038522870242337 -0.13926111298166699 0 0.33216815925553361 -0.12959872546738541 0 0.33038522870242337 -0.13926111298166699 0 0.33776741136425631 -0.13667295059041931 0 0.33216815925553361 -0.12959872546738541 0 0.3353241011422235 -0.14428031328248789 0 0.33038522870242337 -0.13926111298166699 0 0.33776741136425631 -0.13667295059041931 0 0.33776741136425631 -0.13667295059041931 0 0.3407950552388328 -0.12900565341057441 0 0.34739771162481892 -0.13475491023147351 0 0.33776741136425631 -0.13667295059041931 0 0.3407950552388328 -0.12900565341057441 0 0.33216815925553361 -0.12959872546738541 0 0.33602192972224632 -0.11937813502018881 0 0.3407950552388328 -0.12900565341057441 0 0.33216815925553361 -0.12959872546738541 0 0.35062006422730879 -0.1246235457434051 0 0.3407950552388328 -0.12900565341057441 0 0.34739771162481892 -0.13475491023147351 0 0.33776741136425631 -0.13667295059041931 0 0.34739771162481892 -0.13475491023147351 0 0.34898692066612058 -0.14412313254011561 0 0.35062006422730879 -0.1246235457434051 0 0.34739771162481892 -0.13475491023147351 0 0.35921253690469201 -0.13944051922790671 0 0.34739771162481892 -0.13475491023147351 0 0.35921253690469201 -0.13944051922790671 0 0.34898692066612058 -0.14412313254011561 0 0.33776741136425631 -0.13667295059041931 0 0.34898692066612058 -0.14412313254011561 0 0.3453057120017497 -0.15667167558393219 0 0.35921253690469201 -0.13944051922790671 0 0.34898692066612058 -0.14412313254011561 0 0.35588619610232258 -0.15154387421633289 0 0.34898692066612058 -0.14412313254011561 0 0.35588619610232258 -0.15154387421633289 0 0.3453057120017497 -0.15667167558393219 0 0.3657570617015658 -0.15186210140539161 0 0.37265183947675679 -0.163650149293151 0 0.3796267729162468 -0.14150604483830939 0 0.35921253690469201 -0.13944051922790671 0 0.3657570617015658 -0.15186210140539161 0 0.3796267729162468 -0.14150604483830939 0 0.35588619610232258 -0.15154387421633289 0 0.3657570617015658 -0.15186210140539161 0 0.36143867857195799 -0.16255847662329259 0 0.35921253690469201 -0.13944051922790671 0 0.35588619610232258 -0.15154387421633289 0 0.3657570617015658 -0.15186210140539161 0 0.36892844815853321 -0.1249047661769056 0 0.35921253690469201 -0.13944051922790671 0 0.3796267729162468 -0.14150604483830939 0 0.36892844815853321 -0.1249047661769056 0 0.35062006422730879 -0.1246235457434051 0 0.35921253690469201 -0.13944051922790671 0 0.33556749571157168 -0.17901167732769929 0 0.35284401263924348 -0.17667040057744501 0 0.33556749571157168 -0.17901167732769929 0 0.35284401263924348 -0.17667040057744501 0 0.34787529092781982 -0.16933666302882869 0 0.34063015670432079 -0.1810560539250041 0 0.3430915906280847 -0.18385278586231221 0 0.35284401263924348 -0.17667040057744501 0 0.3430915906280847 -0.18385278586231221 0 0.35284401263924348 -0.17667040057744501 0 0.34744812184746782 -0.18851960793983219 0 0.3430915906280847 -0.18385278586231221 0 0.34744812184746782 -0.18851960793983219 0 0.34229522890714942 -0.18989707570219619 0 0.35588619610232258 -0.15154387421633289 0 0.3453057120017497 -0.15667167558393219 0 0.36143867857195799 -0.16255847662329259 0 0.35284401263924348 -0.17667040057744501 0 0.34787529092781982 -0.16933666302882869 0 0.3453057120017497 -0.15667167558393219 0 0.35284401263924348 -0.17667040057744501 0 0.3453057120017497 -0.15667167558393219 0 0.36143867857195799 -0.16255847662329259 0 0.35284401263924348 -0.17667040057744501 0 0.3453057120017497 -0.15667167558393219 0 0.35284401263924348 -0.17667040057744501 0 0.36143867857195799 -0.16255847662329259 0 0.37682221417734679 -0.17342092581299001 0 0.3657570617015658 -0.15186210140539161 0 0.36143867857195799 -0.16255847662329259 0 0.37265183947675679 -0.163650149293151 0 0.36143867857195799 -0.16255847662329259 0 0.37265183947675679 -0.163650149293151 0 0.37682221417734679 -0.17342092581299001 0 0.35284401263924348 -0.17667040057744501 0 0.36629924405068559 -0.1858643888578945 0 0.37682221417734679 -0.17342092581299001 0 0.35284401263924348 -0.17667040057744501 0 0.37682221417734679 -0.17342092581299001 0 0.36629924405068559 -0.1858643888578945 0 0.36226072483054239 -0.20165245508986321 0 0.37892955939237971 -0.20500096645112759 0 0.35284401263924348 -0.17667040057744501 0 0.36629924405068559 -0.1858643888578945 0 0.36226072483054239 -0.20165245508986321 0 0.36226072483054239 -0.20165245508986321 0 0.37167743702184169 -0.22663450960228121 0 0.36226072483054239 -0.20165245508986321 0 0.37167743702184169 -0.22663450960228121 0 0.37892955939237971 -0.20500096645112759 0 0.36226072483054239 -0.20165245508986321 0 0.34804894657850188 -0.21110248518830779 0 0.37167743702184169 -0.22663450960228121 0 0.36226072483054239 -0.20165245508986321 0 0.34804894657850188 -0.21110248518830779 0 0.34466571429100201 -0.19823127822671929 0 0.34804894657850188 -0.21110248518830779 0 0.34466571429100201 -0.19823127822671929 0 0.34174309855666801 -0.20528106660093159 0 0.34804894657850188 -0.21110248518830779 0 0.34168237409452829 -0.21787177184354611 0 0.34691241302062631 -0.2241022963985469 0 0.35284401263924348 -0.17667040057744501 0 0.36226072483054239 -0.20165245508986321 0 0.34744812184746782 -0.18851960793983219 0 0.35284401263924348 -0.17667040057744501 0 0.36226072483054239 -0.20165245508986321 0 0.36226072483054239 -0.20165245508986321 0 0.34466571429100201 -0.19823127822671929 0 0.34744812184746782 -0.18851960793983219 0 0.34466571429100201 -0.19823127822671929 0 0.34744812184746782 -0.18851960793983219 0 0.34229522890714942 -0.18989707570219619 0 0.3384740200401718 -0.18741812857892531 0 0.33556749571157168 -0.17901167732769929 0 0.33450856664957668 -0.20071326859960209 0 0.34466571429100201 -0.19823127822671929 0 0.34229522890714942 -0.18989707570219619 0 0.3394261599281545 -0.1934667473966751 0 0.33556749571157168 -0.17901167732769929 0 0.33372282800035669 -0.19374468408479101 0 0.33450856664957668 -0.20071326859960209 0 0.3384740200401718 -0.18741812857892531 0 0.34229522890714942 -0.18989707570219619 0 0.3394261599281545 -0.1934667473966751 0 0.33556749571157168 -0.17901167732769929 0 0.33450856664957668 -0.20071326859960209 0 0.3384740200401718 -0.18741812857892531 0 0.3394261599281545 -0.1934667473966751 0 0.33450856664957668 -0.20071326859960209 0 0.32592812551767258 -0.18457636524275189 0 0.33372282800035669 -0.19374468408479101 0 0.32641885713208851 -0.1914896061809464 0 0.33372282800035669 -0.19374468408479101 0 0.32641885713208851 -0.1914896061809464 0 0.32497472226615631 -0.19825966160977121 0 0.33372282800035669 -0.19374468408479101 0 0.33450856664957668 -0.20071326859960209 0 0.32497472226615631 -0.19825966160977121 0 0.33450856664957668 -0.20071326859960209 0 0.32812934030373592 -0.2065030196342599 0 0.32497472226615631 -0.19825966160977121 0 0.34466571429100201 -0.19823127822671929 0 0.3394261599281545 -0.1934667473966751 0 0.33450856664957668 -0.20071326859960209 0 0.34466571429100201 -0.19823127822671929 0 0.33450856664957668 -0.20071326859960209 0 0.34174309855666801 -0.20528106660093159 0 0.33450856664957668 -0.20071326859960209 0 0.33421400659748951 -0.22109609042708231 0 0.33450856664957668 -0.20071326859960209 0 0.32812934030373592 -0.2065030196342599 0 0.33421400659748951 -0.22109609042708231 0 0.34804894657850188 -0.21110248518830779 0 0.34174309855666801 -0.20528106660093159 0 0.33974916670759142 -0.21107723438909701 0 0.33450856664957668 -0.20071326859960209 0 0.33974916670759142 -0.21107723438909701 0 0.33421400659748951 -0.22109609042708231 0 0.33450856664957668 -0.20071326859960209 0 0.34174309855666801 -0.20528106660093159 0 0.33974916670759142 -0.21107723438909701 0 0.34168237409452829 -0.21787177184354611 0 0.33974916670759142 -0.21107723438909701 0 0.33421400659748951 -0.22109609042708231 0 0.34804894657850188 -0.21110248518830779 0 0.34168237409452829 -0.21787177184354611 0 0.33974916670759142 -0.21107723438909701 0 0.31669537675115972 -0.2175556610923958 0 0.31882006570172122 -0.20594305790058409 0 0.33421400659748951 -0.22109609042708231 0 0.32812934030373592 -0.2065030196342599 0 0.31882006570172122 -0.20594305790058409 0 0.32497472226615631 -0.19825966160977121 0 0.31882006570172122 -0.20594305790058409 0 0.33421400659748951 -0.22109609042708231 0 0.32812934030373592 -0.2065030196342599 0 0.31882006570172122 -0.20594305790058409 0 0.33421400659748951 -0.22109609042708231 0 0.31882006570172122 -0.20594305790058409 0 0.31453580060441111 -0.18999111815888561 0 0.32497472226615631 -0.19825966160977121 0 0.31453580060441111 -0.18999111815888561 0 0.32641885713208851 -0.1914896061809464 0 0.32497472226615631 -0.19825966160977121 0 0.32592812551767258 -0.18457636524275189 0 0.31453580060441111 -0.18999111815888561 0 0.32641885713208851 -0.1914896061809464 0 0.30909257150035152 -0.23414456314565871 0 0.32201998315447161 -0.23370049475007301 0 0.31440153750881022 -0.25585096765320098 0 0.32201998315447161 -0.23370049475007301 0 0.33460187179154399 -0.24805785858830651 0 0.31440153750881022 -0.25585096765320098 0 0.32201998315447161 -0.23370049475007301 0 0.31440153750881022 -0.25585096765320098 0 0.30909257150035152 -0.23414456314565871 0 0.31526495809652272 -0.22717434466432981 0 0.32201998315447161 -0.23370049475007301 0 0.31669537675115972 -0.2175556610923958 0 0.32456328832148629 -0.2251127776880596 0 0.33421400659748951 -0.22109609042708231 0 0.31669537675115972 -0.2175556610923958 0 0.31526495809652272 -0.22717434466432981 0 0.32456328832148629 -0.2251127776880596 0 0.32456328832148629 -0.2251127776880596 0 0.32201998315447161 -0.23370049475007301 0 0.33412100872424561 -0.2275313115888358 0 0.31526495809652272 -0.22717434466432981 0 0.32456328832148629 -0.2251127776880596 0 0.32201998315447161 -0.23370049475007301 0 0.33421400659748951 -0.22109609042708231 0 0.35011852429105239 -0.23675170945021379 0 0.33412100872424561 -0.2275313115888358 0 0.33421400659748951 -0.22109609042708231 0 0.35011852429105239 -0.23675170945021379 0 0.33421400659748951 -0.22109609042708231 0 0.35011852429105239 -0.23675170945021379 0 0.34691241302062631 -0.2241022963985469 0 0.32456328832148629 -0.2251127776880596 0 0.33412100872424561 -0.2275313115888358 0 0.33421400659748951 -0.22109609042708231 0 0.33412100872424561 -0.2275313115888358 0 0.33421400659748951 -0.22109609042708231 0 0.34168237409452829 -0.21787177184354611 0 0.33421400659748951 -0.22109609042708231 0 0.34691241302062631 -0.2241022963985469 0 0.32201998315447161 -0.23370049475007301 0 0.33412100872424561 -0.2275313115888358 0 0.33460187179154399 -0.24805785858830651 0 0.33412100872424561 -0.2275313115888358 0 0.33460187179154399 -0.24805785858830651 0 0.35011852429105239 -0.23675170945021379 0 0.35011852429105239 -0.23675170945021379 0 0.36602304198461422 -0.25240732847334652 0 0.35011852429105239 -0.23675170945021379 0 0.34963001261181442 -0.25352116830563232 0 0.36602304198461422 -0.25240732847334652 0 0.33460187179154399 -0.24805785858830651 0 0.35011852429105239 -0.23675170945021379 0 0.34963001261181442 -0.25352116830563232 0 0.34804894657850188 -0.21110248518830779 0 0.34691241302062631 -0.2241022963985469 0 0.37167743702184169 -0.22663450960228121 0 0.35011852429105239 -0.23675170945021379 0 0.34691241302062631 -0.2241022963985469 0 0.37167743702184169 -0.22663450960228121 0 0.37167743702184169 -0.22663450960228121 0 0.38321566691688402 -0.24311563445384249 0 0.36602304198461422 -0.25240732847334652 0 0.35011852429105239 -0.23675170945021379 0 0.37167743702184169 -0.22663450960228121 0 0.36602304198461422 -0.25240732847334652 0 0.38321566691688402 -0.24311563445384249 0 0.40156759631590971 -0.245492196854215 0 0.39488269958387812 -0.22298118984289109 0 0.40156759631590971 -0.245492196854215 0 0.39488269958387812 -0.22298118984289109 0 0.42120763295364139 -0.22292144621194909 0 0.37167743702184169 -0.22663450960228121 0 0.38321566691688402 -0.24311563445384249 0 0.39488269958387812 -0.22298118984289109 0 0.37167743702184169 -0.22663450960228121 0 0.39488269958387812 -0.22298118984289109 0 0.37892955939237971 -0.20500096645112759 0 0.39488269958387812 -0.22298118984289109 0 0.37892955939237971 -0.20500096645112759 0 0.39482994256342002 -0.20302634439657119 0 0.37892955939237971 -0.20500096645112759 0 0.38362730830391029 -0.18984691091726499 0 0.39482994256342002 -0.20302634439657119 0 0.36629924405068559 -0.1858643888578945 0 0.37892955939237971 -0.20500096645112759 0 0.38362730830391029 -0.18984691091726499 0 0.39482994256342002 -0.20302634439657119 0 0.40100862160929762 -0.19019690421857241 0 0.41111583164752352 -0.205519703027427 0 0.38362730830391029 -0.18984691091726499 0 0.39482994256342002 -0.20302634439657119 0 0.40100862160929762 -0.19019690421857241 0 0.39488269958387812 -0.22298118984289109 0 0.39482994256342002 -0.20302634439657119 0 0.41111583164752352 -0.205519703027427 0 0.41111583164752352 -0.205519703027427 0 0.4268795690089815 -0.19632338935057181 0 0.42120763295364139 -0.22292144621194909 0 0.39488269958387812 -0.22298118984289109 0 0.41111583164752352 -0.205519703027427 0 0.42120763295364139 -0.22292144621194909 0 0.40100862160929762 -0.19019690421857241 0 0.41111583164752352 -0.205519703027427 0 0.41466960981618389 -0.1824201117030621 0 0.41111583164752352 -0.205519703027427 0 0.4268795690089815 -0.19632338935057181 0 0.41466960981618389 -0.1824201117030621 0 0.4268795690089815 -0.19632338935057181 0 0.42898052076440718 -0.22572480241705059 0 0.4268795690089815 -0.19632338935057181 0 0.42898052076440718 -0.22572480241705059 0 0.42120763295364139 -0.22292144621194909 0 0.4268795690089815 -0.19632338935057181 0 0.42898052076440718 -0.22572480241705059 0 0.44800204568703 -0.2074300345402415 0 0.42898052076440718 -0.22572480241705059 0 0.41926161822492403 -0.24076645383141171 0 0.42120763295364139 -0.22292144621194909 0 0.42898052076440718 -0.22572480241705059 0 0.41926161822492403 -0.24076645383141171 0 0.43108147251983131 -0.25512621548352959 0 0.42898052076440718 -0.22572480241705059 0 0.45100749806263418 -0.2329347479132253 0 0.43108147251983131 -0.25512621548352959 0 0.42898052076440718 -0.22572480241705059 0 0.43108147251983131 -0.25512621548352959 0 0.40156759631590971 -0.245492196854215 0 0.41926161822492403 -0.24076645383141171 0 0.42120763295364139 -0.22292144621194909 0 0.40156759631590971 -0.245492196854215 0 0.41926161822492403 -0.24076645383141171 0 0.41415818210327188 -0.2548172337746758 0 0.40156759631590971 -0.245492196854215 0 0.42120763295364139 -0.22292144621194909 0 0.38660170635573687 -0.1193619403834678 0 0.3796267729162468 -0.14150604483830939 0 0.38660170635573687 -0.1193619403834678 0 0.40139278968641212 -0.1348833127229925 0 0.3796267729162468 -0.14150604483830939 0 0.38660170635573687 -0.1193619403834678 0 0.36892844815853321 -0.1249047661769056 0 0.3796267729162468 -0.14150604483830939 0 0.37265183947675679 -0.163650149293151 0 0.3796267729162468 -0.14150604483830939 0 0.3881817092495301 -0.16136505525674491 0 0.40139278968641212 -0.1348833127229925 0 0.3796267729162468 -0.14150604483830939 0 0.3881817092495301 -0.16136505525674491 0 0.37265183947675679 -0.163650149293151 0 0.3796267729162468 -0.14150604483830939 0 0.40139278968641212 -0.1348833127229925 0 0.3881817092495301 -0.16136505525674491 0 0.40832384900585411 -0.1550980509961529 0 0.40080041571545039 -0.17017145104853679 0 0.3881817092495301 -0.16136505525674491 0 0.40832384900585411 -0.1550980509961529 0 0.40080041571545039 -0.17017145104853679 0 0.37682221417734679 -0.17342092581299001 0 0.40080041571545039 -0.17017145104853679 0 0.3881817092495301 -0.16136505525674491 0 0.37682221417734679 -0.17342092581299001 0 0.37265183947675679 -0.163650149293151 0 0.3881817092495301 -0.16136505525674491 0 0.37682221417734679 -0.17342092581299001 0 0.38362730830391029 -0.18984691091726499 0 0.40080041571545039 -0.17017145104853679 0 0.37682221417734679 -0.17342092581299001 0 0.36629924405068559 -0.1858643888578945 0 0.38362730830391029 -0.18984691091726499 0 0.37682221417734679 -0.17342092581299001 0 0.38362730830391029 -0.18984691091726499 0 0.40100862160929762 -0.19019690421857241 0 0.40080041571545039 -0.17017145104853679 0 0.40100862160929762 -0.19019690421857241 0 0.40080041571545039 -0.17017145104853679 0 0.41466960981618389 -0.1824201117030621 0 0.40080041571545039 -0.17017145104853679 0 0.41466960981618389 -0.1824201117030621 0 0.42477861725355509 -0.16692197628409289 0 0.4268795690089815 -0.19632338935057181 0 0.43382906619471168 -0.17711307083474731 0 0.44802795087073172 -0.18376131742007601 0 0.4268795690089815 -0.19632338935057181 0 0.42477861725355509 -0.16692197628409289 0 0.4268795690089815 -0.19632338935057181 0 0.43382906619471168 -0.17711307083474731 0 0.42477861725355509 -0.16692197628409289 0 0.4268795690089815 -0.19632338935057181 0 0.41466960981618389 -0.1824201117030621 0 0.42477861725355509 -0.16692197628409289 0 0.43382906619471168 -0.17711307083474731 0 0.42477861725355509 -0.16692197628409289 0 0.42983189750979428 -0.16623716651449899 0 0.42477861725355509 -0.16692197628409289 0 0.42983189750979428 -0.16623716651449899 0 0.43382906619471168 -0.17711307083474731 0 0.42983189750979428 -0.16623716651449899 0 0.43974315779300371 -0.17094307418758631 0 0.42983189750979428 -0.16623716651449899 0 0.43868079616161182 -0.16386186205740061 0 0.43974315779300371 -0.17094307418758631 0 0.42477861725355509 -0.16692197628409289 0 0.42983189750979428 -0.16623716651449899 0 0.43683436615342131 -0.15352952132437639 0 0.42983189750979428 -0.16623716651449899 0 0.43683436615342131 -0.15352952132437639 0 0.43868079616161182 -0.16386186205740061 0 0.40080041571545039 -0.17017145104853679 0 0.42477861725355509 -0.16692197628409289 0 0.40832384900585411 -0.1550980509961529 0 0.40080041571545039 -0.17017145104853679 0 0.42477861725355509 -0.16692197628409289 0 0.40139278968641212 -0.1348833127229925 0 0.40832384900585411 -0.1550980509961529 0 0.42288761988296458 -0.14045873425257441 0 0.42477861725355509 -0.16692197628409289 0 0.40832384900585411 -0.1550980509961529 0 0.42288761988296458 -0.14045873425257441 0 0.42477861725355509 -0.16692197628409289 0 0.43683436615342131 -0.15352952132437639 0 0.42288761988296458 -0.14045873425257441 0 0.42477861725355509 -0.16692197628409289 0 0.42288761988296458 -0.14045873425257441 0 0.43683436615342131 -0.15352952132437639 0 0.42288761988296458 -0.14045873425257441 0 0.44092479249240568 -0.12747828222871169 0 0.42099662251237358 -0.1139954922210559 0 0.42288761988296458 -0.14045873425257441 0 0.44092479249240568 -0.12747828222871169 0 0.42099662251237358 -0.1139954922210559 0 0.42288761988296458 -0.14045873425257441 0 0.42099662251237358 -0.1139954922210559 0 0.40139278968641212 -0.1348833127229925 0 0.42288761988296458 -0.14045873425257441 0 0.45828035479271489 -0.113064368171234 0 0.46488475554209879 -0.13446621701837519 0 0.44092479249240568 -0.12747828222871169 0 0.46488475554209879 -0.13446621701837519 0 0.44092479249240568 -0.12747828222871169 0 0.45254566584389277 -0.1464832262671745 0 0.43683436615342131 -0.15352952132437639 0 0.44092479249240568 -0.12747828222871169 0 0.45254566584389277 -0.1464832262671745 0 0.43683436615342131 -0.15352952132437639 0 0.45254566584389277 -0.1464832262671745 0 0.4483137631902282 -0.16473768620314061 0 0.45254566584389277 -0.1464832262671745 0 0.46466515318138291 -0.154854548382134 0 0.4483137631902282 -0.16473768620314061 0 0.46488475554209879 -0.13446621701837519 0 0.45254566584389277 -0.1464832262671745 0 0.46466515318138291 -0.154854548382134 0 0.46466515318138291 -0.154854548382134 0 0.4483137631902282 -0.16473768620314061 0 0.47164454975709058 -0.17233934600492101 0 0.43683436615342131 -0.15352952132437639 0 0.43868079616161182 -0.16386186205740061 0 0.4483137631902282 -0.16473768620314061 0 0.43868079616161182 -0.16386186205740061 0 0.43974315779300371 -0.17094307418758631 0 0.4483137631902282 -0.16473768620314061 0 0.43974315779300371 -0.17094307418758631 0 0.4483137631902282 -0.16473768620314061 0 0.44802795087073172 -0.18376131742007601 0 0.43382906619471168 -0.17711307083474731 0 0.43974315779300371 -0.17094307418758631 0 0.44802795087073172 -0.18376131742007601 0 0.4483137631902282 -0.16473768620314061 0 0.44802795087073172 -0.18376131742007601 0 0.47164454975709058 -0.17233934600492101 0 0.44802795087073172 -0.18376131742007601 0 0.47164454975709058 -0.17233934600492101 0 0.46385574263062118 -0.19339310406483889 0 0.47164454975709058 -0.17233934600492101 0 0.5 -0.1736794938253805 0 0.48067064323281511 -0.1926915420160335 0 0.47164454975709058 -0.17233934600492101 0 0.46385574263062118 -0.19339310406483889 0 0.48067064323281511 -0.1926915420160335 0 0.5 -0.1736794938253805 0 0.48869407026480499 -0.16141292716951641 0 0.5 -0.1499440675496401 0 0.47164454975709058 -0.17233934600492101 0 0.5 -0.1736794938253805 0 0.48869407026480499 -0.16141292716951641 0 0.47164454975709058 -0.17233934600492101 0 0.48869407026480499 -0.16141292716951641 0 0.4810963665047267 -0.14905063566933369 0 0.47164454975709058 -0.17233934600492101 0 0.4810963665047267 -0.14905063566933369 0 0.46466515318138291 -0.154854548382134 0 0.47164454975709058 -0.17233934600492101 0 0.4810963665047267 -0.14905063566933369 0 0.46488475554209879 -0.13446621701837519 0 0.46466515318138291 -0.154854548382134 0 0.4810963665047267 -0.14905063566933369 0 0.4810963665047267 -0.14905063566933369 0 0.5 -0.1499440675496401 0 0.49054818325236282 -0.1257619253337465 0 0.48869407026480499 -0.16141292716951641 0 0.4810963665047267 -0.14905063566933369 0 0.5 -0.1499440675496401 0 0.5 -0.1499440675496401 0 0.5 -0.1262086412738998 0 0.49054818325236282 -0.1257619253337465 0 0.4810963665047267 -0.14905063566933369 0 0.49054818325236282 -0.1257619253337465 0 0.4810963665047267 -0.14905063566933369 0 0.49054818325236282 -0.1257619253337465 0 0.47574630687967312 -0.12579017742597401 0 0.46488475554209879 -0.13446621701837519 0 0.4810963665047267 -0.14905063566933369 0 0.47574630687967312 -0.12579017742597401 0 0.45100749806263418 -0.2329347479132253 0 0.47093352360543878 -0.2107432803429227 0 0.46442313518652267 -0.2388607118588352 0 0.45100749806263418 -0.2329347479132253 0 0.47005366180268798 -0.22795983395551281 0 0.45100749806263418 -0.2329347479132253 0 0.47093352360543878 -0.2107432803429227 0 0.47005366180268798 -0.22795983395551281 0 0.46442313518652267 -0.2388607118588352 0 0.45943374721119512 -0.2491917459288723 0 0.45100749806263418 -0.2329347479132253 0 0.46807898461255648 -0.2456363096581268 0 0.45943374721119512 -0.2491917459288723 0 0.47303658331672599 -0.25388631030013958 0 0.46442313518652267 -0.2388607118588352 0 0.46807898461255648 -0.2456363096581268 0 0.45943374721119512 -0.2491917459288723 0 0.45943374721119512 -0.2491917459288723 0 0.45100749806263418 -0.2329347479132253 0 0.44860092883411251 -0.25416885033015779 0 0.45100749806263418 -0.2329347479132253 0 0.44860092883411251 -0.25416885033015779 0 0.43108147251983131 -0.25512621548352959 0 0.45100749806263418 -0.2329347479132253 0 0.43108147251983131 -0.25512621548352959 0 0.42898052076440718 -0.22572480241705059 0 0.45100749806263418 -0.2329347479132253 0 0.44800204568703 -0.2074300345402415 0 0.4268795690089815 -0.19632338935057181 0 0.44802795087073172 -0.18376131742007601 0 0.44800204568703 -0.2074300345402415 0 0.44802795087073172 -0.18376131742007601 0 0.44800204568703 -0.2074300345402415 0 0.46385574263062118 -0.19339310406483889 0 0.44800204568703 -0.2074300345402415 0 0.46385574263062118 -0.19339310406483889 0 0.47093352360543878 -0.2107432803429227 0 0.45100749806263418 -0.2329347479132253 0 0.44800204568703 -0.2074300345402415 0 0.47093352360543878 -0.2107432803429227 0 0.47093352360543878 -0.2107432803429227 0 0.48848013926248968 -0.21726865094600831 0 0.47005366180268798 -0.22795983395551281 0 0.47093352360543878 -0.2107432803429227 0 0.48067064323281511 -0.1926915420160335 0 0.48848013926248968 -0.21726865094600831 0 0.46385574263062118 -0.19339310406483889 0 0.47093352360543878 -0.2107432803429227 0 0.48067064323281511 -0.1926915420160335 0 0.48067064323281511 -0.1926915420160335 0 0.50000000000000133 -0.19741492010112091 0 0.48848013926248968 -0.21726865094600831 0 0.5 -0.1736794938253805 0 0.48067064323281511 -0.1926915420160335 0 0.50000000000000133 -0.19741492010112091 0 0.50000000000000133 -0.19741492010112091 0 0.48848013926248968 -0.21726865094600831 0 0.5 -0.220839161354136 0 0.50000000000000133 -0.19741492010112091 0 0.48848013926248968 -0.21726865094600831 0 0.48848013926248968 -0.21726865094600831 0 0.5 -0.220839161354136 0 0.490345321188349 -0.23161988539149081 0 0.5 -0.220839161354136 0 0.490345321188349 -0.23161988539149081 0 0.5 -0.24426340260715099 0 0.48848013926248968 -0.21726865094600831 0 0.490345321188349 -0.23161988539149081 0 0.47696027852497758 -0.23712238179089551 0 0.48848013926248968 -0.21726865094600831 0 0.47005366180268798 -0.22795983395551281 0 0.47696027852497758 -0.23712238179089551 0 0.48848013926248968 -0.21726865094600831 0 0.47696027852497758 -0.23712238179089551 0 0.47005366180268798 -0.22795983395551281 0 0.47696027852497758 -0.23712238179089551 0 0.46807898461255648 -0.2456363096581268 0 0.47528054622840499 -0.24001729117109349 0 0.47303658331672599 -0.25388631030013958 0 0.46442313518652267 -0.2388607118588352 0 0.47005366180268798 -0.22795983395551281 0 0.47528054622840499 -0.24001729117109349 0 0.46442313518652267 -0.2388607118588352 0 0.46807898461255648 -0.2456363096581268 0 0.47528054622840499 -0.24001729117109349 0 0.47005366180268798 -0.22795983395551281 0 0.47528054622840499 -0.24001729117109349 0 0.47696027852497758 -0.23712238179089551 0 0.47528054622840499 -0.24001729117109349 0 0.47696027852497758 -0.23712238179089551 0 0.47528054622840499 -0.24001729117109349 0 0.48848013926248929 -0.25240501282553052 0 0.47303658331672599 -0.25388631030013958 0 0.47528054622840499 -0.24001729117109349 0 0.47696027852497758 -0.23712238179089551 0 0.48848013926248929 -0.25240501282553052 0 0.47696027852497758 -0.23712238179089551 0 0.48848013926248929 -0.25240501282553052 0 0.47696027852497758 -0.23712238179089551 0 0.48894643474395411 -0.24135267065376689 0 0.48848013926248929 -0.25240501282553052 0 0.490345321188349 -0.23161988539149081 0 0.47696027852497758 -0.23712238179089551 0 0.48894643474395411 -0.24135267065376689 0 0.490345321188349 -0.23161988539149081 0 0.48894643474395411 -0.24135267065376689 0 0.5 -0.24426340260715099 0 0.48894643474395411 -0.24135267065376689 0 0.5 -0.24426340260715099 0 0.48848013926248929 -0.25240501282553052 0 0.48848013926248929 -0.25240501282553052 0 0.50000000000000056 -0.26768764386016608 0 0.48052848211180271 -0.26437423320816139 0 0.5 -0.24426340260715099 0 0.48848013926248929 -0.25240501282553052 0 0.50000000000000056 -0.26768764386016608 0 0.48848013926248929 -0.25240501282553052 0 0.50000000000000056 -0.26768764386016608 0 0.50000000000000056 -0.26768764386016608 0 0.48052848211180271 -0.26437423320816139 0 0.47878514582373488 -0.28258611882944101 0 0.48052848211180271 -0.26437423320816139 0 0.46234054215606318 -0.26530608022552993 0 0.47878514582373488 -0.28258611882944101 0 0.48052848211180271 -0.26437423320816139 0 0.47303658331672599 -0.25388631030013958 0 0.46234054215606318 -0.26530608022552993 0 0.48848013926248929 -0.25240501282553052 0 0.48052848211180271 -0.26437423320816139 0 0.47303658331672599 -0.25388631030013958 0 0.45943374721119512 -0.2491917459288723 0 0.47303658331672599 -0.25388631030013958 0 0.46234054215606318 -0.26530608022552993 0 0.45943374721119512 -0.2491917459288723 0 0.46234054215606318 -0.26530608022552993 0 0.44860092883411251 -0.25416885033015779 0 0.46234054215606318 -0.26530608022552993 0 0.45427648399129239 -0.27919553245867712 0 0.44485792975810312 -0.26767052828273069 0 0.46234054215606318 -0.26530608022552993 0 0.45427648399129239 -0.27919553245867712 0 0.47878514582373488 -0.28258611882944101 0 0.45427648399129239 -0.27919553245867712 0 0.44485792975810312 -0.26767052828273069 0 0.43313380461098322 -0.28384722890312147 0 0.44485792975810312 -0.26767052828273069 0 0.44860092883411251 -0.25416885033015779 0 0.43108147251983131 -0.25512621548352959 0 0.46234054215606318 -0.26530608022552993 0 0.44485792975810312 -0.26767052828273069 0 0.44860092883411251 -0.25416885033015779 0 0.45683561871384809 -0.29576517184418799 0 0.46655041220287508 -0.31578030827558501 0 0.4351861367021333 -0.31256824232271357 0 0.45683561871384809 -0.29576517184418799 0 0.4351861367021333 -0.31256824232271357 0 0.43313380461098322 -0.28384722890312147 0 0.45427648399129239 -0.27919553245867712 0 0.45683561871384809 -0.29576517184418799 0 0.43313380461098322 -0.28384722890312147 0 0.45427648399129239 -0.27919553245867712 0 0.45683561871384809 -0.29576517184418799 0 0.47878514582373488 -0.28258611882944101 0 0.45683561871384809 -0.29576517184418799 0 0.47554279418511453 -0.29883680814177682 0 0.46655041220287508 -0.31578030827558501 0 0.47554279418511453 -0.29883680814177682 0 0.5 -0.30121563361789339 0 0.46655041220287508 -0.31578030827558501 0 0.50000000000000056 -0.26768764386016608 0 0.47878514582373488 -0.28258611882944101 0 0.5 -0.30121563361789339 0 0.45683561871384809 -0.29576517184418799 0 0.47554279418511453 -0.29883680814177682 0 0.47878514582373488 -0.28258611882944101 0 0.47554279418511453 -0.29883680814177682 0 0.47878514582373488 -0.28258611882944101 0 0.5 -0.30121563361789339 0 0.5 -0.30121563361789339 0 0.4863139100151268 -0.34247391801554072 0 0.5 -0.34753685197440648 0 0.5 -0.30121563361789339 0 0.4863139100151268 -0.34247391801554072 0 0.47400191802569852 -0.32965055162669799 0 0.5 -0.30121563361789339 0 0.47400191802569852 -0.32965055162669799 0 0.46655041220287508 -0.31578030827558501 0 0.4863139100151268 -0.34247391801554072 0 0.47400191802569852 -0.32965055162669799 0 0.466162357158379 -0.34904570046330069 0 0.5 -0.34753685197440648 0 0.48134752435381412 -0.36008413299444691 0 0.48277247218508201 -0.39309593226029649 0 0.48134752435381412 -0.36008413299444691 0 0.4714888824104827 -0.36826826225868992 0 0.48277247218508201 -0.39309593226029649 0 0.4863139100151268 -0.34247391801554072 0 0.5 -0.34753685197440648 0 0.48134752435381412 -0.36008413299444691 0 0.4863139100151268 -0.34247391801554072 0 0.466162357158379 -0.34904570046330069 0 0.48134752435381412 -0.36008413299444691 0 0.4714888824104827 -0.36826826225868992 0 0.466162357158379 -0.34904570046330069 0 0.4863139100151268 -0.34247391801554072 0 0.48134752435381412 -0.36008413299444691 0 0.466162357158379 -0.34904570046330069 0 0.4714888824104827 -0.36826826225868992 0 0.44601080430163093 -0.35561748291105982 0 0.4714888824104827 -0.36826826225868992 0 0.45465276955418438 -0.37304607253900463 0 0.44601080430163093 -0.35561748291105982 0 0.466162357158379 -0.34904570046330069 0 0.44601080430163093 -0.35561748291105982 0 0.44932909767982387 -0.34373637837112891 0 0.4714888824104827 -0.36826826225868992 0 0.466162357158379 -0.34904570046330069 0 0.44601080430163093 -0.35561748291105982 0 0.466162357158379 -0.34904570046330069 0 0.44601080430163093 -0.35561748291105982 0 0.44601080430163093 -0.35561748291105982 0 0.44932909767982387 -0.34373637837112891 0 0.43723846879328349 -0.34128925574230562 0 0.44601080430163093 -0.35561748291105982 0 0.44290642646873579 -0.3694315010258985 0 0.42567754510794759 -0.36224852305098049 0 0.45465276955418438 -0.37304607253900463 0 0.44601080430163093 -0.35561748291105982 0 0.44290642646873579 -0.3694315010258985 0 0.46655041220287508 -0.31578030827558501 0 0.45472030421527382 -0.33269308771268052 0 0.4351861367021333 -0.31256824232271357 0 0.47400191802569852 -0.32965055162669799 0 0.46655041220287508 -0.31578030827558501 0 0.45472030421527382 -0.33269308771268052 0 0.466162357158379 -0.34904570046330069 0 0.45472030421527382 -0.33269308771268052 0 0.44932909767982387 -0.34373637837112891 0 0.47400191802569852 -0.32965055162669799 0 0.466162357158379 -0.34904570046330069 0 0.45472030421527382 -0.33269308771268052 0 0.45472030421527382 -0.33269308771268052 0 0.44932909767982387 -0.34373637837112891 0 0.43723846879328349 -0.34128925574230562 0 0.45472030421527382 -0.33269308771268052 0 0.4351861367021333 -0.31256824232271357 0 0.43723846879328349 -0.34128925574230562 0 0.4351861367021333 -0.31256824232271357 0 0.42525885610298431 -0.32771145505089572 0 0.41391869780007512 -0.30232558412863991 0 0.4351861367021333 -0.31256824232271357 0 0.43723846879328349 -0.34128925574230562 0 0.4351861367021333 -0.31256824232271357 0 0.42525885610298431 -0.32771145505089572 0 0.43723846879328349 -0.34128925574230562 0 0.42525885610298431 -0.32771145505089572 0 0.43723846879328349 -0.34128925574230562 0 0.42622438113199562 -0.34579281432622638 0 0.42525885610298431 -0.32771145505089572 0 0.4064379579623596 -0.33596814574139439 0 0.42622438113199562 -0.34579281432622638 0 0.4064379579623596 -0.33596814574139439 0 0.42622438113199562 -0.34579281432622638 0 0.42525885610298431 -0.32771145505089572 0 0.4064379579623596 -0.33596814574139439 0 0.40264842403911372 -0.31876329002088871 0 0.42525885610298431 -0.32771145505089572 0 0.40264842403911372 -0.31876329002088871 0 0.41391869780007512 -0.30232558412863991 0 0.44290642646873579 -0.3694315010258985 0 0.42567754510794759 -0.36224852305098049 0 0.43301114224087511 -0.37717363240032198 0 0.42567754510794759 -0.36224852305098049 0 0.41832180635967958 -0.37487250105256731 0 0.43301114224087511 -0.37717363240032198 0 0.44601080430163093 -0.35561748291105982 0 0.43723846879328349 -0.34128925574230562 0 0.42622438113199562 -0.34579281432622638 0 0.44601080430163093 -0.35561748291105982 0 0.42567754510794759 -0.36224852305098049 0 0.44601080430163093 -0.35561748291105982 0 0.42622438113199562 -0.34579281432622638 0 0.44601080430163093 -0.35561748291105982 0 0.42567754510794759 -0.36224852305098049 0 0.42622438113199562 -0.34579281432622638 0 0.4064379579623596 -0.33596814574139439 0 0.42622438113199562 -0.34579281432622638 0 0.41252739615341871 -0.35218236337066938 0 0.42567754510794759 -0.36224852305098049 0 0.42622438113199562 -0.34579281432622638 0 0.41252739615341871 -0.35218236337066938 0 0.4064379579623596 -0.33596814574139439 0 0.41252739615341871 -0.35218236337066938 0 0.40030793899791067 -0.35177934038708158 0 0.42567754510794759 -0.36224852305098049 0 0.40534428591426402 -0.36887956319090021 0 0.42567754510794759 -0.36224852305098049 0 0.41252739615341871 -0.35218236337066938 0 0.40534428591426402 -0.36887956319090021 0 0.42567754510794759 -0.36224852305098049 0 0.41832180635967958 -0.37487250105256731 0 0.40534428591426402 -0.36887956319090021 0 0.41832180635967958 -0.37487250105256731 0 0.40534428591426402 -0.36887956319090021 0 0.40904089350268102 -0.38089922141317328 0 0.40534428591426402 -0.36887956319090021 0 0.38501102672058041 -0.37551060333081981 0 0.40534428591426402 -0.36887956319090021 0 0.3909597665830013 -0.35926144940995752 0 0.40030793899791067 -0.35177934038708158 0 0.40534428591426402 -0.36887956319090021 0 0.3909597665830013 -0.35926144940995752 0 0.38501102672058041 -0.37551060333081981 0 0.41252739615341871 -0.35218236337066938 0 0.40534428591426402 -0.36887956319090021 0 0.40030793899791067 -0.35177934038708158 0 0.3909597665830013 -0.35926144940995752 0 0.40030793899791067 -0.35177934038708158 0 0.38627028837651017 -0.34260518022248648 0 0.3909597665830013 -0.35926144940995752 0 0.37828147262876483 -0.36208066851540888 0 0.38627028837651017 -0.34260518022248648 0 0.37828147262876483 -0.36208066851540888 0 0.38627028837651017 -0.34260518022248648 0 0.3610305864901725 -0.35726631180067431 0 0.37828147262876483 -0.36208066851540888 0 0.38501102672058041 -0.37551060333081981 0 0.36813569497355941 -0.37575979781310648 0 0.3909597665830013 -0.35926144940995752 0 0.37828147262876483 -0.36208066851540888 0 0.38501102672058041 -0.37551060333081981 0 0.4064379579623596 -0.33596814574139439 0 0.40264842403911372 -0.31876329002088871 0 0.38665153479272357 -0.32614347715656239 0 0.40264842403911372 -0.31876329002088871 0 0.38665153479272357 -0.32614347715656239 0 0.38987828458049212 -0.31418708814477248 0 0.4064379579623596 -0.33596814574139439 0 0.40030793899791067 -0.35177934038708158 0 0.38627028837651017 -0.34260518022248648 0 0.4064379579623596 -0.33596814574139439 0 0.38665153479272357 -0.32614347715656239 0 0.4064379579623596 -0.33596814574139439 0 0.38627028837651017 -0.34260518022248648 0 0.38665153479272357 -0.32614347715656239 0 0.38627028837651017 -0.34260518022248648 0 0.38665153479272357 -0.32614347715656239 0 0.36431323765339252 -0.33386139747700411 0 0.38665153479272357 -0.32614347715656239 0 0.37479560848769888 -0.30914323833367602 0 0.36431323765339252 -0.33386139747700411 0 0.38665153479272357 -0.32614347715656239 0 0.38987828458049212 -0.31418708814477248 0 0.37479560848769888 -0.30914323833367602 0 0.3954175710024323 -0.30269834706796278 0 0.38417794662727778 -0.28954262043001322 0 0.37479560848769888 -0.30914323833367602 0 0.38987828458049212 -0.31418708814477248 0 0.3954175710024323 -0.30269834706796278 0 0.37479560848769888 -0.30914323833367602 0 0.3954175710024323 -0.30269834706796278 0 0.39866240404397951 -0.29069214069484173 0 0.41391869780007512 -0.30232558412863991 0 0.40264842403911372 -0.31876329002088871 0 0.3954175710024323 -0.30269834706796278 0 0.41391869780007512 -0.30232558412863991 0 0.40264842403911372 -0.31876329002088871 0 0.38987828458049212 -0.31418708814477248 0 0.3954175710024323 -0.30269834706796278 0 0.39866240404397951 -0.29069214069484173 0 0.39193295127752531 -0.2779117591407374 0 0.40786485351258672 -0.28098239270685521 0 0.3954175710024323 -0.30269834706796278 0 0.39866240404397951 -0.29069214069484173 0 0.38417794662727778 -0.28954262043001322 0 0.39866240404397951 -0.29069214069484173 0 0.38417794662727778 -0.28954262043001322 0 0.39193295127752531 -0.2779117591407374 0 0.38417794662727778 -0.28954262043001322 0 0.3819275596781761 -0.26806294749647902 0 0.36307275068754141 -0.28973129771318218 0 0.38417794662727778 -0.28954262043001322 0 0.3819275596781761 -0.26806294749647902 0 0.39193295127752531 -0.2779117591407374 0 0.3819275596781761 -0.26806294749647902 0 0.39193295127752531 -0.2779117591407374 0 0.38321566691688402 -0.24311563445384249 0 0.40156759631590971 -0.245492196854215 0 0.3819275596781761 -0.26806294749647902 0 0.38321566691688402 -0.24311563445384249 0 0.3819275596781761 -0.26806294749647902 0 0.36602304198461422 -0.25240732847334652 0 0.40156759631590971 -0.245492196854215 0 0.40270616539520598 -0.26584520141396539 0 0.41415818210327188 -0.2548172337746758 0 0.40156759631590971 -0.245492196854215 0 0.3819275596781761 -0.26806294749647902 0 0.40156759631590971 -0.245492196854215 0 0.3819275596781761 -0.26806294749647902 0 0.40270616539520598 -0.26584520141396539 0 0.40270616539520598 -0.26584520141396539 0 0.39193295127752531 -0.2779117591407374 0 0.40786485351258672 -0.28098239270685521 0 0.3819275596781761 -0.26806294749647902 0 0.40270616539520598 -0.26584520141396539 0 0.39193295127752531 -0.2779117591407374 0 0.40786485351258672 -0.28098239270685521 0 0.41947316301620807 -0.26805430409519149 0 0.43313380461098322 -0.28384722890312147 0 0.40270616539520598 -0.26584520141396539 0 0.40786485351258672 -0.28098239270685521 0 0.41947316301620807 -0.26805430409519149 0 0.40786485351258672 -0.28098239270685521 0 0.41947316301620807 -0.26805430409519149 0 0.40270616539520598 -0.26584520141396539 0 0.41947316301620807 -0.26805430409519149 0 0.41415818210327188 -0.2548172337746758 0 0.41947316301620807 -0.26805430409519149 0 0.41415818210327188 -0.2548172337746758 0 0.43108147251983131 -0.25512621548352959 0 0.41926161822492403 -0.24076645383141171 0 0.41415818210327188 -0.2548172337746758 0 0.43108147251983131 -0.25512621548352959 0 0.41947316301620807 -0.26805430409519149 0 0.43108147251983131 -0.25512621548352959 0 0.43108147251983131 -0.25512621548352959 0 0.43313380461098322 -0.28384722890312147 0 0.41947316301620807 -0.26805430409519149 0 0.43108147251983131 -0.25512621548352959 0 0.43313380461098322 -0.28384722890312147 0 0.44485792975810312 -0.26767052828273069 0 0.43108147251983131 -0.25512621548352959 0 0.43313380461098322 -0.28384722890312147 0 0.4351861367021333 -0.31256824232271357 0 0.43313380461098322 -0.28384722890312147 0 0.4351861367021333 -0.31256824232271357 0 0.43313380461098322 -0.28384722890312147 0 0.41391869780007512 -0.30232558412863991 0 0.39866240404397951 -0.29069214069484173 0 0.40786485351258672 -0.28098239270685521 0 0.41391869780007512 -0.30232558412863991 0 0.40786485351258672 -0.28098239270685521 0 0.43313380461098322 -0.28384722890312147 0 0.41391869780007512 -0.30232558412863991 0 0.5 -0.5 0 0.4738425378255392 -0.45951315864513043 0 0.5 -0.41154983875890588 0 0.45351959519158902 -0.47449039477796839 0 0.46183110110402048 -0.5 0 0.4738425378255392 -0.45951315864513043 0 0.45351959519158902 -0.47449039477796839 0 0.46183110110402048 -0.5 0 0.43297807073744349 -0.4800996785152396 0 0.45351959519158902 -0.47449039477796839 0 0.44542667109935308 -0.45834874195150388 0 0.43297807073744349 -0.4800996785152396 0 0.44542667109935308 -0.45834874195150388 0 0.43297807073744349 -0.4800996785152396 0 0.46183110110402048 -0.5 0 0.5 -0.5 0 0.4738425378255392 -0.45951315864513043 0 0.4738425378255392 -0.45951315864513043 0 0.44542667109935308 -0.45834874195150388 0 0.45787527146126272 -0.43659780538776821 0 0.45351959519158902 -0.47449039477796839 0 0.4738425378255392 -0.45951315864513043 0 0.44542667109935308 -0.45834874195150388 0 0.44542667109935308 -0.45834874195150388 0 0.45787527146126272 -0.43659780538776821 0 0.43299586898683051 -0.4443683796333826 0 0.44542667109935308 -0.45834874195150388 0 0.45787527146126272 -0.43659780538776821 0 0.5 -0.34753685197440648 0 0.5 -0.41154983875890588 0 0.48277247218508201 -0.39309593226029649 0 0.4738425378255392 -0.45951315864513043 0 0.45787527146126272 -0.43659780538776821 0 0.47032387182317231 -0.41484686882403232 0 0.45079640822707928 -0.41839353396960283 0 0.45787527146126272 -0.43659780538776821 0 0.43414697173183692 -0.4258084443161857 0 0.45787527146126272 -0.43659780538776821 0 0.43414697173183692 -0.4258084443161857 0 0.43299586898683051 -0.4443683796333826 0 0.45079640822707928 -0.41839353396960283 0 0.4339636864615104 -0.4007269655735321 0 0.43414697173183692 -0.4258084443161857 0 0.45079640822707928 -0.41839353396960283 0 0.45376434972392432 -0.40188216146407402 0 0.4339636864615104 -0.4007269655735321 0 0.45079640822707928 -0.41839353396960283 0 0.47032387182317231 -0.41484686882403232 0 0.45376434972392432 -0.40188216146407402 0 0.45079640822707928 -0.41839353396960283 0 0.45787527146126272 -0.43659780538776821 0 0.47032387182317231 -0.41484686882403232 0 0.45787527146126272 -0.43659780538776821 0 0.47032387182317231 -0.41484686882403232 0 0.4738425378255392 -0.45951315864513043 0 0.5 -0.41154983875890588 0 0.47032387182317231 -0.41484686882403232 0 0.5 -0.41154983875890588 0 0.47032387182317231 -0.41484686882403232 0 0.48277247218508201 -0.39309593226029649 0 0.47032387182317231 -0.41484686882403232 0 0.48277247218508201 -0.39309593226029649 0 0.47032387182317231 -0.41484686882403232 0 0.48277247218508201 -0.39309593226029649 0 0.46474179985557068 -0.38782085458230903 0 0.4714888824104827 -0.36826826225868992 0 0.48277247218508201 -0.39309593226029649 0 0.46474179985557068 -0.38782085458230903 0 0.4714888824104827 -0.36826826225868992 0 0.45465276955418438 -0.37304607253900463 0 0.46474179985557068 -0.38782085458230903 0 0.45465276955418438 -0.37304607253900463 0 0.46474179985557068 -0.38782085458230903 0 0.44811593473450168 -0.38409226191706553 0 0.47032387182317231 -0.41484686882403232 0 0.46474179985557068 -0.38782085458230903 0 0.45376434972392432 -0.40188216146407402 0 0.46474179985557068 -0.38782085458230903 0 0.45376434972392432 -0.40188216146407402 0 0.44811593473450168 -0.38409226191706553 0 0.45376434972392432 -0.40188216146407402 0 0.44811593473450168 -0.38409226191706553 0 0.4339636864615104 -0.4007269655735321 0 0.44811593473450168 -0.38409226191706553 0 0.43301114224087511 -0.37717363240032198 0 0.4339636864615104 -0.4007269655735321 0 0.44290642646873579 -0.3694315010258985 0 0.44811593473450168 -0.38409226191706553 0 0.43301114224087511 -0.37717363240032198 0 0.45465276955418438 -0.37304607253900463 0 0.44290642646873579 -0.3694315010258985 0 0.44811593473450168 -0.38409226191706553 0 0.43301114224087511 -0.37717363240032198 0 0.4339636864615104 -0.4007269655735321 0 0.4189563088516613 -0.38616532514058283 0 0.41832180635967958 -0.37487250105256731 0 0.43301114224087511 -0.37717363240032198 0 0.4189563088516613 -0.38616532514058283 0 0.4339636864615104 -0.4007269655735321 0 0.41847273251919548 -0.39945127522000012 0 0.41387060703084338 -0.41432726443844459 0 0.4339636864615104 -0.4007269655735321 0 0.41847273251919548 -0.39945127522000012 0 0.4189563088516613 -0.38616532514058283 0 0.41847273251919548 -0.39945127522000012 0 0.40710032773276678 -0.39658554572744081 0 0.4189563088516613 -0.38616532514058283 0 0.41847273251919548 -0.39945127522000012 0 0.40710032773276678 -0.39658554572744081 0 0.41387060703084338 -0.41432726443844459 0 0.40710032773276678 -0.39658554572744081 0 0.4189563088516613 -0.38616532514058283 0 0.40904089350268102 -0.38089922141317328 0 0.41832180635967958 -0.37487250105256731 0 0.4189563088516613 -0.38616532514058283 0 0.40904089350268102 -0.38089922141317328 0 0.40534428591426402 -0.36887956319090021 0 0.39750322898637958 -0.38281121963336301 0 0.38501102672058041 -0.37551060333081981 0 0.40534428591426402 -0.36887956319090021 0 0.40904089350268102 -0.38089922141317328 0 0.39750322898637958 -0.38281121963336301 0 0.40710032773276678 -0.39658554572744081 0 0.40904089350268102 -0.38089922141317328 0 0.39750322898637958 -0.38281121963336301 0 0.37715946759020169 -0.39018376313325409 0 0.38501102672058041 -0.37551060333081981 0 0.36813569497355941 -0.37575979781310648 0 0.39750322898637958 -0.38281121963336301 0 0.37715946759020169 -0.39018376313325409 0 0.38501102672058041 -0.37551060333081981 0 0.39750322898637958 -0.38281121963336301 0 0.37715946759020169 -0.39018376313325409 0 0.38911658781986053 -0.40622289858175231 0 0.37715946759020169 -0.39018376313325409 0 0.38911658781986053 -0.40622289858175231 0 0.36641330609187178 -0.41103484272696311 0 0.40710032773276678 -0.39658554572744081 0 0.39750322898637958 -0.38281121963336301 0 0.38911658781986053 -0.40622289858175231 0 0.39750322898637958 -0.38281121963336301 0 0.38911658781986053 -0.40622289858175231 0 0.40710032773276678 -0.39658554572744081 0 0.38911658781986053 -0.40622289858175231 0 0.41387060703084338 -0.41432726443844459 0 0.38911658781986053 -0.40622289858175231 0 0.39898903405229519 -0.4310430263402415 0 0.41387060703084338 -0.41432726443844459 0 0.38911658781986053 -0.40622289858175231 0 0.38072994665334148 -0.42963457753014161 0 0.36641330609187178 -0.41103484272696311 0 0.38911658781986053 -0.40622289858175231 0 0.38072994665334148 -0.42963457753014161 0 0.38072994665334148 -0.42963457753014161 0 0.39898903405229519 -0.4310430263402415 0 0.39165686204611549 -0.44455713118804763 0 0.38911658781986053 -0.40622289858175231 0 0.38072994665334148 -0.42963457753014161 0 0.39898903405229519 -0.4310430263402415 0 0.41387060703084338 -0.41432726443844459 0 0.43414697173183692 -0.4258084443161857 0 0.41475578739290658 -0.44021208378808491 0 0.39898903405229519 -0.4310430263402415 0 0.41387060703084338 -0.41432726443844459 0 0.41475578739290658 -0.44021208378808491 0 0.4339636864615104 -0.4007269655735321 0 0.41387060703084338 -0.41432726443844459 0 0.43414697173183692 -0.4258084443161857 0 0.43414697173183692 -0.4258084443161857 0 0.43299586898683051 -0.4443683796333826 0 0.41475578739290658 -0.44021208378808491 0 0.44542667109935308 -0.45834874195150388 0 0.43299586898683051 -0.4443683796333826 0 0.43038845697179118 -0.46417978871965598 0 0.43299586898683051 -0.4443683796333826 0 0.43038845697179118 -0.46417978871965598 0 0.41671410829068273 -0.45713085818589422 0 0.44542667109935308 -0.45834874195150388 0 0.43038845697179118 -0.46417978871965598 0 0.43297807073744349 -0.4800996785152396 0 0.41671410829068273 -0.45713085818589422 0 0.4053490206798358 -0.46358024024578198 0 0.41588084407461462 -0.48080759406611412 0 0.43038845697179118 -0.46417978871965598 0 0.41671410829068273 -0.45713085818589422 0 0.41588084407461462 -0.48080759406611412 0 0.41671410829068273 -0.45713085818589422 0 0.40380441337070411 -0.45130420251497871 0 0.4053490206798358 -0.46358024024578198 0 0.41671410829068273 -0.45713085818589422 0 0.41475578739290658 -0.44021208378808491 0 0.40380441337070411 -0.45130420251497871 0 0.43299586898683051 -0.4443683796333826 0 0.41671410829068273 -0.45713085818589422 0 0.41475578739290658 -0.44021208378808491 0 0.39898903405229519 -0.4310430263402415 0 0.41475578739290658 -0.44021208378808491 0 0.40380441337070411 -0.45130420251497871 0 0.39898903405229519 -0.4310430263402415 0 0.40380441337070411 -0.45130420251497871 0 0.39165686204611549 -0.44455713118804763 0 0.40380441337070411 -0.45130420251497871 0 0.39165686204611549 -0.44455713118804763 0 0.39283249249818442 -0.45726415656621172 0 0.38072994665334148 -0.42963457753014161 0 0.39165686204611549 -0.44455713118804763 0 0.38334165058796721 -0.44929666149764802 0 0.38072994665334148 -0.42963457753014161 0 0.38334165058796721 -0.44929666149764802 0 0.37234330548682387 -0.45304625647853131 0 0.38072994665334148 -0.42963457753014161 0 0.37234330548682387 -0.45304625647853131 0 0.39165686204611549 -0.44455713118804763 0 0.38334165058796721 -0.44929666149764802 0 0.39283249249818442 -0.45726415656621172 0 0.37914564625537228 -0.46198118572530827 0 0.39283249249818442 -0.45726415656621172 0 0.39751324516499342 -0.4713943898957112 0 0.37914564625537228 -0.46198118572530827 0 0.39751324516499342 -0.4713943898957112 0 0.38334165058796721 -0.44929666149764802 0 0.37914564625537228 -0.46198118572530827 0 0.37234330548682387 -0.45304625647853131 0 0.37914564625537228 -0.46198118572530827 0 0.37234330548682387 -0.45304625647853131 0 0.38334165058796721 -0.44929666149764802 0 0.37914564625537228 -0.46198118572530827 0 0.39283249249818442 -0.45726415656621172 0 0.40380441337070411 -0.45130420251497871 0 0.39283249249818442 -0.45726415656621172 0 0.4053490206798358 -0.46358024024578198 0 0.39283249249818442 -0.45726415656621172 0 0.4053490206798358 -0.46358024024578198 0 0.39751324516499342 -0.4713943898957112 0 0.4053490206798358 -0.46358024024578198 0 0.39751324516499342 -0.4713943898957112 0 0.41588084407461462 -0.48080759406611412 0 0.39361788902135408 -0.48099059286265311 0 0.39751324516499342 -0.4713943898957112 0 0.41588084407461462 -0.48080759406611412 0 0.37914564625537228 -0.46198118572530827 0 0.39361788902135408 -0.48099059286265311 0 0.39751324516499342 -0.4713943898957112 0 0.37914564625537228 -0.46198118572530827 0 0.39361788902135408 -0.48099059286265311 0 0.37941975046662457 -0.48044918109470758 0 0.37914564625537228 -0.46198118572530827 0 0.39361788902135408 -0.48099059286265311 0 0.39361788902135408 -0.48099059286265311 0 0.37941975046662457 -0.48044918109470758 0 0.38180672379631148 -0.5 0 0.39361788902135408 -0.48099059286265311 0 0.40809013178733511 -0.49999999999999861 0 0.41588084407461462 -0.48080759406611412 0 0.39361788902135408 -0.48099059286265311 0 0.40809013178733511 -0.49999999999999861 0 0.39361788902135408 -0.48099059286265311 0 0.38180672379631148 -0.5 0 0.40809013178733511 -0.49999999999999861 0 0.40809013178733511 -0.49999999999999861 0 0.41588084407461462 -0.48080759406611412 0 0.43297807073744349 -0.4800996785152396 0 0.46183110110402048 -0.5 0 0.40809013178733511 -0.49999999999999861 0 0.43297807073744349 -0.4800996785152396 0 0.39751324516499342 -0.4713943898957112 0 0.41588084407461462 -0.48080759406611412 0 0.43038845697179118 -0.46417978871965598 0 0.41588084407461462 -0.48080759406611412 0 0.43297807073744349 -0.4800996785152396 0 0.31888209099111048 -0.4856149865898382 0 0.33113772213413722 -0.5 0 0.3067521284629865 -0.5 0 0.31888209099111048 -0.4856149865898382 0 0.33921752520488718 -0.47910097709975591 0 0.31892172632893262 -0.46591270658298262 0 0.33921752520488718 -0.47910097709975591 0 0.33113772213413722 -0.5 0 0.35552331580528779 -0.49999999999999861 0 0.31888209099111048 -0.4856149865898382 0 0.33921752520488718 -0.47910097709975591 0 0.33113772213413722 -0.5 0 0.35552331580528779 -0.49999999999999861 0 0.36310874279346061 -0.47882494579086909 0 0.33921752520488718 -0.47910097709975591 0 0.35552331580528779 -0.49999999999999861 0 0.36310874279346061 -0.47882494579086909 0 0.38180672379631148 -0.5 0 0.35552331580528779 -0.49999999999999861 0 0.36310874279346061 -0.47882494579086909 0 0.37941975046662457 -0.48044918109470758 0 0.38180672379631148 -0.5 0 0.36310874279346061 -0.47882494579086909 0 0.37914564625537228 -0.46198118572530827 0 0.37941975046662457 -0.48044918109470758 0 0.36310874279346061 -0.47882494579086909 0 0.33921752520488718 -0.47910097709975591 0 0.36310874279346061 -0.47882494579086909 0 0.35172608730442229 -0.46405189151695753 0 0.35172608730442229 -0.46405189151695753 0 0.37069416978163372 -0.45764989158173991 0 0.34621868984452681 -0.44510646165656292 0 0.35172608730442229 -0.46405189151695753 0 0.34621868984452681 -0.44510646165656292 0 0.33556544771803781 -0.45734701371752889 0 0.37914564625537228 -0.46198118572530827 0 0.36310874279346061 -0.47882494579086909 0 0.37069416978163372 -0.45764989158173991 0 0.36310874279346061 -0.47882494579086909 0 0.35172608730442229 -0.46405189151695753 0 0.37069416978163372 -0.45764989158173991 0 0.36310874279346061 -0.47882494579086909 0 0.37069416978163372 -0.45764989158173991 0 0.37914564625537228 -0.46198118572530827 0 0.37069416978163372 -0.45764989158173991 0 0.37234330548682387 -0.45304625647853131 0 0.37914564625537228 -0.46198118572530827 0 0.37069416978163372 -0.45764989158173991 0 0.37069416978163372 -0.45764989158173991 0 0.37234330548682387 -0.45304625647853131 0 0.37234330548682387 -0.45304625647853131 0 0.35623927565157743 -0.43189348391657578 0 0.37234330548682387 -0.45304625647853131 0 0.36109132980765929 -0.4465011037469141 0 0.35623927565157743 -0.43189348391657578 0 0.38072994665334148 -0.42963457753014161 0 0.37234330548682387 -0.45304625647853131 0 0.35623927565157743 -0.43189348391657578 0 0.37069416978163372 -0.45764989158173991 0 0.37234330548682387 -0.45304625647853131 0 0.36109132980765929 -0.4465011037469141 0 0.37069416978163372 -0.45764989158173991 0 0.34621868984452681 -0.44510646165656292 0 0.36109132980765929 -0.4465011037469141 0 0.34621868984452681 -0.44510646165656292 0 0.35623927565157743 -0.43189348391657578 0 0.37069416978163372 -0.45764989158173991 0 0.36109132980765929 -0.4465011037469141 0 0.34621868984452681 -0.44510646165656292 0 0.34621868984452681 -0.44510646165656292 0 0.32174320990741972 -0.43256303173138588 0 0.31892172632893262 -0.46591270658298262 0 0.32174320990741972 -0.43256303173138588 0 0.30313581419777291 -0.45611880884764833 0 0.34621868984452681 -0.44510646165656292 0 0.33556544771803781 -0.45734701371752889 0 0.32174320990741972 -0.43256303173138588 0 0.33556544771803781 -0.45734701371752889 0 0.31892172632893262 -0.46591270658298262 0 0.32174320990741972 -0.43256303173138588 0 0.33921752520488718 -0.47910097709975591 0 0.33556544771803781 -0.45734701371752889 0 0.31892172632893262 -0.46591270658298262 0 0.33921752520488718 -0.47910097709975591 0 0.35172608730442229 -0.46405189151695753 0 0.33556544771803781 -0.45734701371752889 0 0.32174320990741972 -0.43256303173138588 0 0.34013524581632859 -0.41074071135462209 0 0.31236763670928941 -0.41369213679956118 0 0.34013524581632859 -0.41074071135462209 0 0.31463436729199268 -0.39977619348395399 0 0.31236763670928941 -0.41369213679956118 0 0.34621868984452681 -0.44510646165656292 0 0.32174320990741972 -0.43256303173138588 0 0.33949218274166731 -0.42940880694622119 0 0.32174320990741972 -0.43256303173138588 0 0.34013524581632859 -0.41074071135462209 0 0.33949218274166731 -0.42940880694622119 0 0.34621868984452681 -0.44510646165656292 0 0.33949218274166731 -0.42940880694622119 0 0.35623927565157743 -0.43189348391657578 0 0.34013524581632859 -0.41074071135462209 0 0.33949218274166731 -0.42940880694622119 0 0.35623927565157743 -0.43189348391657578 0 0.38072994665334148 -0.42963457753014161 0 0.35623927565157743 -0.43189348391657578 0 0.36641330609187178 -0.41103484272696311 0 0.34013524581632859 -0.41074071135462209 0 0.35623927565157743 -0.43189348391657578 0 0.36641330609187178 -0.41103484272696311 0 0.34013524581632859 -0.41074071135462209 0 0.35623927565157743 -0.43189348391657578 0 0.34013524581632859 -0.41074071135462209 0 0.35731339728553541 -0.39200843168506289 0 0.34160215677372779 -0.38805699853454328 0 0.34013524581632859 -0.41074071135462209 0 0.36641330609187178 -0.41103484272696311 0 0.35731339728553541 -0.39200843168506289 0 0.37715946759020169 -0.39018376313325409 0 0.36641330609187178 -0.41103484272696311 0 0.35731339728553541 -0.39200843168506289 0 0.37715946759020169 -0.39018376313325409 0 0.35731339728553541 -0.39200843168506289 0 0.36813569497355941 -0.37575979781310648 0 0.35731339728553541 -0.39200843168506289 0 0.36813569497355941 -0.37575979781310648 0 0.35277454402536601 -0.37700379664244982 0 0.35731339728553541 -0.39200843168506289 0 0.35277454402536601 -0.37700379664244982 0 0.34160215677372779 -0.38805699853454328 0 0.35277454402536601 -0.37700379664244982 0 0.34160215677372779 -0.38805699853454328 0 0.33579088460383488 -0.37192744337886202 0 0.34160215677372779 -0.38805699853454328 0 0.32403121598107981 -0.38958793879266829 0 0.33579088460383488 -0.37192744337886202 0 0.34013524581632859 -0.41074071135462209 0 0.32403121598107981 -0.38958793879266829 0 0.34013524581632859 -0.41074071135462209 0 0.34160215677372779 -0.38805699853454328 0 0.32403121598107981 -0.38958793879266829 0 0.34013524581632859 -0.41074071135462209 0 0.31463436729199268 -0.39977619348395399 0 0.32403121598107981 -0.38958793879266829 0 0.31463436729199268 -0.39977619348395399 0 0.32403121598107981 -0.38958793879266829 0 0.31055118271749738 -0.38658857495704968 0 0.31055118271749738 -0.38658857495704968 0 0.33579088460383488 -0.37192744337886202 0 0.31306122824443838 -0.36948366030614987 0 0.31055118271749738 -0.38658857495704968 0 0.33579088460383488 -0.37192744337886202 0 0.32403121598107981 -0.38958793879266829 0 0.31055118271749738 -0.38658857495704968 0 0.33579088460383488 -0.37192744337886202 0 0.31055118271749738 -0.38658857495704968 0 0.28448106956433372 -0.383734880768763 0 0.2969253220653969 -0.37200133009530267 0 0.31055118271749738 -0.38658857495704968 0 0.31306122824443838 -0.36948366030614987 0 0.2969253220653969 -0.37200133009530267 0 0.31463436729199268 -0.39977619348395399 0 0.28531148083115981 -0.40124970653523739 0 0.31236763670928941 -0.41369213679956118 0 0.31055118271749738 -0.38658857495704968 0 0.28531148083115981 -0.40124970653523739 0 0.31463436729199268 -0.39977619348395399 0 0.31055118271749738 -0.38658857495704968 0 0.28531148083115981 -0.40124970653523739 0 0.31055118271749738 -0.38658857495704968 0 0.28531148083115981 -0.40124970653523739 0 0.28448106956433372 -0.383734880768763 0 0.28448106956433372 -0.383734880768763 0 0.2969253220653969 -0.37200133009530267 0 0.28359386598555542 -0.37191048178921599 0 0.28448106956433372 -0.383734880768763 0 0.27197180634270468 -0.38548678343882109 0 0.27155454343823432 -0.37473077260953241 0 0.28448106956433372 -0.383734880768763 0 0.28359386598555542 -0.37191048178921599 0 0.27155454343823432 -0.37473077260953241 0 0.28448106956433372 -0.383734880768763 0 0.27197180634270468 -0.38548678343882109 0 0.27365373614900629 -0.39576073483159729 0 0.27197180634270468 -0.38548678343882109 0 0.26333172382085479 -0.38502715815675281 0 0.26570325011355878 -0.39543917265614631 0 0.27197180634270468 -0.38548678343882109 0 0.26333172382085479 -0.38502715815675281 0 0.27155454343823432 -0.37473077260953241 0 0.26333172382085479 -0.38502715815675281 0 0.25732300087440207 -0.39575033566817341 0 0.25330110596180933 -0.36625234778313681 0 0.25732300087440207 -0.39575033566817341 0 0.25330110596180933 -0.36625234778313681 0 0.26333172382085479 -0.38502715815675281 0 0.27155454343823432 -0.37473077260953241 0 0.25330110596180933 -0.36625234778313681 0 0.25208611461120289 -0.39253911363356347 0 0.25732300087440207 -0.39575033566817341 0 0.25330110596180933 -0.36625234778313681 0 0.25732300087440207 -0.39575033566817341 0 0.25940734124596793 -0.39552124413911349 0 0.26007177894482181 -0.41591083811342472 0 0.25940734124596793 -0.39552124413911349 0 0.26570325011355878 -0.39543917265614631 0 0.26007177894482181 -0.41591083811342472 0 0.25732300087440207 -0.39575033566817341 0 0.26007177894482181 -0.41591083811342472 0 0.26333172382085479 -0.38502715815675281 0 0.25732300087440207 -0.39575033566817341 0 0.25940734124596793 -0.39552124413911349 0 0.26333172382085479 -0.38502715815675281 0 0.25940734124596793 -0.39552124413911349 0 0.26570325011355878 -0.39543917265614631 0 0.25732300087440207 -0.39575033566817341 0 0.25940734124596793 -0.39552124413911349 0 0.26570325011355878 -0.39543917265614631 0 0.27365373614900629 -0.39576073483159729 0 0.26007177894482181 -0.41591083811342472 0 0.28531148083115981 -0.40124970653523739 0 0.27365373614900629 -0.39576073483159729 0 0.26007177894482181 -0.41591083811342472 0 0.28531148083115981 -0.40124970653523739 0 0.28448106956433372 -0.383734880768763 0 0.27365373614900629 -0.39576073483159729 0 0.27197180634270468 -0.38548678343882109 0 0.26570325011355878 -0.39543917265614631 0 0.27365373614900629 -0.39576073483159729 0 0.28531148083115981 -0.40124970653523739 0 0.26007177894482181 -0.41591083811342472 0 0.28531148083115981 -0.40124970653523739 0 0.28030228772178101 -0.42168231249492572 0 0.26007177894482181 -0.41591083811342472 0 0.25732300087440207 -0.39575033566817341 0 0.26007177894482181 -0.41591083811342472 0 0.24750047960936969 -0.40949869805603889 0 0.26007177894482181 -0.41591083811342472 0 0.2446807388689711 -0.42485112055786151 0 0.26007177894482181 -0.41591083811342472 0 0.2446807388689711 -0.42485112055786151 0 0.24750047960936969 -0.40949869805603889 0 0.26007177894482181 -0.41591083811342472 0 0.26235531399268391 -0.43265908505693212 0 0.26235531399268391 -0.43265908505693212 0 0.25146878115798132 -0.43797362560499747 0 0.2446807388689711 -0.42485112055786151 0 0.26007177894482181 -0.41591083811342472 0 0.26235531399268391 -0.43265908505693212 0 0.2446807388689711 -0.42485112055786151 0 0.28030228772178101 -0.42168231249492572 0 0.26007177894482181 -0.41591083811342472 0 0.26235531399268391 -0.43265908505693212 0 0.28030228772178101 -0.42168231249492572 0 0.26235531399268391 -0.43265908505693212 0 0.27555302653205821 -0.44249788261255352 0 0.28030228772178101 -0.42168231249492572 0 0.29300500363530019 -0.4418541090079795 0 0.27555302653205821 -0.44249788261255352 0 0.28030228772178101 -0.42168231249492572 0 0.29962634249724168 -0.42562009140229151 0 0.29300500363530019 -0.4418541090079795 0 0.28531148083115981 -0.40124970653523739 0 0.28030228772178101 -0.42168231249492572 0 0.29962634249724168 -0.42562009140229151 0 0.28531148083115981 -0.40124970653523739 0 0.31236763670928941 -0.41369213679956118 0 0.29962634249724168 -0.42562009140229151 0 0.32174320990741972 -0.43256303173138588 0 0.29962634249724168 -0.42562009140229151 0 0.29300500363530019 -0.4418541090079795 0 0.32174320990741972 -0.43256303173138588 0 0.31236763670928941 -0.41369213679956118 0 0.29962634249724168 -0.42562009140229151 0 0.32174320990741972 -0.43256303173138588 0 0.30313581419777291 -0.45611880884764833 0 0.29300500363530019 -0.4418541090079795 0 0.31892172632893262 -0.46591270658298262 0 0.30313581419777291 -0.45611880884764833 0 0.29748860298434338 -0.47904999550043897 0 0.30313581419777291 -0.45611880884764833 0 0.28452052813286838 -0.46121420141545438 0 0.29748860298434338 -0.47904999550043897 0 0.28452052813286838 -0.46121420141545438 0 0.29300500363530019 -0.4418541090079795 0 0.27555302653205821 -0.44249788261255352 0 0.30313581419777291 -0.45611880884764833 0 0.28452052813286838 -0.46121420141545438 0 0.29300500363530019 -0.4418541090079795 0 0.26235531399268391 -0.43265908505693212 0 0.27555302653205821 -0.44249788261255352 0 0.2609832287379234 -0.44842375683169561 0 0.27555302653205821 -0.44249788261255352 0 0.2609832287379234 -0.44842375683169561 0 0.26709924515855499 -0.46343879669508747 0 0.26235531399268391 -0.43265908505693212 0 0.25146878115798132 -0.43797362560499747 0 0.2609832287379234 -0.44842375683169561 0 0.25146878115798132 -0.43797362560499747 0 0.2609832287379234 -0.44842375683169561 0 0.24059777835827181 -0.44708129722640277 0 0.2609832287379234 -0.44842375683169561 0 0.25066357344128998 -0.46042009830195291 0 0.24059777835827181 -0.44708129722640277 0 0.2609832287379234 -0.44842375683169561 0 0.25066357344128998 -0.46042009830195291 0 0.26709924515855499 -0.46343879669508747 0 0.28452052813286838 -0.46121420141545438 0 0.27555302653205821 -0.44249788261255352 0 0.26709924515855499 -0.46343879669508747 0 0.28452052813286838 -0.46121420141545438 0 0.26709924515855499 -0.46343879669508747 0 0.27204808317256629 -0.48156847138527409 0 0.26709924515855499 -0.46343879669508747 0 0.27204808317256629 -0.48156847138527409 0 0.2493799117921196 -0.48316441513589592 0 0.25066357344128998 -0.46042009830195291 0 0.26709924515855499 -0.46343879669508747 0 0.2493799117921196 -0.48316441513589592 0 0.27204808317256629 -0.48156847138527409 0 0.25798094112068509 -0.5 0 0.2493799117921196 -0.48316441513589592 0 0.27204808317256629 -0.48156847138527409 0 0.25798094112068509 -0.5 0 0.28236653479183582 -0.5 0 0.28236653479183582 -0.5 0 0.29748860298434338 -0.47904999550043897 0 0.3067521284629865 -0.5 0 0.27204808317256629 -0.48156847138527409 0 0.28236653479183582 -0.5 0 0.29748860298434338 -0.47904999550043897 0 0.28452052813286838 -0.46121420141545438 0 0.27204808317256629 -0.48156847138527409 0 0.29748860298434338 -0.47904999550043897 0 0.31888209099111048 -0.4856149865898382 0 0.31892172632893262 -0.46591270658298262 0 0.29748860298434338 -0.47904999550043897 0 0.31888209099111048 -0.4856149865898382 0 0.29748860298434338 -0.47904999550043897 0 0.3067521284629865 -0.5 0 0.33264583727132052 -0.28954652862045771 0 0.32413172858793449 -0.30218293717649658 0 0.34421794169690462 -0.31139964792988362 0 0.32413172858793449 -0.30218293717649658 0 0.34421794169690462 -0.31139964792988362 0 0.32123570117162781 -0.31489009831366183 0 0.32413172858793449 -0.30218293717649658 0 0.32123570117162781 -0.31489009831366183 0 0.30796865197135143 -0.30426887852060469 0 0.32413172858793449 -0.30218293717649658 0 0.31459051082846817 -0.29080953249787528 0 0.30796865197135143 -0.30426887852060469 0 0.33264583727132052 -0.28954652862045771 0 0.31459051082846817 -0.29080953249787528 0 0.32471069931263119 -0.27184423397807811 0 0.33264583727132052 -0.28954652862045771 0 0.32413172858793449 -0.30218293717649658 0 0.31459051082846817 -0.29080953249787528 0 0.32471069931263119 -0.27184423397807811 0 0.31440153750881022 -0.25585096765320098 0 0.30678309186314878 -0.27800144055632903 0 0.31459051082846817 -0.29080953249787528 0 0.32471069931263119 -0.27184423397807811 0 0.30678309186314878 -0.27800144055632903 0 0.33460187179154399 -0.24805785858830651 0 0.32471069931263119 -0.27184423397807811 0 0.31440153750881022 -0.25585096765320098 0 0.33460187179154399 -0.24805785858830651 0 0.34524134661249611 -0.2687990759522994 0 0.34963001261181442 -0.25352116830563232 0 0.33460187179154399 -0.24805785858830651 0 0.32471069931263119 -0.27184423397807811 0 0.34524134661249611 -0.2687990759522994 0 0.33264583727132052 -0.28954652862045771 0 0.32471069931263119 -0.27184423397807811 0 0.34524134661249611 -0.2687990759522994 0 0.34524134661249611 -0.2687990759522994 0 0.36295308033746149 -0.26961102093880912 0 0.36307275068754141 -0.28973129771318218 0 0.34524134661249611 -0.2687990759522994 0 0.34963001261181442 -0.25352116830563232 0 0.36295308033746149 -0.26961102093880912 0 0.34963001261181442 -0.25352116830563232 0 0.36602304198461422 -0.25240732847334652 0 0.36295308033746149 -0.26961102093880912 0 0.3819275596781761 -0.26806294749647902 0 0.36602304198461422 -0.25240732847334652 0 0.36295308033746149 -0.26961102093880912 0 0.3819275596781761 -0.26806294749647902 0 0.36602304198461422 -0.25240732847334652 0 0.3819275596781761 -0.26806294749647902 0 0.36295308033746149 -0.26961102093880912 0 0.36307275068754141 -0.28973129771318218 0 0.3819275596781761 -0.26806294749647902 0 0.36307275068754141 -0.28973129771318218 0 0.38417794662727778 -0.28954262043001322 0 0.36307275068754141 -0.28973129771318218 0 0.37479560848769888 -0.30914323833367602 0 0.33264583727132052 -0.28954652862045771 0 0.34524134661249611 -0.2687990759522994 0 0.36307275068754141 -0.28973129771318218 0 0.36307275068754141 -0.28973129771318218 0 0.34421794169690462 -0.31139964792988362 0 0.33264583727132052 -0.28954652862045771 0 0.36307275068754141 -0.28973129771318218 0 0.34421794169690462 -0.31139964792988362 0 0.36307275068754141 -0.28973129771318218 0 0.34421794169690462 -0.31139964792988362 0 0.37479560848769888 -0.30914323833367602 0 0.34421794169690462 -0.31139964792988362 0 0.37479560848769888 -0.30914323833367602 0 0.36431323765339252 -0.33386139747700411 0 0.36431323765339252 -0.33386139747700411 0 0.34452414334203119 -0.3312876949489314 0 0.33992543880021092 -0.34998911289138679 0 0.34421794169690462 -0.31139964792988362 0 0.36431323765339252 -0.33386139747700411 0 0.34452414334203119 -0.3312876949489314 0 0.37828147262876483 -0.36208066851540888 0 0.36813569497355941 -0.37575979781310648 0 0.3610305864901725 -0.35726631180067431 0 0.36813569497355941 -0.37575979781310648 0 0.35277454402536601 -0.37700379664244982 0 0.3610305864901725 -0.35726631180067431 0 0.38627028837651017 -0.34260518022248648 0 0.3610305864901725 -0.35726631180067431 0 0.38627028837651017 -0.34260518022248648 0 0.36431323765339252 -0.33386139747700411 0 0.3610305864901725 -0.35726631180067431 0 0.36431323765339252 -0.33386139747700411 0 0.3610305864901725 -0.35726631180067431 0 0.33992543880021092 -0.34998911289138679 0 0.3610305864901725 -0.35726631180067431 0 0.33579088460383488 -0.37192744337886202 0 0.3610305864901725 -0.35726631180067431 0 0.33579088460383488 -0.37192744337886202 0 0.33992543880021092 -0.34998911289138679 0 0.35277454402536601 -0.37700379664244982 0 0.3610305864901725 -0.35726631180067431 0 0.33579088460383488 -0.37192744337886202 0 0.33992543880021092 -0.34998911289138679 0 0.32412980161407662 -0.35584091261725398 0 0.32536313270626782 -0.33306799814658511 0 0.33579088460383488 -0.37192744337886202 0 0.33992543880021092 -0.34998911289138679 0 0.32412980161407662 -0.35584091261725398 0 0.32412980161407662 -0.35584091261725398 0 0.32536313270626782 -0.33306799814658511 0 0.30650832371563103 -0.35473634836328638 0 0.32536313270626782 -0.33306799814658511 0 0.30650832371563103 -0.35473634836328638 0 0.33579088460383488 -0.37192744337886202 0 0.32412980161407662 -0.35584091261725398 0 0.31306122824443838 -0.36948366030614987 0 0.32412980161407662 -0.35584091261725398 0 0.31306122824443838 -0.36948366030614987 0 0.30650832371563103 -0.35473634836328638 0 0.34421794169690462 -0.31139964792988362 0 0.32536313270626782 -0.33306799814658511 0 0.32123570117162781 -0.31489009831366183 0 0.34421794169690462 -0.31139964792988362 0 0.32536313270626782 -0.33306799814658511 0 0.34421794169690462 -0.31139964792988362 0 0.34452414334203119 -0.3312876949489314 0 0.32536313270626782 -0.33306799814658511 0 0.34452414334203119 -0.3312876949489314 0 0.33992543880021092 -0.34998911289138679 0 0.32536313270626782 -0.33306799814658511 0 0.32536313270626782 -0.33306799814658511 0 0.30829884406480351 -0.32372208101088767 0 0.30650832371563103 -0.35473634836328638 0 0.32123570117162781 -0.31489009831366183 0 0.30829884406480351 -0.32372208101088767 0 0.30796865197135143 -0.30426887852060469 0 0.32536313270626782 -0.33306799814658511 0 0.32123570117162781 -0.31489009831366183 0 0.30829884406480351 -0.32372208101088767 0 0.30829884406480351 -0.32372208101088767 0 0.28942846092858898 -0.32845967050756231 0 0.29916464621748728 -0.30015191345945702 0 0.30829884406480351 -0.32372208101088767 0 0.30650832371563103 -0.35473634836328638 0 0.29464986630771028 -0.34507517325885911 0 0.30829884406480351 -0.32372208101088767 0 0.28942846092858898 -0.32845967050756231 0 0.29464986630771028 -0.34507517325885911 0 0.28942846092858898 -0.32845967050756231 0 0.27969227563969062 -0.35676742755566748 0 0.28942846092858898 -0.32845967050756231 0 0.29464986630771028 -0.34507517325885911 0 0.27969227563969062 -0.35676742755566748 0 0.28942846092858898 -0.32845967050756231 0 0.27948056953969141 -0.30916254882428379 0 0.29916464621748728 -0.30015191345945702 0 0.28942846092858898 -0.32845967050756231 0 0.29916464621748728 -0.30015191345945702 0 0.31306122824443838 -0.36948366030614987 0 0.2969253220653969 -0.37200133009530267 0 0.30650832371563103 -0.35473634836328638 0 0.2969253220653969 -0.37200133009530267 0 0.30650832371563103 -0.35473634836328638 0 0.28932142718983722 -0.36169033885689111 0 0.30650832371563103 -0.35473634836328638 0 0.29464986630771028 -0.34507517325885911 0 0.28932142718983722 -0.36169033885689111 0 0.29464986630771028 -0.34507517325885911 0 0.28932142718983722 -0.36169033885689111 0 0.27969227563969062 -0.35676742755566748 0 0.28932142718983722 -0.36169033885689111 0 0.27728629284516632 -0.36560503206767642 0 0.27969227563969062 -0.35676742755566748 0 0.28932142718983722 -0.36169033885689111 0 0.28359386598555542 -0.37191048178921599 0 0.27728629284516632 -0.36560503206767642 0 0.2969253220653969 -0.37200133009530267 0 0.28932142718983722 -0.36169033885689111 0 0.28359386598555542 -0.37191048178921599 0 0.27155454343823432 -0.37473077260953241 0 0.27728629284516632 -0.36560503206767642 0 0.26822048002157478 -0.36371500475686819 0 0.28359386598555542 -0.37191048178921599 0 0.27155454343823432 -0.37473077260953241 0 0.27728629284516632 -0.36560503206767642 0 0.27728629284516632 -0.36560503206767642 0 0.26822048002157478 -0.36371500475686819 0 0.27969227563969062 -0.35676742755566748 0 0.28942846092858898 -0.32845967050756231 0 0.27969227563969062 -0.35676742755566748 0 0.27113289281487868 -0.34960780313771739 0 0.26822048002157478 -0.36371500475686819 0 0.27969227563969062 -0.35676742755566748 0 0.27113289281487868 -0.34960780313771739 0 0.25330110596180933 -0.36625234778313681 0 0.2492792110492198 -0.33675435989809949 0 0.27113289281487868 -0.34960780313771739 0 0.25330110596180933 -0.36625234778313681 0 0.2492792110492198 -0.33675435989809949 0 0.27155454343823432 -0.37473077260953241 0 0.26822048002157478 -0.36371500475686819 0 0.25330110596180933 -0.36625234778313681 0 0.26822048002157478 -0.36371500475686819 0 0.27113289281487868 -0.34960780313771739 0 0.25330110596180933 -0.36625234778313681 0 0.28942846092858898 -0.32845967050756231 0 0.26684661224653078 -0.32381206172009191 0 0.27948056953969141 -0.30916254882428379 0 0.28942846092858898 -0.32845967050756231 0 0.27113289281487868 -0.34960780313771739 0 0.26684661224653078 -0.32381206172009191 0 0.27113289281487868 -0.34960780313771739 0 0.2492792110492198 -0.33675435989809949 0 0.27113289281487868 -0.34960780313771739 0 0.26684661224653078 -0.32381206172009191 0 0.2492792110492198 -0.33675435989809949 0 0.26684661224653078 -0.32381206172009191 0 0.24637000942484619 -0.31541725484293659 0 0.2492792110492198 -0.33675435989809949 0 0.26684661224653078 -0.32381206172009191 0 0.26233616210215849 -0.30237347455046482 0 0.24637000942484619 -0.31541725484293659 0 0.26233616210215849 -0.30237347455046482 0 0.24346080780047569 -0.2940801497877733 0 0.24637000942484619 -0.31541725484293659 0 0.26233616210215849 -0.30237347455046482 0 0.2600892861898958 -0.28187933430822931 0 0.24346080780047569 -0.2940801497877733 0 0.2600892861898958 -0.28187933430822931 0 0.27962696620369148 -0.29101562388384328 0 0.26233616210215849 -0.30237347455046482 0 0.2600892861898958 -0.28187933430822931 0 0.27962696620369148 -0.29101562388384328 0 0.2600892861898958 -0.28187933430822931 0 0.27962696620369148 -0.29101562388384328 0 0.2806078599126437 -0.27241723629863651 0 0.26233616210215849 -0.30237347455046482 0 0.27962696620369148 -0.29101562388384328 0 0.27948056953969141 -0.30916254882428379 0 0.26684661224653078 -0.32381206172009191 0 0.26233616210215849 -0.30237347455046482 0 0.27948056953969141 -0.30916254882428379 0 0.27962696620369148 -0.29101562388384328 0 0.27948056953969141 -0.30916254882428379 0 0.29916464621748728 -0.30015191345945702 0 0.27962696620369148 -0.29101562388384328 0 0.29389834047260183 -0.2859552347975538 0 0.29916464621748728 -0.30015191345945702 0 0.27962696620369148 -0.29101562388384328 0 0.29389834047260183 -0.2859552347975538 0 0.2806078599126437 -0.27241723629863651 0 0.27962696620369148 -0.29101562388384328 0 0.29916464621748728 -0.30015191345945702 0 0.29389834047260183 -0.2859552347975538 0 0.29916464621748728 -0.30015191345945702 0 0.30678309186314878 -0.27800144055632903 0 0.29916464621748728 -0.30015191345945702 0 0.30678309186314878 -0.27800144055632903 0 0.31459051082846817 -0.29080953249787528 0 0.29916464621748728 -0.30015191345945702 0 0.30678309186314878 -0.27800144055632903 0 0.31459051082846817 -0.29080953249787528 0 0.30796865197135143 -0.30426887852060469 0 0.29916464621748728 -0.30015191345945702 0 0.30829884406480351 -0.32372208101088767 0 0.30796865197135143 -0.30426887852060469 0 0.29916464621748728 -0.30015191345945702 0 0.30796865197135143 -0.30426887852060469 0 0.29916464621748728 -0.30015191345945702 0 0.29675187277504089 -0.24077871660993291 0 0.31440153750881022 -0.25585096765320098 0 0.29555478234999411 -0.26433070746921689 0 0.31440153750881022 -0.25585096765320098 0 0.30678309186314878 -0.27800144055632903 0 0.29555478234999411 -0.26433070746921689 0 0.29389834047260183 -0.2859552347975538 0 0.30678309186314878 -0.27800144055632903 0 0.29555478234999411 -0.26433070746921689 0 0.31440153750881022 -0.25585096765320098 0 0.30678309186314878 -0.27800144055632903 0 0.29389834047260183 -0.2859552347975538 0 0.29555478234999411 -0.26433070746921689 0 0.2806078599126437 -0.27241723629863651 0 0.29555478234999411 -0.26433070746921689 0 0.2808859915677191 -0.25298064889964872 0 0.2806078599126437 -0.27241723629863651 0 0.29675187277504089 -0.24077871660993291 0 0.29555478234999411 -0.26433070746921689 0 0.2808859915677191 -0.25298064889964872 0 0.26487368592424948 -0.2436669065771791 0 0.2808859915677191 -0.25298064889964872 0 0.26643037661203678 -0.26174227120836091 0 0.2808859915677191 -0.25298064889964872 0 0.26643037661203678 -0.26174227120836091 0 0.2806078599126437 -0.27241723629863651 0 0.2600892861898958 -0.28187933430822931 0 0.26643037661203678 -0.26174227120836091 0 0.2806078599126437 -0.27241723629863651 0 0.2600892861898958 -0.28187933430822931 0 0.26643037661203678 -0.26174227120836091 0 0.25309355582519488 -0.26610536137318802 0 0.2600892861898958 -0.28187933430822931 0 0.2405516061761023 -0.27274304473261052 0 0.2600892861898958 -0.28187933430822931 0 0.25309355582519488 -0.26610536137318802 0 0.2405516061761023 -0.27274304473261052 0 0.26487368592424948 -0.2436669065771791 0 0.25821911771819511 -0.25634111474636673 0 0.2484788525112992 -0.25384991982673899 0 0.26487368592424948 -0.2436669065771791 0 0.26643037661203678 -0.26174227120836091 0 0.25821911771819511 -0.25634111474636673 0 0.26643037661203678 -0.26174227120836091 0 0.25309355582519488 -0.26610536137318802 0 0.25821911771819511 -0.25634111474636673 0 0.25309355582519488 -0.26610536137318802 0 0.25821911771819511 -0.25634111474636673 0 0.2484788525112992 -0.25384991982673899 0 0.2405516061761023 -0.27274304473261052 0 0.23744775862660331 -0.2499783381945197 0 0.2405516061761023 -0.27274304473261052 0 0.22912478275073331 -0.25674295063279989 0 0.23744775862660331 -0.2499783381945197 0 0.25309355582519488 -0.26610536137318802 0 0.2484788525112992 -0.25384991982673899 0 0.2405516061761023 -0.27274304473261052 0 0.2484788525112992 -0.25384991982673899 0 0.2405516061761023 -0.27274304473261052 0 0.23744775862660331 -0.2499783381945197 0 0.2405516061761023 -0.27274304473261052 0 0.22076862443918399 -0.27802501986586731 0 0.21421854044111599 -0.26042906918390341 0 0.2405516061761023 -0.27274304473261052 0 0.22076862443918399 -0.27802501986586731 0 0.2322339025332272 -0.2856712192089359 0 0.2405516061761023 -0.27274304473261052 0 0.21421854044111599 -0.26042906918390341 0 0.2405516061761023 -0.27274304473261052 0 0.22912478275073331 -0.25674295063279989 0 0.21421854044111599 -0.26042906918390341 0 0.22912478275073331 -0.25674295063279989 0 0.21421854044111599 -0.26042906918390341 0 0.22428122575910839 -0.24382135042016631 0 0.21421854044111599 -0.26042906918390341 0 0.22428122575910839 -0.24382135042016631 0 0.22912478275073331 -0.25674295063279989 0 0.23744775862660331 -0.2499783381945197 0 0.22428122575910839 -0.24382135042016631 0 0.21421854044111599 -0.26042906918390341 0 0.22428122575910839 -0.24382135042016631 0 0.20853645925439809 -0.2499426345604043 0 0.21421854044111599 -0.26042906918390341 0 0.2005972037248808 -0.25405940417973438 0 0.21421854044111599 -0.26042906918390341 0 0.2005972037248808 -0.25405940417973438 0 0.20853645925439809 -0.2499426345604043 0 0.2005972037248808 -0.25405940417973438 0 0.20853645925439809 -0.2499426345604043 0 0.21421854044111599 -0.26042906918390341 0 0.2005972037248808 -0.25405940417973438 0 0.2027265074109231 -0.26345584539782602 0 0.21421854044111599 -0.26042906918390341 0 0.20673908479035019 -0.27277335821097543 0 0.2027265074109231 -0.26345584539782602 0 0.22076862443918399 -0.27802501986586731 0 0.21421854044111599 -0.26042906918390341 0 0.20673908479035019 -0.27277335821097543 0 0.22076862443918399 -0.27802501986586731 0 0.20673908479035019 -0.27277335821097543 0 0.21095821937159301 -0.28416260895301221 0 0.21421854044111599 -0.26042906918390341 0 0.20673908479035019 -0.27277335821097543 0 0.20673908479035019 -0.27277335821097543 0 0.1913666732207806 -0.27131897546246481 0 0.20087776641350599 -0.29093760690426151 0 0.20673908479035019 -0.27277335821097543 0 0.1913666732207806 -0.27131897546246481 0 0.2027265074109231 -0.26345584539782602 0 0.1960021101174742 -0.256664134456286 0 0.2005972037248808 -0.25405940417973438 0 0.19894780114414509 -0.24424568885774631 0 0.1960021101174742 -0.256664134456286 0 0.2005972037248808 -0.25405940417973438 0 0.1913666732207806 -0.27131897546246481 0 0.1960021101174742 -0.256664134456286 0 0.2027265074109231 -0.26345584539782602 0 0.1960021101174742 -0.256664134456286 0 0.2005972037248808 -0.25405940417973438 0 0.2027265074109231 -0.26345584539782602 0 0.20087776641350599 -0.29093760690426151 0 0.2051419149532315 -0.3107946046402178 0 0.1830732669052367 -0.29781472701127759 0 0.2051419149532315 -0.3107946046402178 0 0.1830732669052367 -0.29781472701127759 0 0.1842523286580614 -0.31208575283319939 0 0.2051419149532315 -0.3107946046402178 0 0.1830732669052367 -0.29781472701127759 0 0.1913666732207806 -0.27131897546246481 0 0.20087776641350599 -0.29093760690426151 0 0.18279499832009291 -0.28388989644520418 0 0.20087776641350599 -0.29093760690426151 0 0.18279499832009291 -0.28388989644520418 0 0.1830732669052367 -0.29781472701127759 0 0.20087776641350599 -0.29093760690426151 0 0.21095821937159301 -0.28416260895301221 0 0.21991039332271151 -0.29237081890576938 0 0.20673908479035019 -0.27277335821097543 0 0.20087776641350599 -0.29093760690426151 0 0.21095821937159301 -0.28416260895301221 0 0.22076862443918399 -0.27802501986586731 0 0.21095821937159301 -0.28416260895301221 0 0.21991039332271151 -0.29237081890576938 0 0.20087776641350599 -0.29093760690426151 0 0.2051419149532315 -0.3107946046402178 0 0.21991039332271151 -0.29237081890576938 0 0.2051419149532315 -0.3107946046402178 0 0.23072891658071371 -0.30640625847959801 0 0.21991039332271151 -0.29237081890576938 0 0.23072891658071371 -0.30640625847959801 0 0.21991039332271151 -0.29237081890576938 0 0.2322339025332272 -0.2856712192089359 0 0.22076862443918399 -0.27802501986586731 0 0.21991039332271151 -0.29237081890576938 0 0.2322339025332272 -0.2856712192089359 0 0.23072891658071371 -0.30640625847959801 0 0.2322339025332272 -0.2856712192089359 0 0.24346080780047569 -0.2940801497877733 0 0.2405516061761023 -0.27274304473261052 0 0.2322339025332272 -0.2856712192089359 0 0.24346080780047569 -0.2940801497877733 0 0.2600892861898958 -0.28187933430822931 0 0.2405516061761023 -0.27274304473261052 0 0.24346080780047569 -0.2940801497877733 0 0.2405516061761023 -0.27274304473261052 0 0.24346080780047569 -0.2940801497877733 0 0.23072891658071371 -0.30640625847959801 0 0.24346080780047569 -0.2940801497877733 0 0.24637000942484619 -0.31541725484293659 0 0.24346080780047569 -0.2940801497877733 0 0.24637000942484619 -0.31541725484293659 0 0.24637000942484619 -0.31541725484293659 0 0.2492792110492198 -0.33675435989809949 0 0.24637000942484619 -0.31541725484293659 0 0.2492792110492198 -0.33675435989809949 0 0.22721056300122611 -0.32377448226915778 0 0.23072891658071371 -0.30640625847959801 0 0.24637000942484619 -0.31541725484293659 0 0.22721056300122611 -0.32377448226915778 0 0.2492792110492198 -0.33675435989809949 0 0.2331352555672549 -0.3415113541367909 0 0.22721056300122611 -0.32377448226915778 0 0.2492792110492198 -0.33675435989809949 0 0.22721056300122611 -0.32377448226915778 0 0.2331352555672549 -0.3415113541367909 0 0.22721056300122611 -0.32377448226915778 0 0.21816922163463209 -0.35231243323338152 0 0.2051419149532315 -0.3107946046402178 0 0.23072891658071371 -0.30640625847959801 0 0.22721056300122611 -0.32377448226915778 0 0.25330110596180933 -0.36625234778313681 0 0.23512766812291749 -0.3724257734334725 0 0.23788202658394439 -0.35320414114652449 0 0.2492792110492198 -0.33675435989809949 0 0.2331352555672549 -0.3415113541367909 0 0.23788202658394439 -0.35320414114652449 0 0.25330110596180933 -0.36625234778313681 0 0.2492792110492198 -0.33675435989809949 0 0.23788202658394439 -0.35320414114652449 0 0.23512766812291749 -0.3724257734334725 0 0.23788202658394439 -0.35320414114652449 0 0.21816922163463209 -0.35231243323338152 0 0.2331352555672549 -0.3415113541367909 0 0.23788202658394439 -0.35320414114652449 0 0.21816922163463209 -0.35231243323338152 0 0.23512766812291749 -0.3724257734334725 0 0.21816922163463209 -0.35231243323338152 0 0.23512766812291749 -0.3724257734334725 0 0.21176655525013871 -0.36749299294025001 0 0.21525193836568821 -0.38214816835425308 0 0.23512766812291749 -0.3724257734334725 0 0.21176655525013871 -0.36749299294025001 0 0.21816922163463209 -0.35231243323338152 0 0.21176655525013871 -0.36749299294025001 0 0.21816922163463209 -0.35231243323338152 0 0.19684733035246649 -0.35567439135756052 0 0.21816922163463209 -0.35231243323338152 0 0.19684733035246649 -0.35567439135756052 0 0.20121077514634669 -0.33219909303329043 0 0.19684733035246649 -0.35567439135756052 0 0.1835687741617146 -0.3726986328509943 0 0.19823426264849831 -0.37691915816439953 0 0.21176655525013871 -0.36749299294025001 0 0.19684733035246649 -0.35567439135756052 0 0.19823426264849831 -0.37691915816439953 0 0.2051419149532315 -0.3107946046402178 0 0.22721056300122611 -0.32377448226915778 0 0.2051419149532315 -0.3107946046402178 0 0.22721056300122611 -0.32377448226915778 0 0.20121077514634669 -0.33219909303329043 0 0.21816922163463209 -0.35231243323338152 0 0.20121077514634669 -0.33219909303329043 0 0.22721056300122611 -0.32377448226915778 0 0.21816922163463209 -0.35231243323338152 0 0.20121077514634669 -0.33219909303329043 0 0.20121077514634669 -0.33219909303329043 0 0.18307829161012121 -0.32818194048520111 0 0.1836176417380094 -0.34252103522070337 0 0.19684733035246649 -0.35567439135756052 0 0.20121077514634669 -0.33219909303329043 0 0.1836176417380094 -0.34252103522070337 0 0.20121077514634669 -0.33219909303329043 0 0.1842523286580614 -0.31208575283319939 0 0.2051419149532315 -0.3107946046402178 0 0.20121077514634669 -0.33219909303329043 0 0.1842523286580614 -0.31208575283319939 0 0.20121077514634669 -0.33219909303329043 0 0.18307829161012121 -0.32818194048520111 0 0.1842523286580614 -0.31208575283319939 0 0.17255398138595901 -0.31966571652925613 0 0.18307829161012121 -0.32818194048520111 0 0.1842523286580614 -0.31208575283319939 0 0.17255398138595901 -0.31966571652925613 0 0.1842523286580614 -0.31208575283319939 0 0.1721671803881703 -0.30589999945339558 0 0.17255398138595901 -0.31966571652925613 0 0.18307829161012121 -0.32818194048520111 0 0.1737567311222292 -0.33443810480955621 0 0.18307829161012121 -0.32818194048520111 0 0.1836176417380094 -0.34252103522070337 0 0.1737567311222292 -0.33443810480955621 0 0.1836176417380094 -0.34252103522070337 0 0.1737567311222292 -0.33443810480955621 0 0.16706762992359089 -0.3463730440714039 0 0.17255398138595901 -0.31966571652925613 0 0.1737567311222292 -0.33443810480955621 0 0.16051444592268019 -0.33083463426203952 0 0.16051444592268019 -0.33083463426203952 0 0.16706762992359089 -0.3463730440714039 0 0.150686755530797 -0.34161572503016813 0 0.1737567311222292 -0.33443810480955621 0 0.16051444592268019 -0.33083463426203952 0 0.16706762992359089 -0.3463730440714039 0 0.17255398138595901 -0.31966571652925613 0 0.16051444592268019 -0.33083463426203952 0 0.15743765192587891 -0.30792573714297222 0 0.19684733035246649 -0.35567439135756052 0 0.1835687741617146 -0.3726986328509943 0 0.17562783358468889 -0.35963150737803612 0 0.1835687741617146 -0.3726986328509943 0 0.17562783358468889 -0.35963150737803612 0 0.1699746479014336 -0.37146923927908082 0 0.1836176417380094 -0.34252103522070337 0 0.17562783358468889 -0.35963150737803612 0 0.16706762992359089 -0.3463730440714039 0 0.19684733035246649 -0.35567439135756052 0 0.1836176417380094 -0.34252103522070337 0 0.17562783358468889 -0.35963150737803612 0 0.16706762992359089 -0.3463730440714039 0 0.16007175154021749 -0.36179188809511148 0 0.150686755530797 -0.34161572503016813 0 0.17562783358468889 -0.35963150737803612 0 0.16706762992359089 -0.3463730440714039 0 0.16007175154021749 -0.36179188809511148 0 0.16007175154021749 -0.36179188809511148 0 0.1699746479014336 -0.37146923927908082 0 0.1584644081918585 -0.37944544730309998 0 0.17562783358468889 -0.35963150737803612 0 0.16007175154021749 -0.36179188809511148 0 0.1699746479014336 -0.37146923927908082 0 0.17562783358468889 -0.35963150737803612 0 0.16007175154021749 -0.36179188809511148 0 0.16007175154021749 -0.36179188809511148 0 0.14451566949574629 -0.36395226881218817 0 0.1584644081918585 -0.37944544730309998 0 0.16007175154021749 -0.36179188809511148 0 0.14451566949574629 -0.36395226881218817 0 0.16007175154021749 -0.36179188809511148 0 0.14451566949574629 -0.36395226881218817 0 0.150686755530797 -0.34161572503016813 0 0.14451566949574629 -0.36395226881218817 0 0.13202821872263221 -0.3496637690889825 0 0.150686755530797 -0.34161572503016813 0 0.14451566949574629 -0.36395226881218817 0 0.150686755530797 -0.34161572503016813 0 0.14451566949574629 -0.36395226881218817 0 0.1377677476524711 -0.38837669764593302 0 0.1246401987996983 -0.36671251290911161 0 0.14451566949574629 -0.36395226881218817 0 0.13202821872263221 -0.3496637690889825 0 0.1246401987996983 -0.36671251290911161 0 0.14451566949574629 -0.36395226881218817 0 0.1246401987996983 -0.36671251290911161 0 0.14374324663717061 -0.32410374605465492 0 0.13880513671801301 -0.30736671619030609 0 0.15743765192587891 -0.30792573714297222 0 0.16051444592268019 -0.33083463426203952 0 0.14374324663717061 -0.32410374605465492 0 0.15743765192587891 -0.30792573714297222 0 0.14374324663717061 -0.32410374605465492 0 0.150686755530797 -0.34161572503016813 0 0.1293484956327727 -0.33385066363202598 0 0.16051444592268019 -0.33083463426203952 0 0.14374324663717061 -0.32410374605465492 0 0.150686755530797 -0.34161572503016813 0 0.13202821872263221 -0.3496637690889825 0 0.150686755530797 -0.34161572503016813 0 0.1293484956327727 -0.33385066363202598 0 0.14374324663717061 -0.32410374605465492 0 0.12742308611263159 -0.31933000501787018 0 0.13880513671801301 -0.30736671619030609 0 0.14374324663717061 -0.32410374605465492 0 0.1293484956327727 -0.33385066363202598 0 0.12742308611263159 -0.31933000501787018 0 0.12742308611263159 -0.31933000501787018 0 0.12657632499259641 -0.30856474660512928 0 0.13880513671801301 -0.30736671619030609 0 0.12657632499259641 -0.30856474660512928 0 0.13880513671801301 -0.30736671619030609 0 0.1260003292148639 -0.29420233910561949 0 0.13880513671801301 -0.30736671619030609 0 0.14933425618240001 -0.28168960422250722 0 0.15743765192587891 -0.30792573714297222 0 0.13880513671801301 -0.30736671619030609 0 0.14933425618240001 -0.28168960422250722 0 0.1260003292148639 -0.29420233910561949 0 0.14933425618240001 -0.28168960422250722 0 0.1260003292148639 -0.29420233910561949 0 0.12112953848426369 -0.28568685094122609 0 0.14933425618240001 -0.28168960422250722 0 0.1260003292148639 -0.29420233910561949 0 0.14933425618240001 -0.28168960422250722 0 0.12613625232875009 -0.27173438427532631 0 0.1422690580276556 -0.26418529022618947 0 0.14933425618240001 -0.28168960422250722 0 0.12613625232875009 -0.27173438427532631 0 0.12112953848426369 -0.28568685094122609 0 0.12613625232875009 -0.27173438427532631 0 0.13005229300132709 -0.25122354292990129 0 0.1422690580276556 -0.26418529022618947 0 0.13005229300132709 -0.25122354292990129 0 0.1422690580276556 -0.26418529022618947 0 0.15832738130462731 -0.2537591705193008 0 0.14933425618240001 -0.28168960422250722 0 0.1422690580276556 -0.26418529022618947 0 0.17266818314993609 -0.26917686933939478 0 0.14933425618240001 -0.28168960422250722 0 0.17266818314993609 -0.26917686933939478 0 0.1659891019110051 -0.29020130350862272 0 0.14933425618240001 -0.28168960422250722 0 0.17266818314993609 -0.26917686933939478 0 0.15832738130462731 -0.2537591705193008 0 0.17701116387899951 -0.25279338993454598 0 0.17266818314993609 -0.26917686933939478 0 0.1422690580276556 -0.26418529022618947 0 0.15832738130462731 -0.2537591705193008 0 0.17266818314993609 -0.26917686933939478 0 0.1960021101174742 -0.256664134456286 0 0.17701116387899951 -0.25279338993454598 0 0.18760946069112969 -0.2429492766766933 0 0.1960021101174742 -0.256664134456286 0 0.17701116387899951 -0.25279338993454598 0 0.17266818314993609 -0.26917686933939478 0 0.1960021101174742 -0.256664134456286 0 0.17266818314993609 -0.26917686933939478 0 0.17266818314993609 -0.26917686933939478 0 0.18279499832009291 -0.28388989644520418 0 0.1659891019110051 -0.29020130350862272 0 0.1913666732207806 -0.27131897546246481 0 0.1960021101174742 -0.256664134456286 0 0.17266818314993609 -0.26917686933939478 0 0.1913666732207806 -0.27131897546246481 0 0.17266818314993609 -0.26917686933939478 0 0.18279499832009291 -0.28388989644520418 0 0.18279499832009291 -0.28388989644520418 0 0.1830732669052367 -0.29781472701127759 0 0.1659891019110051 -0.29020130350862272 0 0.1830732669052367 -0.29781472701127759 0 0.1721671803881703 -0.30589999945339558 0 0.1659891019110051 -0.29020130350862272 0 0.1830732669052367 -0.29781472701127759 0 0.1842523286580614 -0.31208575283319939 0 0.1721671803881703 -0.30589999945339558 0 0.1721671803881703 -0.30589999945339558 0 0.15743765192587891 -0.30792573714297222 0 0.1659891019110051 -0.29020130350862272 0 0.17255398138595901 -0.31966571652925613 0 0.1721671803881703 -0.30589999945339558 0 0.15743765192587891 -0.30792573714297222 0 0.14933425618240001 -0.28168960422250722 0 0.15743765192587891 -0.30792573714297222 0 0.1659891019110051 -0.29020130350862272 0 0.20082950971110561 -0.48377932784906941 0 0.20629571062959109 -0.5 0 0.18447318470842289 -0.48882513699288749 0 0.20629571062959109 -0.5 0 0.18447318470842289 -0.48882513699288749 0 0.17899607380964769 -0.5 0 0.20082950971110561 -0.48377932784906941 0 0.18581018107094949 -0.47654341581895071 0 0.18447318470842289 -0.48882513699288749 0 0.20082950971110561 -0.48377932784906941 0 0.1958202839761192 -0.46789794586718308 0 0.18581018107094949 -0.47654341581895071 0 0.20082950971110561 -0.48377932784906941 0 0.22243047950191019 -0.4754574188593878 0 0.1958202839761192 -0.46789794586718308 0 0.20082950971110561 -0.48377932784906941 0 0.20629571062959109 -0.5 0 0.22243047950191019 -0.4754574188593878 0 0.23359534744953439 -0.49991057738658168 0 0.22243047950191019 -0.4754574188593878 0 0.20629571062959109 -0.5 0 0.23359534744953439 -0.49991057738658168 0 0.22243047950191019 -0.4754574188593878 0 0.23243185733687169 -0.49154165056348498 0 0.23359534744953439 -0.49991057738658168 0 0.22243047950191019 -0.4754574188593878 0 0.23243185733687169 -0.49154165056348498 0 0.23359534744953439 -0.49991057738658168 0 0.2493799117921196 -0.48316441513589592 0 0.25798094112068509 -0.5 0 0.23359534744953439 -0.49991057738658168 0 0.2493799117921196 -0.48316441513589592 0 0.23243185733687169 -0.49154165056348498 0 0.2493799117921196 -0.48316441513589592 0 0.23651481784757181 -0.46931147389494388 0 0.23243185733687169 -0.49154165056348498 0 0.23651481784757181 -0.46931147389494388 0 0.25066357344128998 -0.46042009830195291 0 0.2493799117921196 -0.48316441513589592 0 0.23651481784757181 -0.46931147389494388 0 0.23243185733687169 -0.49154165056348498 0 0.23651481784757181 -0.46931147389494388 0 0.22243047950191019 -0.4754574188593878 0 0.23651481784757181 -0.46931147389494388 0 0.22243047950191019 -0.4754574188593878 0 0.22792514880059581 -0.4548904884346161 0 0.22243047950191019 -0.4754574188593878 0 0.22792514880059581 -0.4548904884346161 0 0.21126561155428611 -0.45100426033219387 0 0.23651481784757181 -0.46931147389494388 0 0.24059777835827181 -0.44708129722640277 0 0.23651481784757181 -0.46931147389494388 0 0.22792514880059581 -0.4548904884346161 0 0.24059777835827181 -0.44708129722640277 0 0.25066357344128998 -0.46042009830195291 0 0.23651481784757181 -0.46931147389494388 0 0.24059777835827181 -0.44708129722640277 0 0.24059777835827181 -0.44708129722640277 0 0.23254767501711271 -0.44075060864072507 0 0.24110774096846771 -0.42871482002002748 0 0.22792514880059581 -0.4548904884346161 0 0.22300146804984361 -0.44190930356099523 0 0.21126561155428611 -0.45100426033219387 0 0.23254767501711271 -0.44075060864072507 0 0.22300146804984361 -0.44190930356099523 0 0.2265244911728683 -0.4348957169412111 0 0.22792514880059581 -0.4548904884346161 0 0.24059777835827181 -0.44708129722640277 0 0.23254767501711271 -0.44075060864072507 0 0.22792514880059581 -0.4548904884346161 0 0.23254767501711271 -0.44075060864072507 0 0.22300146804984361 -0.44190930356099523 0 0.21126561155428611 -0.45100426033219387 0 0.20010074360666269 -0.42655110180499978 0 0.22300146804984361 -0.44190930356099523 0 0.21126561155428611 -0.45100426033219387 0 0.21919316470014061 -0.42755850595420919 0 0.22243047950191019 -0.4754574188593878 0 0.21126561155428611 -0.45100426033219387 0 0.1958202839761192 -0.46789794586718308 0 0.22243047950191019 -0.4754574188593878 0 0.21126561155428611 -0.45100426033219387 0 0.21126561155428611 -0.45100426033219387 0 0.1958202839761192 -0.46789794586718308 0 0.18746348214514269 -0.45574959936952048 0 0.21126561155428611 -0.45100426033219387 0 0.1881823592500434 -0.44219194930376021 0 0.20010074360666269 -0.42655110180499978 0 0.21126561155428611 -0.45100426033219387 0 0.1881823592500434 -0.44219194930376021 0 0.18746348214514269 -0.45574959936952048 0 0.1881823592500434 -0.44219194930376021 0 0.20010074360666269 -0.42655110180499978 0 0.1798657127604241 -0.43591791460315099 0 0.20010074360666269 -0.42655110180499978 0 0.2082548653191294 -0.41477819349623107 0 0.1908275305984917 -0.40624102301060872 0 0.20010074360666269 -0.42655110180499978 0 0.1908275305984917 -0.40624102301060872 0 0.1863195066419559 -0.41745231624379031 0 0.20010074360666269 -0.42655110180499978 0 0.1908275305984917 -0.40624102301060872 0 0.2082548653191294 -0.41477819349623107 0 0.2111012491196913 -0.40083060563260392 0 0.1908275305984917 -0.40624102301060872 0 0.2082548653191294 -0.41477819349623107 0 0.21919316470014061 -0.42755850595420919 0 0.22134973857852849 -0.41167403636004157 0 0.2082548653191294 -0.41477819349623107 0 0.22134973857852849 -0.41167403636004157 0 0.2111012491196913 -0.40083060563260392 0 0.20010074360666269 -0.42655110180499978 0 0.21919316470014061 -0.42755850595420919 0 0.20010074360666269 -0.42655110180499978 0 0.2082548653191294 -0.41477819349623107 0 0.21919316470014061 -0.42755850595420919 0 0.21126561155428611 -0.45100426033219387 0 0.20010074360666269 -0.42655110180499978 0 0.21919316470014061 -0.42755850595420919 0 0.21919316470014061 -0.42755850595420919 0 0.23828558579361861 -0.42856591010342021 0 0.21919316470014061 -0.42755850595420919 0 0.23828558579361861 -0.42856591010342021 0 0.2339872887566346 -0.41691240606677521 0 0.21919316470014061 -0.42755850595420919 0 0.2334590703332845 -0.43136951604721357 0 0.23828558579361861 -0.42856591010342021 0 0.22300146804984361 -0.44190930356099523 0 0.2265244911728683 -0.4348957169412111 0 0.21919316470014061 -0.42755850595420919 0 0.2265244911728683 -0.4348957169412111 0 0.21919316470014061 -0.42755850595420919 0 0.2334590703332845 -0.43136951604721357 0 0.23254767501711271 -0.44075060864072507 0 0.2265244911728683 -0.4348957169412111 0 0.2334590703332845 -0.43136951604721357 0 0.24059777835827181 -0.44708129722640277 0 0.24110774096846771 -0.42871482002002748 0 0.2446807388689711 -0.42485112055786151 0 0.25146878115798132 -0.43797362560499747 0 0.24059777835827181 -0.44708129722640277 0 0.2446807388689711 -0.42485112055786151 0 0.23254767501711271 -0.44075060864072507 0 0.2334590703332845 -0.43136951604721357 0 0.24110774096846771 -0.42871482002002748 0 0.24059777835827181 -0.44708129722640277 0 0.2446807388689711 -0.42485112055786151 0 0.2334590703332845 -0.43136951604721357 0 0.23828558579361861 -0.42856591010342021 0 0.2334590703332845 -0.43136951604721357 0 0.23828558579361861 -0.42856591010342021 0 0.24110774096846771 -0.42871482002002748 0 0.23828558579361861 -0.42856591010342021 0 0.2446807388689711 -0.42485112055786151 0 0.2339872887566346 -0.41691240606677521 0 0.23828558579361861 -0.42856591010342021 0 0.2446807388689711 -0.42485112055786151 0 0.23828558579361861 -0.42856591010342021 0 0.24110774096846771 -0.42871482002002748 0 0.2446807388689711 -0.42485112055786151 0 0.23828558579361861 -0.42856591010342021 0 0.24110774096846771 -0.42871482002002748 0 0.24750047960936969 -0.40949869805603889 0 0.2339872887566346 -0.41691240606677521 0 0.23421212499704669 -0.39829047065038869 0 0.2446807388689711 -0.42485112055786151 0 0.24750047960936969 -0.40949869805603889 0 0.2446807388689711 -0.42485112055786151 0 0.24750047960936969 -0.40949869805603889 0 0.2339872887566346 -0.41691240606677521 0 0.21919316470014061 -0.42755850595420919 0 0.2339872887566346 -0.41691240606677521 0 0.22134973857852849 -0.41167403636004157 0 0.2339872887566346 -0.41691240606677521 0 0.22134973857852849 -0.41167403636004157 0 0.23421212499704669 -0.39829047065038869 0 0.23421212499704669 -0.39829047065038869 0 0.22997862440390029 -0.3851920631881165 0 0.2111012491196913 -0.40083060563260392 0 0.22134973857852849 -0.41167403636004157 0 0.23421212499704669 -0.39829047065038869 0 0.2111012491196913 -0.40083060563260392 0 0.23421212499704669 -0.39829047065038869 0 0.2111012491196913 -0.40083060563260392 0 0.25208611461120289 -0.39253911363356347 0 0.25732300087440207 -0.39575033566817341 0 0.23421212499704669 -0.39829047065038869 0 0.25732300087440207 -0.39575033566817341 0 0.23421212499704669 -0.39829047065038869 0 0.25208611461120289 -0.39253911363356347 0 0.23421212499704669 -0.39829047065038869 0 0.2378511330337669 -0.38711185522638519 0 0.25732300087440207 -0.39575033566817341 0 0.24750047960936969 -0.40949869805603889 0 0.23421212499704669 -0.39829047065038869 0 0.25208611461120289 -0.39253911363356347 0 0.25330110596180933 -0.36625234778313681 0 0.23512766812291749 -0.3724257734334725 0 0.25208611461120289 -0.39253911363356347 0 0.23512766812291749 -0.3724257734334725 0 0.25208611461120289 -0.39253911363356347 0 0.23512766812291749 -0.3724257734334725 0 0.2378511330337669 -0.38711185522638519 0 0.23512766812291749 -0.3724257734334725 0 0.22997862440390029 -0.3851920631881165 0 0.21525193836568821 -0.38214816835425308 0 0.22997862440390029 -0.3851920631881165 0 0.21525193836568821 -0.38214816835425308 0 0.2111012491196913 -0.40083060563260392 0 0.23512766812291749 -0.3724257734334725 0 0.2378511330337669 -0.38711185522638519 0 0.22997862440390029 -0.3851920631881165 0 0.23421212499704669 -0.39829047065038869 0 0.2378511330337669 -0.38711185522638519 0 0.22997862440390029 -0.3851920631881165 0 0.21176655525013871 -0.36749299294025001 0 0.21525193836568821 -0.38214816835425308 0 0.19823426264849831 -0.37691915816439953 0 0.21525193836568821 -0.38214816835425308 0 0.19888400786303939 -0.39607939691437272 0 0.19823426264849831 -0.37691915816439953 0 0.21525193836568821 -0.38214816835425308 0 0.2111012491196913 -0.40083060563260392 0 0.19888400786303939 -0.39607939691437272 0 0.2111012491196913 -0.40083060563260392 0 0.18799037324233589 -0.40337074061481898 0 0.2111012491196913 -0.40083060563260392 0 0.1908275305984917 -0.40624102301060872 0 0.18799037324233589 -0.40337074061481898 0 0.2111012491196913 -0.40083060563260392 0 0.19888400786303939 -0.39607939691437272 0 0.18799037324233589 -0.40337074061481898 0 0.19888400786303939 -0.39607939691437272 0 0.18799037324233589 -0.40337074061481898 0 0.1900889038599452 -0.3960911701874883 0 0.18799037324233589 -0.40337074061481898 0 0.1900889038599452 -0.3960911701874883 0 0.1855103426455855 -0.39609729912600128 0 0.19888400786303939 -0.39607939691437272 0 0.1900889038599452 -0.3960911701874883 0 0.18797089168882 -0.38881724409476037 0 0.1900889038599452 -0.3960911701874883 0 0.18797089168882 -0.38881724409476037 0 0.1855103426455855 -0.39609729912600128 0 0.1835687741617146 -0.3726986328509943 0 0.19823426264849831 -0.37691915816439953 0 0.18797089168882 -0.38881724409476037 0 0.19888400786303939 -0.39607939691437272 0 0.19823426264849831 -0.37691915816439953 0 0.18797089168882 -0.38881724409476037 0 0.1835687741617146 -0.3726986328509943 0 0.18797089168882 -0.38881724409476037 0 0.17337488556007211 -0.38358179289609601 0 0.17337488556007211 -0.38358179289609601 0 0.17785558388676201 -0.39537702085441201 0 0.16653464109187119 -0.39200222196006068 0 0.1835687741617146 -0.3726986328509943 0 0.1699746479014336 -0.37146923927908082 0 0.17337488556007211 -0.38358179289609601 0 0.18797089168882 -0.38881724409476037 0 0.17337488556007211 -0.38358179289609601 0 0.17785558388676201 -0.39537702085441201 0 0.18797089168882 -0.38881724409476037 0 0.1855103426455855 -0.39609729912600128 0 0.17785558388676201 -0.39537702085441201 0 0.18799037324233589 -0.40337074061481898 0 0.17785558388676201 -0.39537702085441201 0 0.1648794973649805 -0.40591087559703432 0 0.18799037324233589 -0.40337074061481898 0 0.1648794973649805 -0.40591087559703432 0 0.18799037324233589 -0.40337074061481898 0 0.1855103426455855 -0.39609729912600128 0 0.17785558388676201 -0.39537702085441201 0 0.1648794973649805 -0.40591087559703432 0 0.14832087185221721 -0.4057923503910057 0 0.15620974914338129 -0.39423878363438192 0 0.17785558388676201 -0.39537702085441201 0 0.16653464109187119 -0.39200222196006068 0 0.1648794973649805 -0.40591087559703432 0 0.16653464109187119 -0.39200222196006068 0 0.1648794973649805 -0.40591087559703432 0 0.15620974914338129 -0.39423878363438192 0 0.16653464109187119 -0.39200222196006068 0 0.1584644081918585 -0.37944544730309998 0 0.15620974914338129 -0.39423878363438192 0 0.17337488556007211 -0.38358179289609601 0 0.16653464109187119 -0.39200222196006068 0 0.1584644081918585 -0.37944544730309998 0 0.1699746479014336 -0.37146923927908082 0 0.17337488556007211 -0.38358179289609601 0 0.1584644081918585 -0.37944544730309998 0 0.14451566949574629 -0.36395226881218817 0 0.1377677476524711 -0.38837669764593302 0 0.1584644081918585 -0.37944544730309998 0 0.1377677476524711 -0.38837669764593302 0 0.15620974914338129 -0.39423878363438192 0 0.14451566949574629 -0.36395226881218817 0 0.1584644081918585 -0.37944544730309998 0 0.1377677476524711 -0.38837669764593302 0 0.1377677476524711 -0.38837669764593302 0 0.1174098863026264 -0.38365426356940752 0 0.1246401987996983 -0.36671251290911161 0 0.1377677476524711 -0.38837669764593302 0 0.1246401987996983 -0.36671251290911161 0 0.1377677476524711 -0.38837669764593302 0 0.1233220301008478 -0.39646983393993551 0 0.1174098863026264 -0.38365426356940752 0 0.1377677476524711 -0.38837669764593302 0 0.13346549555816839 -0.40394890677085071 0 0.14832087185221721 -0.4057923503910057 0 0.13346549555816839 -0.40394890677085071 0 0.1197818346257407 -0.40867834848616119 0 0.1233220301008478 -0.39646983393993551 0 0.1377677476524711 -0.38837669764593302 0 0.13346549555816839 -0.40394890677085071 0 0.1233220301008478 -0.39646983393993551 0 0.1377677476524711 -0.38837669764593302 0 0.13346549555816839 -0.40394890677085071 0 0.1377677476524711 -0.38837669764593302 0 0.14832087185221721 -0.4057923503910057 0 0.1377677476524711 -0.38837669764593302 0 0.14832087185221721 -0.4057923503910057 0 0.15620974914338129 -0.39423878363438192 0 0.14832087185221721 -0.4057923503910057 0 0.14516213738520711 -0.42365228768454732 0 0.15887399605196209 -0.42320800313607898 0 0.14832087185221721 -0.4057923503910057 0 0.1390279370648648 -0.41322866518554308 0 0.14516213738520711 -0.42365228768454732 0 0.14832087185221721 -0.4057923503910057 0 0.15887399605196209 -0.42320800313607898 0 0.13346549555816839 -0.40394890677085071 0 0.1390279370648648 -0.41322866518554308 0 0.12916324346386651 -0.41952111589576879 0 0.1390279370648648 -0.41322866518554308 0 0.12916324346386651 -0.41952111589576879 0 0.14516213738520711 -0.42365228768454732 0 0.12916324346386651 -0.41952111589576879 0 0.14516213738520711 -0.42365228768454732 0 0.11769283427447889 -0.42220288062432187 0 0.13346549555816839 -0.40394890677085071 0 0.14832087185221721 -0.4057923503910057 0 0.1390279370648648 -0.41322866518554308 0 0.13346549555816839 -0.40394890677085071 0 0.12916324346386651 -0.41952111589576879 0 0.13346549555816839 -0.40394890677085071 0 0.12916324346386651 -0.41952111589576879 0 0.1197818346257407 -0.40867834848616119 0 0.13142980709991339 -0.4332907695743905 0 0.14516213738520711 -0.42365228768454732 0 0.11769283427447889 -0.42220288062432187 0 0.14516213738520711 -0.42365228768454732 0 0.11769283427447889 -0.42220288062432187 0 0.13142980709991339 -0.4332907695743905 0 0.125086547625398 -0.44233273496432729 0 0.1196781982088109 -0.43332561415690918 0 0.13142980709991339 -0.4332907695743905 0 0.1440937604844332 -0.43604037411581881 0 0.14516213738520711 -0.42365228768454732 0 0.1440937604844332 -0.43604037411581881 0 0.14516213738520711 -0.42365228768454732 0 0.15605413658079609 -0.43418933107432262 0 0.15605413658079609 -0.43418933107432262 0 0.1726314404959349 -0.42510169474477272 0 0.1666598711019816 -0.4397527115874349 0 0.14516213738520711 -0.42365228768454732 0 0.15887399605196209 -0.42320800313607898 0 0.1726314404959349 -0.42510169474477272 0 0.14516213738520711 -0.42365228768454732 0 0.1726314404959349 -0.42510169474477272 0 0.14516213738520711 -0.42365228768454732 0 0.15605413658079609 -0.43418933107432262 0 0.1726314404959349 -0.42510169474477272 0 0.1648794973649805 -0.40591087559703432 0 0.14832087185221721 -0.4057923503910057 0 0.15887399605196209 -0.42320800313607898 0 0.1648794973649805 -0.40591087559703432 0 0.15887399605196209 -0.42320800313607898 0 0.16847429019401 -0.41724499523519959 0 0.1648794973649805 -0.40591087559703432 0 0.16847429019401 -0.41724499523519959 0 0.17751222686316251 -0.41475940746291262 0 0.15887399605196209 -0.42320800313607898 0 0.16847429019401 -0.41724499523519959 0 0.1726314404959349 -0.42510169474477272 0 0.18799037324233589 -0.40337074061481898 0 0.1648794973649805 -0.40591087559703432 0 0.18232580555158021 -0.41000700727763512 0 0.17751222686316251 -0.41475940746291262 0 0.1863195066419559 -0.41745231624379031 0 0.1726314404959349 -0.42510169474477272 0 0.1648794973649805 -0.40591087559703432 0 0.17751222686316251 -0.41475940746291262 0 0.18232580555158021 -0.41000700727763512 0 0.16847429019401 -0.41724499523519959 0 0.17751222686316251 -0.41475940746291262 0 0.1726314404959349 -0.42510169474477272 0 0.1908275305984917 -0.40624102301060872 0 0.18232580555158021 -0.41000700727763512 0 0.1863195066419559 -0.41745231624379031 0 0.1908275305984917 -0.40624102301060872 0 0.18799037324233589 -0.40337074061481898 0 0.18232580555158021 -0.41000700727763512 0 0.17751222686316251 -0.41475940746291262 0 0.18232580555158021 -0.41000700727763512 0 0.1863195066419559 -0.41745231624379031 0 0.20010074360666269 -0.42655110180499978 0 0.1726314404959349 -0.42510169474477272 0 0.20010074360666269 -0.42655110180499978 0 0.1798657127604241 -0.43591791460315099 0 0.1726314404959349 -0.42510169474477272 0 0.20010074360666269 -0.42655110180499978 0 0.1863195066419559 -0.41745231624379031 0 0.1726314404959349 -0.42510169474477272 0 0.1798657127604241 -0.43591791460315099 0 0.1726314404959349 -0.42510169474477272 0 0.1666598711019816 -0.4397527115874349 0 0.1798657127604241 -0.43591791460315099 0 0.17663356571786909 -0.4473586949548643 0 0.1666598711019816 -0.4397527115874349 0 0.1881823592500434 -0.44219194930376021 0 0.1798657127604241 -0.43591791460315099 0 0.17663356571786909 -0.4473586949548643 0 0.1881823592500434 -0.44219194930376021 0 0.17663356571786909 -0.4473586949548643 0 0.18746348214514269 -0.45574959936952048 0 0.18746348214514269 -0.45574959936952048 0 0.1784297556501791 -0.46738226662351851 0 0.17351098965558581 -0.45790024625212389 0 0.1958202839761192 -0.46789794586718308 0 0.18746348214514269 -0.45574959936952048 0 0.1784297556501791 -0.46738226662351851 0 0.17663356571786909 -0.4473586949548643 0 0.18746348214514269 -0.45574959936952048 0 0.17351098965558581 -0.45790024625212389 0 0.17351098965558581 -0.45790024625212389 0 0.16214980029463669 -0.46541419578587062 0 0.1641189793940368 -0.45263974861319572 0 0.1784297556501791 -0.46738226662351851 0 0.17351098965558581 -0.45790024625212389 0 0.16214980029463669 -0.46541419578587062 0 0.16214980029463669 -0.46541419578587062 0 0.1641189793940368 -0.45263974861319572 0 0.15320993593927801 -0.45726143496362198 0 0.1641189793940368 -0.45263974861319572 0 0.1666598711019816 -0.4397527115874349 0 0.1520942971790642 -0.44573163390196052 0 0.1641189793940368 -0.45263974861319572 0 0.1520942971790642 -0.44573163390196052 0 0.15320993593927801 -0.45726143496362198 0 0.17663356571786909 -0.4473586949548643 0 0.1641189793940368 -0.45263974861319572 0 0.1666598711019816 -0.4397527115874349 0 0.17663356571786909 -0.4473586949548643 0 0.17351098965558581 -0.45790024625212389 0 0.1641189793940368 -0.45263974861319572 0 0.15605413658079609 -0.43418933107432262 0 0.1666598711019816 -0.4397527115874349 0 0.1520942971790642 -0.44573163390196052 0 0.1440937604844332 -0.43604037411581881 0 0.15605413658079609 -0.43418933107432262 0 0.1520942971790642 -0.44573163390196052 0 0.1520942971790642 -0.44573163390196052 0 0.14165283081364649 -0.45525449204995538 0 0.15320993593927801 -0.45726143496362198 0 0.1520942971790642 -0.44573163390196052 0 0.13732331580452109 -0.44416968956982228 0 0.14165283081364649 -0.45525449204995538 0 0.1440937604844332 -0.43604037411581881 0 0.1520942971790642 -0.44573163390196052 0 0.13732331580452109 -0.44416968956982228 0 0.13142980709991339 -0.4332907695743905 0 0.1440937604844332 -0.43604037411581881 0 0.13732331580452109 -0.44416968956982228 0 0.13732331580452109 -0.44416968956982228 0 0.13001779054709739 -0.45194749383222638 0 0.14165283081364649 -0.45525449204995538 0 0.13732331580452109 -0.44416968956982228 0 0.13001779054709739 -0.45194749383222638 0 0.125086547625398 -0.44233273496432729 0 0.13142980709991339 -0.4332907695743905 0 0.13732331580452109 -0.44416968956982228 0 0.125086547625398 -0.44233273496432729 0 0.13001779054709739 -0.45194749383222638 0 0.13056477321497889 -0.46610303112611579 0 0.11783146813261459 -0.45135331593509148 0 0.13001779054709739 -0.45194749383222638 0 0.13056477321497889 -0.46610303112611579 0 0.14165283081364649 -0.45525449204995538 0 0.13056477321497889 -0.46610303112611579 0 0.14603377201500559 -0.46726710446712783 0 0.14165283081364649 -0.45525449204995538 0 0.16214980029463669 -0.46541419578587062 0 0.14603377201500559 -0.46726710446712783 0 0.15320993593927801 -0.45726143496362198 0 0.14603377201500559 -0.46726710446712783 0 0.14165283081364649 -0.45525449204995538 0 0.15320993593927801 -0.45726143496362198 0 0.16214980029463669 -0.46541419578587062 0 0.14603377201500559 -0.46726710446712783 0 0.15506975308034551 -0.47422229313537462 0 0.1438402296580194 -0.47562113241002207 0 0.1301975050837037 -0.48406710988336588 0 0.15733534489606341 -0.48644612343812671 0 0.15506975308034551 -0.47422229313537462 0 0.1438402296580194 -0.47562113241002207 0 0.15733534489606341 -0.48644612343812671 0 0.14603377201500559 -0.46726710446712783 0 0.15506975308034551 -0.47422229313537462 0 0.1438402296580194 -0.47562113241002207 0 0.13056477321497889 -0.46610303112611579 0 0.14603377201500559 -0.46726710446712783 0 0.1438402296580194 -0.47562113241002207 0 0.13056477321497889 -0.46610303112611579 0 0.1438402296580194 -0.47562113241002207 0 0.1301975050837037 -0.48406710988336588 0 0.1301975050837037 -0.48406710988336588 0 0.15169643698970431 -0.5 0 0.124396800169761 -0.5 0 0.1301975050837037 -0.48406710988336588 0 0.15169643698970431 -0.5 0 0.15733534489606341 -0.48644612343812671 0 0.1301975050837037 -0.48406710988336588 0 0.15733534489606341 -0.48644612343812671 0 0.15169643698970431 -0.5 0 0.15733534489606341 -0.48644612343812671 0 0.17899607380964769 -0.5 0 0.15733534489606341 -0.48644612343812671 0 0.18447318470842289 -0.48882513699288749 0 0.15506975308034551 -0.47422229313537462 0 0.15733534489606341 -0.48644612343812671 0 0.17144340530619459 -0.47606166526054411 0 0.1784297556501791 -0.46738226662351851 0 0.16214980029463669 -0.46541419578587062 0 0.17144340530619459 -0.47606166526054411 0 0.16214980029463669 -0.46541419578587062 0 0.15506975308034551 -0.47422229313537462 0 0.17144340530619459 -0.47606166526054411 0 0.15733534489606341 -0.48644612343812671 0 0.17144340530619459 -0.47606166526054411 0 0.18447318470842289 -0.48882513699288749 0 0.1958202839761192 -0.46789794586718308 0 0.1784297556501791 -0.46738226662351851 0 0.18581018107094949 -0.47654341581895071 0 0.1784297556501791 -0.46738226662351851 0 0.17144340530619459 -0.47606166526054411 0 0.18581018107094949 -0.47654341581895071 0 0.17144340530619459 -0.47606166526054411 0 0.18581018107094949 -0.47654341581895071 0 0.18447318470842289 -0.48882513699288749 0 0.15733534489606341 -0.48644612343812671 0 0.18447318470842289 -0.48882513699288749 0 0.17899607380964769 -0.5 0 0.069797526529874032 -0.5 0 0.064839688950304286 -0.47609096064942519 0 0.083411797607368693 -0.48503042745954172 0 0.064839688950304286 -0.47609096064942519 0 0.083411797607368693 -0.48503042745954172 0 0.082094316739614245 -0.46546070348455149 0 0.083411797607368693 -0.48503042745954172 0 0.103059665271344 -0.48168809632860499 0 0.082094316739614245 -0.46546070348455149 0 0.069797526529874032 -0.5 0 0.083411797607368693 -0.48503042745954172 0 0.097097163349817439 -0.5 0 0.097097163349817439 -0.5 0 0.124396800169761 -0.5 0 0.103059665271344 -0.48168809632860499 0 0.083411797607368693 -0.48503042745954172 0 0.097097163349817439 -0.5 0 0.103059665271344 -0.48168809632860499 0 0.1301975050837037 -0.48406710988336588 0 0.124396800169761 -0.5 0 0.103059665271344 -0.48168809632860499 0 0.1301975050837037 -0.48406710988336588 0 0.103059665271344 -0.48168809632860499 0 0.1135065826051065 -0.46512251417799538 0 0.1301975050837037 -0.48406710988336588 0 0.103059665271344 -0.48168809632860499 0 0.13056477321497889 -0.46610303112611579 0 0.1301975050837037 -0.48406710988336588 0 0.1135065826051065 -0.46512251417799538 0 0.103059665271344 -0.48168809632860499 0 0.097972341697339413 -0.46106880762899982 0 0.082094316739614245 -0.46546070348455149 0 0.103059665271344 -0.48168809632860499 0 0.097972341697339413 -0.46106880762899982 0 0.1135065826051065 -0.46512251417799538 0 0.097972341697339413 -0.46106880762899982 0 0.1135065826051065 -0.46512251417799538 0 0.102899903870001 -0.44477809320219208 0 0.13056477321497889 -0.46610303112611579 0 0.1135065826051065 -0.46512251417799538 0 0.11783146813261459 -0.45135331593509148 0 0.1135065826051065 -0.46512251417799538 0 0.11783146813261459 -0.45135331593509148 0 0.102899903870001 -0.44477809320219208 0 0.125086547625398 -0.44233273496432729 0 0.11783146813261459 -0.45135331593509148 0 0.11480220304357081 -0.43972236095203981 0 0.125086547625398 -0.44233273496432729 0 0.11480220304357081 -0.43972236095203981 0 0.1196781982088109 -0.43332561415690918 0 0.13001779054709739 -0.45194749383222638 0 0.125086547625398 -0.44233273496432729 0 0.11783146813261459 -0.45135331593509148 0 0.11783146813261459 -0.45135331593509148 0 0.11480220304357081 -0.43972236095203981 0 0.102899903870001 -0.44477809320219208 0 0.097972341697339413 -0.46106880762899982 0 0.102899903870001 -0.44477809320219208 0 0.089150636255416249 -0.45030939206940351 0 0.11480220304357081 -0.43972236095203981 0 0.102899903870001 -0.44477809320219208 0 0.1093795990006933 -0.42907932466946658 0 0.102899903870001 -0.44477809320219208 0 0.087820194573405716 -0.43803030123395081 0 0.089150636255416249 -0.45030939206940351 0 0.089150636255416249 -0.45030939206940351 0 0.082094316739614245 -0.46546070348455149 0 0.074966424396720868 -0.44220905479732331 0 0.087820194573405716 -0.43803030123395081 0 0.089150636255416249 -0.45030939206940351 0 0.074966424396720868 -0.44220905479732331 0 0.097972341697339413 -0.46106880762899982 0 0.089150636255416249 -0.45030939206940351 0 0.082094316739614245 -0.46546070348455149 0 0.064839688950304286 -0.47609096064942519 0 0.082094316739614245 -0.46546070348455149 0 0.061833520466348081 -0.45588845875101691 0 0.082094316739614245 -0.46546070348455149 0 0.074966424396720868 -0.44220905479732331 0 0.061833520466348081 -0.45588845875101691 0 0.074966424396720868 -0.44220905479732331 0 0.056186206726213668 -0.43480511144672862 0 0.061833520466348081 -0.45588845875101691 0 0.074966424396720868 -0.44220905479732331 0 0.068673188911649877 -0.42199244983913958 0 0.081887418383498722 -0.42676673994537628 0 0.074966424396720868 -0.44220905479732331 0 0.068673188911649877 -0.42199244983913958 0 0.056186206726213668 -0.43480511144672862 0 0.068673188911649877 -0.42199244983913958 0 0.082823357403395817 -0.40841568683349871 0 0.081887418383498722 -0.42676673994537628 0 0.068673188911649877 -0.42199244983913958 0 0.082823357403395817 -0.40841568683349871 0 0.063593984496221431 -0.40592114769550802 0 0.082823357403395817 -0.40841568683349871 0 0.081887418383498722 -0.42676673994537628 0 0.095153926632321292 -0.4231862070229695 0 0.082823357403395817 -0.40841568683349871 0 0.095153926632321292 -0.4231862070229695 0 0.096872110520445434 -0.4059105220882181 0 0.087820194573405716 -0.43803030123395081 0 0.081887418383498722 -0.42676673994537628 0 0.095153926632321292 -0.4231862070229695 0 0.087820194573405716 -0.43803030123395081 0 0.074966424396720868 -0.44220905479732331 0 0.081887418383498722 -0.42676673994537628 0 0.102899903870001 -0.44477809320219208 0 0.095153926632321292 -0.4231862070229695 0 0.1093795990006933 -0.42907932466946658 0 0.102899903870001 -0.44477809320219208 0 0.087820194573405716 -0.43803030123395081 0 0.095153926632321292 -0.4231862070229695 0 0.095153926632321292 -0.4231862070229695 0 0.1093795990006933 -0.42907932466946658 0 0.1076332278496103 -0.41402867061631898 0 0.11480220304357081 -0.43972236095203981 0 0.1093795990006933 -0.42907932466946658 0 0.1196781982088109 -0.43332561415690918 0 0.1093795990006933 -0.42907932466946658 0 0.11769283427447889 -0.42220288062432187 0 0.1196781982088109 -0.43332561415690918 0 0.13142980709991339 -0.4332907695743905 0 0.11769283427447889 -0.42220288062432187 0 0.1196781982088109 -0.43332561415690918 0 0.1197818346257407 -0.40867834848616119 0 0.1076332278496103 -0.41402867061631898 0 0.10876943250062859 -0.39722669681390088 0 0.12916324346386651 -0.41952111589576879 0 0.11769283427447889 -0.42220288062432187 0 0.1197818346257407 -0.40867834848616119 0 0.11769283427447889 -0.42220288062432187 0 0.1197818346257407 -0.40867834848616119 0 0.1076332278496103 -0.41402867061631898 0 0.1093795990006933 -0.42907932466946658 0 0.11769283427447889 -0.42220288062432187 0 0.1076332278496103 -0.41402867061631898 0 0.095153926632321292 -0.4231862070229695 0 0.1076332278496103 -0.41402867061631898 0 0.096872110520445434 -0.4059105220882181 0 0.1076332278496103 -0.41402867061631898 0 0.096872110520445434 -0.4059105220882181 0 0.10876943250062859 -0.39722669681390088 0 0.096872110520445434 -0.4059105220882181 0 0.10876943250062859 -0.39722669681390088 0 0.090743346643173836 -0.39047579133767968 0 0.10876943250062859 -0.39722669681390088 0 0.1233220301008478 -0.39646983393993551 0 0.1174098863026264 -0.38365426356940752 0 0.1197818346257407 -0.40867834848616119 0 0.10876943250062859 -0.39722669681390088 0 0.1233220301008478 -0.39646983393993551 0 0.10876943250062859 -0.39722669681390088 0 0.1174098863026264 -0.38365426356940752 0 0.1026106432894232 -0.38288787082118692 0 0.1174098863026264 -0.38365426356940752 0 0.1026106432894232 -0.38288787082118692 0 0.10607221885500601 -0.3692911767213039 0 0.10876943250062859 -0.39722669681390088 0 0.1026106432894232 -0.38288787082118692 0 0.090743346643173836 -0.39047579133767968 0 0.1026106432894232 -0.38288787082118692 0 0.090743346643173836 -0.39047579133767968 0 0.08750423891031367 -0.37186984053349531 0 0.090743346643173836 -0.39047579133767968 0 0.070351308291646666 -0.38759678695912542 0 0.08750423891031367 -0.37186984053349531 0 0.082823357403395817 -0.40841568683349871 0 0.090743346643173836 -0.39047579133767968 0 0.070351308291646666 -0.38759678695912542 0 0.082823357403395817 -0.40841568683349871 0 0.096872110520445434 -0.4059105220882181 0 0.090743346643173836 -0.39047579133767968 0 0.082823357403395817 -0.40841568683349871 0 0.063593984496221431 -0.40592114769550802 0 0.070351308291646666 -0.38759678695912542 0 0.070351308291646666 -0.38759678695912542 0 0.07076253173118327 -0.36921297652340501 0 0.049978528723357937 -0.37230476998244078 0 0.070351308291646666 -0.38759678695912542 0 0.08750423891031367 -0.37186984053349531 0 0.07076253173118327 -0.36921297652340501 0 0.070351308291646666 -0.38759678695912542 0 0.045995465413762412 -0.39592367817762081 0 0.049978528723357937 -0.37230476998244078 0 0.063593984496221431 -0.40592114769550802 0 0.045995465413762412 -0.39592367817762081 0 0.050126602460652432 -0.41567713666815598 0 0.063593984496221431 -0.40592114769550802 0 0.070351308291646666 -0.38759678695912542 0 0.045995465413762412 -0.39592367817762081 0 0.045995465413762412 -0.39592367817762081 0 0.021413268392009618 -0.39302714129047772 0 0.027293342987403661 -0.41663102847677341 0 0.045995465413762412 -0.39592367817762081 0 0.035308307108285732 -0.38103540582968481 0 0.021413268392009618 -0.39302714129047772 0 0.045995465413762412 -0.39592367817762081 0 0.035308307108285732 -0.38103540582968481 0 0.049978528723357937 -0.37230476998244078 0 0.035308307108285732 -0.38103540582968481 0 0.021413268392009618 -0.39302714129047772 0 0.020284017000177849 -0.37260898512918922 0 -0.0015752445019280509 -0.39584212530132401 0 0.0047232380292418791 -0.38267049908728129 0 0.021413268392009618 -0.39302714129047772 0 0.0047232380292418791 -0.38267049908728129 0 0.021413268392009618 -0.39302714129047772 0 0.020284017000177849 -0.37260898512918922 0 -0.0015752445019280509 -0.39584212530132401 0 0.021413268392009618 -0.39302714129047772 0 0.0089749178656362196 -0.4085379017589601 0 0.021413268392009618 -0.39302714129047772 0 0.027293342987403661 -0.41663102847677341 0 0.0089749178656362196 -0.4085379017589601 0 0.027293342987403661 -0.41663102847677341 0 0.0089749178656362196 -0.4085379017589601 0 0.003319901708807629 -0.42425039637610329 0 0.003319901708807629 -0.42425039637610329 0 0.021897132012740621 -0.43788830071532919 0 0.0059891361194842896 -0.44518073930204333 0 0.003319901708807629 -0.42425039637610329 0 0.021897132012740621 -0.43788830071532919 0 0.027293342987403661 -0.41663102847677341 0 0.039434702663434511 -0.42924598893475119 0 0.021897132012740621 -0.43788830071532919 0 0.027293342987403661 -0.41663102847677341 0 0.003319901708807629 -0.42425039637610329 0 0.021897132012740621 -0.43788830071532919 0 0.039434702663434511 -0.42924598893475119 0 0.056186206726213668 -0.43480511144672862 0 0.042495373786790441 -0.44640679201320072 0 0.027293342987403661 -0.41663102847677341 0 0.039434702663434511 -0.42924598893475119 0 0.050126602460652432 -0.41567713666815598 0 0.045995465413762412 -0.39592367817762081 0 0.027293342987403661 -0.41663102847677341 0 0.050126602460652432 -0.41567713666815598 0 0.068673188911649877 -0.42199244983913958 0 0.063593984496221431 -0.40592114769550802 0 0.050126602460652432 -0.41567713666815598 0 0.068673188911649877 -0.42199244983913958 0 0.050126602460652432 -0.41567713666815598 0 0.056186206726213668 -0.43480511144672862 0 0.039434702663434511 -0.42924598893475119 0 0.050126602460652432 -0.41567713666815598 0 0.056186206726213668 -0.43480511144672862 0 0.056186206726213668 -0.43480511144672862 0 0.061833520466348081 -0.45588845875101691 0 0.042495373786790441 -0.44640679201320072 0 0.061833520466348081 -0.45588845875101691 0 0.04463716735972429 -0.46446686850825292 0 0.042495373786790441 -0.44640679201320072 0 0.064839688950304286 -0.47609096064942519 0 0.061833520466348081 -0.45588845875101691 0 0.04463716735972429 -0.46446686850825292 0 0.04463716735972429 -0.46446686850825292 0 0.042495373786790441 -0.44640679201320072 0 0.026591953951925418 -0.45688873459281382 0 0.04463716735972429 -0.46446686850825292 0 0.026591953951925418 -0.45688873459281382 0 0.028219786382394571 -0.48082671805062888 0 0.039434702663434511 -0.42924598893475119 0 0.042495373786790441 -0.44640679201320072 0 0.021897132012740621 -0.43788830071532919 0 0.042495373786790441 -0.44640679201320072 0 0.021897132012740621 -0.43788830071532919 0 0.026591953951925418 -0.45688873459281382 0 0.021897132012740621 -0.43788830071532919 0 0.0059891361194842896 -0.44518073930204333 0 0.026591953951925418 -0.45688873459281382 0 0.0059891361194842896 -0.44518073930204333 0 0.0097387781098224185 -0.46684003122232343 0 0.026591953951925418 -0.45688873459281382 0 -0.01176977653683204 -0.45315375861559798 0 0.0059891361194842896 -0.44518073930204333 0 0.0097387781098224185 -0.46684003122232343 0 0.0097387781098224185 -0.46684003122232343 0 0.026591953951925418 -0.45688873459281382 0 0.028219786382394571 -0.48082671805062888 0 -0.01017086125060777 -0.4771211151146702 0 0.0097387781098224185 -0.46684003122232343 0 0.0062221922340855986 -0.48444841357399271 0 0.0097387781098224185 -0.46684003122232343 0 0.028219786382394571 -0.48082671805062888 0 0.0062221922340855986 -0.48444841357399271 0 -0.01210138392995614 -0.50000000000000155 0 0.0062221922340855986 -0.48444841357399271 0 0.01519825288998722 -0.5 0 0.028219786382394571 -0.48082671805062888 0 0.0062221922340855986 -0.48444841357399271 0 0.01519825288998722 -0.5 0 0.028219786382394571 -0.48082671805062888 0 0.01519825288998722 -0.5 0 0.042497889709930632 -0.5 0 0.028219786382394571 -0.48082671805062888 0 0.042497889709930632 -0.5 0 0.049998411786445568 -0.48427690944166141 0 0.04463716735972429 -0.46446686850825292 0 0.028219786382394571 -0.48082671805062888 0 0.049998411786445568 -0.48427690944166141 0 0.064839688950304286 -0.47609096064942519 0 0.04463716735972429 -0.46446686850825292 0 0.049998411786445568 -0.48427690944166141 0 0.069797526529874032 -0.5 0 0.064839688950304286 -0.47609096064942519 0 0.049998411786445568 -0.48427690944166141 0 0.069797526529874032 -0.5 0 0.042497889709930632 -0.5 0 0.049998411786445568 -0.48427690944166141 0 0.084995063905358381 -0.28882668236244857 0 0.091804314360482503 -0.30385447405127741 0 0.067459017058750473 -0.29449834331540781 0 0.084995063905358381 -0.28882668236244857 0 0.081249530942255621 -0.27192929203584398 0 0.099467393259944581 -0.28502462004726481 0 0.084995063905358381 -0.28882668236244857 0 0.091804314360482503 -0.30385447405127741 0 0.099467393259944581 -0.28502462004726481 0 0.091804314360482503 -0.30385447405127741 0 0.075518666387279221 -0.31909091294506631 0 0.091804314360482503 -0.30385447405127741 0 0.088553881662708528 -0.3118414951888564 0 0.075518666387279221 -0.31909091294506631 0 0.091804314360482503 -0.30385447405127741 0 0.067459017058750473 -0.29449834331540781 0 0.075518666387279221 -0.31909091294506631 0 0.091804314360482503 -0.30385447405127741 0 0.088553881662708528 -0.3118414951888564 0 0.095942606939571282 -0.31019352716348952 0 0.091804314360482503 -0.30385447405127741 0 0.088553881662708528 -0.3118414951888564 0 0.067459017058750473 -0.29449834331540781 0 0.075518666387279221 -0.31909091294506631 0 0.053668503175245297 -0.31706739459497152 0 0.067459017058750473 -0.29449834331540781 0 0.081249530942255621 -0.27192929203584398 0 0.084995063905358381 -0.28882668236244857 0 0.067459017058750473 -0.29449834331540781 0 0.081249530942255621 -0.27192929203584398 0 0.067459017058750473 -0.29449834331540781 0 0.064203064287619266 -0.27050335197085401 0 0.081249530942255621 -0.27192929203584398 0 0.064203064287619266 -0.27050335197085401 0 0.072990447352685145 -0.2601386508339148 0 0.081249530942255621 -0.27192929203584398 0 0.072990447352685145 -0.2601386508339148 0 0.058408781237998489 -0.25787320876665182 0 0.070671848883312932 -0.24837599116058481 0 0.064203064287619266 -0.27050335197085401 0 0.072990447352685145 -0.2601386508339148 0 0.058408781237998489 -0.25787320876665182 0 0.072990447352685145 -0.2601386508339148 0 0.085626393554373917 -0.25194285689470058 0 0.070671848883312932 -0.24837599116058481 0 0.081249530942255621 -0.27192929203584398 0 0.095040044825762116 -0.2493602407562813 0 0.072990447352685145 -0.2601386508339148 0 0.085626393554373917 -0.25194285689470058 0 0.081249530942255621 -0.27192929203584398 0 0.085626393554373917 -0.25194285689470058 0 0.081249530942255621 -0.27192929203584398 0 0.095040044825762116 -0.2493602407562813 0 0.10713047215940109 -0.26619476604324988 0 0.1131294297275502 -0.27454762240554242 0 0.1062412762375357 -0.28404127822739489 0 0.10713047215940109 -0.26619476604324988 0 0.099467393259944581 -0.28502462004726481 0 0.081249530942255621 -0.27192929203584398 0 0.10713047215940109 -0.26619476604324988 0 0.099467393259944581 -0.28502462004726481 0 0.10713047215940109 -0.26619476604324988 0 0.1062412762375357 -0.28404127822739489 0 0.099467393259944581 -0.28502462004726481 0 0.10713047215940109 -0.26619476604324988 0 0.11512388834378939 -0.246553201377151 0 0.095040044825762116 -0.2493602407562813 0 0.081249530942255621 -0.27192929203584398 0 0.10713047215940109 -0.26619476604324988 0 0.095040044825762116 -0.2493602407562813 0 0.10713047215940109 -0.26619476604324988 0 0.095040044825762116 -0.2493602407562813 0 0.13005229300132709 -0.25122354292990129 0 0.1131294297275502 -0.27454762240554242 0 0.10713047215940109 -0.26619476604324988 0 0.11512388834378939 -0.246553201377151 0 0.13005229300132709 -0.25122354292990129 0 0.10713047215940109 -0.26619476604324988 0 0.11512388834378939 -0.246553201377151 0 0.13005229300132709 -0.25122354292990129 0 0.10713047215940109 -0.26619476604324988 0 0.1131294297275502 -0.27454762240554242 0 0.12613625232875009 -0.27173438427532631 0 0.13005229300132709 -0.25122354292990129 0 0.1131294297275502 -0.27454762240554242 0 0.117148235013234 -0.2801433451486951 0 0.1131294297275502 -0.27454762240554242 0 0.1062412762375357 -0.28404127822739489 0 0.1131294297275502 -0.27454762240554242 0 0.1062412762375357 -0.28404127822739489 0 0.117148235013234 -0.2801433451486951 0 0.1131294297275502 -0.27454762240554242 0 0.10713047215940109 -0.26619476604324988 0 0.1131294297275502 -0.27454762240554242 0 0.12613625232875009 -0.27173438427532631 0 0.117148235013234 -0.2801433451486951 0 0.12613625232875009 -0.27173438427532631 0 0.117148235013234 -0.2801433451486951 0 0.1131294297275502 -0.27454762240554242 0 0.12613625232875009 -0.27173438427532631 0 0.117148235013234 -0.2801433451486951 0 0.12112953848426369 -0.28568685094122609 0 0.117148235013234 -0.2801433451486951 0 0.12112953848426369 -0.28568685094122609 0 0.1142841559293097 -0.29174930375685199 0 0.117148235013234 -0.2801433451486951 0 0.12112953848426369 -0.28568685094122609 0 0.1260003292148639 -0.29420233910561949 0 0.12112953848426369 -0.28568685094122609 0 0.1142841559293097 -0.29174930375685199 0 0.117148235013234 -0.2801433451486951 0 0.10447627468685911 -0.29199890959998731 0 0.117148235013234 -0.2801433451486951 0 0.1142841559293097 -0.29174930375685199 0 0.10447627468685911 -0.29199890959998731 0 0.091804314360482503 -0.30385447405127741 0 0.099467393259944581 -0.28502462004726481 0 0.091804314360482503 -0.30385447405127741 0 0.10447627468685911 -0.29199890959998731 0 0.099467393259944581 -0.28502462004726481 0 0.117148235013234 -0.2801433451486951 0 0.1062412762375357 -0.28404127822739489 0 0.10447627468685911 -0.29199890959998731 0 0.1062412762375357 -0.28404127822739489 0 0.10447627468685911 -0.29199890959998731 0 0.099467393259944581 -0.28502462004726481 0 0.1142841559293097 -0.29174930375685199 0 0.10447627468685911 -0.29199890959998731 0 0.1026664022473278 -0.30671507398873188 0 0.1026664022473278 -0.30671507398873188 0 0.1156742532494127 -0.31241112792595338 0 0.098955579887399503 -0.31790112361323908 0 0.095942606939571282 -0.31019352716348952 0 0.1026664022473278 -0.30671507398873188 0 0.098955579887399503 -0.31790112361323908 0 0.091804314360482503 -0.30385447405127741 0 0.095942606939571282 -0.31019352716348952 0 0.1026664022473278 -0.30671507398873188 0 0.091804314360482503 -0.30385447405127741 0 0.10447627468685911 -0.29199890959998731 0 0.1026664022473278 -0.30671507398873188 0 0.091804314360482503 -0.30385447405127741 0 0.10447627468685911 -0.29199890959998731 0 0.1260003292148639 -0.29420233910561949 0 0.1026664022473278 -0.30671507398873188 0 0.1156742532494127 -0.31241112792595338 0 0.12657632499259641 -0.30856474660512928 0 0.1260003292148639 -0.29420233910561949 0 0.1156742532494127 -0.31241112792595338 0 0.1260003292148639 -0.29420233910561949 0 0.1142841559293097 -0.29174930375685199 0 0.1026664022473278 -0.30671507398873188 0 0.1260003292148639 -0.29420233910561949 0 0.1026664022473278 -0.30671507398873188 0 0.12742308611263159 -0.31933000501787018 0 0.1156742532494127 -0.31241112792595338 0 0.1125602147205583 -0.32641721419718589 0 0.1293484956327727 -0.33385066363202598 0 0.12742308611263159 -0.31933000501787018 0 0.1125602147205583 -0.32641721419718589 0 0.12742308611263159 -0.31933000501787018 0 0.12657632499259641 -0.30856474660512928 0 0.1156742532494127 -0.31241112792595338 0 0.13202821872263221 -0.3496637690889825 0 0.1293484956327727 -0.33385066363202598 0 0.1096494520728465 -0.34197352240329421 0 0.1293484956327727 -0.33385066363202598 0 0.1125602147205583 -0.32641721419718589 0 0.1096494520728465 -0.34197352240329421 0 0.1125602147205583 -0.32641721419718589 0 0.1096494520728465 -0.34197352240329421 0 0.093009899286987385 -0.33282268993260827 0 0.1096494520728465 -0.34197352240329421 0 0.084046178923334644 -0.35155321480054619 0 0.093009899286987385 -0.33282268993260827 0 0.1156742532494127 -0.31241112792595338 0 0.1125602147205583 -0.32641721419718589 0 0.098955579887399503 -0.31790112361323908 0 0.1125602147205583 -0.32641721419718589 0 0.098955579887399503 -0.31790112361323908 0 0.093009899286987385 -0.33282268993260827 0 0.088553881662708528 -0.3118414951888564 0 0.095942606939571282 -0.31019352716348952 0 0.098955579887399503 -0.31790112361323908 0 0.1246401987996983 -0.36671251290911161 0 0.10607221885500601 -0.3692911767213039 0 0.1174098863026264 -0.38365426356940752 0 0.1246401987996983 -0.36671251290911161 0 0.10607221885500601 -0.3692911767213039 0 0.1096494520728465 -0.34197352240329421 0 0.1246401987996983 -0.36671251290911161 0 0.13202821872263221 -0.3496637690889825 0 0.1096494520728465 -0.34197352240329421 0 0.1246401987996983 -0.36671251290911161 0 0.1096494520728465 -0.34197352240329421 0 0.1246401987996983 -0.36671251290911161 0 0.10607221885500601 -0.3692911767213039 0 0.1096494520728465 -0.34197352240329421 0 0.095330660243898385 -0.36008510976052338 0 0.10607221885500601 -0.3692911767213039 0 0.1096494520728465 -0.34197352240329421 0 0.095330660243898385 -0.36008510976052338 0 0.084046178923334644 -0.35155321480054619 0 0.10607221885500601 -0.3692911767213039 0 0.08750423891031367 -0.37186984053349531 0 0.095330660243898385 -0.36008510976052338 0 0.10607221885500601 -0.3692911767213039 0 0.08750423891031367 -0.37186984053349531 0 0.1026106432894232 -0.38288787082118692 0 0.10607221885500601 -0.3692911767213039 0 0.08750423891031367 -0.37186984053349531 0 0.095330660243898385 -0.36008510976052338 0 0.08750423891031367 -0.37186984053349531 0 0.084046178923334644 -0.35155321480054619 0 0.08750423891031367 -0.37186984053349531 0 0.084046178923334644 -0.35155321480054619 0 0.07076253173118327 -0.36921297652340501 0 0.084046178923334644 -0.35155321480054619 0 0.063674598140215879 -0.35240773930704311 0 0.07076253173118327 -0.36921297652340501 0 0.084046178923334644 -0.35155321480054619 0 0.063674598140215879 -0.35240773930704311 0 0.076916347543426744 -0.33547059708520899 0 0.086426546140733862 -0.32319573801989288 0 0.076916347543426744 -0.33547059708520899 0 0.075518666387279221 -0.31909091294506631 0 0.088553881662708528 -0.3118414951888564 0 0.086426546140733862 -0.32319573801989288 0 0.075518666387279221 -0.31909091294506631 0 0.088553881662708528 -0.3118414951888564 0 0.098955579887399503 -0.31790112361323908 0 0.086426546140733862 -0.32319573801989288 0 0.098955579887399503 -0.31790112361323908 0 0.086426546140733862 -0.32319573801989288 0 0.093009899286987385 -0.33282268993260827 0 0.084046178923334644 -0.35155321480054619 0 0.093009899286987385 -0.33282268993260827 0 0.076916347543426744 -0.33547059708520899 0 0.086426546140733862 -0.32319573801989288 0 0.093009899286987385 -0.33282268993260827 0 0.076916347543426744 -0.33547059708520899 0 0.076916347543426744 -0.33547059708520899 0 0.075518666387279221 -0.31909091294506631 0 0.059233018414075543 -0.33432735183885492 0 0.063674598140215879 -0.35240773930704311 0 0.076916347543426744 -0.33547059708520899 0 0.059233018414075543 -0.33432735183885492 0 0.075518666387279221 -0.31909091294506631 0 0.059233018414075543 -0.33432735183885492 0 0.075518666387279221 -0.31909091294506631 0 0.053668503175245297 -0.31706739459497152 0 0.059233018414075543 -0.33432735183885492 0 0.059233018414075543 -0.33432735183885492 0 0.042947370440870512 -0.34956379073264199 0 0.053668503175245297 -0.31706739459497152 0 0.059233018414075543 -0.33432735183885492 0 0.039877989291738157 -0.33963644587453401 0 0.059233018414075543 -0.33432735183885492 0 0.039877989291738157 -0.33963644587453401 0 0.042947370440870512 -0.34956379073264199 0 0.053668503175245297 -0.31706739459497152 0 0.039877989291738157 -0.33963644587453401 0 0.039877989291738157 -0.33963644587453401 0 0.03250771676111798 -0.35169836467561272 0 0.02629283104321567 -0.33961813058845358 0 0.039877989291738157 -0.33963644587453401 0 0.031476027719411652 -0.31246185726518988 0 0.039877989291738157 -0.33963644587453401 0 0.025500679703452409 -0.32848828656749313 0 0.031476027719411652 -0.31246185726518988 0 0.053668503175245297 -0.31706739459497152 0 0.039877989291738157 -0.33963644587453401 0 0.031476027719411652 -0.31246185726518988 0 0.063674598140215879 -0.35240773930704311 0 0.07076253173118327 -0.36921297652340501 0 0.049978528723357937 -0.37230476998244078 0 0.063674598140215879 -0.35240773930704311 0 0.049978528723357937 -0.37230476998244078 0 0.042947370440870512 -0.34956379073264199 0 0.063674598140215879 -0.35240773930704311 0 0.059233018414075543 -0.33432735183885492 0 0.042947370440870512 -0.34956379073264199 0 0.039877989291738157 -0.33963644587453401 0 0.042947370440870512 -0.34956379073264199 0 0.039877989291738157 -0.33963644587453401 0 0.042947370440870512 -0.34956379073264199 0 0.038543694400711002 -0.34968026516873407 0 0.039877989291738157 -0.33963644587453401 0 0.03250771676111798 -0.35169836467561272 0 0.039877989291738157 -0.33963644587453401 0 0.038543694400711002 -0.34968026516873407 0 0.03250771676111798 -0.35169836467561272 0 0.038543694400711002 -0.34968026516873407 0 0.038997770065580403 -0.35767644523769893 0 0.03250771676111798 -0.35169836467561272 0 0.038997770065580403 -0.35767644523769893 0 0.03250771676111798 -0.35169836467561272 0 0.02672401912778314 -0.35949567874660943 0 0.042947370440870512 -0.34956379073264199 0 0.038543694400711002 -0.34968026516873407 0 0.038997770065580403 -0.35767644523769893 0 0.049978528723357937 -0.37230476998244078 0 0.038997770065580403 -0.35767644523769893 0 0.033884394113918498 -0.36889075439040281 0 0.049978528723357937 -0.37230476998244078 0 0.042947370440870512 -0.34956379073264199 0 0.038997770065580403 -0.35767644523769893 0 0.035308307108285732 -0.38103540582968481 0 0.049978528723357937 -0.37230476998244078 0 0.033884394113918498 -0.36889075439040281 0 0.049978528723357937 -0.37230476998244078 0 0.042947370440870512 -0.34956379073264199 0 0.038997770065580403 -0.35767644523769893 0 0.033884394113918498 -0.36889075439040281 0 0.02672401912778314 -0.35949567874660943 0 0.020284017000177849 -0.37260898512918922 0 0.02672401912778314 -0.35949567874660943 0 0.012412288609108519 -0.35676677193473172 0 0.035308307108285732 -0.38103540582968481 0 0.033884394113918498 -0.36889075439040281 0 0.020284017000177849 -0.37260898512918922 0 0.033884394113918498 -0.36889075439040281 0 0.020284017000177849 -0.37260898512918922 0 0.02672401912778314 -0.35949567874660943 0 0.02672401912778314 -0.35949567874660943 0 0.021979373477986751 -0.3500516938512494 0 0.012412288609108519 -0.35676677193473172 0 0.03250771676111798 -0.35169836467561272 0 0.02672401912778314 -0.35949567874660943 0 0.021979373477986751 -0.3500516938512494 0 0.03250771676111798 -0.35169836467561272 0 0.021979373477986751 -0.3500516938512494 0 0.02629283104321567 -0.33961813058845358 0 0.021979373477986751 -0.3500516938512494 0 0.01376764727069261 -0.3447318445014253 0 0.02629283104321567 -0.33961813058845358 0 0.021979373477986751 -0.3500516938512494 0 0.01376764727069261 -0.3447318445014253 0 0.012412288609108519 -0.35676677193473172 0 -0.0045987494092564144 -0.34478868756049103 0 0.01376764727069261 -0.3447318445014253 0 0.012412288609108519 -0.35676677193473172 0 -0.0045987494092564144 -0.34478868756049103 0 0.012412288609108519 -0.35676677193473172 0 0.00027428580365272681 -0.36892463324439351 0 0.0047232380292418791 -0.38267049908728129 0 0.020284017000177849 -0.37260898512918922 0 0.00027428580365272681 -0.36892463324439351 0 0.020284017000177849 -0.37260898512918922 0 0.012412288609108519 -0.35676677193473172 0 0.00027428580365272681 -0.36892463324439351 0 0.017104057830486099 -0.31829106053708611 0 0.025500679703452409 -0.32848828656749313 0 0.031476027719411652 -0.31246185726518988 0 0.017104057830486099 -0.31829106053708611 0 0.025500679703452409 -0.32848828656749313 0 0.012752492632408531 -0.33243393857220072 0 0.039877989291738157 -0.33963644587453401 0 0.025500679703452409 -0.32848828656749313 0 0.02629283104321567 -0.33961813058845358 0 0.01376764727069261 -0.3447318445014253 0 0.02629283104321567 -0.33961813058845358 0 0.012752492632408531 -0.33243393857220072 0 0.025500679703452409 -0.32848828656749313 0 0.02629283104321567 -0.33961813058845358 0 0.012752492632408531 -0.33243393857220072 0 -0.0045987494092564144 -0.34478868756049103 0 0.012752492632408531 -0.33243393857220072 0 0.0025675676883719391 -0.31926859205911717 0 -0.0045987494092564144 -0.34478868756049103 0 0.01376764727069261 -0.3447318445014253 0 0.012752492632408531 -0.33243393857220072 0 0.017104057830486099 -0.31829106053708611 0 0.0025675676883719391 -0.31926859205911717 0 0.01276677257489205 -0.3027743638737781 0 0.017104057830486099 -0.31829106053708611 0 0.012752492632408531 -0.33243393857220072 0 0.0025675676883719391 -0.31926859205911717 0 -0.001504200419740815 -0.30232164797886207 0 0.0025675676883719391 -0.31926859205911717 0 0.01276677257489205 -0.3027743638737781 0 0.01276677257489205 -0.3027743638737781 0 0.0059911154865208227 -0.28204989981844369 0 0.023074066147088412 -0.28528726865584481 0 -0.001504200419740815 -0.30232164797886207 0 0.01276677257489205 -0.3027743638737781 0 0.0059911154865208227 -0.28204989981844369 0 0.017104057830486099 -0.31829106053708611 0 0.01276677257489205 -0.3027743638737781 0 0.031476027719411652 -0.31246185726518988 0 0.023074066147088412 -0.28528726865584481 0 0.031476027719411652 -0.31246185726518988 0 0.01276677257489205 -0.3027743638737781 0 0.023074066147088412 -0.28528726865584481 0 0.031476027719411652 -0.31246185726518988 0 0.053668503175245297 -0.31706739459497152 0 0.045707832246798273 -0.29788363735072249 0 0.031476027719411652 -0.31246185726518988 0 0.023074066147088412 -0.28528726865584481 0 0.045707832246798273 -0.29788363735072249 0 0.031476027719411652 -0.31246185726518988 0 0.023074066147088412 -0.28528726865584481 0 0.045707832246798273 -0.29788363735072249 0 0.050041201656543487 -0.27824359481733107 0 0.067459017058750473 -0.29449834331540781 0 0.045707832246798273 -0.29788363735072249 0 0.050041201656543487 -0.27824359481733107 0 0.067459017058750473 -0.29449834331540781 0 0.053668503175245297 -0.31706739459497152 0 0.067459017058750473 -0.29449834331540781 0 0.053668503175245297 -0.31706739459497152 0 0.045707832246798273 -0.29788363735072249 0 0.058408781237998489 -0.25787320876665182 0 0.034855404838715347 -0.26293443762362773 0 0.04796250665441415 -0.24802763492419491 0 0.067459017058750473 -0.29449834331540781 0 0.064203064287619266 -0.27050335197085401 0 0.050041201656543487 -0.27824359481733107 0 0.064203064287619266 -0.27050335197085401 0 0.058408781237998489 -0.25787320876665182 0 0.050041201656543487 -0.27824359481733107 0 0.058408781237998489 -0.25787320876665182 0 0.050041201656543487 -0.27824359481733107 0 0.034855404838715347 -0.26293443762362773 0 0.023074066147088412 -0.28528726865584481 0 0.050041201656543487 -0.27824359481733107 0 0.034855404838715347 -0.26293443762362773 0 0.034855404838715347 -0.26293443762362773 0 0.035669316300620667 -0.2458257488816129 0 0.04796250665441415 -0.24802763492419491 0 0.023034993083160711 -0.25799679172586298 0 0.0061916210880953622 -0.26674168381286367 0 0.01940998024775677 -0.24248740924656911 0 0.023034993083160711 -0.25799679172586298 0 0.018629440128716129 -0.27100201632732862 0 0.0061916210880953622 -0.26674168381286367 0 0.034855404838715347 -0.26293443762362773 0 0.023034993083160711 -0.25799679172586298 0 0.035669316300620667 -0.2458257488816129 0 0.034855404838715347 -0.26293443762362773 0 0.023034993083160711 -0.25799679172586298 0 0.018629440128716129 -0.27100201632732862 0 0.023074066147088412 -0.28528726865584481 0 0.034855404838715347 -0.26293443762362773 0 0.018629440128716129 -0.27100201632732862 0 0.0059911154865208227 -0.28204989981844369 0 0.023074066147088412 -0.28528726865584481 0 0.018629440128716129 -0.27100201632732862 0 -0.0066347101700803546 -0.26203402040461299 0 0.0059911154865208227 -0.28204989981844369 0 0.0061916210880953622 -0.26674168381286367 0 0.0059911154865208227 -0.28204989981844369 0 0.018629440128716129 -0.27100201632732862 0 0.0061916210880953622 -0.26674168381286367 0 0.0061916210880953622 -0.26674168381286367 0 0.002133627569713394 -0.25101287838952202 0 0.01940998024775677 -0.24248740924656911 0 0.0061916210880953622 -0.26674168381286367 0 0.01940998024775677 -0.24248740924656911 0 -0.0066347101700803546 -0.26203402040461299 0 0.0061916210880953622 -0.26674168381286367 0 0.002133627569713394 -0.25101287838952202 0 0.002133627569713394 -0.25101287838952202 0 0.0073731991179590119 -0.23535427265255429 0 0.01940998024775677 -0.24248740924656911 0 -0.0022667461226881808 -0.2386345135768688 0 0.002133627569713394 -0.25101287838952202 0 0.0073731991179590119 -0.23535427265255429 0 0.0073731991179590119 -0.23535427265255429 0 0.013060012023818389 -0.2198849321928423 0 0.01940998024775677 -0.24248740924656911 0 -0.0022667461226881808 -0.2386345135768688 0 0.0050669207359482294 -0.22727718129284749 0 0.002101217924703695 -0.21523500674912471 0 -0.0022667461226881808 -0.2386345135768688 0 0.0073731991179590119 -0.23535427265255429 0 0.0050669207359482294 -0.22727718129284749 0 0.0050669207359482294 -0.22727718129284749 0 0.013060012023818389 -0.2198849321928423 0 0.002101217924703695 -0.21523500674912471 0 0.0073731991179590119 -0.23535427265255429 0 0.0050669207359482294 -0.22727718129284749 0 0.013060012023818389 -0.2198849321928423 0 0.013060012023818389 -0.2198849321928423 0 0.01940998024775677 -0.24248740924656911 0 0.032628339407418223 -0.21823313468027461 0 0.01940998024775677 -0.24248740924656911 0 0.032628339407418223 -0.21823313468027461 0 0.01940998024775677 -0.24248740924656911 0 0.032628339407418223 -0.21823313468027461 0 0.036789039966710457 -0.23273215047884299 0 0.023034993083160711 -0.25799679172586298 0 0.01940998024775677 -0.24248740924656911 0 0.035669316300620667 -0.2458257488816129 0 0.01940998024775677 -0.24248740924656911 0 0.035669316300620667 -0.2458257488816129 0 0.036789039966710457 -0.23273215047884299 0 0.0064691819720955734 -0.19183549992138041 0 0.017605475082801341 -0.19798982188306871 0 0.0094024463718349778 -0.17975930851510871 0 -0.00092526836118996675 -0.2125336880427198 0 -0.0055145796366369423 -0.19578922249617739 0 0.0064691819720955734 -0.19183549992138041 0 0.0064691819720955734 -0.19183549992138041 0 0.002101217924703695 -0.21523500674912471 0 0.017605475082801341 -0.19798982188306871 0 0.013060012023818389 -0.2198849321928423 0 0.017605475082801341 -0.19798982188306871 0 0.0064691819720955734 -0.19183549992138041 0 0.002101217924703695 -0.21523500674912471 0 0.013060012023818389 -0.2198849321928423 0 0.002101217924703695 -0.21523500674912471 0 0.017605475082801341 -0.19798982188306871 0 -0.00092526836118996675 -0.2125336880427198 0 0.0064691819720955734 -0.19183549992138041 0 0.002101217924703695 -0.21523500674912471 0 0.013060012023818389 -0.2198849321928423 0 0.023923229605059208 -0.20920771638085081 0 0.032628339407418223 -0.21823313468027461 0 0.013060012023818389 -0.2198849321928423 0 0.023923229605059208 -0.20920771638085081 0 0.017605475082801341 -0.19798982188306871 0 0.023923229605059208 -0.20920771638085081 0 0.032399091906198878 -0.20072297676721759 0 0.032628339407418223 -0.21823313468027461 0 0.023923229605059208 -0.20920771638085081 0 0.017605475082801341 -0.19798982188306871 0 0.032399091906198878 -0.20072297676721759 0 0.017605475082801341 -0.19798982188306871 0 0.028454542930026059 -0.19238508500387019 0 0.032399091906198878 -0.20072297676721759 0 0.017605475082801341 -0.19798982188306871 0 0.028454542930026059 -0.19238508500387019 0 0.02640724258539098 -0.18619865639683339 0 0.028454542930026059 -0.19238508500387019 0 0.033484521289073713 -0.18571820827873201 0 0.02640724258539098 -0.18619865639683339 0 0.045846698567080763 -0.1939788601139808 0 0.034237667733614668 -0.19325181897471799 0 0.033484521289073713 -0.18571820827873201 0 0.028454542930026059 -0.19238508500387019 0 0.034237667733614668 -0.19325181897471799 0 0.033484521289073713 -0.18571820827873201 0 0.028454542930026059 -0.19238508500387019 0 0.034237667733614668 -0.19325181897471799 0 0.032399091906198878 -0.20072297676721759 0 0.045846698567080763 -0.1939788601139808 0 0.034237667733614668 -0.19325181897471799 0 0.032399091906198878 -0.20072297676721759 0 0.045846698567080763 -0.1939788601139808 0 0.032628339407418223 -0.21823313468027461 0 0.045846698567080763 -0.1939788601139808 0 0.032399091906198878 -0.20072297676721759 0 0.032628339407418223 -0.21823313468027461 0 0.045846698567080763 -0.1939788601139808 0 0.032628339407418223 -0.21823313468027461 0 0.046638123662870373 -0.21162491409467279 0 0.032628339407418223 -0.21823313468027461 0 0.046638123662870373 -0.21162491409467279 0 0.046929351100318262 -0.2228791182394029 0 0.045846698567080763 -0.1939788601139808 0 0.046638123662870373 -0.21162491409467279 0 0.059106596896178851 -0.21330019237422049 0 0.045846698567080763 -0.1939788601139808 0 0.059106596896178851 -0.21330019237422049 0 0.046638123662870373 -0.21162491409467279 0 0.059106596896178851 -0.21330019237422049 0 0.046929351100318262 -0.2228791182394029 0 0.060868223013258803 -0.2017799210099025 0 0.043782312107005478 -0.1779897611367143 0 0.060868223013258803 -0.2017799210099025 0 0.047945134552119233 -0.1901284546342846 0 0.043782312107005478 -0.1779897611367143 0 0.045846698567080763 -0.1939788601139808 0 0.059106596896178851 -0.21330019237422049 0 0.060868223013258803 -0.2017799210099025 0 0.045846698567080763 -0.1939788601139808 0 0.060868223013258803 -0.2017799210099025 0 0.047945134552119233 -0.1901284546342846 0 0.045846698567080763 -0.1939788601139808 0 0.047945134552119233 -0.1901284546342846 0 0.035669316300620667 -0.2458257488816129 0 0.036789039966710457 -0.23273215047884299 0 0.049308212777438361 -0.2342353413463554 0 0.035669316300620667 -0.2458257488816129 0 0.049308212777438361 -0.2342353413463554 0 0.04796250665441415 -0.24802763492419491 0 0.032628339407418223 -0.21823313468027461 0 0.036789039966710457 -0.23273215047884299 0 0.046929351100318262 -0.2228791182394029 0 0.036789039966710457 -0.23273215047884299 0 0.049308212777438361 -0.2342353413463554 0 0.046929351100318262 -0.2228791182394029 0 0.049308212777438361 -0.2342353413463554 0 0.046929351100318262 -0.2228791182394029 0 0.058264596559399029 -0.22808279311359569 0 0.059106596896178851 -0.21330019237422049 0 0.046929351100318262 -0.2228791182394029 0 0.058264596559399029 -0.22808279311359569 0 0.049308212777438361 -0.2342353413463554 0 0.058264596559399029 -0.22808279311359569 0 0.0615708181172979 -0.23926943800272679 0 0.058408781237998489 -0.25787320876665182 0 0.0615708181172979 -0.23926943800272679 0 0.04796250665441415 -0.24802763492419491 0 0.049308212777438361 -0.2342353413463554 0 0.0615708181172979 -0.23926943800272679 0 0.04796250665441415 -0.24802763492419491 0 0.085626393554373917 -0.25194285689470058 0 0.070671848883312932 -0.24837599116058481 0 0.07236649522527637 -0.23262152463446059 0 0.058408781237998489 -0.25787320876665182 0 0.0615708181172979 -0.23926943800272679 0 0.070671848883312932 -0.24837599116058481 0 0.0615708181172979 -0.23926943800272679 0 0.070671848883312932 -0.24837599116058481 0 0.07236649522527637 -0.23262152463446059 0 0.077954133919512128 -0.22557008088309069 0 0.095040044825762116 -0.2493602407562813 0 0.085626393554373917 -0.25194285689470058 0 0.07236649522527637 -0.23262152463446059 0 0.085626393554373917 -0.25194285689470058 0 0.077954133919512128 -0.22557008088309069 0 0.07236649522527637 -0.23262152463446059 0 0.085626393554373917 -0.25194285689470058 0 0.077954133919512128 -0.22557008088309069 0 0.095040044825762116 -0.2493602407562813 0 0.089959329549413908 -0.2255387413312793 0 0.077954133919512128 -0.22557008088309069 0 0.095040044825762116 -0.2493602407562813 0 0.089959329549413908 -0.2255387413312793 0 0.077954133919512128 -0.22557008088309069 0 0.084039517528495519 -0.20850189026294261 0 0.059106596896178851 -0.21330019237422049 0 0.07236649522527637 -0.23262152463446059 0 0.059106596896178851 -0.21330019237422049 0 0.077954133919512128 -0.22557008088309069 0 0.07236649522527637 -0.23262152463446059 0 0.059106596896178851 -0.21330019237422049 0 0.058264596559399029 -0.22808279311359569 0 0.07236649522527637 -0.23262152463446059 0 0.058264596559399029 -0.22808279311359569 0 0.0615708181172979 -0.23926943800272679 0 0.07236649522527637 -0.23262152463446059 0 0.060868223013258803 -0.2017799210099025 0 0.077954133919512128 -0.22557008088309069 0 0.060868223013258803 -0.2017799210099025 0 0.077954133919512128 -0.22557008088309069 0 0.084039517528495519 -0.20850189026294261 0 0.059106596896178851 -0.21330019237422049 0 0.060868223013258803 -0.2017799210099025 0 0.077954133919512128 -0.22557008088309069 0 0.060868223013258803 -0.2017799210099025 0 0.082952312226001051 -0.18845896889207561 0 0.084039517528495519 -0.20850189026294261 0 0.082952312226001051 -0.18845896889207561 0 0.084039517528495519 -0.20850189026294261 0 0.095061160385587415 -0.19622146395799081 0 0.082952312226001051 -0.18845896889207561 0 0.095061160385587415 -0.19622146395799081 0 0.099077849461169654 -0.18396262519040821 0 0.084039517528495519 -0.20850189026294261 0 0.099940918159592843 -0.2127753408217973 0 0.095061160385587415 -0.19622146395799081 0 0.089959329549413908 -0.2255387413312793 0 0.084039517528495519 -0.20850189026294261 0 0.099940918159592843 -0.2127753408217973 0 0.095061160385587415 -0.19622146395799081 0 0.1115391097194177 -0.1911703091887107 0 0.099077849461169654 -0.18396262519040821 0 0.099940918159592843 -0.2127753408217973 0 0.095061160385587415 -0.19622146395799081 0 0.1115391097194177 -0.1911703091887107 0 0.1115391097194177 -0.1911703091887107 0 0.1204911152159769 -0.20770794863657771 0 0.13187092091143501 -0.1890841743188228 0 0.099940918159592843 -0.2127753408217973 0 0.1115391097194177 -0.1911703091887107 0 0.1204911152159769 -0.20770794863657771 0 0.1204911152159769 -0.20770794863657771 0 0.1091113095205183 -0.22633172295433229 0 0.099940918159592843 -0.2127753408217973 0 0.1204911152159769 -0.20770794863657771 0 0.1091113095205183 -0.22633172295433229 0 0.1204911152159769 -0.20770794863657771 0 0.1091113095205183 -0.22633172295433229 0 0.12509200087224359 -0.21676833170735779 0 0.12311730452817291 -0.22691163671105011 0 0.11512388834378939 -0.246553201377151 0 0.1091113095205183 -0.22633172295433229 0 0.12311730452817291 -0.22691163671105011 0 0.1091113095205183 -0.22633172295433229 0 0.12509200087224359 -0.21676833170735779 0 0.12311730452817291 -0.22691163671105011 0 0.1091113095205183 -0.22633172295433229 0 0.13005229300132709 -0.25122354292990129 0 0.12311730452817291 -0.22691163671105011 0 0.11512388834378939 -0.246553201377151 0 0.12311730452817291 -0.22691163671105011 0 0.11512388834378939 -0.246553201377151 0 0.095040044825762116 -0.2493602407562813 0 0.1091113095205183 -0.22633172295433229 0 0.11512388834378939 -0.246553201377151 0 0.095040044825762116 -0.2493602407562813 0 0.1091113095205183 -0.22633172295433229 0 0.089959329549413908 -0.2255387413312793 0 0.1091113095205183 -0.22633172295433229 0 0.089959329549413908 -0.2255387413312793 0 0.095040044825762116 -0.2493602407562813 0 0.1091113095205183 -0.22633172295433229 0 0.089959329549413908 -0.2255387413312793 0 0.099940918159592843 -0.2127753408217973 0 0.1091113095205183 -0.22633172295433229 0 0.095073234391618147 -0.14933294019911381 0 0.1060052855721535 -0.13897027767558109 0 0.1143050861408222 -0.15568642978264419 0 0.095073234391618147 -0.14933294019911381 0 0.1060052855721535 -0.13897027767558109 0 0.090638918558566303 -0.1346801766442367 0 0.1060052855721535 -0.13897027767558109 0 0.11446569296354379 -0.12653022323923321 0 0.1020695004072603 -0.1169681559265718 0 0.1060052855721535 -0.13897027767558109 0 0.090638918558566303 -0.1346801766442367 0 0.1020695004072603 -0.1169681559265718 0 0.11446569296354379 -0.12653022323923321 0 0.12323912243264699 -0.1145505871361681 0 0.12617980878852969 -0.1365240843804808 0 0.1060052855721535 -0.13897027767558109 0 0.11446569296354379 -0.12653022323923321 0 0.12617980878852969 -0.1365240843804808 0 0.1143050861408222 -0.15568642978264419 0 0.13412479340576849 -0.1555472456916952 0 0.12617980878852969 -0.1365240843804808 0 0.1060052855721535 -0.13897027767558109 0 0.1143050861408222 -0.15568642978264419 0 0.12617980878852969 -0.1365240843804808 0 0.1143050861408222 -0.15568642978264419 0 0.114096228229441 -0.17441940739503159 0 0.12847455560672219 -0.168849375265443 0 0.114096228229441 -0.17441940739503159 0 0.13187092091143501 -0.1890841743188228 0 0.12847455560672219 -0.168849375265443 0 0.1115391097194177 -0.1911703091887107 0 0.114096228229441 -0.17441940739503159 0 0.13187092091143501 -0.1890841743188228 0 0.114096228229441 -0.17441940739503159 0 0.099077849461169654 -0.18396262519040821 0 0.091740436745401041 -0.16954297651823211 0 0.1115391097194177 -0.1911703091887107 0 0.114096228229441 -0.17441940739503159 0 0.099077849461169654 -0.18396262519040821 0 0.095073234391618147 -0.14933294019911381 0 0.1143050861408222 -0.15568642978264419 0 0.091740436745401041 -0.16954297651823211 0 0.1143050861408222 -0.15568642978264419 0 0.114096228229441 -0.17441940739503159 0 0.091740436745401041 -0.16954297651823211 0 0.082952312226001051 -0.18845896889207561 0 0.091740436745401041 -0.16954297651823211 0 0.067379640259629003 -0.17159900508302031 0 0.082952312226001051 -0.18845896889207561 0 0.099077849461169654 -0.18396262519040821 0 0.091740436745401041 -0.16954297651823211 0 0.060868223013258803 -0.2017799210099025 0 0.082952312226001051 -0.18845896889207561 0 0.067379640259629003 -0.17159900508302031 0 0.091740436745401041 -0.16954297651823211 0 0.067379640259629003 -0.17159900508302031 0 0.074021661194530242 -0.1480711658966275 0 0.067379640259629003 -0.17159900508302031 0 0.074021661194530242 -0.1480711658966275 0 0.051889264874002521 -0.15825284206404391 0 0.095073234391618147 -0.14933294019911381 0 0.091740436745401041 -0.16954297651823211 0 0.074021661194530242 -0.1480711658966275 0 0.095073234391618147 -0.14933294019911381 0 0.074021661194530242 -0.1480711658966275 0 0.090638918558566303 -0.1346801766442367 0 0.074021661194530242 -0.1480711658966275 0 0.090638918558566303 -0.1346801766442367 0 0.078715343734034438 -0.12063099456679539 0 0.074021661194530242 -0.1480711658966275 0 0.062283180342959259 -0.12859484082852179 0 0.078715343734034438 -0.12063099456679539 0 0.074021661194530242 -0.1480711658966275 0 0.047566309608080629 -0.13940467694033579 0 0.062283180342959259 -0.12859484082852179 0 0.047566309608080629 -0.13940467694033579 0 0.052335653880579959 -0.1132819195438137 0 0.047566309608080629 -0.13940467694033579 0 0.062283180342959259 -0.12859484082852179 0 0.052335653880579959 -0.1132819195438137 0 0.074021661194530242 -0.1480711658966275 0 0.047566309608080629 -0.13940467694033579 0 0.051889264874002521 -0.15825284206404391 0 0.047566309608080629 -0.13940467694033579 0 0.051889264874002521 -0.15825284206404391 0 0.026696401200760479 -0.1541996012635202 0 0.047566309608080629 -0.13940467694033579 0 0.032255493454128883 -0.12742192503336991 0 0.052335653880579959 -0.1132819195438137 0 0.047566309608080629 -0.13940467694033579 0 0.032255493454128883 -0.12742192503336991 0 0.026696401200760479 -0.1541996012635202 0 0.060868223013258803 -0.2017799210099025 0 0.067379640259629003 -0.17159900508302031 0 0.043782312107005478 -0.1779897611367143 0 0.067379640259629003 -0.17159900508302031 0 0.051889264874002521 -0.15825284206404391 0 0.043782312107005478 -0.1779897611367143 0 0.051889264874002521 -0.15825284206404391 0 0.043782312107005478 -0.1779897611367143 0 0.026696401200760479 -0.1541996012635202 0 0.043782312107005478 -0.1779897611367143 0 0.03022242041013893 -0.1712123303786624 0 0.026696401200760479 -0.1541996012635202 0 0.043782312107005478 -0.1779897611367143 0 0.026696401200760479 -0.1541996012635202 0 0.045846698567080763 -0.1939788601139808 0 0.033484521289073713 -0.18571820827873201 0 0.03022242041013893 -0.1712123303786624 0 0.045846698567080763 -0.1939788601139808 0 0.043782312107005478 -0.1779897611367143 0 0.03022242041013893 -0.1712123303786624 0 0.045846698567080763 -0.1939788601139808 0 0.03022242041013893 -0.1712123303786624 0 0.045846698567080763 -0.1939788601139808 0 0.047945134552119233 -0.1901284546342846 0 0.043782312107005478 -0.1779897611367143 0 0.017605475082801341 -0.19798982188306871 0 0.022150938141784302 -0.17609471157329509 0 0.0094024463718349778 -0.17975930851510871 0 0.017605475082801341 -0.19798982188306871 0 0.02640724258539098 -0.18619865639683339 0 0.022150938141784302 -0.17609471157329509 0 0.017605475082801341 -0.19798982188306871 0 0.022150938141784302 -0.17609471157329509 0 0.02640724258539098 -0.18619865639683339 0 0.02806628060659698 -0.17980597665688081 0 0.022150938141784302 -0.17609471157329509 0 0.033484521289073713 -0.18571820827873201 0 0.02640724258539098 -0.18619865639683339 0 0.02806628060659698 -0.17980597665688081 0 0.02806628060659698 -0.17980597665688081 0 0.022150938141784302 -0.17609471157329509 0 0.03022242041013893 -0.1712123303786624 0 0.033484521289073713 -0.18571820827873201 0 0.02806628060659698 -0.17980597665688081 0 0.03022242041013893 -0.1712123303786624 0 0.022150938141784302 -0.17609471157329509 0 0.01422886217454594 -0.16303069661463451 0 0.026696401200760479 -0.1541996012635202 0 0.022150938141784302 -0.17609471157329509 0 0.03022242041013893 -0.1712123303786624 0 0.026696401200760479 -0.1541996012635202 0 0.01422886217454594 -0.16303069661463451 0 0.026696401200760479 -0.1541996012635202 0 0.01087676573748202 -0.1519036108884888 0 0.022150938141784302 -0.17609471157329509 0 0.026696401200760479 -0.1541996012635202 0 0.01422886217454594 -0.16303069661463451 0 0.00095454359378272782 -0.16685631586716351 0 0.0094024463718349778 -0.17975930851510871 0 0.01422886217454594 -0.16303069661463451 0 0.00095454359378272782 -0.16685631586716351 0 0.01087676573748202 -0.1519036108884888 0 0.022150938141784302 -0.17609471157329509 0 0.01422886217454594 -0.16303069661463451 0 0.0094024463718349778 -0.17975930851510871 0 -0.0049943227340000142 -0.18274880523110981 0 0.00095454359378272782 -0.16685631586716351 0 0.0094024463718349778 -0.17975930851510871 0 -0.0049943227340000142 -0.18274880523110981 0 0.0064691819720955734 -0.19183549992138041 0 0.0094024463718349778 -0.17975930851510871 0 0.032255493454128883 -0.12742192503336991 0 0.017426882726650949 -0.12754810726732221 0 0.01863590950298399 -0.14297629644831561 0 0.032255493454128883 -0.12742192503336991 0 0.026696401200760479 -0.1541996012635202 0 0.01863590950298399 -0.14297629644831561 0 0.032255493454128883 -0.12742192503336991 0 0.026696401200760479 -0.1541996012635202 0 0.026696401200760479 -0.1541996012635202 0 0.01863590950298399 -0.14297629644831561 0 0.01087676573748202 -0.1519036108884888 0 0.026696401200760479 -0.1541996012635202 0 0.01863590950298399 -0.14297629644831561 0 -0.00113225379654322 -0.14908059611682761 0 0.00095454359378272782 -0.16685631586716351 0 0.01087676573748202 -0.1519036108884888 0 -0.00113225379654322 -0.14908059611682761 0 0.01087676573748202 -0.1519036108884888 0 0.005877131749355417 -0.13527815902046991 0 0.01863590950298399 -0.14297629644831561 0 0.01087676573748202 -0.1519036108884888 0 0.005877131749355417 -0.13527815902046991 0 -0.01044844011035528 -0.12823112002220899 0 0.005877131749355417 -0.13527815902046991 0 0.006624818464014165 -0.1187193322005841 0 0.017426882726650949 -0.12754810726732221 0 0.005877131749355417 -0.13527815902046991 0 0.006624818464014165 -0.1187193322005841 0 0.017426882726650949 -0.12754810726732221 0 0.01863590950298399 -0.14297629644831561 0 0.005877131749355417 -0.13527815902046991 0 0.006624818464014165 -0.1187193322005841 0 0.022013634757918329 -0.1146380778975024 0 0.015946393437307121 -0.098856776183017955 0 0.017426882726650949 -0.12754810726732221 0 0.006624818464014165 -0.1187193322005841 0 0.022013634757918329 -0.1146380778975024 0 0.032255493454128883 -0.12742192503336991 0 0.022013634757918329 -0.1146380778975024 0 0.037814585707490543 -0.100644248803218 0 0.032255493454128883 -0.12742192503336991 0 0.017426882726650949 -0.12754810726732221 0 0.022013634757918329 -0.1146380778975024 0 0.022013634757918329 -0.1146380778975024 0 0.015946393437307121 -0.098856776183017955 0 0.037814585707490543 -0.100644248803218 0 -0.015169606627087721 -0.1026672402057538 0 0.006624818464014165 -0.1187193322005841 0 0.015946393437307121 -0.098856776183017955 0 -0.015169606627087721 -0.1026672402057538 0 0.015946393437307121 -0.098856776183017955 0 0.0003806329818320936 -0.083393270986056811 0 0.015946393437307121 -0.098856776183017955 0 0.0003806329818320936 -0.083393270986056811 0 0.02474679145735097 -0.080924374377615127 0 0.0003806329818320936 -0.083393270986056811 0 0.015930872590751891 -0.06411930176635984 0 0.02474679145735097 -0.080924374377615127 0 0.0003806329818320936 -0.083393270986056811 0 0.015930872590751891 -0.06411930176635984 0 -0.0020527242365353088 -0.057067134515462047 0 0.0003806329818320936 -0.083393270986056811 0 0.015930872590751891 -0.06411930176635984 0 0.015930872590751891 -0.06411930176635984 0 0.02474679145735097 -0.080924374377615127 0 0.032333812774862809 -0.06144324319499353 0 0.015946393437307121 -0.098856776183017955 0 0.02474679145735097 -0.080924374377615127 0 0.037814585707490543 -0.100644248803218 0 0.043373677960852189 -0.073866572573066197 0 0.037814585707490543 -0.100644248803218 0 0.02474679145735097 -0.080924374377615127 0 0.043373677960852189 -0.073866572573066197 0 0.037814585707490543 -0.100644248803218 0 0.043373677960852189 -0.073866572573066197 0 0.057104998153079289 -0.087159162147291525 0 0.037814585707490543 -0.100644248803218 0 0.02474679145735097 -0.080924374377615127 0 0.043373677960852189 -0.073866572573066197 0 0.032333812774862809 -0.06144324319499353 0 0.057104998153079289 -0.087159162147291525 0 0.061874342425578627 -0.06103640475076931 0 0.043373677960852189 -0.073866572573066197 0 0.057104998153079289 -0.087159162147291525 0 0.061874342425578627 -0.06103640475076931 0 0.057104998153079289 -0.087159162147291525 0 0.052335653880579959 -0.1132819195438137 0 0.057104998153079289 -0.087159162147291525 0 0.052335653880579959 -0.1132819195438137 0 0.06943927927713385 -0.1029078435052084 0 0.057104998153079289 -0.087159162147291525 0 0.052335653880579959 -0.1132819195438137 0 0.037814585707490543 -0.100644248803218 0 0.062283180342959259 -0.12859484082852179 0 0.052335653880579959 -0.1132819195438137 0 0.06943927927713385 -0.1029078435052084 0 0.032255493454128883 -0.12742192503336991 0 0.052335653880579959 -0.1132819195438137 0 0.037814585707490543 -0.100644248803218 0 0.032255493454128883 -0.12742192503336991 0 0.037814585707490543 -0.100644248803218 0 0.02076612650089784 0.0082996566370284637 0 0.022081846222858189 -0.0091816557446990875 0 0.037869521298495842 -0.0024130821824058812 0 0.022081846222858189 -0.0091816557446990875 0 0.0029913831872387482 -0.0052912084592871226 0 0.0088030871894733444 -0.023666954911981241 0 0.02076612650089784 0.0082996566370284637 0 0.022081846222858189 -0.0091816557446990875 0 0.0029913831872387482 -0.0052912084592871226 0 0.0088030871894733444 -0.023666954911981241 0 0.023938625388478789 -0.02370758139699539 0 0.01634056554470284 -0.037751989486596693 0 0.023938625388478789 -0.02370758139699539 0 0.01634056554470284 -0.037751989486596693 0 0.032024893082784597 -0.030240136945433631 0 0.022081846222858189 -0.0091816557446990875 0 0.0088030871894733444 -0.023666954911981241 0 0.023938625388478789 -0.02370758139699539 0 0.022081846222858189 -0.0091816557446990875 0 0.023938625388478789 -0.02370758139699539 0 0.035361702361924437 -0.01769697587610107 0 0.023938625388478789 -0.02370758139699539 0 0.032024893082784597 -0.030240136945433631 0 0.035361702361924437 -0.01769697587610107 0 0.01634056554470284 -0.037751989486596693 0 0.031481112199671757 -0.044845332546662758 0 0.032024893082784597 -0.030240136945433631 0 -0.0052093122701638937 -0.036875927911865523 0 -0.0020527242365353088 -0.057067134515462047 0 0.01634056554470284 -0.037751989486596693 0 -0.0052093122701638937 -0.036875927911865523 0 0.0088030871894733444 -0.023666954911981241 0 0.01634056554470284 -0.037751989486596693 0 -0.0020527242365353088 -0.057067134515462047 0 0.015930872590751891 -0.06411930176635984 0 0.01634056554470284 -0.037751989486596693 0 0.015930872590751891 -0.06411930176635984 0 0.032333812774862809 -0.06144324319499353 0 0.031481112199671757 -0.044845332546662758 0 0.015930872590751891 -0.06411930176635984 0 0.01634056554470284 -0.037751989486596693 0 0.031481112199671757 -0.044845332546662758 0 0.015930872590751891 -0.06411930176635984 0 0.031481112199671757 -0.044845332546662758 0 0.043373677960852189 -0.073866572573066197 0 0.032333812774862809 -0.06144324319499353 0 0.048932770214213828 -0.047088896342914487 0 0.043373677960852189 -0.073866572573066197 0 0.048932770214213828 -0.047088896342914487 0 0.032333812774862809 -0.06144324319499353 0 0.048932770214213828 -0.047088896342914487 0 0.031481112199671757 -0.044845332546662758 0 0.048932770214213828 -0.047088896342914487 0 0.061874342425578627 -0.06103640475076931 0 0.066643686698077978 -0.034913647354247089 0 0.043373677960852189 -0.073866572573066197 0 0.048932770214213828 -0.047088896342914487 0 0.061874342425578627 -0.06103640475076931 0 0.048932770214213828 -0.047088896342914487 0 0.054491862467575453 -0.02031122011276279 0 0.066643686698077978 -0.034913647354247089 0 0.048932770214213828 -0.047088896342914487 0 0.054491862467575453 -0.02031122011276279 0 0.031481112199671757 -0.044845332546662758 0 0.047031351808591693 -0.025571363326965611 0 0.031481112199671757 -0.044845332546662758 0 0.032024893082784597 -0.030240136945433631 0 0.047031351808591693 -0.025571363326965611 0 0.048932770214213828 -0.047088896342914487 0 0.031481112199671757 -0.044845332546662758 0 0.047031351808591693 -0.025571363326965611 0 0.032024893082784597 -0.030240136945433631 0 0.035361702361924437 -0.01769697587610107 0 0.047031351808591693 -0.025571363326965611 0 0.035361702361924437 -0.01769697587610107 0 0.047031351808591693 -0.025571363326965611 0 0.046961078531504899 -0.01190523707616931 0 0.048932770214213828 -0.047088896342914487 0 0.047031351808591693 -0.025571363326965611 0 0.054491862467575453 -0.02031122011276279 0 0.047031351808591693 -0.025571363326965611 0 0.054491862467575453 -0.02031122011276279 0 0.046961078531504899 -0.01190523707616931 0 0.060050954720937057 0.0064664561173888302 0 0.054491862467575453 -0.02031122011276279 0 0.046961078531504899 -0.01190523707616931 0 0.060050954720937057 0.0064664561173888302 0 0.046961078531504899 -0.01190523707616931 0 0.037869521298495842 -0.0024130821824058812 0 0.060050954720937057 0.0064664561173888302 0 0.054491862467575453 -0.02031122011276279 0 0.071413030970577329 -0.0087908899577248817 0 0.060050954720937057 0.0064664561173888302 0 0.054491862467575453 -0.02031122011276279 0 0.022081846222858189 -0.0091816557446990875 0 0.035361702361924437 -0.01769697587610107 0 0.037869521298495842 -0.0024130821824058812 0 0.035361702361924437 -0.01769697587610107 0 0.046961078531504899 -0.01190523707616931 0 0.037869521298495842 -0.0024130821824058812 0 0.092067821462080798 -0.00033441177277885892 0 0.084743786285809045 -0.0078475959578721503 0 0.073970768157536865 -0.00054468278966517819 0 0.092067821462080798 -0.00033441177277885892 0 0.084743786285809045 -0.0078475959578721503 0 0.096956349234887648 -0.011071094986956799 0 0.084743786285809045 -0.0078475959578721503 0 0.088205371169196495 -0.016459414080351009 0 0.096956349234887648 -0.011071094986956799 0 0.084743786285809045 -0.0078475959578721503 0 0.078648683751121939 -0.016593149660378361 0 0.088205371169196495 -0.016459414080351009 0 0.084743786285809045 -0.0078475959578721503 0 0.077194067291261284 -0.0084440795914101415 0 0.078648683751121939 -0.016593149660378361 0 0.084743786285809045 -0.0078475959578721503 0 0.073970768157536865 -0.00054468278966517819 0 0.077194067291261284 -0.0084440795914101415 0 0.073970768157536865 -0.00054468278966517819 0 0.071413030970577329 -0.0087908899577248817 0 0.077194067291261284 -0.0084440795914101415 0 0.071413030970577329 -0.0087908899577248817 0 0.077194067291261284 -0.0084440795914101415 0 0.078648683751121939 -0.016593149660378361 0 0.083242060441408208 -0.0257850282390601 0 0.078648683751121939 -0.016593149660378361 0 0.066643686698077978 -0.034913647354247089 0 0.054491862467575453 -0.02031122011276279 0 0.071413030970577329 -0.0087908899577248817 0 0.066643686698077978 -0.034913647354247089 0 0.071413030970577329 -0.0087908899577248817 0 0.078648683751121939 -0.016593149660378361 0 0.066643686698077978 -0.034913647354247089 0 0.071413030970577329 -0.0087908899577248817 0 0.066643686698077978 -0.034913647354247089 0 0.083242060441408208 -0.0257850282390601 0 0.078648683751121939 -0.016593149660378361 0 0.088205371169196495 -0.016459414080351009 0 0.083242060441408208 -0.0257850282390601 0 0.088205371169196495 -0.016459414080351009 0 0.097312774271146651 -0.02308126200656048 0 0.083242060441408208 -0.0257850282390601 0 0.092432977404088151 -0.036775260532468483 0 0.097312774271146651 -0.02308126200656048 0 0.092432977404088151 -0.036775260532468483 0 0.06641317012595005 -0.050593670309986787 0 0.092432977404088151 -0.036775260532468483 0 0.077182973667381097 -0.037016901608940611 0 0.06641317012595005 -0.050593670309986787 0 0.092432977404088151 -0.036775260532468483 0 0.06641317012595005 -0.050593670309986787 0 0.081321763522679086 -0.05254311091511106 0 0.083242060441408208 -0.0257850282390601 0 0.092432977404088151 -0.036775260532468483 0 0.077182973667381097 -0.037016901608940611 0 0.083242060441408208 -0.0257850282390601 0 0.077182973667381097 -0.037016901608940611 0 0.066643686698077978 -0.034913647354247089 0 0.077182973667381097 -0.037016901608940611 0 0.066643686698077978 -0.034913647354247089 0 0.06641317012595005 -0.050593670309986787 0 0.06641317012595005 -0.050593670309986787 0 0.072074136114402804 -0.059502121025220053 0 0.081321763522679086 -0.05254311091511106 0 0.061874342425578627 -0.06103640475076931 0 0.066643686698077978 -0.034913647354247089 0 0.061874342425578627 -0.06103640475076931 0 0.066643686698077978 -0.034913647354247089 0 0.06641317012595005 -0.050593670309986787 0 0.061874342425578627 -0.06103640475076931 0 0.06641317012595005 -0.050593670309986787 0 0.072074136114402804 -0.059502121025220053 0 0.072074136114402804 -0.059502121025220053 0 0.082972967386599566 -0.062095893725314211 0 0.081321763522679086 -0.05254311091511106 0 0.092432977404088151 -0.036775260532468483 0 0.081321763522679086 -0.05254311091511106 0 0.09271556658235483 -0.053748608982565747 0 0.082972967386599566 -0.062095893725314211 0 0.081321763522679086 -0.05254311091511106 0 0.09271556658235483 -0.053748608982565747 0 0.1085184244451773 -0.047375386707910618 0 0.098584064208129651 -0.071793922660872214 0 0.09271556658235483 -0.053748608982565747 0 0.1085184244451773 -0.047375386707910618 0 0.098584064208129651 -0.071793922660872214 0 0.1085184244451773 -0.047375386707910618 0 0.1218369245002557 -0.069250945312485962 0 0.1284886927996042 -0.053771474094935739 0 0.1085184244451773 -0.047375386707910618 0 0.1184527846822258 -0.022956850754949479 0 0.1085184244451773 -0.047375386707910618 0 0.12459973637144631 -0.039337064749058577 0 0.1284886927996042 -0.053771474094935739 0 0.1085184244451773 -0.047375386707910618 0 0.12459973637144631 -0.039337064749058577 0 0.1184527846822258 -0.022956850754949479 0 0.092432977404088151 -0.036775260532468483 0 0.09271556658235483 -0.053748608982565747 0 0.1085184244451773 -0.047375386707910618 0 0.092432977404088151 -0.036775260532468483 0 0.1085184244451773 -0.047375386707910618 0 0.1184527846822258 -0.022956850754949479 0 0.092432977404088151 -0.036775260532468483 0 0.1184527846822258 -0.022956850754949479 0 0.097312774271146651 -0.02308126200656048 0 0.10633316738938289 -0.01620532765575914 0 0.1184527846822258 -0.022956850754949479 0 0.092432977404088151 -0.036775260532468483 0 0.097312774271146651 -0.02308126200656048 0 0.1184527846822258 -0.022956850754949479 0 0.097312774271146651 -0.02308126200656048 0 0.10633316738938289 -0.01620532765575914 0 0.096956349234887648 -0.011071094986956799 0 0.088205371169196495 -0.016459414080351009 0 0.097312774271146651 -0.02308126200656048 0 0.096956349234887648 -0.011071094986956799 0 0.12459973637144631 -0.039337064749058577 0 0.1184527846822258 -0.022956850754949479 0 0.13187053208142241 -0.030011510859192091 0 0.10633316738938289 -0.01620532765575914 0 0.1184527846822258 -0.022956850754949479 0 0.1129183536867734 -0.0060336046019931373 0 0.12869539122038509 0.002219350835908105 0 0.1184527846822258 -0.022956850754949479 0 0.1129183536867734 -0.0060336046019931373 0 0.12869539122038509 0.002219350835908105 0 0.1184527846822258 -0.022956850754949479 0 0.1037614036936796 0.0018051551888032739 0 0.1129183536867734 -0.0060336046019931373 0 0.096956349234887648 -0.011071094986956799 0 0.10633316738938289 -0.01620532765575914 0 0.1129183536867734 -0.0060336046019931373 0 0.096956349234887648 -0.011071094986956799 0 0.1037614036936796 0.0018051551888032739 0 0.092067821462080798 -0.00033441177277885892 0 0.096956349234887648 -0.011071094986956799 0 0.088649703971082044 -0.096212458613833776 0 0.078715343734034438 -0.12063099456679539 0 0.088649703971082044 -0.096212458613833776 0 0.078715343734034438 -0.12063099456679539 0 0.06943927927713385 -0.1029078435052084 0 0.090638918558566303 -0.1346801766442367 0 0.078715343734034438 -0.12063099456679539 0 0.1020695004072603 -0.1169681559265718 0 0.088649703971082044 -0.096212458613833776 0 0.078715343734034438 -0.12063099456679539 0 0.1020695004072603 -0.1169681559265718 0 0.062283180342959259 -0.12859484082852179 0 0.078715343734034438 -0.12063099456679539 0 0.06943927927713385 -0.1029078435052084 0 0.088649703971082044 -0.096212458613833776 0 0.06943927927713385 -0.1029078435052084 0 0.069953728734893361 -0.076008251645664798 0 0.057104998153079289 -0.087159162147291525 0 0.06943927927713385 -0.1029078435052084 0 0.069953728734893361 -0.076008251645664798 0 0.061874342425578627 -0.06103640475076931 0 0.072074136114402804 -0.059502121025220053 0 0.069953728734893361 -0.076008251645664798 0 0.072074136114402804 -0.059502121025220053 0 0.082972967386599566 -0.062095893725314211 0 0.069953728734893361 -0.076008251645664798 0 0.057104998153079289 -0.087159162147291525 0 0.061874342425578627 -0.06103640475076931 0 0.069953728734893361 -0.076008251645664798 0 0.082972967386599566 -0.062095893725314211 0 0.069953728734893361 -0.076008251645664798 0 0.098584064208129651 -0.071793922660872214 0 0.082972967386599566 -0.062095893725314211 0 0.09271556658235483 -0.053748608982565747 0 0.098584064208129651 -0.071793922660872214 0 0.088649703971082044 -0.096212458613833776 0 0.069953728734893361 -0.076008251645664798 0 0.098584064208129651 -0.071793922660872214 0 0.088649703971082044 -0.096212458613833776 0 0.098584064208129651 -0.071793922660872214 0 0.088649703971082044 -0.096212458613833776 0 0.098584064208129651 -0.071793922660872214 0 0.1065010510555011 -0.099386695965923602 0 0.098584064208129651 -0.071793922660872214 0 0.1218369245002557 -0.069250945312485962 0 0.1244074629268619 -0.091732701540154407 0 0.1085184244451773 -0.047375386707910618 0 0.098584064208129651 -0.071793922660872214 0 0.1218369245002557 -0.069250945312485962 0 0.098584064208129651 -0.071793922660872214 0 0.1244074629268619 -0.091732701540154407 0 0.1065010510555011 -0.099386695965923602 0 0.1244074629268619 -0.091732701540154407 0 0.1065010510555011 -0.099386695965923602 0 0.12323912243264699 -0.1145505871361681 0 0.088649703971082044 -0.096212458613833776 0 0.1065010510555011 -0.099386695965923602 0 0.1020695004072603 -0.1169681559265718 0 0.1065010510555011 -0.099386695965923602 0 0.1020695004072603 -0.1169681559265718 0 0.12323912243264699 -0.1145505871361681 0 0.11446569296354379 -0.12653022323923321 0 0.1020695004072603 -0.1169681559265718 0 0.12323912243264699 -0.1145505871361681 0 0.12323912243264699 -0.1145505871361681 0 0.13685650676483671 -0.1211713932319218 0 0.12617980878852969 -0.1365240843804808 0 0.12323912243264699 -0.1145505871361681 0 0.13685650676483671 -0.1211713932319218 0 0.1364765886211716 -0.1078206350746917 0 0.13685650676483671 -0.1211713932319218 0 0.14932492811111869 -0.1145430552038417 0 0.1450794293830267 -0.13223316902504631 0 0.13685650676483671 -0.1211713932319218 0 0.14932492811111869 -0.1145430552038417 0 0.1364765886211716 -0.1078206350746917 0 0.14597859184017811 -0.097105537131485786 0 0.1570475219811209 -0.1057190379829907 0 0.16491724726766491 -0.095977935993531452 0 0.14932492811111869 -0.1145430552038417 0 0.14597859184017811 -0.097105537131485786 0 0.1570475219811209 -0.1057190379829907 0 0.14932492811111869 -0.1145430552038417 0 0.14597859184017811 -0.097105537131485786 0 0.1364765886211716 -0.1078206350746917 0 0.1244074629268619 -0.091732701540154407 0 0.14597859184017811 -0.097105537131485786 0 0.1364765886211716 -0.1078206350746917 0 0.1244074629268619 -0.091732701540154407 0 0.12323912243264699 -0.1145505871361681 0 0.1364765886211716 -0.1078206350746917 0 0.1244074629268619 -0.091732701540154407 0 0.14597859184017811 -0.097105537131485786 0 0.13736259236584311 -0.082239953115695943 0 0.1218369245002557 -0.069250945312485962 0 0.1244074629268619 -0.091732701540154407 0 0.13736259236584311 -0.082239953115695943 0 0.1218369245002557 -0.069250945312485962 0 0.13609586927826151 -0.067306720501091169 0 0.1284886927996042 -0.053771474094935739 0 0.1218369245002557 -0.069250945312485962 0 0.13736259236584311 -0.082239953115695943 0 0.13609586927826151 -0.067306720501091169 0 0.14970037952079349 -0.070281690566671912 0 0.16034631985876521 -0.065038639785975016 0 0.15582032906766949 -0.053627791943683972 0 0.13609586927826151 -0.067306720501091169 0 0.14970037952079349 -0.070281690566671912 0 0.14265294758673089 -0.056575974456184057 0 0.13736259236584311 -0.082239953115695943 0 0.13609586927826151 -0.067306720501091169 0 0.14970037952079349 -0.070281690566671912 0 0.14970037952079349 -0.070281690566671912 0 0.15252791201435639 -0.084314328558166826 0 0.16468074907730229 -0.075966525983449024 0 0.14597859184017811 -0.097105537131485786 0 0.15252791201435639 -0.084314328558166826 0 0.16491724726766491 -0.095977935993531452 0 0.14597859184017811 -0.097105537131485786 0 0.13736259236584311 -0.082239953115695943 0 0.15252791201435639 -0.084314328558166826 0 0.13736259236584311 -0.082239953115695943 0 0.14970037952079349 -0.070281690566671912 0 0.15252791201435639 -0.084314328558166826 0 0.15252791201435639 -0.084314328558166826 0 0.16468074907730229 -0.075966525983449024 0 0.16491724726766491 -0.095977935993531452 0 0.16468074907730229 -0.075966525983449024 0 0.17815504644555161 -0.084715096529614856 0 0.16491724726766491 -0.095977935993531452 0 0.14970037952079349 -0.070281690566671912 0 0.16034631985876521 -0.065038639785975016 0 0.16468074907730229 -0.075966525983449024 0 0.16034631985876521 -0.065038639785975016 0 0.16468074907730229 -0.075966525983449024 0 0.17169172199543281 -0.061559059707012351 0 0.16468074907730229 -0.075966525983449024 0 0.17628277865897349 -0.073123156814924151 0 0.17169172199543281 -0.061559059707012351 0 0.17628277865897349 -0.073123156814924151 0 0.18483916639642639 -0.06519560532717944 0 0.17169172199543281 -0.061559059707012351 0 0.16468074907730229 -0.075966525983449024 0 0.17628277865897349 -0.073123156814924151 0 0.17815504644555161 -0.084715096529614856 0 0.17628277865897349 -0.073123156814924151 0 0.18483916639642639 -0.06519560532717944 0 0.1904759927198747 -0.07664312737326541 0 0.17815504644555161 -0.084715096529614856 0 0.179671566541241 -0.096815735571285477 0 0.16491724726766491 -0.095977935993531452 0 0.17815504644555161 -0.084715096529614856 0 0.19098506177352331 -0.090989516906199081 0 0.1904759927198747 -0.07664312737326541 0 0.17628277865897349 -0.073123156814924151 0 0.17815504644555161 -0.084715096529614856 0 0.1904759927198747 -0.07664312737326541 0 0.17815504644555161 -0.084715096529614856 0 0.179671566541241 -0.096815735571285477 0 0.19098506177352331 -0.090989516906199081 0 0.179671566541241 -0.096815735571285477 0 0.18825343090776639 -0.1044930695883661 0 0.19098506177352331 -0.090989516906199081 0 0.179671566541241 -0.096815735571285477 0 0.17616734247979141 -0.10680076928402631 0 0.16491724726766491 -0.095977935993531452 0 0.179671566541241 -0.096815735571285477 0 0.17616734247979141 -0.10680076928402631 0 0.18825343090776639 -0.1044930695883661 0 0.18211191602549409 -0.11695533365030431 0 0.16645997326363521 -0.114470781754134 0 0.17493136137656509 -0.12817596485682239 0 0.17616734247979141 -0.10680076928402631 0 0.18211191602549409 -0.11695533365030431 0 0.18825343090776639 -0.1044930695883661 0 0.18211191602549409 -0.11695533365030431 0 0.19064044170861419 -0.12867748534588841 0 0.17493136137656509 -0.12817596485682239 0 0.17616734247979141 -0.10680076928402631 0 0.18211191602549409 -0.11695533365030431 0 0.16645997326363521 -0.114470781754134 0 0.14932492811111869 -0.1145430552038417 0 0.16645997326363521 -0.114470781754134 0 0.1570475219811209 -0.1057190379829907 0 0.14932492811111869 -0.1145430552038417 0 0.16645997326363521 -0.114470781754134 0 0.16023150781391221 -0.12971906167510419 0 0.16645997326363521 -0.114470781754134 0 0.16023150781391221 -0.12971906167510419 0 0.17493136137656509 -0.12817596485682239 0 0.17616734247979141 -0.10680076928402631 0 0.16645997326363521 -0.114470781754134 0 0.16491724726766491 -0.095977935993531452 0 0.16645997326363521 -0.114470781754134 0 0.1570475219811209 -0.1057190379829907 0 0.16491724726766491 -0.095977935993531452 0 0.14127080817823279 0.0033430821113621962 0 0.14854857140159661 -0.0069737994963625129 0 0.1335006780419114 -0.01496532512565635 0 0.14854857140159661 -0.0069737994963625129 0 0.1335006780419114 -0.01496532512565635 0 0.12869539122038509 0.002219350835908105 0 0.1184527846822258 -0.022956850754949479 0 0.1335006780419114 -0.01496532512565635 0 0.14127080817823279 0.0033430821113621962 0 0.12869539122038509 0.002219350835908105 0 0.1335006780419114 -0.01496532512565635 0 0.1335006780419114 -0.01496532512565635 0 0.13187053208142241 -0.030011510859192091 0 0.1478958102982465 -0.028354177811183379 0 0.1184527846822258 -0.022956850754949479 0 0.1335006780419114 -0.01496532512565635 0 0.13187053208142241 -0.030011510859192091 0 0.1184527846822258 -0.022956850754949479 0 0.1335006780419114 -0.01496532512565635 0 0.14854857140159661 -0.0069737994963625129 0 0.1478958102982465 -0.028354177811183379 0 0.16308714316328471 -0.019969638683906381 0 0.14854857140159661 -0.0069737994963625129 0 0.1335006780419114 -0.01496532512565635 0 0.1478958102982465 -0.028354177811183379 0 0.1478958102982465 -0.028354177811183379 0 0.1512561906805954 -0.041726313856635541 0 0.16420063619856909 -0.037716941596413138 0 0.1478958102982465 -0.028354177811183379 0 0.1512561906805954 -0.041726313856635541 0 0.13722825461575369 -0.042782752842884082 0 0.13187053208142241 -0.030011510859192091 0 0.1478958102982465 -0.028354177811183379 0 0.13722825461575369 -0.042782752842884082 0 0.12459973637144631 -0.039337064749058577 0 0.13187053208142241 -0.030011510859192091 0 0.13722825461575369 -0.042782752842884082 0 0.12459973637144631 -0.039337064749058577 0 0.13722825461575369 -0.042782752842884082 0 0.1284886927996042 -0.053771474094935739 0 0.13722825461575369 -0.042782752842884082 0 0.1284886927996042 -0.053771474094935739 0 0.14265294758673089 -0.056575974456184057 0 0.13609586927826151 -0.067306720501091169 0 0.1284886927996042 -0.053771474094935739 0 0.14265294758673089 -0.056575974456184057 0 0.14970037952079349 -0.070281690566671912 0 0.14265294758673089 -0.056575974456184057 0 0.15582032906766949 -0.053627791943683972 0 0.1512561906805954 -0.041726313856635541 0 0.13722825461575369 -0.042782752842884082 0 0.14265294758673089 -0.056575974456184057 0 0.1512561906805954 -0.041726313856635541 0 0.14265294758673089 -0.056575974456184057 0 0.15582032906766949 -0.053627791943683972 0 0.15582032906766949 -0.053627791943683972 0 0.17092844439923741 -0.049161815656930369 0 0.17169172199543281 -0.061559059707012351 0 0.16034631985876521 -0.065038639785975016 0 0.15582032906766949 -0.053627791943683972 0 0.17169172199543281 -0.061559059707012351 0 0.18483916639642639 -0.06519560532717944 0 0.17169172199543281 -0.061559059707012351 0 0.18292923393693131 -0.053328386326407469 0 0.17092844439923741 -0.049161815656930369 0 0.18292923393693131 -0.053328386326407469 0 0.18285112350680949 -0.040192920857617352 0 0.17092844439923741 -0.049161815656930369 0 0.17169172199543281 -0.061559059707012351 0 0.18292923393693131 -0.053328386326407469 0 0.17092844439923741 -0.049161815656930369 0 0.18285112350680949 -0.040192920857617352 0 0.16420063619856909 -0.037716941596413138 0 0.18285112350680949 -0.040192920857617352 0 0.16420063619856909 -0.037716941596413138 0 0.17574672445706899 -0.027415991682792979 0 0.18292923393693131 -0.053328386326407469 0 0.18285112350680949 -0.040192920857617352 0 0.19147158195701061 -0.046989148873439912 0 0.1512561906805954 -0.041726313856635541 0 0.15582032906766949 -0.053627791943683972 0 0.16420063619856909 -0.037716941596413138 0 0.15582032906766949 -0.053627791943683972 0 0.17092844439923741 -0.049161815656930369 0 0.16420063619856909 -0.037716941596413138 0 0.1478958102982465 -0.028354177811183379 0 0.16420063619856909 -0.037716941596413138 0 0.16308714316328471 -0.019969638683906381 0 0.16420063619856909 -0.037716941596413138 0 0.16308714316328471 -0.019969638683906381 0 0.17574672445706899 -0.027415991682792979 0 0.18285112350680949 -0.040192920857617352 0 0.17574672445706899 -0.027415991682792979 0 0.191302370396847 -0.023777876095868979 0 0.17574672445706899 -0.027415991682792979 0 0.1769934256149375 -0.01250634271852669 0 0.191302370396847 -0.023777876095868979 0 0.16308714316328471 -0.019969638683906381 0 0.17574672445706899 -0.027415991682792979 0 0.1769934256149375 -0.01250634271852669 0 0.18107755721158111 0.0054153016410935758 0 0.1769934256149375 -0.01250634271852669 0 0.16506726594281801 -0.00051261721513644809 0 0.18107755721158111 0.0054153016410935758 0 0.1769934256149375 -0.01250634271852669 0 0.19105429982604319 -0.0049549345427246441 0 0.1769934256149375 -0.01250634271852669 0 0.19105429982604319 -0.0049549345427246441 0 0.191302370396847 -0.023777876095868979 0 0.16308714316328471 -0.019969638683906381 0 0.1769934256149375 -0.01250634271852669 0 0.16506726594281801 -0.00051261721513644809 0 0.14854857140159661 -0.0069737994963625129 0 0.16308714316328471 -0.019969638683906381 0 0.16506726594281801 -0.00051261721513644809 0 0.20457007160887039 -0.0088418504407955512 0 0.19105429982604319 -0.0049549345427246441 0 0.191302370396847 -0.023777876095868979 0 0.20457007160887039 -0.0088418504407955512 0 0.191302370396847 -0.023777876095868979 0 0.20781206891976031 -0.032619795782065468 0 0.191302370396847 -0.023777876095868979 0 0.20781206891976031 -0.032619795782065468 0 0.19527961808500161 -0.036631044775952859 0 0.20457007160887039 -0.0088418504407955512 0 0.20781206891976031 -0.032619795782065468 0 0.20457007160887039 -0.0088418504407955512 0 0.20781206891976031 -0.032619795782065468 0 0.22396096554464959 -0.018491165692964381 0 0.21867749539734649 -0.040551696514230462 0 0.20781206891976031 -0.032619795782065468 0 0.22396096554464959 -0.018491165692964381 0 0.20781206891976031 -0.032619795782065468 0 0.20140680029753941 -0.047870140882831903 0 0.2110540662306486 -0.056397741123335628 0 0.21867749539734649 -0.040551696514230462 0 0.20781206891976031 -0.032619795782065468 0 0.2110540662306486 -0.056397741123335628 0 0.20781206891976031 -0.032619795782065468 0 0.2110540662306486 -0.056397741123335628 0 0.20781206891976031 -0.032619795782065468 0 0.19527961808500161 -0.036631044775952859 0 0.20140680029753941 -0.047870140882831903 0 0.18285112350680949 -0.040192920857617352 0 0.191302370396847 -0.023777876095868979 0 0.19527961808500161 -0.036631044775952859 0 0.18285112350680949 -0.040192920857617352 0 0.19527961808500161 -0.036631044775952859 0 0.19147158195701061 -0.046989148873439912 0 0.19527961808500161 -0.036631044775952859 0 0.20140680029753941 -0.047870140882831903 0 0.19147158195701061 -0.046989148873439912 0 0.20140680029753941 -0.047870140882831903 0 0.19147158195701061 -0.046989148873439912 0 0.19489113395877139 -0.056923251524389991 0 0.20140680029753941 -0.047870140882831903 0 0.19489113395877139 -0.056923251524389991 0 0.20695534045330721 -0.058656665396750352 0 0.18292923393693131 -0.053328386326407469 0 0.19147158195701061 -0.046989148873439912 0 0.19489113395877139 -0.056923251524389991 0 0.18483916639642639 -0.06519560532717944 0 0.18292923393693131 -0.053328386326407469 0 0.19489113395877139 -0.056923251524389991 0 0.19489113395877139 -0.056923251524389991 0 0.20695534045330721 -0.058656665396750352 0 0.21293330173477251 -0.070180713413375811 0 0.20695534045330721 -0.058656665396750352 0 0.2110540662306486 -0.056397741123335628 0 0.21293330173477251 -0.070180713413375811 0 0.20695534045330721 -0.058656665396750352 0 0.2110540662306486 -0.056397741123335628 0 0.20140680029753941 -0.047870140882831903 0 0.20695534045330721 -0.058656665396750352 0 0.2110540662306486 -0.056397741123335628 0 0.2110540662306486 -0.056397741123335628 0 0.2240777902443962 -0.059928809370641371 0 0.21293330173477251 -0.070180713413375811 0 0.21867749539734649 -0.040551696514230462 0 0.2110540662306486 -0.056397741123335628 0 0.2332701462295225 -0.044153827991350127 0 0.2110540662306486 -0.056397741123335628 0 0.2332701462295225 -0.044153827991350127 0 0.2110540662306486 -0.056397741123335628 0 0.2240777902443962 -0.059928809370641371 0 0.2332701462295225 -0.044153827991350127 0 0.2240777902443962 -0.059928809370641371 0 0.2357835419416078 -0.057679858595466482 0 0.2332701462295225 -0.044153827991350127 0 0.2240777902443962 -0.059928809370641371 0 0.2357835419416078 -0.057679858595466482 0 0.22910227916802139 -0.068044101486001526 0 0.25002440808248971 -0.049070108055649597 0 0.2357835419416078 -0.057679858595466482 0 0.2424790725628117 -0.068061140075458951 0 0.25002440808248971 -0.049070108055649597 0 0.2357835419416078 -0.057679858595466482 0 0.2332701462295225 -0.044153827991350127 0 0.25548622622839667 -0.03190991485936516 0 0.2332701462295225 -0.044153827991350127 0 0.2400510958640287 -0.02607265246062199 0 0.25002440808248971 -0.049070108055649597 0 0.25548622622839667 -0.03190991485936516 0 0.2332701462295225 -0.044153827991350127 0 0.25548622622839667 -0.03190991485936516 0 0.2332701462295225 -0.044153827991350127 0 0.21867749539734649 -0.040551696514230462 0 0.2332701462295225 -0.044153827991350127 0 0.22396096554464959 -0.018491165692964381 0 0.2332701462295225 -0.044153827991350127 0 0.22396096554464959 -0.018491165692964381 0 0.2400510958640287 -0.02607265246062199 0 0.22396096554464959 -0.018491165692964381 0 0.2400510958640287 -0.02607265246062199 0 0.24820666495033469 -0.010671503176887811 0 0.25548622622839667 -0.03190991485936516 0 0.2400510958640287 -0.02607265246062199 0 0.24820666495033469 -0.010671503176887811 0 0.22396096554464959 -0.018491165692964381 0 0.24820666495033469 -0.010671503176887811 0 0.22914471171673431 0.0072058749996883973 0 0.20457007160887039 -0.0088418504407955512 0 0.22396096554464959 -0.018491165692964381 0 0.22914471171673431 0.0072058749996883973 0 0.22396096554464959 -0.018491165692964381 0 0.24820666495033469 -0.010671503176887811 0 0.21624896733031909 -0.094498967791939767 0 0.20222576501332551 -0.11371128782285179 0 0.21956463292586609 -0.11881722217050369 0 0.21624896733031909 -0.094498967791939767 0 0.20222576501332551 -0.11371128782285179 0 0.20062140751382651 -0.097807834744219294 0 0.21624896733031909 -0.094498967791939767 0 0.21956463292586609 -0.11881722217050369 0 0.20222576501332551 -0.11371128782285179 0 0.21956463292586609 -0.11881722217050369 0 0.2046002191617709 -0.1291286805402049 0 0.18211191602549409 -0.11695533365030431 0 0.20222576501332551 -0.11371128782285179 0 0.19064044170861419 -0.12867748534588841 0 0.18211191602549409 -0.11695533365030431 0 0.20222576501332551 -0.11371128782285179 0 0.18825343090776639 -0.1044930695883661 0 0.20222576501332551 -0.11371128782285179 0 0.2046002191617709 -0.1291286805402049 0 0.19064044170861419 -0.12867748534588841 0 0.20222576501332551 -0.11371128782285179 0 0.18825343090776639 -0.1044930695883661 0 0.20062140751382651 -0.097807834744219294 0 0.18825343090776639 -0.1044930695883661 0 0.20062140751382651 -0.097807834744219294 0 0.19098506177352331 -0.090989516906199081 0 0.19098506177352331 -0.090989516906199081 0 0.1904759927198747 -0.07664312737326541 0 0.20325487441275469 -0.083938309880234513 0 0.20062140751382651 -0.097807834744219294 0 0.19098506177352331 -0.090989516906199081 0 0.20325487441275469 -0.083938309880234513 0 0.19489113395877139 -0.056923251524389991 0 0.20101211721766479 -0.070564760722070602 0 0.21293330173477251 -0.070180713413375811 0 0.18483916639642639 -0.06519560532717944 0 0.19489113395877139 -0.056923251524389991 0 0.19333433924095489 -0.067223107780407604 0 0.18483916639642639 -0.06519560532717944 0 0.19333433924095489 -0.067223107780407604 0 0.1904759927198747 -0.07664312737326541 0 0.19333433924095489 -0.067223107780407604 0 0.1904759927198747 -0.07664312737326541 0 0.20101211721766479 -0.070564760722070602 0 0.1904759927198747 -0.07664312737326541 0 0.20101211721766479 -0.070564760722070602 0 0.20325487441275469 -0.083938309880234513 0 0.19489113395877139 -0.056923251524389991 0 0.19333433924095489 -0.067223107780407604 0 0.20101211721766479 -0.070564760722070602 0 0.19489113395877139 -0.056923251524389991 0 0.21293330173477251 -0.070180713413375811 0 0.20101211721766479 -0.070564760722070602 0 0.21293330173477251 -0.070180713413375811 0 0.20325487441275469 -0.083938309880234513 0 0.2110540662306486 -0.056397741123335628 0 0.21293330173477251 -0.070180713413375811 0 0.21624896733031909 -0.094498967791939767 0 0.20062140751382651 -0.097807834744219294 0 0.20325487441275469 -0.083938309880234513 0 0.21624896733031909 -0.094498967791939767 0 0.21293330173477251 -0.070180713413375811 0 0.21624896733031909 -0.094498967791939767 0 0.21293330173477251 -0.070180713413375811 0 0.20325487441275469 -0.083938309880234513 0 0.21293330173477251 -0.070180713413375811 0 0.23507475022467961 -0.086450344267398033 0 0.21624896733031909 -0.094498967791939767 0 0.23507475022467961 -0.086450344267398033 0 0.227390257246045 -0.098419496278734961 0 0.21624896733031909 -0.094498967791939767 0 0.21293330173477251 -0.070180713413375811 0 0.23507475022467961 -0.086450344267398033 0 0.21293330173477251 -0.070180713413375811 0 0.2318672561294014 -0.075210598383450511 0 0.23507475022467961 -0.086450344267398033 0 0.21293330173477251 -0.070180713413375811 0 0.2318672561294014 -0.075210598383450511 0 0.22910227916802139 -0.068044101486001526 0 0.2240777902443962 -0.059928809370641371 0 0.21293330173477251 -0.070180713413375811 0 0.22910227916802139 -0.068044101486001526 0 0.25782929842336338 -0.063524329579946456 0 0.2424790725628117 -0.068061140075458951 0 0.23974687695672151 -0.083316692675018428 0 0.25782929842336338 -0.063524329579946456 0 0.23974687695672151 -0.083316692675018428 0 0.2357835419416078 -0.057679858595466482 0 0.22910227916802139 -0.068044101486001526 0 0.2424790725628117 -0.068061140075458951 0 0.2318672561294014 -0.075210598383450511 0 0.2424790725628117 -0.068061140075458951 0 0.23974687695672151 -0.083316692675018428 0 0.2318672561294014 -0.075210598383450511 0 0.22910227916802139 -0.068044101486001526 0 0.2424790725628117 -0.068061140075458951 0 0.25174049021884548 -0.087486636901796727 0 0.23507475022467961 -0.086450344267398033 0 0.23974687695672151 -0.083316692675018428 0 0.25721619871458618 -0.10271997512142091 0 0.25174049021884548 -0.087486636901796727 0 0.23507475022467961 -0.086450344267398033 0 0.2318672561294014 -0.075210598383450511 0 0.23507475022467961 -0.086450344267398033 0 0.23974687695672151 -0.083316692675018428 0 0.25174049021884548 -0.087486636901796727 0 0.25531582082939952 -0.079141346968200396 0 0.23974687695672151 -0.083316692675018428 0 0.25721619871458618 -0.10271997512142091 0 0.23507475022467961 -0.086450344267398033 0 0.25721619871458618 -0.10271997512142091 0 0.23507475022467961 -0.086450344267398033 0 0.23619877222175739 -0.10359668447002141 0 0.25721619871458618 -0.10271997512142091 0 0.23619877222175739 -0.10359668447002141 0 0.23946377219984241 -0.11864097079151539 0 0.23507475022467961 -0.086450344267398033 0 0.23619877222175739 -0.10359668447002141 0 0.227390257246045 -0.098419496278734961 0 0.21624896733031909 -0.094498967791939767 0 0.22203853920742411 -0.1091319885855806 0 0.21956463292586609 -0.11881722217050369 0 0.23619877222175739 -0.10359668447002141 0 0.227390257246045 -0.098419496278734961 0 0.22203853920742411 -0.1091319885855806 0 0.21624896733031909 -0.094498967791939767 0 0.227390257246045 -0.098419496278734961 0 0.22203853920742411 -0.1091319885855806 0 0.21956463292586609 -0.11881722217050369 0 0.22828008078628001 -0.1167339305568309 0 0.22171134568509709 -0.13456196646160831 0 0.22828008078628001 -0.1167339305568309 0 0.23946377219984241 -0.11864097079151539 0 0.22171134568509709 -0.13456196646160831 0 0.22203853920742411 -0.1091319885855806 0 0.21956463292586609 -0.11881722217050369 0 0.22828008078628001 -0.1167339305568309 0 0.22203853920742411 -0.1091319885855806 0 0.21956463292586609 -0.11881722217050369 0 0.23619877222175739 -0.10359668447002141 0 0.22203853920742411 -0.1091319885855806 0 0.22828008078628001 -0.1167339305568309 0 0.25721619871458618 -0.10271997512142091 0 0.23946377219984241 -0.11864097079151539 0 0.23619877222175739 -0.10359668447002141 0 0.22828008078628001 -0.1167339305568309 0 0.23946377219984241 -0.11864097079151539 0 0.23946377219984241 -0.11864097079151539 0 0.24289792203789021 -0.14188522053962821 0 0.22171134568509709 -0.13456196646160831 0 0.25875100621879649 -0.12504953296095059 0 0.23946377219984241 -0.11864097079151539 0 0.24289792203789021 -0.14188522053962821 0 0.24289792203789021 -0.14188522053962821 0 0.22486948703309839 -0.15772488276031341 0 0.23881498588114661 -0.15962363451221531 0 0.25179086874915613 -0.15330806089431401 0 0.24289792203789021 -0.14188522053962821 0 0.23881498588114661 -0.15962363451221531 0 0.22171134568509709 -0.13456196646160831 0 0.22486948703309839 -0.15772488276031341 0 0.24289792203789021 -0.14188522053962821 0 0.22171134568509709 -0.13456196646160831 0 0.22486948703309839 -0.15772488276031341 0 0.22171134568509709 -0.13456196646160831 0 0.213709999468469 -0.14173785300106509 0 0.22486948703309839 -0.15772488276031341 0 0.21956463292586609 -0.11881722217050369 0 0.22171134568509709 -0.13456196646160831 0 0.23946377219984241 -0.11864097079151539 0 0.22171134568509709 -0.13456196646160831 0 0.2046002191617709 -0.1291286805402049 0 0.213709999468469 -0.14173785300106509 0 0.1968602566925792 -0.1426995543607156 0 0.21956463292586609 -0.11881722217050369 0 0.22171134568509709 -0.13456196646160831 0 0.213709999468469 -0.14173785300106509 0 0.21956463292586609 -0.11881722217050369 0 0.213709999468469 -0.14173785300106509 0 0.21956463292586609 -0.11881722217050369 0 0.2046002191617709 -0.1291286805402049 0 0.213709999468469 -0.14173785300106509 0 0.22171134568509709 -0.13456196646160831 0 0.213709999468469 -0.14173785300106509 0 0.213709999468469 -0.14173785300106509 0 0.20824722427694711 -0.16312437606631999 0 0.213709999468469 -0.14173785300106509 0 0.19407678538748649 -0.15934560460131439 0 0.20824722427694711 -0.16312437606631999 0 0.213709999468469 -0.14173785300106509 0 0.19407678538748649 -0.15934560460131439 0 0.213709999468469 -0.14173785300106509 0 0.20824722427694711 -0.16312437606631999 0 0.22486948703309839 -0.15772488276031341 0 0.213709999468469 -0.14173785300106509 0 0.1968602566925792 -0.1426995543607156 0 0.19407678538748649 -0.15934560460131439 0 0.1968602566925792 -0.1426995543607156 0 0.1884212322022378 -0.149077921645975 0 0.19407678538748649 -0.15934560460131439 0 0.1968602566925792 -0.1426995543607156 0 0.1884212322022378 -0.149077921645975 0 0.18307819234208411 -0.13969202619167281 0 0.1968602566925792 -0.1426995543607156 0 0.19064044170861419 -0.12867748534588841 0 0.18307819234208411 -0.13969202619167281 0 0.2046002191617709 -0.1291286805402049 0 0.1968602566925792 -0.1426995543607156 0 0.19064044170861419 -0.12867748534588841 0 0.1975891341134994 -0.17200645858229099 0 0.20278444908542489 -0.1845108991315749 0 0.20824722427694711 -0.16312437606631999 0 0.1975891341134994 -0.17200645858229099 0 0.20278444908542489 -0.1845108991315749 0 0.19138362874008949 -0.18354069679484139 0 0.1975891341134994 -0.17200645858229099 0 0.19138362874008949 -0.18354069679484139 0 0.18671764231521409 -0.17466171805760611 0 0.1975891341134994 -0.17200645858229099 0 0.19407678538748649 -0.15934560460131439 0 0.18671764231521409 -0.17466171805760611 0 0.19407678538748649 -0.15934560460131439 0 0.18189982897357451 -0.16507207570290039 0 0.18671764231521409 -0.17466171805760611 0 0.1975891341134994 -0.17200645858229099 0 0.19407678538748649 -0.15934560460131439 0 0.20824722427694711 -0.16312437606631999 0 0.20824722427694711 -0.16312437606631999 0 0.21445913978545009 -0.1761020320364709 0 0.22486948703309839 -0.15772488276031341 0 0.20278444908542489 -0.1845108991315749 0 0.20824722427694711 -0.16312437606631999 0 0.20278444908542489 -0.1845108991315749 0 0.20824722427694711 -0.16312437606631999 0 0.21445913978545009 -0.1761020320364709 0 0.20278444908542489 -0.1845108991315749 0 0.21445913978545009 -0.1761020320364709 0 0.21573610901974849 -0.1934771937122704 0 0.21445913978545009 -0.1761020320364709 0 0.22802762838109941 -0.18088779905901861 0 0.21573610901974849 -0.1934771937122704 0 0.21445913978545009 -0.1761020320364709 0 0.22802762838109941 -0.18088779905901861 0 0.22486948703309839 -0.15772488276031341 0 0.22802762838109941 -0.18088779905901861 0 0.22486948703309839 -0.15772488276031341 0 0.23881498588114661 -0.15962363451221531 0 0.22802762838109941 -0.18088779905901861 0 0.22486948703309839 -0.15772488276031341 0 0.22802762838109941 -0.18088779905901861 0 0.23881498588114661 -0.15962363451221531 0 0.2486145811112937 -0.16884638692669571 0 0.25179086874915613 -0.15330806089431401 0 0.23881498588114661 -0.15962363451221531 0 0.2486145811112937 -0.16884638692669571 0 0.22802762838109941 -0.18088779905901861 0 0.2486145811112937 -0.16884638692669571 0 0.24543199639070409 -0.18264300804967451 0 0.22802762838109941 -0.18088779905901861 0 0.24543199639070409 -0.18264300804967451 0 0.24102615225291141 -0.19390585747176281 0 0.25554227415006853 -0.19222729937612171 0 0.24102615225291141 -0.19390585747176281 0 0.24494309261358449 -0.20972046551627541 0 0.25554227415006853 -0.19222729937612171 0 0.24543199639070409 -0.18264300804967451 0 0.24102615225291141 -0.19390585747176281 0 0.24102615225291141 -0.19390585747176281 0 0.24494309261358449 -0.20972046551627541 0 0.2311857697291004 -0.20405071535772401 0 0.24494309261358449 -0.20972046551627541 0 0.2343439110771009 -0.22721363165642941 0 0.24494309261358449 -0.20972046551627541 0 0.2311857697291004 -0.20405071535772401 0 0.2343439110771009 -0.22721363165642941 0 0.2311857697291004 -0.20405071535772401 0 0.22189087603119961 -0.21945642874092849 0 0.2343439110771009 -0.22721363165642941 0 0.2311857697291004 -0.20405071535772401 0 0.22189087603119961 -0.21945642874092849 0 0.21303228152943979 -0.21039843219874771 0 0.2311857697291004 -0.20405071535772401 0 0.2343439110771009 -0.22721363165642941 0 0.22802762838109941 -0.18088779905901861 0 0.2311857697291004 -0.20405071535772401 0 0.21573610901974849 -0.1934771937122704 0 0.2311857697291004 -0.20405071535772401 0 0.21573610901974849 -0.1934771937122704 0 0.21303228152943979 -0.21039843219874771 0 0.22802762838109941 -0.18088779905901861 0 0.2311857697291004 -0.20405071535772401 0 0.22802762838109941 -0.18088779905901861 0 0.24102615225291141 -0.19390585747176281 0 0.2311857697291004 -0.20405071535772401 0 0.23744775862660331 -0.2499783381945197 0 0.2343439110771009 -0.22721363165642941 0 0.25436638690304969 -0.22747799096314841 0 0.2484788525112992 -0.25384991982673899 0 0.2438199050162663 -0.23901021036905501 0 0.23744775862660331 -0.2499783381945197 0 0.2438199050162663 -0.23901021036905501 0 0.2343439110771009 -0.22721363165642941 0 0.2484788525112992 -0.25384991982673899 0 0.23744775862660331 -0.2499783381945197 0 0.2438199050162663 -0.23901021036905501 0 0.25436638690304969 -0.22747799096314841 0 0.24494309261358449 -0.20972046551627541 0 0.2343439110771009 -0.22721363165642941 0 0.25436638690304969 -0.22747799096314841 0 0.2438199050162663 -0.23901021036905501 0 0.2343439110771009 -0.22721363165642941 0 0.22055911473142151 -0.23059685877190289 0 0.2343439110771009 -0.22721363165642941 0 0.22428122575910839 -0.24382135042016631 0 0.22189087603119961 -0.21945642874092849 0 0.22055911473142151 -0.23059685877190289 0 0.2343439110771009 -0.22721363165642941 0 0.2343439110771009 -0.22721363165642941 0 0.22428122575910839 -0.24382135042016631 0 0.23744775862660331 -0.2499783381945197 0 0.2343439110771009 -0.22721363165642941 0 0.22428122575910839 -0.24382135042016631 0 0.22428122575910839 -0.24382135042016631 0 0.20853645925439809 -0.2499426345604043 0 0.21036122355834189 -0.23774918284279581 0 0.20853645925439809 -0.2499426345604043 0 0.21036122355834189 -0.23774918284279581 0 0.19894780114414509 -0.24424568885774631 0 0.22055911473142151 -0.23059685877190289 0 0.22428122575910839 -0.24382135042016631 0 0.21036122355834189 -0.23774918284279581 0 0.21036122355834189 -0.23774918284279581 0 0.2103333030889358 -0.22502250571983859 0 0.19978868506270589 -0.23115227545109221 0 0.22055911473142151 -0.23059685877190289 0 0.21036122355834189 -0.23774918284279581 0 0.2103333030889358 -0.22502250571983859 0 0.22189087603119961 -0.21945642874092849 0 0.22055911473142151 -0.23059685877190289 0 0.2103333030889358 -0.22502250571983859 0 0.19307254300483609 -0.2259710899482251 0 0.19978868506270589 -0.23115227545109221 0 0.1986544796614044 -0.2180279755232159 0 0.2103333030889358 -0.22502250571983859 0 0.19978868506270589 -0.23115227545109221 0 0.1986544796614044 -0.2180279755232159 0 0.18825302100827621 -0.22063667765570449 0 0.19307254300483609 -0.2259710899482251 0 0.1868608066229045 -0.22955091608719941 0 0.18825302100827621 -0.22063667765570449 0 0.19307254300483609 -0.2259710899482251 0 0.1986544796614044 -0.2180279755232159 0 0.19307254300483609 -0.2259710899482251 0 0.19978868506270589 -0.23115227545109221 0 0.19281136395418819 -0.23512435188015759 0 0.19307254300483609 -0.2259710899482251 0 0.19281136395418819 -0.23512435188015759 0 0.1868608066229045 -0.22955091608719941 0 0.19978868506270589 -0.23115227545109221 0 0.19281136395418819 -0.23512435188015759 0 0.19894780114414509 -0.24424568885774631 0 0.21036122355834189 -0.23774918284279581 0 0.19978868506270589 -0.23115227545109221 0 0.19894780114414509 -0.24424568885774631 0 0.19281136395418819 -0.23512435188015759 0 0.18760946069112969 -0.2429492766766933 0 0.1868608066229045 -0.22955091608719941 0 0.19281136395418819 -0.23512435188015759 0 0.18760946069112969 -0.2429492766766933 0 0.19894780114414509 -0.24424568885774631 0 0.1960021101174742 -0.256664134456286 0 0.18760946069112969 -0.2429492766766933 0 0.1960021101174742 -0.256664134456286 0 0.18760946069112969 -0.2429492766766933 0 0.19894780114414509 -0.24424568885774631 0 0.2005972037248808 -0.25405940417973438 0 0.20853645925439809 -0.2499426345604043 0 0.19894780114414509 -0.24424568885774631 0 0.20278444908542489 -0.1845108991315749 0 0.21573610901974849 -0.1934771937122704 0 0.19752255697774709 -0.20215586015685549 0 0.21573610901974849 -0.1934771937122704 0 0.21303228152943979 -0.21039843219874771 0 0.19752255697774709 -0.20215586015685549 0 0.22189087603119961 -0.21945642874092849 0 0.2103333030889358 -0.22502250571983859 0 0.21303228152943979 -0.21039843219874771 0 0.2103333030889358 -0.22502250571983859 0 0.21303228152943979 -0.21039843219874771 0 0.1986544796614044 -0.2180279755232159 0 0.1986544796614044 -0.2180279755232159 0 0.19090545886668639 -0.21133286753113911 0 0.19752255697774709 -0.20215586015685549 0 0.21303228152943979 -0.21039843219874771 0 0.1986544796614044 -0.2180279755232159 0 0.19752255697774709 -0.20215586015685549 0 0.18825302100827621 -0.22063667765570449 0 0.1986544796614044 -0.2180279755232159 0 0.19090545886668639 -0.21133286753113911 0 0.19090545886668639 -0.21133286753113911 0 0.19752255697774709 -0.20215586015685549 0 0.18720700022091169 -0.20410790289005629 0 0.20278444908542489 -0.1845108991315749 0 0.19138362874008949 -0.18354069679484139 0 0.19752255697774709 -0.20215586015685549 0 0.19752255697774709 -0.20215586015685549 0 0.1854194435388952 -0.19329751245859991 0 0.18720700022091169 -0.20410790289005629 0 0.19138362874008949 -0.18354069679484139 0 0.19752255697774709 -0.20215586015685549 0 0.1854194435388952 -0.19329751245859991 0 0.1854194435388952 -0.19329751245859991 0 0.17541973029353899 -0.19166918986259299 0 0.1813254483137228 -0.1838429891840829 0 0.1854194435388952 -0.19329751245859991 0 0.17541973029353899 -0.19166918986259299 0 0.1789882901644641 -0.20047052562813331 0 0.1789882901644641 -0.20047052562813331 0 0.17466054402329431 -0.2089023325861849 0 0.1681851477250168 -0.1986666133004687 0 0.17541973029353899 -0.19166918986259299 0 0.1789882901644641 -0.20047052562813331 0 0.1681851477250168 -0.1986666133004687 0 0.1854194435388952 -0.19329751245859991 0 0.1789882901644641 -0.20047052562813331 0 0.18720700022091169 -0.20410790289005629 0 0.1789882901644641 -0.20047052562813331 0 0.18720700022091169 -0.20410790289005629 0 0.18289023646509281 -0.21173592142986361 0 0.19090545886668639 -0.21133286753113911 0 0.18720700022091169 -0.20410790289005629 0 0.18289023646509281 -0.21173592142986361 0 0.17466054402329431 -0.2089023325861849 0 0.1640222344971112 -0.20440418367535909 0 0.17921681126478561 -0.22923441889710031 0 0.18289023646509281 -0.21173592142986361 0 0.17466054402329431 -0.2089023325861849 0 0.17921681126478561 -0.22923441889710031 0 0.18825302100827621 -0.22063667765570449 0 0.19090545886668639 -0.21133286753113911 0 0.18289023646509281 -0.21173592142986361 0 0.1789882901644641 -0.20047052562813331 0 0.18289023646509281 -0.21173592142986361 0 0.17466054402329431 -0.2089023325861849 0 0.1640222344971112 -0.20440418367535909 0 0.17921681126478561 -0.22923441889710031 0 0.17466054402329431 -0.2089023325861849 0 0.1640222344971112 -0.20440418367535909 0 0.1681851477250168 -0.1986666133004687 0 0.1640222344971112 -0.20440418367535909 0 0.1536364805520043 -0.18743229183821289 0 0.1640222344971112 -0.20440418367535909 0 0.16605863070481319 -0.19123841299592531 0 0.1536364805520043 -0.18743229183821289 0 0.17541973029353899 -0.19166918986259299 0 0.16605863070481319 -0.19123841299592531 0 0.1681851477250168 -0.1986666133004687 0 0.17541973029353899 -0.19166918986259299 0 0.16605863070481319 -0.19123841299592531 0 0.17242179882996039 -0.1842854931202261 0 0.1640222344971112 -0.20440418367535909 0 0.16605863070481319 -0.19123841299592531 0 0.1681851477250168 -0.1986666133004687 0 0.1640222344971112 -0.20440418367535909 0 0.1681851477250168 -0.1986666133004687 0 0.17701116387899951 -0.25279338993454598 0 0.18760946069112969 -0.2429492766766933 0 0.1704486841318304 -0.24141749868105519 0 0.18760946069112969 -0.2429492766766933 0 0.17921681126478561 -0.22923441889710031 0 0.1704486841318304 -0.24141749868105519 0 0.18760946069112969 -0.2429492766766933 0 0.17921681126478561 -0.22923441889710031 0 0.18825302100827621 -0.22063667765570449 0 0.18289023646509281 -0.21173592142986361 0 0.17921681126478561 -0.22923441889710031 0 0.18760946069112969 -0.2429492766766933 0 0.17921681126478561 -0.22923441889710031 0 0.1868608066229045 -0.22955091608719941 0 0.17921681126478561 -0.22923441889710031 0 0.1868608066229045 -0.22955091608719941 0 0.18825302100827621 -0.22063667765570449 0 0.17921681126478561 -0.22923441889710031 0 0.1868608066229045 -0.22955091608719941 0 0.17921681126478561 -0.22923441889710031 0 0.16309598376994419 -0.22856694117567919 0 0.1704486841318304 -0.24141749868105519 0 0.1640222344971112 -0.20440418367535909 0 0.16309598376994419 -0.22856694117567919 0 0.1469751562751028 -0.22789946345425921 0 0.17921681126478561 -0.22923441889710031 0 0.16309598376994419 -0.22856694117567919 0 0.1640222344971112 -0.20440418367535909 0 0.17921681126478561 -0.22923441889710031 0 0.16309598376994419 -0.22856694117567919 0 0.16309598376994419 -0.22856694117567919 0 0.1704486841318304 -0.24141749868105519 0 0.15377989969656641 -0.24057332335203899 0 0.15832738130462731 -0.2537591705193008 0 0.17701116387899951 -0.25279338993454598 0 0.1704486841318304 -0.24141749868105519 0 0.15832738130462731 -0.2537591705193008 0 0.1704486841318304 -0.24141749868105519 0 0.15377989969656641 -0.24057332335203899 0 0.13005229300132709 -0.25122354292990129 0 0.15832738130462731 -0.2537591705193008 0 0.15377989969656641 -0.24057332335203899 0 0.13005229300132709 -0.25122354292990129 0 0.15377989969656641 -0.24057332335203899 0 0.1469751562751028 -0.22789946345425921 0 0.16309598376994419 -0.22856694117567919 0 0.15377989969656641 -0.24057332335203899 0 0.1469751562751028 -0.22789946345425921 0 0.16309598376994419 -0.22856694117567919 0 0.1469751562751028 -0.22789946345425921 0 0.12311730452817291 -0.22691163671105011 0 0.1469751562751028 -0.22789946345425921 0 0.12311730452817291 -0.22691163671105011 0 0.1469751562751028 -0.22789946345425921 0 0.1365981685834384 -0.2140458083344346 0 0.12311730452817291 -0.22691163671105011 0 0.1365981685834384 -0.2140458083344346 0 0.12509200087224359 -0.21676833170735779 0 0.13005229300132709 -0.25122354292990129 0 0.12311730452817291 -0.22691163671105011 0 0.1469751562751028 -0.22789946345425921 0 0.13005229300132709 -0.25122354292990129 0 0.1469751562751028 -0.22789946345425921 0 0.1640222344971112 -0.20440418367535909 0 0.1472807941413953 -0.20358929573499171 0 0.1536364805520043 -0.18743229183821289 0 0.1472807941413953 -0.20358929573499171 0 0.13187092091143501 -0.1890841743188228 0 0.1536364805520043 -0.18743229183821289 0 0.1640222344971112 -0.20440418367535909 0 0.1469751562751028 -0.22789946345425921 0 0.1472807941413953 -0.20358929573499171 0 0.1640222344971112 -0.20440418367535909 0 0.1469751562751028 -0.22789946345425921 0 0.1469751562751028 -0.22789946345425921 0 0.1472807941413953 -0.20358929573499171 0 0.1365981685834384 -0.2140458083344346 0 0.1204911152159769 -0.20770794863657771 0 0.1365981685834384 -0.2140458083344346 0 0.12509200087224359 -0.21676833170735779 0 0.1204911152159769 -0.20770794863657771 0 0.1365981685834384 -0.2140458083344346 0 0.13187092091143501 -0.1890841743188228 0 0.1204911152159769 -0.20770794863657771 0 0.13187092091143501 -0.1890841743188228 0 0.1472807941413953 -0.20358929573499171 0 0.1365981685834384 -0.2140458083344346 0 0.13187092091143501 -0.1890841743188228 0 0.13187092091143501 -0.1890841743188228 0 0.1432507266068942 -0.17046040000106849 0 0.12847455560672219 -0.168849375265443 0 0.13187092091143501 -0.1890841743188228 0 0.1432507266068942 -0.17046040000106849 0 0.1536364805520043 -0.18743229183821289 0 0.1432507266068942 -0.17046040000106849 0 0.1536364805520043 -0.18743229183821289 0 0.1432507266068942 -0.17046040000106849 0 0.15641421433953481 -0.17131016571212621 0 0.13187092091143501 -0.1890841743188228 0 0.1536364805520043 -0.18743229183821289 0 0.1432507266068942 -0.17046040000106849 0 0.14773990182690641 -0.16311357981733199 0 0.15231303623804121 -0.1558215207820792 0 0.16015608302771889 -0.1589898427707179 0 0.1432507266068942 -0.17046040000106849 0 0.14773990182690641 -0.16311357981733199 0 0.15641421433953481 -0.17131016571212621 0 0.14773990182690641 -0.16311357981733199 0 0.15641421433953481 -0.17131016571212621 0 0.16015608302771889 -0.1589898427707179 0 0.1432507266068942 -0.17046040000106849 0 0.14773990182690641 -0.16311357981733199 0 0.14773990182690641 -0.16311357981733199 0 0.14470727158484251 -0.15323646208157979 0 0.15231303623804121 -0.1558215207820792 0 0.14773990182690641 -0.16311357981733199 0 0.13412479340576849 -0.1555472456916952 0 0.14470727158484251 -0.15323646208157979 0 0.1432507266068942 -0.17046040000106849 0 0.14773990182690641 -0.16311357981733199 0 0.13412479340576849 -0.1555472456916952 0 0.1143050861408222 -0.15568642978264419 0 0.12847455560672219 -0.168849375265443 0 0.13412479340576849 -0.1555472456916952 0 0.1432507266068942 -0.17046040000106849 0 0.13412479340576849 -0.1555472456916952 0 0.1432507266068942 -0.17046040000106849 0 0.12847455560672219 -0.168849375265443 0 0.13412479340576849 -0.1555472456916952 0 0.1402697440021681 -0.1439057252455096 0 0.13412479340576849 -0.1555472456916952 0 0.12617980878852969 -0.1365240843804808 0 0.1402697440021681 -0.1439057252455096 0 0.13412479340576849 -0.1555472456916952 0 0.14470727158484251 -0.15323646208157979 0 0.13685650676483671 -0.1211713932319218 0 0.12617980878852969 -0.1365240843804808 0 0.1450794293830267 -0.13223316902504631 0 0.1402697440021681 -0.1439057252455096 0 0.12617980878852969 -0.1365240843804808 0 0.1450794293830267 -0.13223316902504631 0 0.1450794293830267 -0.13223316902504631 0 0.15545790508828269 -0.14645400348075599 0 0.16023150781391221 -0.12971906167510419 0 0.14932492811111869 -0.1145430552038417 0 0.1450794293830267 -0.13223316902504631 0 0.16023150781391221 -0.12971906167510419 0 0.1402697440021681 -0.1439057252455096 0 0.14470727158484251 -0.15323646208157979 0 0.15545790508828269 -0.14645400348075599 0 0.1402697440021681 -0.1439057252455096 0 0.1450794293830267 -0.13223316902504631 0 0.15545790508828269 -0.14645400348075599 0 0.14470727158484251 -0.15323646208157979 0 0.15545790508828269 -0.14645400348075599 0 0.15231303623804121 -0.1558215207820792 0 0.15545790508828269 -0.14645400348075599 0 0.15231303623804121 -0.1558215207820792 0 0.16015608302771889 -0.1589898427707179 0 0.15545790508828269 -0.14645400348075599 0 0.16897554154687849 -0.15360171330780109 0 0.16015608302771889 -0.1589898427707179 0 0.15545790508828269 -0.14645400348075599 0 0.17013544966084479 -0.1424373957300247 0 0.16897554154687849 -0.15360171330780109 0 0.15545790508828269 -0.14645400348075599 0 0.17013544966084479 -0.1424373957300247 0 0.16023150781391221 -0.12971906167510419 0 0.17013544966084479 -0.1424373957300247 0 0.16023150781391221 -0.12971906167510419 0 0.17493136137656509 -0.12817596485682239 0 0.19064044170861419 -0.12867748534588841 0 0.17493136137656509 -0.12817596485682239 0 0.18307819234208411 -0.13969202619167281 0 0.17013544966084479 -0.1424373957300247 0 0.17493136137656509 -0.12817596485682239 0 0.18307819234208411 -0.13969202619167281 0 0.17013544966084479 -0.1424373957300247 0 0.16897554154687849 -0.15360171330780109 0 0.17966969438680139 -0.15457450143019699 0 0.17013544966084479 -0.1424373957300247 0 0.18307819234208411 -0.13969202619167281 0 0.17966969438680139 -0.15457450143019699 0 0.1884212322022378 -0.149077921645975 0 0.18307819234208411 -0.13969202619167281 0 0.17966969438680139 -0.15457450143019699 0 0.1884212322022378 -0.149077921645975 0 0.19407678538748649 -0.15934560460131439 0 0.17966969438680139 -0.15457450143019699 0 0.19407678538748649 -0.15934560460131439 0 0.17966969438680139 -0.15457450143019699 0 0.18189982897357451 -0.16507207570290039 0 0.16897554154687849 -0.15360171330780109 0 0.17966969438680139 -0.15457450143019699 0 0.17103570169243931 -0.16689217366673409 0 0.17966969438680139 -0.15457450143019699 0 0.18189982897357451 -0.16507207570290039 0 0.17103570169243931 -0.16689217366673409 0 0.18189982897357451 -0.16507207570290039 0 0.17659044616463901 -0.17560332481063101 0 0.17103570169243931 -0.16689217366673409 0 0.18189982897357451 -0.16507207570290039 0 0.18671764231521409 -0.17466171805760611 0 0.17659044616463901 -0.17560332481063101 0 0.18671764231521409 -0.17466171805760611 0 0.1813254483137228 -0.1838429891840829 0 0.17659044616463901 -0.17560332481063101 0 0.19138362874008949 -0.18354069679484139 0 0.1854194435388952 -0.19329751245859991 0 0.1813254483137228 -0.1838429891840829 0 0.19138362874008949 -0.18354069679484139 0 0.18671764231521409 -0.17466171805760611 0 0.1813254483137228 -0.1838429891840829 0 0.17541973029353899 -0.19166918986259299 0 0.1813254483137228 -0.1838429891840829 0 0.17242179882996039 -0.1842854931202261 0 0.1813254483137228 -0.1838429891840829 0 0.17242179882996039 -0.1842854931202261 0 0.17659044616463901 -0.17560332481063101 0 0.1536364805520043 -0.18743229183821289 0 0.16611243653447791 -0.17936700617907661 0 0.15641421433953481 -0.17131016571212621 0 0.16611243653447791 -0.17936700617907661 0 0.15641421433953481 -0.17131016571212621 0 0.17103570169243931 -0.16689217366673409 0 0.17659044616463901 -0.17560332481063101 0 0.16611243653447791 -0.17936700617907661 0 0.17103570169243931 -0.16689217366673409 0 0.17242179882996039 -0.1842854931202261 0 0.17659044616463901 -0.17560332481063101 0 0.16611243653447791 -0.17936700617907661 0 0.16605863070481319 -0.19123841299592531 0 0.17242179882996039 -0.1842854931202261 0 0.16611243653447791 -0.17936700617907661 0 0.16605863070481319 -0.19123841299592531 0 0.1536364805520043 -0.18743229183821289 0 0.16611243653447791 -0.17936700617907661 0 0.15641421433953481 -0.17131016571212621 0 0.16015608302771889 -0.1589898427707179 0 0.17103570169243931 -0.16689217366673409 0 0.16897554154687849 -0.15360171330780109 0 0.16015608302771889 -0.1589898427707179 0 0.17103570169243931 -0.16689217366673409 0 
</DataArray>
</Points>
<Cells>
<DataArray type="UInt32" Name="connectivity" format="ascii">
0 1 2 3 4 5 6 7 8 9 10 11 12 13 14 15 16 17 18 19 20 21 22 23 24 25 26 27 28 29 30 31 32 33 34 35 36 37 38 39 40 41 42 43 44 45 46 47 48 49 50 51 52 53 54 55 56 57 58 59 60 61 62 63 64 65 66 67 68 69 70 71 72 73 74 75 76 77 78 79 80 81 82 83 84 85 86 87 88 89 90 91 92 93 94 95 96 97 98 99 100 101 102 103 104 105 106 107 108 109 110 111 112 113 114 115 116 117 118 119 120 121 122 123 124 125 126 127 128 129 130 131 132 133 134 135 136 137 138 139 140 141 142 143 144 145 146 147 148 149 150 151 152 153 154 155 156 157 158 159 160 161 162 163 164 165 166 167 168 169 170 171 172 173 174 175 176 177 178 179 180 181 182 183 184 185 186 187 188 189 190 191 192 193 194 195 196 197 198 199 200 201 202 203 204 205 206 207 208 209 210 211 212 213 214 215 216 217 218 219 220 221 222 223 224 225 226 227 228 229 230 231 232 233 234 235 236 237 238 239 240 241 242 243 244 245 246 247 248 249 250 251 252 253 254 255 256 257 258 259 260 261 262 263 264 265 266 267 268 269 270 271 272 273 274 275 276 277 278 279 280 281 282 283 284 285 286 287 288 289 290 291 292 293 294 295 296 297 298 299 300 301 302 303 304 305 306 307 308 309 310 311 312 313 314 315 316 317 318 319 320 321 322 323 324 325 326 327 328 329 330 331 332 333 334 335 336 337 338 339 340 341 342 343 344 345 346 347 348 349 350 351 352 353 354 355 356 357 358 359 360 361 362 363 364 365 366 367 368 369 370 371 372 373 374 375 376 377 378 379 380 381 382 383 384 385 386 387 388 389 390 391 392 393 394 395 396 397 398 399 400 401 402 403 404 405 406 407 408 409 410 411 412 413 414 415 416 417 418 419 420 421 422 423 424 425 426 427 428 429 430 431 432 433 434 435 436 437 438 439 440 441 442 443 444 445 446 447 448 449 450 451 452 453 454 455 456 457 458 459 460 461 462 463 464 465 466 467 468 469 470 471 472 473 474 475 476 477 478 479 480 481 482 483 484 485 486 487 488 489 490 491 492 493 494 495 496 497 498 499 500 501 502 503 504 505 506 507 508 509 510 511 512 513 514 515 516 517 518 519 520 521 522 523 524 525 526 527 528 529 530 531 532 533 534 535 536 537 538 539 540 541 542 543 544 545 546 547 548 549 550 551 552 553 554 555 556 557 558 559 560 561 562 563 564 565 566 567 568 569 570 571 572 573 574 575 576 577 578 579 580 581 582 583 584 585 586 587 588 589 590 591 592 593 594 595 596 597 598 599 600 601 602 603 604 605 606 607 608 609 610 611 612 613 614 615 616 617 618 619 620 621 622 623 624 625 626 627 628 629 630 631 632 633 634 635 636 637 638 639 640 641 642 643 644 645 646 647 648 649 650 651 652 653 654 655 656 657 658 659 660 661 662 663 664 665 666 667 668 669 670 671 672 673 674 675 676 677 678 679 680 681 682 683 684 685 686 687 688 689 690 691 692 693 694 695 696 697 698 699 700 701 702 703 704 705 706 707 708 709 710 711 712 713 714 715 716 717 718 719 720 721 722 723 724 725 726 727 728 729 730 731 732 733 734 735 736 737 738 739 740 741 742 743 744 745 746 747 748 749 750 751 752 753 754 755 756 757 758 759 760 761 762 763 764 765 766 767 768 769 770 771 772 773 774 775 776 777 778 779 780 781 782 783 784 785 786 787 788 789 790 791 792 793 794 795 796 797 798 799 800 801 802 803 804 805 806 807 808 809 810 811 812 813 814 815 816 817 818 819 820 821 822 823 824 825 826 827 828 829 830 831 832 833 834 835 836 837 838 839 840 841 842 843 844 845 846 847 848 849 850 851 852 853 854 855 856 857 858 859 860 861 862 863 864 865 866 867 868 869 870 871 872 873 874 875 876 877 878 879 880 881 882 883 884 885 886 887 888 889 890 891 892 893 894 895 896 897 898 899 900 901 902 903 904 905 906 907 908 909 910 911 912 913 914 915 916 917 918 919 920 921 922 923 924 925 926 927 928 929 930 931 932 933 934 935 936 937 938 939 940 941 942 943 944 945 946 947 948 949 950 951 952 953 954 955 956 957 958 959 960 961 962 963 964 965 966 967 968 969 970 971 972 973 974 975 976 977 978 979 980 981 982 983 984 985 986 987 988 989 990 991 992 993 994 995 996 997 998 999 1000 1001 1002 1003 1004 1005 1006 1007 1008 1009 1010 1011 1012 1013 1014 1015 1016 1017 1018 1019 1020 1021 1022 1023 1024 1025 1026 1027 1028 1029 1030 1031 1032 1033 1034 1035 1036 1037 1038 1039 1040 1041 1042 1043 1044 1045 1046 1047 1048 1049 1050 1051 1052 1053 1054 1055 1056 1057 1058 1059 1060 1061 1062 1063 1064 1065 1066 1067 1068 1069 1070 1071 1072 1073 1074 1075 1076 1077 1078 1079 1080 1081 1082 1083 1084 1085 1086 1087 1088 1089 1090 1091 1092 1093 1094 1095 1096 1097 1098 1099 1100 1101 1102 1103 1104 1105 1106 1107 1108 1109 1110 1111 1112 1113 1114 1115 1116 1117 1118 1119 1120 1121 1122 1123 1124 1125 1126 1127 1128 1129 1130 1131 1132 1133 1134 1135 1136 1137 1138 1139 1140 1141 1142 1143 1144 1145 1146 1147 1148 1149 1150 1151 1152 1153 1154 1155 1156 1157 1158 1159 1160 1161 1162 1163 1164 1165 1166 1167 1168 1169 1170 1171 1172 1173 1174 1175 1176 1177 1178 1179 1180 1181 1182 1183 1184 1185 1186 1187 1188 1189 1190 1191 1192 1193 1194 1195 1196 1197 1198 1199 1200 1201 1202 1203 1204 1205 1206 1207 1208 1209 1210 1211 1212 1213 1214 1215 1216 1217 1218 1219 1220 1221 1222 1223 1224 1225 1226 1227 1228 1229 1230 1231 1232 1233 1234 1235 1236 1237 1238 1239 1240 1241 1242 1243 1244 1245 1246 1247 1248 1249 1250 1251 1252 1253 1254 1255 1256 1257 1258 1259 1260 1261 1262 1263 1264 1265 1266 1267 1268 1269 1270 1271 1272 1273 1274 1275 1276 1277 1278 1279 1280 1281 1282 1283 1284 1285 1286 1287 1288 1289 1290 1291 1292 1293 1294 1295 1296 1297 1298 1299 1300 1301 1302 1303 1304 1305 1306 1307 1308 1309 1310 1311 1312 1313 1314 1315 1316 1317 1318 1319 1320 1321 1322 1323 1324 1325 1326 1327 1328 1329 1330 1331 1332 1333 1334 1335 1336 1337 1338 1339 1340 1341 1342 1343 1344 1345 1346 1347 1348 1349 1350 1351 1352 1353 1354 1355 1356 1357 1358 1359 1360 1361 1362 1363 1364 1365 1366 1367 1368 1369 1370 1371 1372 1373 1374 1375 1376 1377 1378 1379 1380 1381 1382 1383 1384 1385 1386 1387 1388 1389 1390 1391 1392 1393 1394 1395 1396 1397 1398 1399 1400 1401 1402 1403 1404 1405 1406 1407 1408 1409 1410 1411 1412 1413 1414 1415 1416 1417 1418 1419 1420 1421 1422 1423 1424 1425 1426 1427 1428 1429 1430 1431 1432 1433 1434 1435 1436 1437 1438 1439 1440 1441 1442 1443 1444 1445 1446 1447 1448 1449 1450 1451 1452 1453 1454 1455 1456 1457 1458 1459 1460 1461 1462 1463 1464 1465 1466 1467 1468 1469 1470 1471 1472 1473 1474 1475 1476 1477 1478 1479 1480 1481 1482 1483 1484 1485 1486 1487 1488 1489 1490 1491 1492 1493 1494 1495 1496 1497 1498 1499 1500 1501 1502 1503 1504 1505 1506 1507 1508 1509 1510 1511 1512 1513 1514 1515 1516 1517 1518 1519 1520 1521 1522 1523 1524 1525 1526 1527 1528 1529 1530 1531 1532 1533 1534 1535 1536 1537 1538 1539 1540 1541 1542 1543 1544 1545 1546 1547 1548 1549 1550 1551 1552 1553 1554 1555 1556 1557 1558 1559 1560 1561 1562 1563 1564 1565 1566 1567 1568 1569 1570 1571 1572 1573 1574 1575 1576 1577 1578 1579 1580 1581 1582 1583 1584 1585 1586 1587 1588 1589 1590 1591 1592 1593 1594 1595 1596 1597 1598 1599 1600 1601 1602 1603 1604 1605 1606 1607 1608 1609 1610 1611 1612 1613 1614 1615 1616 1617 1618 1619 1620 1621 1622 1623 1624 1625 1626 1627 1628 1629 1630 1631 1632 1633 1634 1635 1636 1637 1638 1639 1640 1641 1642 1643 1644 1645 1646 1647 1648 1649 1650 1651 1652 1653 1654 1655 1656 1657 1658 1659 1660 1661 1662 1663 1664 1665 1666 1667 1668 1669 1670 1671 1672 1673 1674 1675 1676 1677 1678 1679 1680 1681 1682 1683 1684 1685 1686 1687 1688 1689 1690 1691 1692 1693 1694 1695 1696 1697 1698 1699 1700 1701 1702 1703 1704 1705 1706 1707 1708 1709 1710 1711 1712 1713 1714 1715 1716 1717 1718 1719 1720 1721 1722 1723 1724 1725 1726 1727 1728 1729 1730 1731 1732 1733 1734 1735 1736 1737 1738 1739 1740 1741 1742 1743 1744 1745 1746 1747 1748 1749 1750 1751 1752 1753 1754 1755 1756 1757 1758 1759 1760 1761 1762 1763 1764 1765 1766 1767 1768 1769 1770 1771 1772 1773 1774 1775 1776 1777 1778 1779 1780 1781 1782 1783 1784 1785 1786 1787 1788 1789 1790 1791 1792 1793 1794 1795 1796 1797 1798 1799 1800 1801 1802 1803 1804 1805 1806 1807 1808 1809 1810 1811 1812 1813 1814 1815 1816 1817 1818 1819 1820 1821 1822 1823 1824 1825 1826 1827 1828 1829 1830 1831 1832 1833 1834 1835 1836 1837 1838 1839 1840 1841 1842 1843 1844 1845 1846 1847 1848 1849 1850 1851 1852 1853 1854 1855 1856 1857 1858 1859 1860 1861 1862 1863 1864 1865 1866 1867 1868 1869 1870 1871 1872 1873 1874 1875 1876 1877 1878 1879 1880 1881 1882 1883 1884 1885 1886 1887 1888 1889 1890 1891 1892 1893 1894 1895 1896 1897 1898 1899 1900 1901 1902 1903 1904 1905 1906 1907 1908 1909 1910 1911 1912 1913 1914 1915 1916 1917 1918 1919 1920 1921 1922 1923 1924 1925 1926 1927 1928 1929 1930 1931 1932 1933 1934 1935 1936 1937 1938 1939 1940 1941 1942 1943 1944 1945 1946 1947 1948 1949 1950 1951 1952 1953 1954 1955 1956 1957 1958 1959 1960 1961 1962 1963 1964 1965 1966 1967 1968 1969 1970 1971 1972 1973 1974 1975 1976 1977 1978 1979 1980 1981 1982 1983 1984 1985 1986 1987 1988 1989 1990 1991 1992 1993 1994 1995 1996 1997 1998 1999 2000 2001 2002 2003 2004 2005 2006 2007 2008 2009 2010 2011 2012 2013 2014 2015 2016 2017 2018 2019 2020 2021 2022 2023 2024 2025 2026 2027 2028 2029 2030 2031 2032 2033 2034 2035 2036 2037 2038 2039 2040 2041 2042 2043 2044 2045 2046 2047 2048 2049 2050 2051 2052 2053 2054 2055 2056 2057 2058 2059 2060 2061 2062 2063 2064 2065 2066 2067 2068 2069 2070 2071 2072 2073 2074 2075 2076 2077 2078 2079 2080 2081 2082 2083 2084 2085 2086 2087 2088 2089 2090 2091 2092 2093 2094 2095 2096 2097 2098 2099 2100 2101 2102 2103 2104 2105 2106 2107 2108 2109 2110 2111 2112 2113 2114 2115 2116 2117 2118 2119 2120 2121 2122 2123 2124 2125 2126 2127 2128 2129 2130 2131 2132 2133 2134 2135 2136 2137 2138 2139 2140 2141 2142 2143 2144 2145 2146 2147 2148 2149 2150 2151 2152 2153 2154 2155 2156 2157 2158 2159 2160 2161 2162 2163 2164 2165 2166 2167 2168 2169 2170 2171 2172 2173 2174 2175 2176 2177 2178 2179 2180 2181 2182 2183 2184 2185 2186 2187 2188 2189 2190 2191 2192 2193 2194 2195 2196 2197 2198 2199 2200 2201 2202 2203 2204 2205 2206 2207 2208 2209 2210 2211 2212 2213 2214 2215 2216 2217 2218 2219 2220 2221 2222 2223 2224 2225 2226 2227 2228 2229 2230 2231 2232 2233 2234 2235 2236 2237 2238 2239 2240 2241 2242 2243 2244 2245 2246 2247 2248 2249 2250 2251 2252 2253 2254 2255 2256 2257 2258 2259 2260 2261 2262 2263 2264 2265 2266 2267 2268 2269 2270 2271 2272 2273 2274 2275 2276 2277 2278 2279 2280 2281 2282 2283 2284 2285 2286 2287 2288 2289 2290 2291 2292 2293 2294 2295 2296 2297 2298 2299 2300 2301 2302 2303 2304 2305 2306 2307 2308 2309 2310 2311 2312 2313 2314 2315 2316 2317 2318 2319 2320 2321 2322 2323 2324 2325 2326 2327 2328 2329 2330 2331 2332 2333 2334 2335 2336 2337 2338 2339 2340 2341 2342 2343 2344 2345 2346 2347 2348 2349 2350 2351 2352 2353 2354 2355 2356 2357 2358 2359 2360 2361 2362 2363 2364 2365 2366 2367 2368 2369 2370 2371 2372 2373 2374 2375 2376 2377 2378 2379 2380 2381 2382 2383 2384 2385 2386 2387 2388 2389 2390 2391 2392 2393 2394 2395 2396 2397 2398 2399 2400 2401 2402 2403 2404 2405 2406 2407 2408 2409 2410 2411 2412 2413 2414 2415 2416 2417 2418 2419 2420 2421 2422 2423 2424 2425 2426 2427 2428 2429 2430 2431 2432 2433 2434 2435 2436 2437 2438 2439 2440 2441 2442 2443 2444 2445 2446 2447 2448 2449 2450 2451 2452 2453 2454 2455 2456 2457 2458 2459 2460 2461 2462 2463 2464 2465 2466 2467 2468 2469 2470 2471 2472 2473 2474 2475 2476 2477 2478 2479 2480 2481 2482 2483 2484 2485 2486 2487 2488 2489 2490 2491 2492 2493 2494 2495 2496 2497 2498 2499 2500 2501 2502 2503 2504 2505 2506 2507 2508 2509 2510 2511 2512 2513 2514 2515 2516 2517 2518 2519 2520 2521 2522 2523 2524 2525 2526 2527 2528 2529 2530 2531 2532 2533 2534 2535 2536 2537 2538 2539 2540 2541 2542 2543 2544 2545 2546 2547 2548 2549 2550 2551 2552 2553 2554 2555 2556 2557 2558 2559 2560 2561 2562 2563 2564 2565 2566 2567 2568 2569 2570 2571 2572 2573 2574 2575 2576 2577 2578 2579 2580 2581 2582 2583 2584 2585 2586 2587 2588 2589 2590 2591 2592 2593 2594 2595 2596 2597 2598 2599 2600 2601 2602 2603 2604 2605 2606 2607 2608 2609 2610 2611 2612 2613 2614 2615 2616 2617 2618 2619 2620 2621 2622 2623 2624 2625 2626 2627 2628 2629 2630 2631 2632 2633 2634 2635 2636 2637 2638 2639 2640 2641 2642 2643 2644 2645 2646 2647 2648 2649 2650 2651 2652 2653 2654 2655 2656 2657 2658 2659 2660 2661 2662 2663 2664 2665 2666 2667 2668 2669 2670 2671 2672 2673 2674 2675 2676 2677 2678 2679 2680 2681 2682 2683 2684 2685 2686 2687 2688 2689 2690 2691 2692 2693 2694 2695 2696 2697 2698 2699 2700 2701 2702 2703 2704 2705 2706 2707 2708 2709 2710 2711 2712 2713 2714 2715 2716 2717 2718 2719 2720 2721 2722 2723 2724 2725 2726 2727 2728 2729 2730 2731 2732 2733 2734 2735 2736 2737 2738 2739 2740 2741 2742 2743 2744 2745 2746 2747 2748 2749 2750 2751 2752 2753 2754 2755 2756 2757 2758 2759 2760 2761 2762 2763 2764 2765 2766 2767 2768 2769 2770 2771 2772 2773 2774 2775 2776 2777 2778 2779 2780 2781 2782 2783 2784 2785 2786 2787 2788 2789 2790 2791 2792 2793 2794 2795 2796 2797 2798 2799 2800 2801 2802 2803 2804 2805 2806 2807 2808 2809 2810 2811 2812 2813 2814 2815 2816 2817 2818 2819 2820 2821 2822 2823 2824 2825 2826 2827 2828 2829 2830 2831 2832 2833 2834 2835 2836 2837 2838 2839 2840 2841 2842 2843 2844 2845 2846 2847 2848 2849 2850 2851 2852 2853 2854 2855 2856 2857 2858 2859 2860 2861 2862 2863 2864 2865 2866 2867 2868 2869 2870 2871 2872 2873 2874 2875 2876 2877 2878 2879 2880 2881 2882 2883 2884 2885 2886 2887 2888 2889 2890 2891 2892 2893 2894 2895 2896 2897 2898 2899 2900 2901 2902 2903 2904 2905 2906 2907 2908 2909 2910 2911 2912 2913 2914 2915 2916 2917 2918 2919 2920 2921 2922 2923 2924 2925 2926 2927 2928 2929 2930 2931 2932 2933 2934 2935 2936 2937 2938 2939 2940 2941 2942 2943 2944 2945 2946 2947 2948 2949 2950 2951 2952 2953 2954 2955 2956 2957 2958 2959 2960 2961 2962 2963 2964 2965 2966 2967 2968 2969 2970 2971 2972 2973 2974 2975 2976 2977 2978 2979 2980 2981 2982 2983 2984 2985 2986 2987 2988 2989 2990 2991 2992 2993 2994 2995 2996 2997 2998 2999 3000 3001 3002 3003 3004 3005 3006 3007 3008 3009 3010 3011 3012 3013 3014 3015 3016 3017 3018 3019 3020 3021 3022 3023 3024 3025 3026 3027 3028 3029 3030 3031 3032 3033 3034 3035 3036 3037 3038 3039 3040 3041 3042 3043 3044 3045 3046 3047 3048 3049 3050 3051 3052 3053 3054 3055 3056 3057 3058 3059 3060 3061 3062 3063 3064 3065 3066 3067 3068 3069 3070 3071 3072 3073 3074 3075 3076 3077 3078 3079 3080 3081 3082 3083 3084 3085 3086 3087 3088 3089 3090 3091 3092 3093 3094 3095 3096 3097 3098 3099 3100 3101 3102 3103 3104 3105 3106 3107 3108 3109 3110 3111 3112 3113 3114 3115 3116 3117 3118 3119 3120 3121 3122 3123 3124 3125 3126 3127 3128 3129 3130 3131 3132 3133 3134 3135 3136 3137 3138 3139 3140 3141 3142 3143 3144 3145 3146 3147 3148 3149 3150 3151 3152 3153 3154 3155 3156 3157 3158 3159 3160 3161 3162 3163 3164 3165 3166 3167 3168 3169 3170 3171 3172 3173 3174 3175 3176 3177 3178 3179 3180 3181 3182 3183 3184 3185 3186 3187 3188 3189 3190 3191 3192 3193 3194 3195 3196 3197 3198 3199 3200 3201 3202 3203 3204 3205 3206 3207 3208 3209 3210 3211 3212 3213 3214 3215 3216 3217 3218 3219 3220 3221 3222 3223 3224 3225 3226 3227 3228 3229 3230 3231 3232 3233 3234 3235 3236 3237 3238 3239 3240 3241 3242 3243 3244 3245 3246 3247 3248 3249 3250 3251 3252 3253 3254 3255 3256 3257 3258 3259 3260 3261 3262 3263 3264 3265 3266 3267 3268 3269 3270 3271 3272 3273 3274 3275 3276 3277 3278 3279 3280 3281 3282 3283 3284 3285 3286 3287 3288 3289 3290 3291 3292 3293 3294 3295 3296 3297 3298 3299 3300 3301 3302 3303 3304 3305 3306 3307 3308 3309 3310 3311 3312 3313 3314 3315 3316 3317 3318 3319 3320 3321 3322 3323 3324 3325 3326 3327 3328 3329 3330 3331 3332 3333 3334 3335 3336 3337 3338 3339 3340 3341 3342 3343 3344 3345 3346 3347 3348 3349 3350 3351 3352 3353 3354 3355 3356 3357 3358 3359 3360 3361 3362 3363 3364 3365 3366 3367 3368 3369 3370 3371 3372 3373 3374 3375 3376 3377 3378 3379 3380 3381 3382 3383 3384 3385 3386 3387 3388 3389 3390 3391 3392 3393 3394 3395 3396 3397 3398 3399 3400 3401 3402 3403 3404 3405 3406 3407 3408 3409 3410 3411 3412 3413 3414 3415 3416 3417 3418 3419 3420 3421 3422 3423 3424 3425 3426 3427 3428 3429 3430 3431 3432 3433 3434 3435 3436 3437 3438 3439 3440 3441 3442 3443 3444 3445 3446 3447 3448 3449 3450 3451 3452 3453 3454 3455 3456 3457 3458 3459 3460 3461 3462 3463 3464 3465 3466 3467 3468 3469 3470 3471 3472 3473 3474 3475 3476 3477 3478 3479 3480 3481 3482 3483 3484 3485 3486 3487 3488 3489 3490 3491 3492 3493 3494 3495 3496 3497 3498 3499 3500 3501 3502 3503 3504 3505 3506 3507 3508 3509 3510 3511 3512 3513 3514 3515 3516 3517 3518 3519 3520 3521 3522 3523 3524 3525 3526 3527 3528 3529 3530 3531 3532 3533 3534 3535 3536 3537 3538 3539 3540 3541 3542 3543 3544 3545 3546 3547 3548 3549 3550 3551 3552 3553 3554 3555 3556 3557 3558 3559 3560 3561 3562 3563 3564 3565 3566 3567 3568 3569 3570 3571 3572 3573 3574 3575 3576 3577 3578 3579 3580 3581 3582 3583 3584 3585 3586 3587 3588 3589 3590 3591 3592 3593 3594 3595 3596 3597 3598 3599 3600 3601 3602 3603 3604 3605 3606 3607 3608 3609 3610 3611 3612 3613 3614 3615 3616 3617 3618 3619 3620 3621 3622 3623 3624 3625 3626 3627 3628 3629 3630 3631 3632 3633 3634 3635 3636 3637 3638 3639 3640 3641 3642 3643 3644 3645 3646 3647 3648 3649 3650 3651 3652 3653 3654 3655 3656 3657 3658 3659 3660 3661 3662 3663 3664 3665 3666 3667 3668 3669 3670 3671 3672 3673 3674 3675 3676 3677 3678 3679 3680 3681 3682 3683 3684 3685 3686 3687 3688 3689 3690 3691 3692 3693 3694 3695 3696 3697 3698 3699 3700 3701 3702 3703 3704 3705 3706 3707 3708 3709 3710 3711 3712 3713 3714 3715 3716 3717 3718 3719 3720 3721 3722 3723 3724 3725 3726 3727 3728 3729 3730 3731 3732 3733 3734 3735 3736 3737 3738 3739 3740 3741 3742 3743 3744 3745 3746 3747 3748 3749 3750 3751 3752 3753 3754 3755 3756 3757 3758 3759 3760 3761 3762 3763 3764 3765 3766 3767 3768 3769 3770 3771 3772 3773 3774 3775 3776 3777 3778 3779 3780 3781 3782 3783 3784 3785 3786 3787 3788 3789 3790 3791 3792 3793 3794 3795 3796 3797 3798 3799 3800 3801 3802 3803 3804 3805 3806 3807 3808 3809 3810 3811 3812 3813 3814 3815 3816 3817 3818 3819 3820 3821 3822 3823 3824 3825 3826 3827 3828 3829 3830 3831 3832 3833 3834 3835 3836 3837 3838 3839 3840 3841 3842 3843 3844 3845 3846 3847 3848 3849 3850 3851 3852 3853 3854 3855 3856 3857 3858 3859 3860 3861 3862 3863 3864 3865 3866 3867 3868 3869 3870 3871 3872 3873 3874 3875 3876 3877 3878 3879 3880 3881 3882 3883 3884 3885 3886 3887 3888 3889 3890 3891 3892 3893 3894 3895 3896 3897 3898 3899 3900 3901 3902 3903 3904 3905 3906 3907 3908 3909 3910 3911 3912 3913 3914 3915 3916 3917 3918 3919 3920 3921 3922 3923 3924 3925 3926 3927 3928 3929 3930 3931 3932 3933 3934 3935 3936 3937 3938 3939 3940 3941 3942 3943 3944 3945 3946 3947 3948 3949 3950 3951 3952 3953 3954 3955 3956 3957 3958 3959 3960 3961 3962 3963 3964 3965 3966 3967 3968 3969 3970 3971 3972 3973 3974 3975 3976 3977 3978 3979 3980 3981 3982 3983 3984 3985 3986 3987 3988 3989 3990 3991 3992 3993 3994 3995 3996 3997 3998 3999 4000 4001 4002 4003 4004 4005 4006 4007 4008 4009 4010 4011 4012 4013 4014 4015 4016 4017 4018 4019 4020 4021 4022 4023 4024 4025 4026 4027 4028 4029 4030 4031 4032 4033 4034 4035 4036 4037 4038 4039 4040 4041 4042 4043 4044 4045 4046 4047 4048 4049 4050 4051 4052 4053 4054 4055 4056 4057 4058 4059 4060 4061 4062 4063 4064 4065 4066 4067 4068 4069 4070 4071 4072 4073 4074 4075 4076 4077 4078 4079 4080 4081 4082 4083 4084 4085 4086 4087 4088 4089 4090 4091 4092 4093 4094 4095 4096 4097 4098 4099 4100 4101 4102 4103 4104 4105 4106 4107 4108 4109 4110 4111 4112 4113 4114 4115 4116 4117 4118 4119 4120 4121 4122 4123 4124 4125 4126 4127 4128 4129 4130 4131 4132 4133 4134 4135 4136 4137 4138 4139 4140 4141 4142 4143 4144 4145 4146 4147 4148 4149 4150 4151 4152 4153 4154 4155 4156 4157 4158 4159 4160 4161 4162 4163 4164 4165 4166 4167 4168 4169 4170 4171 4172 4173 4174 4175 4176 4177 4178 4179 4180 4181 4182 4183 4184 4185 4186 4187 4188 4189 4190 4191 4192 4193 4194 4195 4196 4197 4198 4199 4200 4201 4202 4203 4204 4205 4206 4207 4208 4209 4210 4211 4212 4213 4214 4215 4216 4217 4218 4219 4220 4221 4222 4223 4224 4225 4226 4227 4228 4229 4230 4231 4232 4233 4234 4235 4236 4237 4238 4239 4240 4241 4242 4243 4244 4245 4246 4247 4248 4249 4250 4251 4252 4253 4254 4255 4256 4257 4258 4259 4260 4261 4262 4263 4264 4265 4266 4267 4268 4269 4270 4271 4272 4273 4274 4275 4276 4277 4278 4279 4280 4281 4282 4283 4284 4285 4286 4287 4288 4289 4290 4291 4292 4293 4294 4295 4296 4297 4298 4299 4300 4301 4302 4303 4304 4305 4306 4307 4308 4309 4310 4311 4312 4313 4314 4315 4316 4317 4318 4319 4320 4321 4322 4323 4324 4325 4326 4327 4328 4329 4330 4331 4332 4333 4334 4335 4336 4337 4338 4339 4340 4341 4342 4343 4344 4345 4346 4347 4348 4349 4350 4351 4352 4353 4354 4355 4356 4357 4358 4359 4360 4361 4362 4363 4364 4365 4366 4367 4368 4369 4370 4371 4372 4373 4374 4375 4376 4377 4378 4379 4380 4381 4382 4383 4384 4385 4386 4387 4388 4389 4390 4391 4392 4393 4394 4395 4396 4397 4398 4399 4400 4401 4402 4403 4404 4405 4406 4407 4408 4409 4410 4411 4412 4413 4414 4415 4416 4417 4418 4419 4420 4421 4422 4423 4424 4425 4426 4427 4428 4429 4430 4431 4432 4433 4434 4435 4436 4437 4438 4439 4440 4441 4442 4443 4444 4445 4446 4447 4448 4449 4450 4451 4452 4453 4454 4455 4456 4457 4458 4459 4460 4461 4462 4463 4464 4465 4466 4467 4468 4469 4470 4471 4472 4473 4474 4475 4476 4477 4478 4479 4480 4481 4482 4483 4484 4485 4486 4487 4488 4489 4490 4491 4492 4493 4494 4495 4496 4497 4498 4499 4500 4501 4502 4503 4504 4505 4506 4507 4508 4509 4510 4511 4512 4513 4514 4515 4516 4517 4518 4519 4520 4521 4522 4523 4524 4525 4526 4527 4528 4529 4530 4531 4532 4533 4534 4535 4536 4537 4538 4539 4540 4541 4542 4543 4544 4545 4546 4547 4548 4549 4550 4551 4552 4553 4554 4555 4556 4557 4558 4559 4560 4561 4562 4563 4564 4565 4566 4567 4568 4569 4570 4571 4572 4573 4574 4575 4576 4577 4578 4579 4580 4581 4582 4583 4584 4585 4586 4587 4588 4589 4590 4591 4592 4593 4594 4595 4596 4597 4598 4599 4600 4601 4602 4603 4604 4605 4606 4607 4608 4609 4610 4611 4612 4613 4614 4615 4616 4617 4618 4619 4620 4621 4622 4623 4624 4625 4626 4627 4628 4629 4630 4631 4632 4633 4634 4635 4636 4637 4638 4639 4640 4641 4642 4643 4644 4645 4646 4647 4648 4649 4650 4651 4652 4653 4654 4655 4656 4657 4658 4659 4660 4661 4662 4663 4664 4665 4666 4667 4668 4669 4670 4671 4672 4673 4674 4675 4676 4677 4678 4679 4680 4681 4682 4683 4684 4685 4686 4687 4688 4689 4690 4691 4692 4693 4694 4695 4696 4697 4698 4699 4700 4701 4702 4703 4704 4705 4706 4707 4708 4709 4710 4711 4712 4713 4714 4715 4716 4717 4718 4719 4720 4721 4722 4723 4724 4725 4726 4727 4728 4729 4730 4731 4732 4733 4734 4735 4736 4737 4738 4739 4740 4741 4742 4743 4744 4745 4746 4747 4748 4749 4750 4751 4752 4753 4754 4755 4756 4757 4758 4759 4760 4761 4762 4763 4764 4765 4766 4767 4768 4769 4770 4771 4772 4773 4774 4775 4776 4777 4778 4779 4780 4781 4782 4783 4784 4785 4786 4787 4788 4789 4790 4791 4792 4793 4794 4795 4796 4797 4798 4799 4800 4801 4802 4803 4804 4805 4806 4807 4808 4809 4810 4811 4812 4813 4814 4815 4816 4817 4818 4819 4820 4821 4822 4823 4824 4825 4826 4827 4828 4829 4830 4831 4832 4833 4834 4835 4836 4837 4838 4839 4840 4841 4842 4843 4844 4845 4846 4847 4848 4849 4850 4851 4852 4853 4854 4855 4856 4857 4858 4859 4860 4861 4862 4863 4864 4865 4866 4867 4868 4869 4870 4871 4872 4873 4874 4875 4876 4877 4878 4879 4880 4881 4882 4883 4884 4885 4886 4887 4888 4889 4890 4891 4892 4893 4894 4895 4896 4897 4898 4899 4900 4901 4902 4903 4904 4905 4906 4907 4908 4909 4910 4911 4912 4913 4914 4915 4916 4917 4918 4919 4920 4921 4922 4923 4924 4925 4926 4927 4928 4929 4930 4931 4932 4933 4934 4935 4936 4937 4938 4939 4940 4941 4942 4943 4944 4945 4946 4947 4948 4949 4950 4951 4952 4953 4954 4955 4956 4957 4958 4959 4960 4961 4962 4963 4964 4965 4966 4967 4968 4969 4970 4971 4972 4973 4974 4975 4976 4977 4978 4979 4980 4981 4982 4983 4984 4985 4986 4987 4988 4989 4990 4991 4992 4993 4994 4995 4996 4997 4998 4999 5000 5001 5002 5003 5004 5005 5006 5007 5008 5009 5010 5011 5012 5013 5014 5015 5016 5017 5018 5019 5020 5021 5022 5023 5024 5025 5026 5027 5028 5029 5030 5031 5032 5033 5034 5035 5036 5037 5038 5039 5040 5041 5042 5043 5044 5045 5046 5047 5048 5049 5050 5051 5052 5053 5054 5055 5056 5057 5058 5059 5060 5061 5062 5063 5064 5065 5066 5067 5068 5069 5070 5071 5072 5073 5074 5075 5076 5077 5078 5079 5080 5081 5082 5083 5084 5085 5086 5087 5088 5089 5090 5091 5092 5093 5094 5095 5096 5097 5098 5099 5100 5101 5102 5103 5104 5105 5106 5107 5108 5109 5110 5111 5112 5113 5114 5115 5116 5117 5118 5119 5120 5121 5122 5123 5124 5125 5126 5127 5128 5129 5130 5131 5132 5133 5134 5135 5136 5137 5138 5139 5140 5141 5142 5143 5144 5145 5146 5147 5148 5149 5150 5151 5152 5153 5154 5155 5156 5157 5158 5159 5160 5161 5162 5163 5164 5165 5166 5167 5168 5169 5170 5171 5172 5173 5174 5175 5176 5177 5178 5179 5180 5181 5182 5183 5184 5185 5186 5187 5188 5189 5190 5191 5192 5193 5194 5195 5196 5197 5198 5199 5200 5201 5202 5203 5204 5205 5206 5207 5208 5209 5210 5211 5212 5213 5214 5215 5216 5217 5218 5219 5220 5221 5222 5223 5224 5225 5226 5227 5228 5229 5230 5231 5232 5233 5234 5235 5236 5237 5238 5239 5240 5241 5242 5243 5244 5245 5246 5247 5248 5249 5250 5251 5252 5253 5254 5255 5256 5257 5258 5259 5260 5261 5262 5263 5264 5265 5266 5267 5268 5269 5270 5271 5272 5273 5274 5275 5276 5277 5278 5279 5280 5281 5282 5283 5284 5285 5286 5287 5288 5289 5290 5291 5292 5293 5294 5295 5296 5297 5298 5299 5300 5301 5302 5303 5304 5305 5306 5307 5308 5309 5310 5311 5312 5313 5314 5315 5316 5317 5318 5319 5320 5321 5322 5323 5324 5325 5326 5327 5328 5329 5330 5331 5332 5333 5334 5335 5336 5337 5338 5339 5340 5341 5342 5343 5344 5345 5346 5347 5348 5349 5350 5351 5352 5353 5354 5355 5356 5357 5358 5359 5360 5361 5362 5363 5364 5365 5366 5367 5368 5369 5370 5371 5372 5373 5374 5375 5376 5377 5378 5379 5380 5381 5382 5383 5384 5385 5386 5387 5388 5389 5390 5391 5392 5393 5394 5395 5396 5397 5398 5399 5400 5401 5402 5403 5404 5405 5406 5407 5408 5409 5410 5411 5412 5413 5414 5415 5416 5417 5418 5419 5420 5421 5422 5423 5424 5425 5426 5427 5428 5429 5430 5431 5432 5433 5434 5435 5436 5437 5438 5439 5440 5441 5442 5443 5444 5445 5446 5447 5448 5449 5450 5451 5452 5453 5454 5455 5456 5457 5458 5459 5460 5461 5462 5463 5464 5465 5466 5467 5468 5469 5470 5471 5472 5473 5474 5475 5476 5477 5478 5479 5480 5481 5482 5483 5484 5485 5486 5487 5488 5489 5490 5491 5492 5493 5494 5495 5496 5497 5498 5499 5500 5501 5502 5503 5504 5505 5506 5507 5508 5509 5510 5511 5512 5513 5514 5515 5516 5517 5518 5519 5520 5521 5522 5523 5524 5525 5526 5527 5528 5529 5530 5531 5532 5533 5534 5535 5536 5537 5538 5539 5540 5541 5542 5543 5544 5545 5546 5547 5548 5549 5550 5551 5552 5553 5554 5555 5556 5557 5558 5559 5560 5561 5562 5563 5564 5565 5566 5567 5568 5569 5570 5571 5572 5573 5574 5575 5576 5577 5578 5579 5580 5581 5582 5583 5584 5585 5586 5587 5588 5589 5590 5591 5592 5593 5594 5595 5596 5597 5598 5599 5600 5601 5602 5603 5604 5605 5606 5607 5608 5609 5610 5611 5612 5613 5614 5615 5616 5617 5618 5619 5620 5621 5622 5623 5624 5625 5626 5627 5628 5629 5630 5631 5632 5633 5634 5635 5636 5637 5638 5639 5640 5641 5642 5643 5644 5645 5646 5647 5648 5649 5650 5651 5652 5653 5654 5655 5656 5657 5658 5659 5660 5661 5662 5663 5664 5665 5666 5667 5668 5669 5670 5671 5672 5673 5674 5675 5676 5677 5678 5679 5680 5681 5682 5683 5684 5685 5686 5687 5688 5689 5690 5691 5692 5693 5694 5695 5696 5697 5698 5699 5700 5701 5702 5703 5704 5705 5706 5707 5708 5709 5710 5711 5712 5713 5714 5715 5716 5717 5718 5719 5720 5721 5722 5723 5724 5725 5726 5727 5728 5729 5730 5731 5732 5733 5734 5735 5736 5737 5738 5739 5740 5741 5742 5743 5744 5745 5746 5747 5748 5749 5750 5751 5752 5753 5754 5755 5756 5757 5758 5759 5760 5761 5762 5763 5764 5765 5766 5767 5768 5769 5770 5771 5772 5773 5774 5775 5776 5777 5778 5779 5780 5781 5782 5783 5784 5785 5786 5787 5788 5789 5790 5791 5792 5793 5794 5795 5796 5797 5798 5799 5800 5801 5802 5803 5804 5805 5806 5807 5808 5809 5810 5811 5812 5813 5814 5815 5816 5817 5818 5819 5820 5821 5822 5823 5824 5825 5826 5827 5828 5829 5830 5831 5832 5833 5834 5835 5836 5837 5838 5839 5840 5841 5842 5843 5844 5845 5846 5847 5848 5849 5850 5851 5852 5853 5854 5855 5856 5857 5858 5859 5860 5861 5862 5863 5864 5865 5866 5867 5868 5869 5870 5871 5872 5873 5874 5875 5876 5877 5878 5879 5880 5881 5882 5883 5884 5885 5886 5887 5888 5889 5890 5891 5892 5893 5894 5895 5896 5897 5898 5899 5900 5901 5902 5903 5904 5905 5906 5907 5908 5909 5910 5911 5912 5913 5914 5915 5916 5917 5918 5919 5920 5921 5922 5923 5924 5925 5926 5927 5928 5929 5930 5931 5932 5933 5934 5935 5936 5937 5938 5939 5940 5941 5942 5943 5944 5945 5946 5947 5948 5949 5950 5951 5952 5953 5954 5955 5956 5957 5958 5959 5960 5961 5962 5963 5964 5965 5966 5967 5968 5969 5970 5971 5972 5973 5974 5975 5976 5977 5978 5979 5980 5981 5982 5983 5984 5985 5986 5987 5988 5989 5990 5991 5992 5993 5994 5995 5996 5997 5998 5999 6000 6001 6002 6003 6004 6005 6006 6007 6008 6009 6010 6011 6012 6013 6014 6015 6016 6017 6018 6019 6020 6021 6022 6023 6024 6025 6026 6027 6028 6029 6030 6031 6032 6033 6034 6035 6036 6037 6038 6039 6040 6041 6042 6043 6044 6045 6046 6047 6048 6049 6050 6051 6052 6053 6054 6055 6056 6057 6058 6059 6060 6061 6062 6063 6064 6065 6066 6067 6068 6069 6070 6071 6072 6073 6074 6075 6076 6077 6078 6079 6080 6081 6082 6083 6084 6085 6086 6087 6088 6089 6090 6091 6092 6093 6094 6095 6096 6097 6098 6099 6100 6101 6102 6103 6104 6105 6106 6107 6108 6109 6110 6111 6112 6113 6114 6115 6116 6117 6118 6119 6120 6121 6122 6123 6124 6125 6126 6127 6128 6129 6130 6131 6132 6133 6134 6135 6136 6137 6138 6139 6140 6141 6142 6143 6144 6145 6146 6147 6148 6149 6150 6151 6152 6153 6154 6155 6156 6157 6158 6159 6160 6161 6162 6163 6164 6165 6166 6167 6168 6169 6170 6171 6172 6173 6174 6175 6176 6177 6178 6179 6180 6181 6182 6183 6184 6185 6186 6187 6188 6189 6190 6191 6192 6193 6194 6195 6196 6197 6198 6199 6200 6201 6202 6203 6204 6205 6206 6207 6208 6209 6210 6211 6212 6213 6214 6215 6216 6217 6218 6219 6220 6221 6222 6223 6224 6225 6226 6227 6228 6229 6230 6231 6232 6233 6234 6235 6236 6237 6238 6239 6240 6241 6242 6243 6244 6245 6246 6247 6248 6249 6250 6251 6252 6253 6254 6255 6256 6257 6258 6259 6260 6261 6262 6263 6264 6265 6266 6267 6268 6269 6270 6271 6272 6273 6274 6275 6276 6277 6278 6279 6280 6281 6282 6283 6284 6285 6286 6287 6288 6289 6290 6291 6292 6293 6294 6295 6296 6297 6298 6299 6300 6301 6302 6303 6304 6305 6306 6307 6308 6309 6310 6311 6312 6313 6314 6315 6316 6317 6318 6319 6320 6321 6322 6323 6324 6325 6326 6327 6328 6329 6330 6331 6332 6333 6334 6335 6336 6337 6338 6339 6340 6341 6342 6343 6344 6345 6346 6347 6348 6349 6350 6351 6352 6353 6354 6355 6356 6357 6358 6359 6360 6361 6362 6363 6364 6365 6366 6367 6368 6369 6370 6371 6372 6373 6374 6375 6376 6377 6378 6379 6380 6381 6382 6383 6384 6385 6386 6387 6388 6389 6390 6391 6392 6393 6394 6395 6396 6397 6398 6399 6400 6401 6402 6403 6404 6405 6406 6407 6408 6409 6410 6411 6412 6413 6414 6415 6416 6417 6418 6419 6420 6421 6422 6423 6424 6425 6426 6427 6428 6429 6430 6431 6432 6433 6434 6435 6436 6437 6438 6439 6440 6441 6442 6443 6444 6445 6446 6447 6448 6449 6450 6451 6452 6453 6454 6455 6456 6457 6458 6459 6460 6461 6462 6463 6464 6465 6466 6467 6468 6469 6470 6471 6472 6473 6474 6475 6476 6477 6478 6479 6480 6481 6482 6483 6484 6485 6486 6487 6488 6489 6490 6491 6492 6493 6494 6495 6496 6497 6498 6499 6500 6501 6502 6503 6504 6505 6506 6507 6508 6509 6510 6511 6512 6513 6514 6515 6516 6517 6518 6519 6520 6521 6522 6523 6524 6525 6526 6527 6528 6529 6530 6531 6532 6533 6534 6535 6536 6537 6538 6539 6540 6541 6542 6543 6544 6545 6546 6547 6548 6549 6550 6551 6552 6553 6554 6555 6556 6557 6558 6559 6560 6561 6562 6563 6564 6565 6566 6567 6568 6569 6570 6571 6572 6573 6574 6575 6576 6577 6578 6579 6580 6581 6582 6583 6584 6585 6586 6587 6588 6589 6590 6591 6592 6593 6594 6595 6596 6597 6598 6599 6600 6601 6602 6603 6604 6605 6606 6607 6608 6609 6610 6611 6612 6613 6614 6615 6616 6617 6618 6619 6620 6621 6622 6623 6624 6625 6626 6627 6628 6629 6630 6631 6632 6633 6634 6635 6636 6637 6638 6639 6640 6641 6642 6643 6644 6645 6646 6647 6648 6649 6650 6651 6652 6653 6654 6655 6656 6657 6658 6659 6660 6661 6662 6663 6664 6665 6666 6667 6668 6669 6670 6671 6672 6673 6674 6675 6676 6677 6678 6679 6680 6681 6682 6683 6684 6685 6686 6687 6688 6689 6690 6691 6692 6693 6694 6695 6696 6697 6698 6699 6700 6701 6702 6703 6704 6705 6706 6707 6708 6709 6710 6711 6712 6713 6714 6715 6716 6717 6718 6719 6720 6721 6722 6723 6724 6725 6726 6727 6728 6729 6730 6731 6732 6733 6734 6735 6736 6737 6738 6739 6740 6741 6742 6743 6744 6745 6746 6747 6748 6749 6750 6751 6752 6753 6754 6755 6756 6757 6758 6759 6760 6761 6762 6763 6764 6765 6766 6767 6768 6769 6770 6771 6772 6773 6774 6775 6776 6777 6778 6779 6780 6781 6782 6783 6784 6785 6786 6787 6788 6789 6790 6791 6792 6793 6794 6795 6796 6797 6798 6799 6800 6801 6802 6803 6804 6805 6806 6807 6808 6809 6810 6811 6812 6813 6814 6815 6816 6817 6818 6819 6820 6821 6822 6823 6824 6825 6826 6827 6828 6829 6830 6831 6832 6833 6834 6835 6836 6837 6838 6839 6840 6841 6842 6843 6844 6845 6846 6847 6848 6849 6850 6851 6852 6853 6854 6855 6856 6857 6858 6859 6860 6861 6862 6863 6864 6865 6866 6867 6868 6869 6870 6871 6872 6873 6874 6875 6876 6877 6878 6879 6880 6881 6882 6883 6884 6885 6886 6887 6888 6889 6890 6891 6892 6893 6894 6895 6896 6897 6898 6899 6900 6901 6902 6903 6904 6905 6906 6907 6908 6909 6910 6911 6912 6913 6914 6915 6916 6917 6918 6919 6920 6921 6922 6923 6924 6925 6926 6927 6928 6929 6930 6931 6932 6933 6934 6935 6936 6937 6938 6939 6940 6941 6942 6943 6944 6945 6946 6947 6948 6949 6950 6951 6952 6953 6954 6955 6956 6957 6958 6959 6960 6961 6962 6963 6964 6965 6966 6967 6968 6969 6970 6971 6972 6973 6974 6975 6976 6977 6978 6979 6980 6981 6982 6983 6984 6985 6986 6987 6988 6989 6990 6991 6992 6993 6994 6995 6996 6997 6998 6999 7000 7001 7002 7003 7004 7005 7006 7007 7008 7009 7010 7011 7012 7013 7014 7015 7016 7017 7018 7019 7020 7021 7022 7023 7024 7025 7026 7027 7028 7029 7030 7031 7032 7033 7034 7035 7036 7037 7038 7039 7040 7041 7042 7043 7044 7045 7046 7047 7048 7049 7050 7051 7052 7053 7054 7055 7056 7057 7058 7059 7060 7061 7062 7063 7064 7065 7066 7067 7068 7069 7070 7071 7072 7073 7074 7075 7076 7077 7078 7079 7080 7081 7082 7083 7084 7085 7086 7087 7088 7089 7090 7091 7092 7093 7094 7095 7096 7097 7098 7099 7100 7101 7102 7103 7104 7105 7106 7107 7108 7109 7110 7111 7112 7113 7114 7115 7116 7117 7118 7119 7120 7121 7122 7123 7124 7125 7126 7127 7128 7129 7130 7131 7132 7133 7134 7135 7136 7137 7138 7139 7140 7141 7142 7143 7144 7145 7146 7147 7148 7149 7150 7151 7152 7153 7154 7155 7156 7157 7158 7159 7160 7161 7162 7163 7164 7165 7166 7167 7168 7169 7170 7171 7172 7173 7174 7175 7176 7177 7178 7179 7180 7181 7182 7183 7184 7185 7186 7187 7188 7189 7190 7191 7192 7193 7194 7195 7196 7197 7198 7199 7200 7201 7202 7203 7204 7205 7206 7207 7208 7209 7210 7211 7212 7213 7214 7215 7216 7217 7218 7219 7220 7221 7222 7223 7224 7225 7226 7227 7228 7229 7230 7231 7232 7233 7234 7235 7236 7237 7238 7239 7240 7241 7242 7243 7244 7245 7246 7247 7248 7249 7250 7251 7252 7253 7254 7255 7256 7257 7258 7259 7260 7261 7262 7263 7264 7265 7266 7267 7268 7269 7270 7271 7272 7273 7274 7275 7276 7277 7278 7279 7280 7281 7282 7283 7284 7285 7286 7287 7288 7289 7290 7291 7292 7293 7294 7295 7296 7297 7298 7299 7300 7301 7302 7303 7304 7305 7306 7307 7308 7309 7310 7311 7312 7313 7314 7315 7316 7317 7318 7319 7320 7321 7322 7323 7324 7325 7326 7327 7328 7329 7330 7331 7332 7333 7334 7335 7336 7337 7338 7339 7340 7341 7342 7343 7344 7345 7346 7347 7348 7349 7350 7351 7352 7353 7354 7355 7356 7357 7358 7359 7360 7361 7362 7363 7364 7365 7366 7367 7368 7369 7370 7371 7372 7373 7374 7375 7376 7377 7378 7379 7380 7381 7382 7383 7384 7385 7386 7387 7388 7389 7390 7391 7392 7393 7394 7395 7396 7397 7398 7399 7400 7401 7402 7403 7404 7405 7406 7407 7408 7409 7410 7411 7412 7413 7414 7415 7416 7417 7418 7419 7420 7421 7422 7423 7424 7425 7426 7427 7428 7429 7430 7431 7432 7433 7434 7435 7436 7437 7438 7439 7440 7441 7442 7443 7444 7445 7446 7447 7448 7449 7450 7451 7452 7453 7454 7455 7456 7457 7458 7459 7460 7461 7462 7463 7464 7465 7466 7467 7468 7469 7470 7471 7472 7473 7474 7475 7476 7477 7478 7479 7480 7481 7482 7483 7484 7485 7486 7487 7488 7489 7490 7491 7492 7493 7494 7495 7496 7497 7498 7499 7500 7501 7502 7503 7504 7505 7506 7507 7508 7509 7510 7511 7512 7513 7514 7515 7516 7517 7518 7519 7520 7521 7522 7523 7524 7525 7526 7527 7528 7529 7530 7531 7532 7533 7534 7535 7536 7537 7538 7539 7540 7541 7542 7543 7544 7545 7546 7547 7548 7549 7550 7551 7552 7553 7554 7555 7556 7557 7558 7559 7560 7561 7562 7563 7564 7565 7566 7567 7568 7569 7570 7571 7572 7573 7574 7575 7576 7577 7578 7579 7580 7581 7582 7583 7584 7585 7586 7587 7588 7589 7590 7591 7592 7593 7594 7595 7596 7597 7598 7599 7600 7601 7602 7603 7604 7605 7606 7607 7608 7609 7610 7611 7612 7613 7614 7615 7616 7617 7618 7619 7620 7621 7622 7623 7624 7625 7626 7627 7628 7629 7630 7631 7632 7633 7634 7635 7636 7637 7638 7639 7640 7641 7642 7643 7644 7645 7646 7647 7648 7649 7650 7651 7652 7653 7654 7655 7656 7657 7658 7659 7660 7661 7662 7663 7664 7665 7666 7667 7668 7669 7670 7671 7672 7673 7674 7675 7676 7677 7678 7679 7680 7681 7682 7683 7684 7685 7686 7687 7688 7689 7690 7691 7692 7693 7694 7695 7696 7697 7698 7699 7700 7701 7702 7703 7704 7705 7706 7707 7708 7709 7710 7711 7712 7713 7714 7715 7716 7717 7718 7719 7720 7721 7722 7723 7724 7725 7726 7727 7728 7729 7730 7731 7732 7733 7734 7735 7736 7737 7738 7739 7740 7741 7742 7743 7744 7745 7746 7747 7748 7749 7750 7751 7752 7753 7754 7755 7756 7757 7758 7759 7760 7761 7762 7763 7764 7765 7766 7767 7768 7769 7770 7771 7772 7773 7774 7775 7776 7777 7778 7779 7780 7781 7782 7783 7784 7785 7786 7787 7788 7789 7790 7791 7792 7793 7794 7795 7796 7797 7798 7799 7800 7801 7802 7803 7804 7805 7806 7807 7808 7809 7810 7811 7812 7813 7814 7815 7816 7817 7818 7819 7820 7821 7822 7823 7824 7825 7826 7827 7828 7829 7830 7831 7832 7833 7834 7835 7836 7837 7838 7839 7840 7841 7842 7843 7844 7845 7846 7847 7848 7849 7850 7851 7852 7853 7854 7855 7856 7857 7858 7859 7860 7861 7862 7863 7864 7865 7866 7867 7868 7869 7870 7871 7872 7873 7874 7875 7876 7877 7878 7879 7880 7881 7882 7883 7884 7885 7886 7887 7888 7889 7890 7891 7892 7893 7894 7895 7896 7897 7898 7899 7900 7901 7902 7903 7904 7905 7906 7907 7908 7909 7910 7911 7912 7913 7914 7915 7916 7917 7918 7919 7920 7921 7922 7923 7924 7925 7926 7927 7928 7929 7930 7931 7932 7933 7934 7935 7936 7937 7938 7939 7940 7941 7942 7943 7944 7945 7946 7947 7948 7949 7950 7951 7952 7953 7954 7955 7956 7957 7958 7959 7960 7961 7962 7963 7964 7965 7966 7967 7968 7969 7970 7971 7972 7973 7974 7975 7976 7977 7978 7979 7980 7981 7982 7983 7984 7985 7986 7987 7988 7989 7990 7991 7992 7993 7994 7995 7996 7997 7998 7999 8000 8001 8002 8003 8004 8005 8006 8007 8008 8009 8010 8011 8012 8013 8014 8015 8016 8017 8018 8019 8020 8021 8022 8023 8024 8025 8026 8027 8028 8029 8030 8031 8032 8033 8034 8035 8036 8037 8038 8039 8040 8041 8042 8043 8044 8045 8046 8047 8048 8049 8050 8051 8052 8053 8054 8055 8056 8057 8058 8059 8060 8061 8062 8063 8064 8065 8066 8067 8068 8069 8070 8071 8072 8073 8074 8075 8076 8077 8078 8079 8080 8081 8082 8083 8084 8085 8086 8087 8088 8089 8090 8091 8092 8093 8094 8095 8096 8097 8098 8099 8100 8101 8102 8103 8104 8105 8106 8107 8108 8109 8110 8111 8112 8113 8114 8115 8116 8117 8118 8119 8120 8121 8122 8123 8124 8125 8126 8127 8128 8129 8130 8131 8132 8133 8134 8135 8136 8137 8138 8139 8140 8141 8142 8143 8144 8145 8146 8147 8148 8149 8150 8151 8152 8153 8154 8155 8156 8157 8158 8159 8160 8161 8162 8163 8164 8165 8166 8167 8168 8169 8170 8171 8172 8173 8174 8175 8176 8177 8178 8179 8180 8181 8182 8183 8184 8185 8186 8187 8188 8189 8190 8191 8192 8193 8194 8195 8196 8197 8198 8199 8200 8201 8202 8203 8204 8205 8206 8207 8208 8209 8210 8211 8212 8213 8214 8215 8216 8217 8218 8219 8220 8221 8222 8223 8224 8225 8226 8227 8228 8229 8230 8231 8232 8233 8234 8235 8236 8237 8238 8239 8240 8241 8242 8243 8244 8245 8246 8247 8248 8249 8250 8251 8252 8253 8254 8255 8256 8257 8258 8259 8260 8261 8262 8263 8264 8265 8266 8267 8268 8269 8270 8271 8272 8273 8274 8275 8276 8277 8278 8279 8280 8281 8282 8283 8284 8285 8286 8287 8288 8289 8290 8291 8292 8293 8294 8295 8296 8297 8298 8299 8300 8301 8302 8303 8304 8305 8306 8307 8308 8309 8310 8311 8312 8313 8314 8315 8316 8317 8318 8319 8320 8321 8322 8323 8324 8325 8326 8327 8328 8329 8330 8331 8332 8333 8334 8335 8336 8337 8338 8339 8340 8341 8342 8343 8344 8345 8346 8347 8348 8349 8350 8351 8352 8353 8354 8355 8356 8357 8358 8359 8360 8361 8362 8363 8364 8365 8366 8367 8368 8369 8370 8371 8372 8373 8374 8375 8376 8377 8378 8379 8380 8381 8382 8383 8384 8385 8386 8387 8388 8389 8390 8391 8392 8393 8394 8395 8396 8397 8398 8399 8400 8401 8402 8403 8404 8405 8406 8407 8408 8409 8410 8411 8412 8413 8414 8415 8416 8417 8418 8419 8420 8421 8422 8423 8424 8425 8426 8427 8428 8429 8430 8431 8432 8433 8434 8435 8436 8437 8438 8439 8440 8441 8442 8443 8444 8445 8446 8447 8448 8449 8450 8451 8452 8453 8454 8455 8456 8457 8458 8459 8460 8461 8462 8463 8464 8465 8466 8467 8468 8469 8470 8471 8472 8473 8474 8475 8476 8477 8478 8479 8480 8481 8482 8483 8484 8485 8486 8487 8488 8489 8490 8491 8492 8493 8494 8495 8496 8497 8498 8499 8500 8501 8502 8503 8504 8505 8506 8507 8508 8509 8510 8511 8512 8513 8514 8515 8516 8517 8518 8519 8520 8521 8522 8523 8524 8525 8526 8527 8528 8529 8530 8531 8532 8533 8534 8535 8536 8537 8538 8539 8540 8541 8542 8543 8544 8545 8546 8547 8548 8549 8550 8551 8552 8553 8554 8555 8556 8557 8558 8559 8560 8561 8562 8563 8564 8565 8566 8567 8568 8569 8570 8571 8572 8573 8574 8575 8576 8577 8578 8579 8580 8581 8582 8583 8584 8585 8586 8587 8588 8589 8590 8591 8592 8593 8594 8595 8596 8597 8598 8599 8600 8601 8602 8603 8604 8605 8606 8607 8608 8609 8610 8611 8612 8613 8614 8615 8616 8617 8618 8619 8620 8621 8622 8623 8624 8625 8626 8627 8628 8629 8630 8631 8632 8633 8634 8635 8636 8637 8638 8639 8640 8641 8642 8643 8644 8645 8646 8647 8648 8649 8650 8651 8652 8653 8654 8655 8656 8657 8658 8659 8660 8661 8662 8663 8664 8665 8666 8667 8668 8669 8670 8671 8672 8673 8674 8675 8676 8677 8678 8679 8680 8681 8682 8683 8684 8685 8686 8687 8688 8689 8690 8691 8692 8693 8694 8695 8696 8697 8698 8699 8700 8701 8702 8703 8704 8705 8706 8707 8708 8709 8710 8711 8712 8713 8714 8715 8716 8717 8718 8719 8720 8721 8722 8723 8724 8725 8726 8727 8728 8729 8730 8731 8732 8733 8734 8735 8736 8737 8738 8739 8740 8741 8742 8743 8744 8745 8746 8747 8748 8749 8750 8751 8752 8753 8754 8755 8756 8757 8758 8759 8760 8761 8762 8763 8764 8765 8766 8767 8768 8769 8770 8771 8772 8773 8774 8775 8776 8777 8778 8779 8780 8781 8782 8783 8784 8785 8786 8787 8788 8789 8790 8791 8792 8793 8794 8795 8796 8797 8798 8799 8800 8801 8802 8803 8804 8805 8806 8807 8808 8809 8810 8811 8812 8813 8814 8815 8816 8817 8818 8819 8820 8821 8822 8823 8824 8825 8826 8827 8828 8829 8830 8831 8832 8833 8834 8835 8836 8837 8838 8839 8840 8841 8842 8843 8844 8845 8846 8847 8848 8849 8850 8851 8852 8853 8854 8855 8856 8857 8858 8859 8860 8861 8862 8863 8864 8865 8866 8867 8868 8869 8870 8871 8872 8873 8874 8875 8876 8877 8878 8879 8880 8881 8882 8883 8884 8885 8886 8887 8888 8889 8890 8891 8892 8893 8894 8895 8896 8897 8898 8899 8900 8901 8902 8903 8904 8905 8906 8907 8908 8909 8910 8911 8912 8913 8914 8915 8916 8917 8918 8919 8920 8921 8922 8923 8924 8925 8926 8927 8928 8929 8930 8931 8932 8933 8934 8935 8936 8937 8938 8939 8940 8941 8942 8943 8944 8945 8946 8947 8948 8949 8950 8951 8952 8953 8954 8955 8956 8957 8958 8959 8960 8961 8962 8963 8964 8965 8966 8967 8968 8969 8970 8971 8972 8973 8974 8975 8976 8977 8978 8979 8980 8981 8982 8983 8984 8985 8986 8987 8988 8989 8990 8991 8992 8993 8994 8995 8996 8997 8998 8999 9000 9001 9002 9003 9004 9005 9006 9007 9008 9009 9010 9011 9012 9013 9014 9015 9016 9017 9018 9019 9020 9021 9022 9023 9024 9025 9026 9027 9028 9029 9030 9031 9032 9033 9034 9035 9036 9037 9038 9039 9040 9041 9042 9043 9044 9045 9046 9047 9048 9049 9050 9051 9052 9053 9054 9055 9056 9057 9058 9059 9060 9061 9062 9063 9064 9065 9066 9067 9068 9069 9070 9071 9072 9073 9074 9075 9076 9077 9078 9079 9080 9081 9082 9083 9084 9085 9086 9087 9088 9089 9090 9091 9092 9093 9094 9095 9096 9097 9098 9099 9100 9101 9102 9103 9104 9105 9106 9107 9108 9109 9110 9111 9112 9113 9114 9115 9116 9117 9118 9119 9120 9121 9122 9123 9124 9125 9126 9127 9128 9129 9130 9131 9132 9133 9134 9135 9136 9137 9138 9139 9140 9141 9142 9143 9144 9145 9146 9147 9148 9149 9150 9151 9152 9153 9154 9155 9156 9157 9158 9159 9160 9161 9162 9163 9164 9165 9166 9167 9168 9169 9170 9171 9172 9173 9174 9175 9176 9177 9178 9179 9180 9181 9182 9183 9184 9185 9186 9187 9188 9189 9190 9191 9192 9193 9194 9195 9196 9197 9198 9199 9200 9201 9202 9203 9204 9205 9206 9207 9208 9209 9210 9211 9212 9213 9214 9215 9216 9217 9218 9219 9220 9221 9222 9223 9224 9225 9226 9227 9228 9229 9230 9231 9232 9233 9234 9235 9236 9237 9238 9239 9240 9241 9242 9243 9244 9245 9246 9247 9248 9249 9250 9251 9252 9253 9254 9255 9256 9257 9258 9259 9260 9261 9262 9263 9264 9265 9266 9267 9268 9269 9270 9271 9272 9273 9274 9275 9276 9277 9278 9279 9280 9281 9282 9283 9284 9285 9286 9287 9288 9289 9290 9291 9292 9293 9294 9295 9296 9297 9298 9299 9300 9301 9302 9303 9304 9305 9306 9307 9308 9309 9310 9311 9312 9313 9314 9315 9316 9317 9318 9319 9320 9321 9322 9323 9324 9325 9326 9327 9328 9329 9330 9331 9332 9333 9334 9335 9336 9337 9338 9339 9340 9341 9342 9343 9344 9345 9346 9347 9348 9349 9350 9351 9352 9353 9354 9355 9356 9357 9358 9359 9360 9361 9362 9363 9364 9365 9366 9367 9368 9369 9370 9371 9372 9373 9374 9375 9376 9377 9378 9379 9380 9381 9382 9383 9384 9385 9386 9387 9388 9389 9390 9391 9392 9393 9394 9395 9396 9397 9398 9399 9400 9401 9402 9403 9404 9405 9406 9407 9408 9409 9410 9411 9412 9413 9414 9415 9416 9417 9418 9419 9420 9421 9422 9423 9424 9425 9426 9427 9428 9429 9430 9431 9432 9433 9434 9435 9436 9437 9438 9439 9440 9441 9442 9443 9444 9445 9446 9447 9448 9449 9450 9451 9452 9453 9454 9455 9456 9457 9458 9459 9460 9461 9462 9463 9464 9465 9466 9467 9468 9469 9470 9471 9472 9473 9474 9475 9476 9477 9478 9479 9480 9481 9482 9483 9484 9485 9486 9487 9488 9489 9490 9491 9492 9493 9494 9495 9496 9497 9498 9499 9500 9501 9502 9503 9504 9505 9506 9507 9508 9509 9510 9511 9512 9513 9514 9515 9516 9517 9518 9519 9520 9521 9522 9523 9524 9525 9526 9527 9528 9529 9530 9531 9532 9533 9534 9535 9536 9537 9538 9539 9540 9541 9542 9543 9544 9545 9546 9547 9548 9549 9550 9551 9552 9553 9554 9555 9556 9557 9558 9559 9560 9561 9562 9563 9564 9565 9566 9567 9568 9569 9570 9571 9572 9573 9574 9575 9576 9577 9578 9579 9580 9581 9582 9583 9584 9585 9586 9587 9588 9589 9590 9591 9592 9593 9594 9595 9596 9597 9598 9599 9600 9601 9602 9603 9604 9605 9606 9607 9608 9609 9610 9611 9612 9613 9614 9615 9616 9617 9618 9619 9620 9621 9622 9623 9624 9625 9626 9627 9628 9629 9630 9631 9632 9633 9634 9635 9636 9637 9638 9639 9640 9641 9642 9643 9644 9645 9646 9647 9648 9649 9650 9651 9652 9653 9654 9655 9656 9657 9658 9659 9660 9661 9662 9663 9664 9665 9666 9667 9668 9669 9670 9671 9672 9673 9674 9675 9676 9677 9678 9679 9680 9681 9682 9683 9684 9685 9686 9687 9688 9689 9690 9691 9692 9693 9694 9695 9696 9697 9698 9699 9700 9701 9702 9703 9704 9705 9706 9707 9708 9709 9710 9711 9712 9713 9714 9715 9716 9717 9718 9719 9720 9721 9722 9723 9724 9725 9726 9727 9728 9729 9730 9731 9732 9733 9734 9735 9736 9737 9738 9739 9740 9741 9742 9743 9744 9745 9746 9747 9748 9749 9750 9751 9752 9753 9754 9755 9756 9757 9758 9759 9760 9761 9762 9763 9764 9765 9766 9767 9768 9769 9770 9771 9772 9773 9774 9775 9776 9777 9778 9779 9780 9781 9782 9783 9784 9785 9786 9787 9788 9789 9790 9791 9792 9793 9794 9795 9796 9797 9798 9799 9800 9801 9802 9803 9804 9805 9806 9807 9808 9809 9810 9811 9812 9813 9814 9815 9816 9817 9818 9819 9820 9821 9822 9823 9824 9825 9826 9827 9828 9829 9830 9831 9832 9833 9834 9835 9836 9837 9838 9839 9840 9841 9842 9843 9844 9845 9846 9847 9848 9849 9850 9851 9852 9853 9854 9855 9856 9857 9858 9859 9860 9861 9862 9863 9864 9865 9866 9867 9868 9869 9870 9871 9872 9873 9874 9875 9876 9877 9878 9879 9880 9881 9882 9883 9884 9885 9886 9887 9888 9889 9890 9891 9892 9893 9894 9895 9896 9897 9898 9899 9900 9901 9902 9903 9904 9905 9906 9907 9908 9909 9910 9911 9912 9913 9914 9915 9916 9917 9918 9919 9920 9921 9922 9923 9924 9925 9926 9927 9928 9929 9930 9931 9932 9933 9934 9935 9936 9937 9938 9939 9940 9941 9942 9943 9944 9945 9946 9947 9948 9949 9950 9951 9952 9953 9954 9955 9956 9957 9958 9959 9960 9961 9962 9963 9964 9965 9966 9967 9968 9969 9970 9971 9972 9973 9974 9975 9976 9977 9978 9979 9980 9981 9982 9983 9984 9985 9986 9987 9988 9989 9990 9991 9992 9993 9994 9995 9996 9997 9998 9999 10000 10001 10002 10003 10004 10005 10006 10007 10008 10009 10010 10011 10012 10013 10014 10015 10016 10017 10018 10019 10020 10021 10022 10023 10024 10025 10026 10027 10028 10029 10030 10031 10032 10033 10034 10035 10036 10037 10038 10039 10040 10041 10042 10043 10044 10045 10046 10047 10048 10049 10050 10051 10052 10053 10054 10055 10056 10057 10058 10059 10060 10061 10062 10063 10064 10065 10066 10067 10068 10069 10070 10071 10072 10073 10074 10075 10076 10077 10078 10079 10080 10081 10082 10083 10084 10085 10086 10087 10088 10089 10090 10091 10092 10093 10094 10095 10096 10097 10098 10099 10100 10101 10102 10103 10104 10105 10106 10107 10108 10109 10110 10111 10112 10113 10114 10115 10116 10117 10118 10119 10120 10121 10122 10123 10124 10125 10126 10127 10128 10129 10130 10131 10132 10133 10134 10135 10136 10137 10138 10139 10140 10141 10142 10143 10144 10145 10146 10147 10148 10149 10150 10151 10152 10153 10154 10155 10156 10157 10158 10159 10160 10161 10162 10163 10164 10165 10166 10167 10168 10169 10170 10171 10172 10173 10174 10175 10176 10177 10178 10179 10180 10181 10182 10183 10184 10185 10186 10187 10188 10189 10190 10191 10192 10193 10194 10195 10196 10197 10198 10199 10200 10201 10202 10203 10204 10205 10206 10207 10208 10209 10210 10211 10212 10213 10214 10215 10216 10217 10218 10219 10220 10221 10222 10223 10224 10225 10226 10227 10228 10229 10230 10231 10232 10233 10234 10235 10236 10237 10238 10239 10240 10241 10242 10243 10244 10245 10246 10247 10248 10249 10250 10251 10252 10253 10254 10255 10256 10257 10258 10259 10260 10261 10262 10263 10264 10265 10266 10267 10268 10269 10270 10271 10272 10273 10274 10275 10276 10277 10278 10279 10280 10281 10282 10283 10284 10285 10286 10287 10288 10289 10290 10291 10292 10293 10294 10295 10296 10297 10298 10299 10300 10301 10302 10303 10304 10305 10306 10307 10308 10309 10310 10311 10312 10313 10314 10315 10316 10317 10318 10319 10320 10321 10322 10323 10324 10325 10326 10327 10328 10329 10330 10331 10332 10333 10334 10335 10336 10337 10338 10339 10340 10341 10342 10343 10344 10345 10346 10347 10348 10349 10350 10351 10352 10353 10354 10355 10356 10357 10358 10359 10360 10361 10362 10363 10364 10365 10366 10367 10368 10369 10370 10371 10372 10373 10374 10375 10376 10377 10378 10379 10380 10381 10382 10383 10384 10385 10386 10387 10388 10389 10390 10391 10392 10393 10394 10395 10396 10397 10398 10399 10400 10401 10402 10403 10404 10405 10406 10407 10408 10409 10410 10411 10412 10413 10414 10415 10416 10417 10418 10419 10420 10421 10422 10423 10424 10425 10426 10427 10428 10429 10430 10431 10432 10433 10434 10435 10436 10437 10438 10439 10440 10441 10442 10443 10444 10445 10446 10447 10448 10449 10450 10451 10452 10453 10454 10455 10456 10457 10458 10459 10460 10461 10462 10463 10464 10465 10466 10467 10468 10469 10470 10471 10472 10473 10474 10475 10476 10477 10478 10479 10480 10481 10482 10483 10484 10485 10486 10487 10488 10489 10490 10491 10492 10493 10494 10495 10496 10497 10498 10499 10500 10501 10502 10503 10504 10505 10506 10507 10508 10509 10510 10511 10512 10513 10514 10515 10516 10517 10518 10519 10520 10521 10522 10523 10524 10525 10526 10527 10528 10529 10530 10531 10532 10533 10534 10535 10536 10537 10538 10539 10540 10541 10542 10543 10544 10545 10546 10547 10548 10549 10550 10551 10552 10553 10554 10555 10556 10557 10558 10559 10560 10561 10562 10563 10564 10565 10566 10567 10568 10569 10570 10571 10572 10573 10574 10575 10576 10577 10578 10579 10580 10581 10582 10583 10584 10585 10586 10587 10588 10589 10590 10591 10592 10593 10594 10595 10596 10597 10598 10599 10600 10601 10602 10603 10604 10605 10606 10607 10608 10609 10610 10611 10612 10613 10614 10615 10616 10617 10618 10619 10620 10621 10622 10623 10624 10625 10626 10627 10628 10629 10630 10631 10632 10633 10634 10635 10636 10637 10638 10639 10640 10641 10642 10643 10644 10645 10646 10647 10648 10649 10650 10651 10652 10653 10654 10655 10656 10657 10658 10659 10660 10661 10662 10663 10664 10665 10666 10667 10668 10669 10670 10671 10672 10673 10674 10675 10676 10677 10678 10679 10680 10681 10682 10683 10684 10685 10686 10687 10688 10689 10690 10691 10692 10693 10694 10695 10696 10697 10698 10699 10700 10701 10702 10703 10704 10705 10706 10707 10708 10709 10710 10711 10712 10713 10714 10715 10716 10717 10718 10719 10720 10721 10722 10723 10724 10725 10726 10727 10728 10729 10730 10731 10732 10733 10734 10735 10736 10737 10738 10739 10740 10741 10742 10743 10744 10745 10746 10747 10748 10749 10750 10751 10752 10753 10754 10755 10756 10757 10758 10759 10760 10761 10762 10763 10764 10765 10766 10767 10768 10769 10770 10771 10772 10773 10774 10775 10776 10777 10778 10779 10780 10781 10782 10783 10784 10785 10786 10787 10788 10789 10790 10791 10792 10793 10794 10795 10796 10797 10798 10799 10800 10801 10802 10803 10804 10805 10806 10807 10808 10809 10810 10811 10812 10813 10814 10815 10816 10817 10818 10819 10820 10821 10822 10823 10824 10825 10826 10827 10828 10829 10830 10831 10832 10833 10834 10835 10836 10837 10838 10839 10840 10841 10842 10843 10844 10845 10846 10847 10848 10849 10850 10851 10852 10853 10854 10855 10856 10857 10858 10859 10860 10861 10862 10863 10864 10865 10866 10867 10868 10869 10870 10871 10872 10873 10874 10875 10876 10877 10878 10879 10880 10881 10882 10883 10884 10885 10886 10887 10888 10889 10890 10891 10892 10893 10894 10895 10896 10897 10898 10899 10900 10901 10902 10903 10904 10905 10906 10907 10908 10909 10910 10911 10912 10913 10914 10915 10916 10917 10918 10919 10920 10921 10922 10923 10924 10925 10926 10927 10928 10929 10930 10931 10932 10933 10934 10935 10936 10937 10938 10939 10940 10941 10942 10943 10944 10945 10946 10947 10948 10949 10950 10951 10952 10953 10954 10955 10956 10957 10958 10959 10960 10961 10962 10963 10964 10965 10966 10967 10968 10969 10970 10971 10972 10973 10974 10975 10976 10977 10978 10979 10980 10981 10982 10983 10984 10985 10986 10987 10988 10989 10990 10991 10992 10993 10994 10995 10996 10997 10998 10999 11000 11001 11002 11003 11004 11005 11006 11007 11008 11009 11010 11011 11012 11013 11014 11015 11016 11017 11018 11019 11020 11021 11022 11023 11024 11025 11026 11027 11028 11029 11030 11031 11032 11033 11034 11035 11036 11037 11038 11039 11040 11041 11042 11043 11044 11045 11046 11047 11048 11049 11050 11051 11052 11053 11054 11055 11056 11057 11058 11059 11060 11061 11062 11063 11064 11065 11066 11067 11068 11069 11070 11071 11072 11073 11074 11075 11076 11077 11078 11079 11080 11081 11082 11083 11084 11085 11086 11087 11088 11089 11090 11091 11092 11093 11094 11095 11096 11097 11098 11099 11100 11101 11102 11103 11104 11105 11106 11107 11108 11109 11110 11111 11112 11113 11114 11115 11116 11117 11118 11119 11120 11121 11122 11123 11124 11125 11126 11127 11128 11129 11130 11131 11132 11133 11134 11135 11136 11137 11138 11139 11140 11141 11142 11143 11144 11145 11146 11147 11148 11149 11150 11151 11152 11153 11154 11155 11156 11157 11158 11159 11160 11161 11162 11163 11164 11165 11166 11167 11168 11169 11170 11171 11172 11173 11174 11175 11176 11177 11178 11179 11180 11181 11182 11183 11184 11185 11186 11187 11188 11189 11190 11191 11192 11193 11194 11195 11196 11197 11198 11199 11200 11201 11202 11203 11204 11205 11206 11207 11208 11209 11210 11211 11212 11213 11214 11215 11216 11217 11218 11219 11220 11221 11222 11223 11224 11225 11226 11227 11228 11229 11230 11231 11232 11233 11234 11235 11236 11237 11238 11239 11240 11241 11242 11243 11244 11245 11246 11247 11248 11249 11250 11251 11252 11253 11254 11255 11256 11257 11258 11259 11260 11261 11262 11263 11264 11265 11266 11267 11268 11269 11270 11271 11272 11273 11274 11275 11276 11277 11278 11279 11280 11281 11282 11283 11284 11285 11286 11287 11288 11289 11290 11291 11292 11293 11294 11295 11296 11297 11298 11299 11300 11301 11302 11303 11304 11305 11306 11307 11308 11309 11310 11311 11312 11313 11314 11315 11316 11317 11318 11319 11320 11321 11322 11323 11324 11325 11326 11327 11328 11329 11330 11331 11332 11333 11334 11335 11336 11337 11338 11339 11340 11341 11342 11343 11344 11345 11346 11347 11348 11349 11350 11351 11352 11353 11354 11355 11356 11357 11358 11359 11360 11361 11362 11363 11364 11365 11366 11367 11368 11369 11370 11371 11372 11373 11374 11375 11376 11377 11378 11379 11380 11381 11382 11383 11384 11385 11386 11387 11388 11389 11390 11391 11392 11393 11394 11395 11396 11397 11398 11399 11400 11401 11402 11403 11404 11405 11406 11407 11408 11409 11410 11411 11412 11413 11414 11415 11416 11417 11418 11419 11420 11421 11422 11423 11424 11425 11426 11427 11428 11429 11430 11431 11432 11433 11434 11435 11436 11437 11438 11439 11440 11441 11442 11443 11444 11445 11446 11447 11448 11449 11450 11451 11452 11453 11454 11455 11456 11457 11458 11459 11460 11461 11462 11463 11464 11465 11466 11467 11468 11469 11470 11471 11472 11473 11474 11475 11476 11477 11478 11479 11480 11481 11482 11483 11484 11485 11486 11487 11488 11489 11490 11491 11492 11493 11494 11495 11496 11497 11498 11499 11500 11501 11502 11503 11504 11505 11506 11507 11508 11509 11510 11511 11512 11513 11514 11515 11516 11517 11518 11519 11520 11521 11522 11523 11524 11525 11526 11527 11528 11529 11530 11531 11532 11533 11534 11535 11536 11537 11538 11539 11540 11541 11542 11543 11544 11545 11546 11547 11548 11549 11550 11551 11552 11553 11554 11555 11556 11557 11558 11559 11560 11561 11562 11563 11564 11565 11566 11567 11568 11569 11570 11571 11572 11573 11574 11575 11576 11577 11578 11579 11580 11581 11582 11583 11584 11585 11586 11587 11588 11589 11590 11591 11592 11593 11594 11595 11596 11597 11598 11599 11600 11601 11602 11603 11604 11605 11606 11607 11608 11609 11610 11611 11612 11613 11614 11615 11616 11617 11618 11619 11620 11621 11622 11623 11624 11625 11626 11627 11628 11629 11630 11631 11632 11633 11634 11635 11636 11637 11638 11639 11640 11641 11642 11643 11644 11645 11646 11647 11648 11649 11650 11651 11652 11653 11654 11655 11656 11657 11658 11659 11660 11661 11662 11663 11664 11665 11666 11667 11668 11669 11670 11671 11672 11673 11674 11675 11676 11677 11678 11679 11680 11681 11682 11683 11684 11685 11686 11687 11688 11689 11690 11691 11692 11693 11694 11695 11696 11697 11698 11699 11700 11701 11702 11703 11704 11705 11706 11707 11708 11709 11710 11711 11712 11713 11714 11715 11716 11717 11718 11719 11720 11721 11722 11723 11724 11725 11726 11727 11728 11729 11730 11731 11732 11733 11734 11735 11736 11737 11738 11739 11740 11741 11742 11743 11744 11745 11746 11747 11748 11749 11750 11751 11752 11753 11754 11755 11756 11757 11758 11759 11760 11761 11762 11763 11764 11765 11766 11767 11768 11769 11770 11771 11772 11773 11774 11775 11776 11777 11778 11779 11780 11781 11782 11783 11784 11785 11786 11787 11788 11789 11790 11791 11792 11793 11794 11795 11796 11797 11798 11799 11800 11801 11802 11803 11804 11805 11806 11807 11808 11809 11810 11811 11812 11813 11814 11815 11816 11817 11818 11819 11820 11821 11822 11823 11824 11825 11826 11827 11828 11829 11830 11831 11832 11833 11834 11835 11836 11837 11838 11839 11840 11841 11842 11843 11844 11845 11846 11847 11848 11849 11850 11851 11852 11853 11854 11855 11856 11857 11858 11859 11860 11861 11862 11863 11864 11865 11866 11867 11868 11869 11870 11871 11872 11873 11874 11875 11876 11877 11878 11879 11880 11881 11882 11883 11884 11885 11886 11887 11888 11889 11890 11891 11892 11893 11894 11895 11896 11897 11898 11899 11900 11901 11902 11903 11904 11905 11906 11907 11908 11909 11910 11911 11912 11913 11914 11915 11916 11917 11918 11919 11920 11921 11922 11923 11924 11925 11926 11927 11928 11929 11930 11931 11932 11933 11934 11935 11936 11937 11938 11939 11940 11941 11942 11943 11944 11945 11946 11947 11948 11949 11950 11951 11952 11953 11954 11955 11956 11957 11958 11959 11960 11961 11962 11963 11964 11965 11966 11967 11968 11969 11970 11971 11972 11973 11974 11975 11976 11977 11978 11979 11980 11981 11982 11983 11984 11985 11986 11987 11988 11989 11990 11991 11992 11993 11994 11995 11996 11997 11998 11999 12000 12001 12002 12003 12004 12005 12006 12007 12008 12009 12010 12011 12012 12013 12014 12015 12016 12017 12018 12019 12020 12021 12022 12023 12024 12025 12026 12027 12028 12029 12030 12031 12032 12033 12034 12035 12036 12037 12038 12039 12040 12041 12042 12043 12044 12045 12046 12047 12048 12049 12050 12051 12052 12053 12054 12055 12056 12057 12058 12059 12060 12061 12062 12063 12064 12065 12066 12067 12068 12069 12070 12071 12072 12073 12074 12075 12076 12077 12078 12079 12080 12081 12082 12083 12084 12085 12086 12087 12088 12089 12090 12091 12092 12093 12094 12095 12096 12097 12098 12099 12100 12101 12102 12103 12104 12105 12106 12107 12108 12109 12110 12111 12112 12113 12114 12115 12116 12117 12118 12119 12120 12121 12122 12123 12124 12125 12126 12127 12128 12129 12130 12131 12132 12133 12134 12135 12136 12137 12138 12139 12140 12141 12142 12143 12144 12145 12146 12147 12148 12149 12150 12151 12152 12153 12154 12155 12156 12157 12158 12159 12160 12161 12162 12163 12164 12165 12166 12167 12168 12169 12170 12171 12172 12173 12174 12175 12176 12177 12178 12179 12180 12181 12182 12183 12184 12185 12186 12187 12188 12189 12190 12191 12192 12193 12194 12195 12196 12197 12198 12199 12200 12201 12202 12203 12204 12205 12206 12207 12208 12209 12210 12211 12212 12213 12214 12215 12216 12217 12218 12219 12220 12221 12222 12223 12224 12225 12226 12227 12228 12229 12230 12231 12232 12233 12234 12235 12236 12237 12238 12239 12240 12241 12242 12243 12244 12245 12246 12247 12248 12249 12250 12251 12252 12253 12254 12255 12256 12257 12258 12259 12260 12261 12262 12263 12264 12265 12266 12267 12268 12269 12270 12271 12272 12273 12274 12275 12276 12277 12278 12279 12280 12281 12282 12283 12284 12285 12286 12287 12288 12289 12290 12291 12292 12293 12294 12295 12296 12297 12298 12299 12300 12301 12302 12303 12304 12305 12306 12307 12308 12309 12310 12311 12312 12313 12314 12315 12316 12317 12318 12319 12320 12321 12322 12323 12324 12325 12326 12327 12328 12329 12330 12331 12332 12333 12334 12335 12336 12337 12338 12339 12340 12341 12342 12343 12344 12345 12346 12347 12348 12349 12350 12351 12352 12353 12354 12355 12356 12357 12358 12359 12360 12361 12362 12363 12364 12365 12366 12367 12368 12369 12370 12371 12372 12373 12374 12375 12376 12377 12378 12379 12380 12381 12382 12383 12384 12385 12386 12387 12388 12389 12390 12391 12392 12393 12394 12395 12396 12397 12398 12399 12400 12401 12402 12403 12404 12405 12406 12407 12408 12409 12410 12411 12412 12413 12414 12415 12416 12417 12418 12419 12420 12421 12422 12423 12424 12425 12426 12427 12428 12429 12430 12431 12432 12433 12434 12435 12436 12437 12438 12439 12440 12441 12442 12443 12444 12445 12446 12447 12448 12449 12450 12451 12452 12453 12454 12455 12456 12457 12458 12459 12460 12461 12462 12463 12464 12465 12466 12467 12468 12469 12470 12471 12472 12473 12474 12475 12476 12477 12478 12479 12480 12481 12482 12483 12484 12485 12486 12487 12488 12489 12490 12491 12492 12493 12494 12495 12496 12497 12498 12499 12500 12501 12502 12503 12504 12505 12506 12507 12508 12509 12510 12511 12512 12513 12514 12515 12516 12517 12518 12519 12520 12521 12522 12523 12524 12525 12526 12527 12528 12529 12530 12531 12532 12533 12534 12535 12536 12537 12538 12539 12540 12541 12542 12543 12544 12545 12546 12547 12548 12549 12550 12551 12552 12553 12554 12555 12556 12557 12558 12559 12560 12561 12562 12563 12564 12565 12566 12567 12568 12569 12570 12571 12572 12573 12574 12575 12576 12577 12578 12579 12580 12581 12582 12583 12584 12585 12586 12587 12588 12589 12590 12591 12592 12593 12594 12595 12596 12597 12598 12599 12600 12601 12602 12603 12604 12605 12606 12607 12608 12609 12610 12611 12612 12613 12614 12615 12616 12617 12618 12619 12620 12621 12622 12623 12624 12625 12626 12627 12628 12629 12630 12631 12632 12633 12634 12635 12636 12637 12638 12639 12640 12641 12642 12643 12644 12645 12646 12647 12648 12649 12650 12651 12652 12653 12654 12655 12656 12657 12658 12659 12660 12661 12662 12663 12664 12665 12666 12667 12668 12669 12670 12671 12672 12673 12674 12675 12676 12677 12678 12679 12680 12681 12682 12683 12684 12685 12686 12687 12688 12689 12690 12691 12692 12693 12694 12695 12696 12697 12698 12699 12700 12701 12702 12703 12704 12705 12706 12707 12708 12709 12710 12711 12712 12713 12714 12715 12716 12717 12718 12719 12720 12721 12722 12723 12724 12725 12726 12727 12728 12729 12730 12731 12732 12733 12734 12735 12736 12737 12738 12739 12740 12741 12742 12743 12744 12745 12746 12747 12748 12749 12750 12751 12752 12753 12754 12755 12756 12757 12758 12759 12760 12761 12762 12763 12764 12765 12766 12767 12768 12769 12770 12771 12772 12773 12774 12775 12776 12777 12778 12779 12780 12781 12782 12783 12784 12785 12786 12787 12788 12789 12790 12791 12792 12793 12794 12795 12796 12797 12798 12799 12800 12801 12802 12803 12804 12805 12806 12807 12808 12809 12810 12811 12812 12813 12814 12815 12816 12817 12818 12819 12820 12821 12822 12823 12824 12825 12826 12827 12828 12829 12830 12831 12832 12833 12834 12835 12836 12837 12838 12839 12840 12841 12842 12843 12844 12845 12846 12847 12848 12849 12850 12851 12852 12853 12854 12855 12856 12857 12858 12859 12860 12861 12862 12863 12864 12865 12866 12867 12868 12869 12870 12871 12872 12873 12874 12875 12876 12877 12878 12879 12880 12881 12882 12883 12884 12885 12886 12887 12888 12889 12890 12891 12892 12893 12894 12895 12896 12897 12898 12899 12900 12901 12902 12903 12904 12905 12906 12907 12908 12909 12910 12911 12912 12913 12914 12915 12916 12917 12918 12919 12920 12921 12922 12923 12924 12925 12926 12927 12928 12929 12930 12931 12932 12933 12934 12935 12936 12937 12938 12939 12940 12941 12942 12943 12944 12945 12946 12947 12948 12949 12950 12951 12952 12953 12954 12955 12956 12957 12958 12959 12960 12961 12962 12963 12964 12965 12966 12967 12968 12969 12970 12971 12972 12973 12974 12975 12976 12977 12978 12979 12980 12981 12982 12983 12984 12985 12986 12987 12988 12989 12990 12991 12992 12993 12994 12995 12996 12997 12998 12999 13000 13001 13002 13003 13004 13005 13006 13007 13008 13009 13010 13011 13012 13013 13014 13015 13016 13017 13018 13019 13020 13021 13022 13023 13024 13025 13026 13027 13028 13029 13030 13031 13032 13033 13034 13035 13036 13037 13038 13039 13040 13041 13042 13043 13044 13045 13046 13047 13048 13049 13050 13051 13052 13053 13054 13055 13056 13057 13058 13059 13060 13061 13062 13063 13064 13065 13066 13067 13068 13069 13070 13071 13072 13073 13074 13075 13076 13077 13078 13079 13080 13081 13082 13083 13084 13085 13086 13087 13088 13089 13090 13091 13092 13093 13094 13095 13096 13097 13098 13099 13100 13101 13102 13103 13104 13105 13106 13107 13108 13109 13110 13111 13112 13113 13114 13115 13116 13117 13118 13119 13120 13121 13122 13123 13124 13125 13126 13127 13128 13129 13130 13131 13132 13133 13134 13135 13136 13137 13138 13139 13140 13141 13142 13143 13144 13145 13146 13147 13148 13149 13150 13151 13152 13153 13154 13155 13156 13157 13158 13159 13160 13161 13162 13163 13164 13165 13166 13167 13168 13169 13170 13171 13172 13173 13174 13175 13176 13177 13178 13179 13180 13181 13182 13183 13184 13185 13186 13187 13188 13189 13190 13191 13192 13193 13194 13195 13196 13197 13198 13199 13200 13201 13202 13203 13204 13205 13206 13207 13208 13209 13210 13211 13212 13213 13214 13215 13216 13217 13218 13219 13220 13221 13222 13223 13224 13225 13226 13227 13228 13229 13230 13231 13232 13233 13234 13235 13236 13237 13238 13239 13240 13241 13242 13243 13244 13245 13246 13247 13248 13249 13250 13251 13252 13253 13254 13255 13256 13257 13258 13259 13260 13261 13262 13263 13264 13265 13266 13267 13268 13269 13270 13271 13272 13273 13274 13275 13276 13277 13278 13279 13280 13281 13282 13283 13284 13285 13286 13287 13288 13289 13290 13291 13292 13293 13294 13295 13296 13297 13298 13299 13300 13301 13302 13303 13304 13305 13306 13307 13308 13309 13310 13311 13312 13313 13314 13315 13316 13317 13318 13319 13320 13321 13322 13323 13324 13325 13326 13327 13328 13329 13330 13331 13332 13333 13334 13335 13336 13337 13338 13339 13340 13341 13342 13343 13344 13345 13346 13347 13348 13349 13350 13351 13352 13353 13354 13355 13356 13357 13358 13359 13360 13361 13362 13363 13364 13365 13366 13367 13368 13369 13370 13371 13372 13373 13374 13375 13376 13377 13378 13379 13380 13381 13382 13383 13384 13385 13386 13387 13388 13389 13390 13391 13392 13393 13394 13395 13396 13397 13398 13399 13400 13401 13402 13403 13404 13405 13406 13407 13408 13409 13410 13411 13412 13413 13414 13415 13416 13417 13418 13419 13420 13421 13422 13423 13424 13425 13426 13427 13428 13429 13430 13431 13432 13433 13434 13435 13436 13437 13438 13439 13440 13441 13442 13443 13444 13445 13446 13447 13448 13449 13450 13451 13452 13453 13454 13455 13456 13457 13458 13459 13460 13461 13462 13463 13464 13465 13466 13467 13468 13469 13470 13471 13472 13473 13474 13475 13476 13477 13478 13479 13480 13481 13482 13483 13484 13485 13486 13487 13488 13489 13490 13491 13492 13493 13494 13495 13496 13497 13498 13499 13500 13501 13502 13503 13504 13505 13506 13507 13508 13509 13510 13511 13512 13513 13514 13515 13516 13517 13518 13519 13520 13521 13522 13523 13524 13525 13526 13527 13528 13529 13530 13531 13532 13533 13534 13535 13536 13537 13538 13539 13540 13541 13542 13543 13544 13545 13546 13547 13548 13549 13550 13551 13552 13553 13554 13555 13556 13557 13558 13559 13560 13561 13562 13563 13564 13565 13566 13567 13568 13569 13570 13571 13572 13573 13574 13575 13576 13577 13578 13579 13580 13581 13582 13583 13584 13585 13586 13587 13588 13589 13590 13591 13592 13593 13594 13595 13596 13597 13598 13599 13600 13601 13602 13603 13604 13605 13606 13607 13608 13609 13610 13611 13612 13613 13614 13615 13616 13617 13618 13619 13620 13621 13622 13623 13624 13625 13626 13627 13628 13629 13630 13631 13632 13633 13634 13635 13636 13637 13638 13639 13640 13641 13642 13643 13644 13645 13646 13647 13648 13649 13650 13651 13652 13653 13654 13655 13656 13657 13658 13659 13660 13661 13662 13663 13664 13665 13666 13667 13668 13669 13670 13671 13672 13673 13674 13675 13676 13677 13678 13679 13680 13681 13682 13683 13684 13685 13686 13687 13688 13689 13690 13691 13692 13693 13694 13695 13696 13697 13698 13699 13700 13701 13702 13703 13704 13705 13706 13707 13708 13709 13710 13711 13712 13713 13714 13715 13716 13717 13718 13719 13720 13721 13722 13723 13724 13725 13726 13727 13728 13729 13730 13731 13732 13733 13734 13735 13736 13737 13738 13739 13740 13741 13742 13743 13744 13745 13746 13747 13748 13749 13750 13751 13752 13753 13754 13755 13756 13757 13758 13759 13760 13761 13762 13763 13764 13765 13766 13767 13768 13769 13770 13771 13772 13773 13774 13775 13776 13777 13778 13779 13780 13781 13782 13783 13784 13785 13786 13787 13788 13789 13790 13791 13792 13793 13794 13795 13796 13797 13798 13799 13800 13801 13802 13803 13804 13805 13806 13807 13808 13809 13810 13811 13812 13813 13814 13815 13816 13817 13818 13819 13820 13821 13822 13823 13824 13825 13826 13827 13828 13829 13830 13831 13832 13833 13834 13835 13836 13837 13838 13839 13840 13841 13842 13843 13844 13845 13846 13847 13848 13849 13850 13851 13852 13853 13854 13855 13856 13857 13858 13859 13860 13861 13862 13863 13864 13865 13866 13867 13868 13869 13870 13871 13872 13873 13874 13875 13876 13877 13878 13879 13880 13881 13882 13883 13884 13885 13886 13887 13888 13889 13890 13891 13892 13893 13894 13895 13896 13897 13898 13899 13900 13901 13902 13903 13904 13905 13906 13907 13908 13909 13910 13911 13912 13913 13914 13915 13916 13917 13918 13919 13920 13921 13922 13923 13924 13925 13926 13927 13928 13929 13930 13931 13932 13933 13934 13935 13936 13937 13938 13939 13940 13941 13942 13943 13944 13945 13946 13947 13948 13949 13950 13951 13952 13953 13954 13955 13956 13957 13958 13959 13960 13961 13962 13963 13964 13965 13966 13967 13968 13969 13970 13971 13972 13973 13974 13975 13976 13977 13978 13979 13980 13981 13982 13983 13984 13985 13986 13987 13988 13989 13990 13991 13992 13993 13994 13995 13996 13997 13998 13999 14000 14001 14002 14003 14004 14005 14006 14007 14008 14009 14010 14011 14012 14013 14014 14015 14016 14017 14018 14019 14020 14021 14022 14023 14024 14025 14026 14027 14028 14029 14030 14031 14032 14033 14034 14035 14036 14037 14038 14039 14040 14041 14042 14043 14044 14045 14046 14047 14048 14049 14050 14051 14052 14053 14054 14055 14056 14057 14058 14059 14060 14061 14062 14063 14064 14065 14066 14067 14068 14069 14070 14071 14072 14073 14074 14075 14076 14077 14078 14079 14080 14081 14082 14083 14084 14085 14086 14087 14088 14089 14090 14091 14092 14093 14094 14095 14096 14097 14098 14099 14100 14101 14102 14103 14104 14105 14106 14107 14108 14109 14110 14111 14112 14113 14114 14115 14116 14117 14118 14119 14120 14121 14122 14123 14124 14125 14126 14127 14128 14129 14130 14131 14132 14133 14134 14135 14136 14137 14138 14139 14140 14141 14142 14143 14144 14145 14146 14147 14148 14149 14150 14151 14152 14153 14154 14155 14156 14157 14158 14159 14160 14161 14162 14163 14164 14165 14166 14167 14168 14169 14170 14171 14172 14173 14174 14175 14176 14177 14178 14179 14180 14181 14182 14183 14184 14185 14186 14187 14188 14189 14190 14191 14192 14193 14194 14195 14196 14197 14198 14199 14200 14201 14202 14203 14204 14205 14206 14207 14208 14209 14210 14211 14212 14213 14214 14215 14216 14217 14218 14219 14220 14221 14222 14223 14224 14225 14226 14227 14228 14229 14230 14231 14232 14233 14234 14235 14236 14237 14238 14239 14240 14241 14242 14243 14244 14245 14246 14247 14248 14249 14250 14251 14252 14253 14254 14255 14256 14257 14258 14259 14260 14261 14262 14263 14264 14265 14266 14267 14268 14269 14270 14271 14272 14273 14274 14275 14276 14277 14278 14279 14280 14281 14282 14283 14284 14285 14286 14287 14288 14289 14290 14291 14292 14293 14294 14295 14296 14297 14298 14299 14300 14301 14302 14303 14304 14305 14306 14307 14308 14309 14310 14311 14312 14313 14314 14315 14316 14317 14318 14319 14320 14321 14322 14323 14324 14325 14326 14327 14328 14329 14330 14331 14332 14333 14334 14335 14336 14337 14338 14339 14340 14341 14342 14343 14344 14345 14346 14347 14348 14349 14350 14351 14352 14353 14354 14355 14356 14357 14358 14359 14360 14361 14362 14363 14364 14365 14366 14367 14368 14369 14370 14371 14372 14373 14374 14375 14376 14377 14378 14379 14380 14381 14382 14383 14384 14385 14386 14387 14388 14389 14390 14391 14392 14393 14394 14395 14396 14397 14398 14399 14400 14401 14402 14403 14404 14405 14406 14407 14408 14409 14410 14411 14412 14413 14414 14415 14416 14417 14418 14419 14420 14421 14422 14423 14424 14425 14426 14427 14428 14429 14430 14431 14432 14433 14434 14435 14436 14437 14438 14439 14440 14441 14442 14443 14444 14445 14446 14447 14448 14449 14450 14451 14452 14453 14454 14455 14456 14457 14458 14459 14460 14461 14462 14463 14464 14465 14466 14467 14468 14469 14470 14471 14472 14473 14474 14475 14476 14477 14478 14479 14480 14481 14482 14483 14484 14485 14486 14487 14488 14489 14490 14491 14492 14493 14494 14495 14496 14497 14498 14499 14500 14501 14502 14503 14504 14505 14506 14507 14508 14509 14510 14511 14512 14513 14514 14515 14516 14517 14518 14519 14520 14521 14522 14523 14524 14525 14526 14527 14528 14529 14530 14531 14532 14533 14534 14535 14536 14537 14538 14539 14540 14541 14542 14543 14544 14545 14546 14547 14548 14549 14550 14551 14552 14553 14554 14555 14556 14557 14558 14559 14560 14561 14562 14563 14564 14565 14566 14567 14568 14569 14570 14571 14572 14573 14574 14575 14576 14577 14578 14579 14580 14581 14582 14583 14584 14585 14586 14587 14588 14589 14590 14591 14592 14593 14594 14595 14596 14597 14598 14599 14600 14601 14602 14603 14604 14605 14606 14607 14608 14609 14610 14611 14612 14613 14614 14615 14616 14617 14618 14619 14620 14621 14622 14623 14624 14625 14626 14627 14628 14629 14630 14631 14632 14633 14634 14635 14636 14637 14638 14639 14640 14641 14642 14643 14644 14645 14646 14647 14648 14649 14650 14651 14652 14653 14654 14655 14656 14657 14658 14659 14660 14661 14662 14663 14664 14665 14666 14667 14668 14669 14670 14671 14672 14673 14674 14675 14676 14677 14678 14679 14680 14681 14682 14683 14684 14685 14686 14687 14688 14689 14690 14691 14692 14693 14694 14695 14696 14697 14698 14699 14700 14701 14702 14703 14704 14705 14706 14707 14708 14709 14710 14711 14712 14713 14714 14715 14716 14717 14718 14719 14720 14721 14722 14723 14724 14725 14726 14727 14728 14729 14730 14731 14732 14733 14734 14735 14736 14737 14738 14739 14740 14741 14742 14743 14744 14745 14746 14747 14748 14749 14750 14751 14752 14753 14754 14755 14756 14757 14758 14759 14760 14761 14762 14763 14764 14765 14766 14767 14768 14769 14770 14771 14772 14773 14774 14775 14776 14777 14778 14779 14780 14781 14782 14783 14784 14785 14786 14787 14788 14789 14790 14791 14792 14793 14794 14795 14796 14797 14798 14799 14800 14801 14802 14803 14804 14805 14806 14807 14808 14809 14810 14811 14812 14813 14814 14815 14816 14817 14818 14819 14820 14821 14822 14823 14824 14825 14826 14827 14828 14829 14830 14831 14832 14833 14834 14835 14836 14837 14838 14839 14840 14841 14842 14843 14844 14845 14846 14847 14848 14849 14850 14851 14852 14853 14854 14855 14856 14857 14858 14859 14860 14861 14862 14863 14864 14865 14866 14867 14868 14869 14870 14871 14872 14873 14874 14875 14876 14877 14878 14879 14880 14881 14882 14883 14884 14885 14886 14887 14888 14889 14890 14891 14892 14893 14894 14895 14896 14897 14898 14899 14900 14901 14902 14903 14904 14905 14906 14907 14908 14909 14910 14911 14912 14913 14914 14915 14916 14917 14918 14919 14920 14921 14922 14923 14924 14925 14926 14927 14928 14929 14930 14931 14932 14933 14934 14935 14936 14937 14938 14939 14940 14941 14942 14943 14944 14945 14946 14947 14948 14949 14950 14951 14952 14953 14954 14955 14956 14957 14958 14959 14960 14961 14962 14963 14964 14965 14966 14967 14968 14969 14970 14971 14972 14973 14974 14975 14976 14977 14978 14979 14980 14981 14982 14983 14984 14985 14986 14987 14988 14989 14990 14991 14992 14993 14994 14995 14996 14997 14998 14999 15000 15001 15002 15003 15004 15005 15006 15007 15008 15009 15010 15011 15012 15013 15014 15015 15016 15017 15018 15019 15020 15021 15022 15023 15024 15025 15026 15027 15028 15029 15030 15031 15032 15033 15034 15035 15036 15037 15038 15039 15040 15041 15042 15043 15044 15045 15046 15047 15048 15049 15050 15051 15052 15053 15054 15055 15056 15057 15058 15059 15060 15061 15062 15063 15064 15065 15066 15067 15068 15069 15070 15071 15072 15073 15074 15075 15076 15077 15078 15079 15080 15081 15082 15083 15084 15085 15086 15087 15088 15089 15090 15091 15092 15093 15094 15095 15096 15097 15098 15099 15100 15101 15102 15103 15104 15105 15106 15107 15108 15109 15110 15111 15112 15113 15114 15115 15116 15117 15118 15119 15120 15121 15122 15123 15124 15125 15126 15127 15128 15129 15130 15131 15132 15133 15134 15135 15136 15137 15138 15139 15140 15141 15142 15143 15144 15145 15146 15147 15148 15149 15150 15151 15152 15153 15154 15155 15156 15157 15158 15159 15160 15161 15162 15163 15164 15165 15166 15167 15168 15169 15170 15171 15172 15173 15174 15175 15176 15177 15178 15179 15180 15181 15182 15183 15184 15185 15186 15187 15188 15189 15190 15191 15192 15193 15194 15195 15196 15197 15198 15199 15200 15201 15202 15203 15204 15205 15206 15207 15208 15209 15210 15211 15212 15213 15214 15215 15216 15217 15218 15219 15220 15221 15222 15223 15224 15225 15226 15227 15228 15229 15230 15231 15232 15233 15234 15235 15236 15237 15238 15239 15240 15241 15242 15243 15244 15245 15246 15247 15248 15249 15250 15251 15252 15253 15254 15255 15256 15257 15258 15259 15260 15261 15262 15263 15264 15265 15266 15267 15268 15269 15270 15271 15272 15273 15274 15275 15276 15277 15278 15279 15280 15281 15282 15283 15284 15285 15286 15287 15288 15289 15290 15291 15292 15293 15294 15295 15296 15297 15298 15299 15300 15301 15302 15303 15304 15305 15306 15307 15308 15309 15310 15311 15312 15313 15314 15315 15316 15317 15318 15319 15320 15321 15322 15323 15324 15325 15326 15327 15328 15329 15330 15331 15332 15333 15334 15335 15336 15337 15338 15339 15340 15341 15342 15343 15344 15345 15346 15347 15348 15349 15350 15351 15352 15353 15354 15355 15356 15357 15358 15359 15360 15361 15362 15363 15364 15365 15366 15367 15368 15369 15370 15371 15372 15373 15374 15375 15376 15377 15378 15379 15380 15381 15382 15383 15384 15385 15386 15387 15388 15389 15390 15391 15392 15393 15394 15395 15396 15397 15398 15399 15400 15401 15402 15403 15404 15405 15406 15407 15408 15409 15410 15411 15412 15413 15414 15415 15416 15417 15418 15419 15420 15421 15422 15423 15424 15425 15426 15427 15428 15429 15430 15431 15432 15433 15434 15435 15436 15437 15438 15439 15440 15441 15442 15443 15444 15445 15446 15447 15448 15449 15450 15451 15452 15453 15454 15455 15456 15457 15458 15459 15460 15461 15462 15463 15464 15465 15466 15467 15468 15469 15470 15471 15472 15473 15474 15475 15476 15477 15478 15479 15480 15481 15482 15483 15484 15485 15486 15487 15488 15489 15490 15491 15492 15493 15494 15495 15496 15497 15498 15499 15500 15501 15502 15503 15504 15505 15506 15507 15508 15509 15510 15511 15512 15513 15514 15515 15516 15517 15518 15519 15520 15521 15522 15523 15524 15525 15526 15527 15528 15529 15530 15531 15532 15533 15534 15535 15536 15537 15538 15539 15540 15541 15542 15543 15544 15545 15546 15547 15548 15549 15550 15551 15552 15553 15554 15555 15556 15557 15558 15559 15560 15561 15562 15563 15564 15565 15566 15567 15568 15569 15570 15571 15572 15573 15574 15575 15576 15577 15578 15579 15580 15581 15582 15583 15584 15585 15586 15587 15588 15589 15590 15591 15592 15593 15594 15595 15596 15597 15598 15599 15600 15601 15602 15603 15604 15605 15606 15607 15608 15609 15610 15611 15612 15613 15614 15615 15616 15617 15618 15619 15620 15621 15622 15623 15624 15625 15626 15627 15628 15629 15630 15631 15632 15633 15634 15635 15636 15637 15638 15639 15640 15641 15642 15643 15644 15645 15646 15647 15648 15649 15650 15651 15652 15653 15654 15655 15656 15657 15658 15659 15660 15661 15662 15663 15664 15665 15666 15667 15668 15669 15670 15671 15672 15673 15674 15675 15676 15677 15678 15679 15680 15681 15682 15683 15684 15685 15686 15687 15688 15689 15690 15691 15692 15693 15694 15695 15696 15697 15698 15699 15700 15701 15702 15703 15704 15705 15706 15707 15708 15709 15710 15711 15712 15713 15714 15715 15716 15717 15718 15719 15720 15721 15722 15723 15724 15725 15726 15727 15728 15729 15730 15731 15732 15733 15734 15735 15736 15737 15738 15739 15740 15741 15742 15743 15744 15745 15746 15747 15748 15749 15750 15751 15752 15753 15754 15755 15756 15757 15758 15759 15760 15761 15762 15763 15764 15765 15766 15767 15768 15769 15770 15771 15772 15773 15774 15775 15776 15777 15778 15779 15780 15781 15782 15783 15784 15785 15786 15787 15788 15789 15790 15791 15792 15793 15794 15795 15796 15797 15798 15799 15800 15801 15802 15803 15804 15805 15806 15807 15808 15809 15810 15811 15812 15813 15814 15815 15816 15817 15818 15819 15820 15821 15822 15823 15824 15825 15826 15827 15828 15829 15830 15831 15832 15833 15834 15835 15836 15837 15838 15839 15840 15841 15842 15843 15844 15845 15846 15847 15848 15849 15850 15851 15852 15853 15854 15855 15856 15857 15858 15859 15860 15861 15862 15863 15864 15865 15866 15867 15868 15869 15870 15871 15872 15873 15874 15875 15876 15877 15878 15879 15880 15881 15882 15883 15884 15885 15886 15887 15888 15889 15890 15891 15892 15893 15894 15895 15896 15897 15898 15899 15900 15901 15902 15903 15904 15905 15906 15907 15908 15909 15910 15911 15912 15913 15914 15915 15916 15917 15918 15919 15920 15921 15922 15923 15924 15925 15926 15927 15928 15929 15930 15931 15932 15933 15934 15935 15936 15937 15938 15939 15940 15941 15942 15943 15944 15945 15946 15947 15948 15949 15950 15951 15952 15953 15954 15955 15956 15957 15958 15959 15960 15961 15962 15963 15964 15965 15966 15967 15968 15969 15970 15971 15972 15973 15974 15975 15976 15977 15978 15979 15980 15981 15982 15983 15984 15985 15986 15987 15988 15989 15990 15991 15992 15993 15994 15995 15996 15997 15998 15999 16000 16001 16002 16003 16004 16005 16006 16007 16008 16009 16010 16011 16012 16013 16014 16015 16016 16017 16018 16019 16020 16021 16022 16023 16024 16025 16026 16027 16028 16029 16030 16031 16032 16033 16034 16035 16036 16037 16038 16039 16040 16041 16042 16043 16044 16045 16046 16047 16048 16049 16050 16051 16052 16053 16054 16055 16056 16057 16058 16059 16060 16061 16062 16063 16064 16065 16066 16067 16068 16069 16070 16071 16072 16073 16074 16075 16076 16077 16078 16079 16080 16081 16082 16083 16084 16085 16086 16087 16088 16089 16090 16091 16092 16093 16094 16095 16096 16097 16098 16099 16100 16101 16102 16103 16104 16105 16106 16107 16108 16109 16110 16111 16112 16113 16114 16115 16116 16117 16118 16119 16120 16121 16122 16123 16124 16125 16126 16127 16128 16129 16130 16131 16132 16133 16134 16135 16136 16137 16138 16139 16140 16141 16142 16143 16144 16145 16146 16147 16148 16149 16150 16151 16152 16153 16154 16155 16156 16157 16158 16159 16160 16161 16162 16163 16164 16165 16166 16167 16168 16169 16170 16171 16172 16173 16174 16175 16176 16177 16178 16179 16180 16181 16182 16183 16184 16185 16186 16187 16188 16189 16190 16191 16192 16193 16194 16195 16196 16197 16198 16199 16200 16201 16202 16203 16204 16205 16206 16207 16208 16209 16210 16211 16212 16213 16214 16215 16216 16217 16218 16219 16220 16221 16222 16223 16224 16225 16226 16227 16228 16229 16230 16231 16232 16233 16234 16235 16236 16237 16238 16239 16240 16241 16242 16243 16244 16245 16246 16247 16248 16249 16250 16251 16252 16253 16254 16255 16256 16257 16258 16259 16260 16261 16262 16263 16264 16265 16266 16267 16268 16269 16270 16271 16272 16273 16274 16275 16276 16277 16278 16279 16280 16281 16282 16283 16284 16285 16286 16287 16288 16289 16290 16291 16292 16293 16294 16295 16296 16297 16298 16299 16300 16301 16302 16303 16304 16305 16306 16307 16308 16309 16310 16311 16312 16313 16314 16315 16316 16317 16318 16319 16320 16321 16322 16323 16324 16325 16326 16327 16328 16329 16330 16331 16332 16333 16334 16335 16336 16337 16338 16339 16340 16341 16342 16343 16344 16345 16346 16347 16348 16349 16350 16351 16352 16353 16354 16355 16356 16357 16358 16359 16360 16361 16362 16363 16364 16365 16366 16367 16368 16369 16370 16371 16372 16373 16374 16375 16376 16377 16378 16379 16380 16381 16382 16383 16384 16385 16386 16387 16388 16389 16390 16391 16392 16393 16394 16395 16396 16397 16398 16399 16400 16401 16402 16403 16404 16405 16406 16407 16408 16409 16410 16411 16412 16413 16414 16415 16416 16417 16418 16419 16420 16421 16422 16423 16424 16425 16426 16427 16428 16429 16430 16431 16432 16433 16434 16435 16436 16437 16438 16439 16440 16441 16442 16443 16444 16445 16446 16447 16448 16449 16450 16451 16452 16453 16454 16455 16456 16457 16458 16459 16460 16461 16462 16463 16464 16465 16466 16467 16468 16469 16470 16471 16472 16473 16474 16475 16476 16477 16478 16479 16480 16481 16482 16483 16484 16485 16486 16487 16488 16489 16490 16491 16492 16493 16494 16495 16496 16497 16498 16499 16500 16501 16502 16503 16504 16505 16506 16507 16508 16509 16510 16511 16512 16513 16514 16515 16516 16517 16518 16519 16520 16521 16522 16523 16524 16525 16526 16527 16528 16529 16530 16531 16532 16533 16534 16535 16536 16537 16538 16539 16540 16541 16542 16543 16544 16545 16546 16547 16548 16549 16550 16551 16552 16553 16554 16555 16556 16557 16558 16559 16560 16561 16562 16563 16564 16565 16566 16567 16568 16569 16570 16571 16572 16573 16574 16575 16576 16577 16578 16579 16580 16581 16582 16583 16584 16585 16586 16587 16588 16589 16590 16591 16592 16593 16594 16595 16596 16597 16598 16599 16600 16601 16602 16603 16604 16605 16606 16607 16608 16609 16610 16611 16612 16613 16614 16615 16616 16617 16618 16619 16620 16621 16622 16623 16624 16625 16626 16627 16628 16629 16630 16631 16632 16633 16634 16635 16636 16637 16638 16639 16640 16641 16642 16643 16644 16645 16646 16647 16648 16649 16650 16651 16652 16653 16654 16655 16656 16657 16658 16659 16660 16661 16662 16663 16664 16665 16666 16667 16668 16669 16670 16671 16672 16673 16674 16675 16676 16677 16678 16679 16680 16681 16682 16683 16684 16685 16686 16687 16688 16689 16690 16691 16692 16693 16694 16695 16696 16697 16698 16699 16700 16701 16702 16703 16704 16705 16706 16707 16708 16709 16710 16711 16712 16713 16714 16715 16716 16717 16718 16719 16720 16721 16722 16723 16724 16725 16726 16727 16728 16729 16730 16731 16732 16733 16734 16735 16736 16737 16738 16739 16740 16741 16742 16743 16744 16745 16746 16747 16748 16749 16750 16751 16752 16753 16754 16755 16756 16757 16758 16759 16760 16761 16762 16763 16764 16765 16766 16767 16768 16769 16770 16771 16772 16773 16774 16775 16776 16777 16778 16779 16780 16781 16782 16783 16784 16785 16786 16787 16788 16789 16790 16791 16792 16793 16794 16795 16796 16797 16798 16799 16800 16801 16802 16803 16804 16805 16806 16807 16808 16809 16810 16811 16812 16813 16814 16815 16816 16817 16818 16819 16820 16821 16822 16823 16824 16825 16826 16827 16828 16829 16830 16831 16832 16833 16834 16835 16836 16837 16838 16839 16840 16841 16842 16843 16844 16845 16846 16847 16848 16849 16850 16851 16852 16853 16854 16855 16856 16857 16858 16859 16860 16861 16862 16863 16864 16865 16866 16867 16868 16869 16870 16871 16872 16873 16874 16875 16876 16877 16878 16879 16880 16881 16882 16883 16884 16885 16886 16887 16888 16889 16890 16891 16892 16893 16894 16895 16896 16897 16898 16899 16900 16901 16902 16903 16904 16905 16906 16907 16908 16909 16910 16911 16912 16913 16914 16915 16916 16917 16918 16919 16920 16921 16922 16923 16924 16925 16926 16927 16928 16929 16930 16931 16932 16933 16934 16935 16936 16937 16938 16939 16940 16941 16942 16943 16944 16945 16946 16947 16948 16949 16950 16951 16952 16953 16954 16955 16956 16957 16958 16959 16960 16961 16962 16963 16964 16965 16966 16967 16968 16969 16970 16971 16972 16973 16974 16975 16976 16977 16978 16979 16980 16981 16982 16983 16984 16985 16986 16987 16988 16989 16990 16991 16992 16993 16994 16995 16996 16997 16998 16999 17000 17001 17002 17003 17004 17005 17006 17007 17008 17009 17010 17011 17012 17013 17014 17015 17016 17017 17018 17019 17020 17021 17022 17023 17024 17025 17026 17027 17028 17029 17030 17031 17032 17033 17034 17035 17036 17037 17038 17039 17040 17041 17042 17043 17044 17045 17046 17047 17048 17049 17050 17051 17052 17053 17054 17055 17056 17057 17058 17059 17060 17061 17062 17063 17064 17065 17066 17067 17068 17069 17070 17071 17072 17073 17074 17075 17076 17077 17078 17079 17080 17081 17082 17083 17084 17085 17086 17087 17088 17089 17090 17091 17092 17093 17094 17095 17096 17097 17098 17099 17100 17101 17102 17103 17104 17105 17106 17107 17108 17109 17110 17111 17112 17113 17114 17115 17116 17117 17118 17119 17120 17121 17122 17123 17124 17125 17126 17127 17128 17129 17130 17131 17132 17133 17134 17135 17136 17137 17138 17139 17140 17141 17142 17143 17144 17145 17146 17147 17148 17149 17150 17151 17152 17153 17154 17155 17156 17157 17158 17159 17160 17161 17162 17163 17164 17165 17166 17167 17168 17169 17170 17171 17172 17173 17174 17175 17176 17177 17178 17179 17180 17181 17182 17183 17184 17185 17186 17187 17188 17189 17190 17191 17192 17193 17194 17195 17196 17197 17198 17199 17200 17201 17202 17203 17204 17205 17206 17207 17208 17209 17210 17211 17212 17213 17214 17215 17216 17217 17218 17219 17220 17221 17222 17223 17224 17225 17226 17227 17228 17229 17230 17231 17232 17233 17234 17235 17236 17237 17238 17239 17240 17241 17242 17243 17244 17245 17246 17247 17248 17249 17250 17251 17252 17253 17254 17255 17256 17257 17258 17259 17260 17261 17262 17263 17264 17265 17266 17267 17268 17269 17270 17271 17272 17273 17274 17275 17276 17277 17278 17279 17280 17281 17282 17283 17284 17285 17286 17287 17288 17289 17290 17291 17292 17293 17294 17295 17296 17297 17298 17299 17300 17301 17302 17303 17304 17305 17306 17307 17308 17309 17310 17311 17312 17313 17314 17315 17316 17317 17318 17319 17320 17321 17322 17323 17324 17325 17326 17327 17328 17329 17330 17331 17332 17333 17334 17335 17336 17337 17338 17339 17340 17341 17342 17343 17344 17345 17346 17347 17348 17349 17350 17351 17352 17353 17354 17355 17356 17357 17358 17359 17360 17361 17362 17363 17364 17365 17366 17367 17368 17369 17370 17371 17372 17373 17374 17375 17376 17377 17378 17379 17380 17381 17382 17383 17384 17385 17386 17387 17388 17389 17390 17391 17392 17393 17394 17395 17396 17397 17398 17399 17400 17401 17402 17403 17404 17405 17406 17407 17408 17409 17410 17411 17412 17413 17414 17415 17416 17417 17418 17419 17420 17421 17422 17423 17424 17425 17426 17427 17428 17429 17430 17431 17432 17433 17434 17435 17436 17437 17438 17439 17440 17441 17442 17443 17444 17445 17446 17447 17448 17449 17450 17451 17452 17453 17454 17455 17456 17457 17458 17459 17460 17461 17462 17463 17464 17465 17466 17467 17468 17469 17470 17471 17472 17473 17474 17475 17476 17477 17478 17479 17480 17481 17482 17483 17484 17485 17486 17487 17488 17489 17490 17491 17492 17493 17494 17495 17496 17497 17498 17499 17500 17501 17502 17503 17504 17505 17506 17507 17508 17509 17510 17511 17512 17513 17514 17515 17516 17517 17518 17519 17520 17521 17522 17523 17524 17525 17526 17527 17528 17529 17530 17531 17532 17533 17534 17535 17536 17537 17538 17539 17540 17541 17542 17543 17544 17545 17546 17547 17548 17549 17550 17551 17552 17553 17554 17555 17556 17557 17558 17559 17560 17561 17562 17563 17564 17565 17566 17567 17568 17569 17570 17571 17572 17573 17574 17575 17576 17577 17578 17579 17580 17581 17582 17583 17584 17585 17586 17587 17588 17589 17590 17591 17592 17593 17594 17595 17596 17597 17598 17599 17600 17601 17602 17603 17604 17605 17606 17607 17608 17609 17610 17611 17612 17613 17614 17615 17616 17617 17618 17619 17620 17621 17622 17623 17624 17625 17626 17627 17628 17629 17630 17631 17632 17633 17634 17635 17636 17637 17638 17639 17640 17641 17642 17643 17644 17645 17646 17647 17648 17649 17650 17651 17652 17653 17654 17655 17656 17657 17658 17659 17660 17661 17662 17663 17664 17665 17666 17667 17668 17669 17670 17671 17672 17673 17674 17675 17676 17677 17678 17679 17680 17681 17682 17683 17684 17685 17686 17687 17688 17689 17690 17691 17692 17693 17694 17695 17696 17697 17698 17699 17700 17701 17702 17703 17704 17705 17706 17707 17708 17709 17710 17711 17712 17713 17714 17715 17716 17717 17718 17719 17720 17721 17722 17723 17724 17725 17726 17727 17728 17729 17730 17731 17732 17733 17734 17735 17736 17737 17738 17739 17740 17741 17742 17743 17744 17745 17746 17747 17748 17749 17750 17751 17752 17753 17754 17755 17756 17757 17758 17759 17760 17761 17762 17763 17764 17765 17766 17767 17768 17769 17770 17771 17772 17773 17774 17775 17776 17777 17778 17779 17780 17781 17782 17783 17784 17785 17786 17787 17788 17789 17790 17791 17792 17793 17794 17795 17796 17797 17798 17799 17800 17801 17802 17803 17804 17805 17806 17807 17808 17809 17810 17811 17812 17813 17814 17815 17816 17817 17818 17819 17820 17821 17822 17823 17824 17825 17826 17827 17828 17829 17830 17831 17832 17833 17834 17835 17836 17837 17838 17839 17840 17841 17842 17843 17844 17845 17846 17847 17848 17849 17850 17851 17852 17853 17854 17855 17856 17857 17858 17859 17860 17861 17862 17863 17864 17865 17866 17867 17868 17869 17870 17871 17872 17873 17874 17875 17876 17877 17878 17879 17880 17881 17882 17883 17884 17885 17886 17887 17888 17889 17890 17891 17892 17893 17894 17895 17896 17897 17898 17899 17900 17901 17902 17903 17904 17905 17906 17907 17908 17909 17910 17911 17912 17913 17914 17915 17916 17917 17918 17919 17920 17921 17922 17923 17924 17925 17926 17927 17928 17929 17930 17931 17932 17933 17934 17935 17936 17937 17938 17939 17940 17941 17942 17943 17944 17945 17946 17947 17948 17949 17950 17951 17952 17953 17954 17955 17956 17957 17958 17959 17960 17961 17962 17963 17964 17965 17966 17967 17968 17969 17970 17971 17972 17973 17974 17975 17976 17977 17978 17979 17980 17981 17982 17983 17984 17985 17986 17987 17988 17989 17990 17991 17992 17993 17994 17995 17996 17997 17998 17999 18000 18001 18002 18003 18004 18005 18006 18007 18008 18009 18010 18011 18012 18013 18014 18015 18016 18017 18018 18019 18020 18021 18022 18023 18024 18025 18026 18027 18028 18029 18030 18031 18032 18033 18034 18035 18036 18037 18038 18039 18040 18041 18042 18043 18044 18045 18046 18047 18048 18049 18050 18051 18052 18053 18054 18055 18056 18057 18058 18059 18060 18061 18062 18063 18064 18065 18066 18067 18068 18069 18070 18071 18072 18073 18074 18075 18076 18077 18078 18079 18080 18081 18082 18083 18084 18085 18086 18087 18088 18089 18090 18091 18092 18093 18094 18095 18096 18097 18098 18099 18100 18101 18102 18103 18104 18105 18106 18107 18108 18109 18110 18111 18112 18113 18114 18115 18116 18117 18118 18119 18120 18121 18122 18123 18124 18125 18126 18127 18128 18129 18130 18131 18132 18133 18134 18135 18136 18137 18138 18139 18140 18141 18142 18143 18144 18145 18146 18147 18148 18149 18150 18151 18152 18153 18154 18155 18156 18157 18158 18159 18160 18161 18162 18163 18164 18165 18166 18167 18168 18169 18170 18171 18172 18173 18174 18175 18176 18177 18178 18179 18180 18181 18182 18183 18184 18185 18186 18187 18188 18189 18190 18191 18192 18193 18194 18195 18196 18197 18198 18199 18200 18201 18202 18203 18204 18205 18206 18207 18208 18209 18210 18211 18212 18213 18214 18215 18216 18217 18218 18219 18220 18221 18222 18223 18224 18225 18226 18227 18228 18229 18230 18231 18232 18233 18234 18235 18236 18237 18238 18239 18240 18241 18242 18243 18244 18245 18246 18247 18248 18249 18250 18251 18252 18253 18254 18255 18256 18257 18258 18259 18260 18261 18262 18263 18264 18265 18266 18267 18268 18269 18270 18271 18272 18273 18274 18275 18276 18277 18278 18279 18280 18281 18282 18283 18284 18285 18286 18287 18288 18289 18290 18291 18292 18293 18294 18295 18296 18297 18298 18299 18300 18301 18302 18303 18304 18305 18306 18307 18308 18309 18310 18311 18312 18313 18314 18315 18316 18317 18318 18319 18320 18321 18322 18323 18324 18325 18326 18327 18328 18329 18330 18331 18332 18333 18334 18335 18336 18337 18338 18339 18340 18341 18342 18343 18344 18345 18346 18347 18348 18349 18350 18351 18352 18353 18354 18355 18356 18357 18358 18359 18360 18361 18362 18363 18364 18365 18366 18367 18368 18369 18370 18371 18372 18373 18374 18375 18376 18377 18378 18379 18380 18381 18382 18383 18384 18385 18386 18387 18388 18389 18390 18391 18392 18393 18394 18395 18396 18397 18398 18399 18400 18401 18402 18403 18404 18405 18406 18407 18408 18409 18410 18411 18412 18413 18414 18415 18416 18417 18418 18419 18420 18421 18422 18423 18424 18425 18426 18427 18428 18429 18430 18431 18432 18433 18434 18435 18436 18437 18438 18439 18440 18441 18442 18443 18444 18445 18446 18447 18448 18449 18450 18451 18452 18453 18454 18455 18456 18457 18458 18459 18460 18461 18462 18463 18464 18465 18466 18467 18468 18469 18470 18471 18472 18473 18474 18475 18476 18477 18478 18479 18480 18481 18482 18483 18484 18485 18486 18487 18488 18489 18490 18491 18492 18493 18494 18495 18496 18497 18498 18499 18500 18501 18502 18503 18504 18505 18506 18507 18508 18509 18510 18511 18512 18513 18514 18515 18516 18517 18518 18519 18520 18521 18522 18523 18524 18525 18526 18527 18528 18529 18530 18531 18532 18533 18534 18535 18536 18537 18538 18539 18540 18541 18542 18543 18544 18545 18546 18547 18548 18549 18550 18551 18552 18553 18554 18555 18556 18557 18558 18559 18560 18561 18562 18563 18564 18565 18566 18567 18568 18569 18570 18571 18572 18573 18574 18575 18576 18577 18578 18579 18580 18581 18582 18583 18584 18585 18586 18587 18588 18589 18590 18591 18592 18593 18594 18595 18596 18597 18598 18599 18600 18601 18602 18603 18604 18605 18606 18607 18608 18609 18610 18611 18612 18613 18614 18615 18616 18617 18618 18619 18620 18621 18622 18623 18624 18625 18626 18627 18628 18629 18630 18631 18632 18633 18634 18635 18636 18637 18638 18639 18640 18641 18642 18643 18644 18645 18646 18647 18648 18649 18650 18651 18652 18653 18654 18655 18656 18657 18658 18659 18660 18661 18662 18663 18664 18665 18666 18667 18668 18669 18670 18671 18672 18673 18674 18675 18676 18677 18678 18679 18680 18681 18682 18683 18684 18685 18686 18687 18688 18689 18690 18691 18692 18693 18694 18695 18696 18697 18698 18699 18700 18701 18702 18703 18704 18705 18706 18707 18708 18709 18710 18711 18712 18713 18714 18715 18716 18717 18718 18719 18720 18721 18722 18723 18724 18725 18726 18727 18728 18729 18730 18731 18732 18733 18734 18735 18736 18737 18738 18739 18740 18741 18742 18743 18744 18745 18746 18747 18748 18749 18750 18751 18752 18753 18754 18755 18756 18757 18758 18759 18760 18761 18762 18763 18764 18765 18766 18767 18768 18769 18770 18771 18772 18773 18774 18775 18776 18777 18778 18779 18780 18781 18782 18783 18784 18785 18786 18787 18788 18789 18790 18791 18792 18793 18794 18795 18796 18797 18798 18799 18800 18801 18802 18803 18804 18805 18806 18807 18808 18809 18810 18811 18812 18813 18814 18815 18816 18817 18818 18819 18820 18821 18822 18823 18824 18825 18826 18827 18828 18829 18830 18831 18832 18833 18834 18835 18836 18837 18838 18839 18840 18841 18842 18843 18844 18845 18846 18847 18848 18849 18850 18851 18852 18853 18854 18855 18856 18857 18858 18859 18860 18861 18862 18863 18864 18865 18866 18867 18868 18869 18870 18871 18872 18873 18874 18875 18876 18877 18878 18879 18880 18881 18882 18883 18884 18885 18886 18887 18888 18889 18890 18891 18892 18893 18894 18895 18896 18897 18898 18899 18900 18901 18902 18903 18904 18905 18906 18907 18908 18909 18910 18911 18912 18913 18914 18915 18916 18917 18918 18919 18920 18921 18922 18923 18924 18925 18926 18927 18928 18929 18930 18931 18932 18933 18934 18935 18936 18937 18938 18939 18940 18941 18942 18943 18944 18945 18946 18947 18948 18949 18950 18951 18952 18953 18954 18955 18956 18957 18958 18959 18960 18961 18962 18963 18964 18965 18966 18967 18968 18969 18970 18971 18972 18973 18974 18975 18976 18977 18978 18979 18980 18981 18982 18983 18984 18985 18986 18987 18988 18989 18990 18991 18992 18993 18994 18995 18996 18997 18998 18999 19000 19001 19002 19003 19004 19005 19006 19007 19008 19009 19010 19011 19012 19013 19014 19015 19016 19017 19018 19019 19020 19021 19022 19023 19024 19025 19026 19027 19028 19029 19030 19031 19032 19033 19034 19035 19036 19037 19038 19039 19040 19041 19042 19043 19044 19045 19046 19047 19048 19049 19050 19051 19052 19053 19054 19055 19056 19057 19058 19059 19060 19061 19062 19063 19064 19065 19066 19067 19068 19069 19070 19071 19072 19073 19074 19075 19076 19077 19078 19079 19080 19081 19082 19083 19084 19085 19086 19087 19088 19089 19090 19091 19092 19093 19094 19095 19096 19097 19098 19099 19100 19101 19102 19103 19104 19105 19106 19107 19108 19109 19110 19111 19112 19113 19114 19115 19116 19117 19118 19119 19120 19121 19122 19123 19124 19125 19126 19127 19128 19129 19130 19131 19132 19133 19134 19135 19136 19137 19138 19139 19140 19141 19142 19143 19144 19145 19146 19147 19148 19149 19150 19151 19152 19153 19154 19155 19156 19157 19158 19159 19160 19161 19162 19163 19164 19165 19166 19167 19168 19169 19170 19171 19172 19173 19174 19175 19176 19177 19178 19179 19180 19181 19182 19183 19184 19185 19186 19187 19188 19189 19190 19191 19192 19193 19194 19195 19196 19197 19198 19199 19200 19201 19202 19203 19204 19205 19206 19207 19208 19209 19210 19211 19212 19213 19214 19215 19216 19217 19218 19219 19220 19221 19222 19223 19224 19225 19226 19227 19228 19229 19230 19231 19232 19233 19234 19235 19236 19237 19238 19239 19240 19241 19242 19243 19244 19245 19246 19247 19248 19249 19250 19251 19252 19253 19254 19255 19256 19257 19258 19259 19260 19261 19262 19263 19264 19265 19266 19267 19268 19269 19270 19271 19272 19273 19274 19275 19276 19277 19278 19279 19280 19281 19282 19283 19284 19285 19286 19287 19288 19289 19290 19291 19292 19293 19294 19295 19296 19297 19298 19299 19300 19301 19302 19303 19304 19305 19306 19307 19308 19309 19310 19311 19312 19313 19314 19315 19316 19317 19318 19319 19320 19321 19322 19323 19324 19325 19326 19327 19328 19329 19330 19331 19332 19333 19334 19335 19336 19337 19338 19339 19340 19341 19342 19343 19344 19345 19346 19347 19348 19349 19350 19351 19352 19353 19354 19355 19356 19357 19358 19359 19360 19361 19362 19363 19364 19365 19366 19367 19368 19369 19370 19371 19372 19373 19374 19375 19376 19377 19378 19379 19380 19381 19382 19383 19384 19385 19386 19387 19388 19389 19390 19391 19392 19393 19394 19395 19396 19397 19398 19399 19400 19401 19402 19403 19404 19405 19406 19407 19408 19409 19410 19411 19412 19413 19414 19415 19416 19417 19418 19419 19420 19421 19422 19423 19424 19425 19426 19427 19428 19429 19430 19431 19432 19433 19434 19435 19436 19437 19438 19439 19440 19441 19442 19443 19444 19445 19446 19447 19448 19449 19450 19451 19452 19453 19454 19455 19456 19457 19458 19459 19460 19461 19462 19463 19464 19465 19466 19467 19468 19469 19470 19471 19472 19473 19474 19475 19476 19477 19478 19479 19480 19481 19482 19483 19484 19485 19486 19487 19488 19489 19490 19491 19492 19493 19494 19495 19496 19497 19498 19499 19500 19501 19502 19503 19504 19505 19506 19507 19508 19509 19510 19511 19512 19513 19514 19515 19516 19517 19518 19519 19520 19521 19522 19523 19524 19525 19526 19527 19528 19529 19530 19531 19532 19533 19534 19535 19536 19537 19538 19539 19540 19541 19542 19543 19544 19545 19546 19547 19548 19549 19550 19551 19552 19553 19554 19555 19556 19557 19558 19559 19560 19561 19562 19563 19564 19565 19566 19567 19568 19569 19570 19571 19572 19573 19574 19575 19576 19577 19578 19579 19580 19581 19582 19583 19584 19585 19586 19587 19588 19589 19590 19591 19592 19593 19594 19595 19596 19597 19598 19599 19600 19601 19602 19603 19604 19605 19606 19607 19608 19609 19610 19611 19612 19613 19614 19615 19616 19617 19618 19619 19620 19621 19622 19623 19624 19625 19626 19627 19628 19629 19630 19631 19632 19633 19634 19635 19636 19637 19638 19639 19640 19641 19642 19643 19644 19645 19646 19647 19648 19649 19650 19651 19652 19653 19654 19655 19656 19657 19658 19659 19660 19661 19662 19663 19664 19665 19666 19667 19668 19669 19670 19671 19672 19673 19674 19675 19676 19677 19678 19679 19680 19681 19682 19683 19684 19685 19686 19687 19688 19689 19690 19691 19692 19693 19694 19695 19696 19697 19698 19699 19700 19701 19702 19703 19704 19705 19706 19707 19708 19709 19710 19711 19712 19713 19714 19715 19716 19717 19718 19719 19720 19721 19722 19723 19724 19725 19726 19727 19728 19729 19730 19731 19732 19733 19734 19735 19736 19737 19738 19739 19740 19741 19742 19743 19744 19745 19746 19747 19748 19749 19750 19751 19752 19753 19754 19755 19756 19757 19758 19759 19760 19761 19762 19763 19764 19765 19766 19767 19768 19769 19770 19771 19772 19773 19774 19775 19776 19777 19778 19779 19780 19781 19782 19783 19784 19785 19786 19787 19788 19789 19790 19791 19792 19793 19794 19795 19796 19797 19798 19799 19800 19801 19802 19803 19804 19805 19806 19807 19808 19809 19810 19811 19812 19813 19814 19815 19816 19817 19818 19819 19820 19821 19822 19823 19824 19825 19826 19827 19828 19829 19830 19831 19832 19833 19834 19835 19836 19837 19838 19839 19840 19841 19842 19843 19844 19845 19846 19847 19848 19849 19850 19851 19852 19853 19854 19855 19856 19857 19858 19859 19860 19861 19862 19863 19864 19865 19866 19867 19868 19869 19870 19871 19872 19873 19874 19875 19876 19877 19878 19879 19880 19881 19882 19883 19884 19885 19886 19887 19888 19889 19890 19891 19892 19893 19894 19895 19896 19897 19898 19899 19900 19901 19902 19903 19904 19905 19906 19907 19908 19909 19910 19911 19912 19913 19914 19915 19916 19917 19918 19919 19920 19921 19922 19923 19924 19925 19926 19927 19928 19929 19930 19931 19932 19933 19934 19935 19936 19937 19938 19939 19940 19941 19942 19943 19944 19945 19946 19947 19948 19949 19950 19951 19952 19953 19954 19955 19956 19957 19958 19959 19960 19961 19962 19963 19964 19965 19966 19967 19968 19969 19970 19971 19972 19973 19974 19975 19976 19977 19978 19979 19980 19981 19982 19983 19984 19985 19986 19987 19988 19989 19990 19991 19992 19993 19994 19995 19996 19997 19998 19999 20000 20001 20002 20003 20004 20005 20006 20007 20008 20009 20010 20011 20012 20013 20014 20015 20016 20017 20018 20019 20020 20021 20022 20023 20024 20025 20026 20027 20028 20029 20030 20031 20032 20033 20034 20035 20036 20037 20038 20039 20040 20041 20042 20043 20044 20045 20046 20047 20048 20049 20050 20051 20052 20053 20054 20055 20056 20057 20058 20059 20060 20061 20062 20063 20064 20065 20066 20067 20068 20069 20070 20071 20072 20073 20074 20075 20076 20077 20078 20079 20080 20081 20082 20083 20084 20085 20086 20087 20088 20089 20090 20091 20092 20093 20094 20095 20096 20097 20098 20099 20100 20101 20102 20103 20104 20105 20106 20107 20108 20109 20110 20111 20112 20113 20114 20115 20116 20117 20118 20119 20120 20121 20122 20123 20124 20125 20126 20127 20128 20129 20130 20131 20132 20133 20134 20135 20136 20137 20138 20139 20140 20141 20142 20143 20144 20145 20146 20147 20148 20149 20150 20151 20152 20153 20154 20155 20156 20157 20158 20159 20160 20161 20162 20163 20164 20165 20166 20167 20168 20169 20170 20171 20172 20173 20174 20175 20176 20177 20178 20179 20180 20181 20182 20183 20184 20185 20186 20187 20188 20189 20190 20191 20192 20193 20194 20195 20196 20197 20198 20199 20200 20201 20202 20203 20204 20205 20206 20207 20208 20209 20210 20211 20212 20213 20214 20215 20216 20217 20218 20219 20220 20221 20222 20223 20224 20225 20226 20227 20228 20229 20230 20231 20232 20233 20234 20235 20236 20237 20238 20239 20240 20241 20242 20243 20244 20245 20246 20247 20248 20249 20250 20251 20252 20253 20254 20255 20256 20257 20258 20259 20260 20261 20262 20263 20264 20265 20266 20267 20268 20269 20270 20271 20272 20273 20274 20275 20276 20277 20278 20279 20280 20281 20282 20283 20284 20285 20286 20287 20288 20289 20290 20291 20292 20293 20294 20295 20296 20297 20298 20299 20300 20301 20302 20303 20304 20305 20306 20307 20308 20309 20310 20311 20312 20313 20314 20315 20316 20317 20318 20319 20320 20321 20322 20323 20324 20325 20326 20327 20328 20329 20330 20331 20332 20333 20334 20335 20336 20337 20338 20339 20340 20341 20342 20343 20344 20345 20346 20347 20348 20349 20350 20351 20352 20353 20354 20355 20356 20357 20358 20359 20360 20361 20362 20363 20364 20365 20366 20367 20368 20369 20370 20371 20372 20373 20374 20375 20376 20377 20378 20379 20380 20381 20382 20383 20384 20385 20386 20387 20388 20389 20390 20391 20392 20393 20394 20395 20396 20397 20398 20399 20400 20401 20402 20403 20404 20405 20406 20407 20408 20409 20410 20411 20412 20413 20414 20415 20416 20417 20418 20419 20420 20421 20422 20423 20424 20425 20426 20427 20428 20429 20430 20431 20432 20433 20434 20435 20436 20437 20438 20439 20440 20441 20442 20443 20444 20445 20446 20447 20448 20449 20450 20451 20452 20453 20454 20455 20456 20457 20458 20459 20460 20461 20462 20463 20464 20465 20466 20467 20468 20469 20470 20471 20472 20473 20474 20475 20476 20477 20478 20479 20480 20481 20482 20483 20484 20485 20486 20487 20488 20489 20490 20491 20492 20493 20494 20495 20496 20497 20498 20499 20500 20501 20502 20503 20504 20505 20506 20507 20508 20509 20510 20511 20512 20513 20514 20515 20516 20517 20518 20519 20520 20521 20522 20523 20524 20525 20526 20527 20528 20529 20530 20531 20532 20533 20534 20535 20536 20537 20538 20539 20540 20541 20542 20543 20544 20545 20546 20547 20548 20549 20550 20551 20552 20553 20554 20555 20556 20557 20558 20559 20560 20561 20562 20563 20564 20565 20566 20567 20568 20569 20570 20571 20572 20573 20574 20575 20576 20577 20578 20579 20580 20581 20582 20583 20584 20585 20586 20587 20588 20589 20590 20591 20592 20593 20594 20595 20596 20597 20598 20599 20600 20601 20602 20603 20604 20605 20606 20607 20608 20609 20610 20611 20612 20613 20614 20615 20616 20617 20618 20619 20620 20621 20622 20623 20624 20625 20626 20627 20628 20629 20630 20631 20632 20633 20634 20635 20636 20637 20638 20639 20640 20641 20642 20643 20644 20645 20646 20647 20648 20649 20650 20651 20652 20653 20654 20655 20656 20657 20658 20659 20660 20661 20662 20663 20664 20665 20666 20667 20668 20669 20670 20671 20672 20673 20674 20675 20676 20677 20678 20679 20680 20681 20682 20683 20684 20685 20686 20687 20688 20689 20690 20691 20692 20693 20694 20695 20696 20697 20698 20699 20700 20701 20702 20703 20704 20705 20706 20707 20708 20709 20710 20711 20712 20713 20714 20715 20716 20717 20718 20719 20720 20721 20722 20723 20724 20725 20726 20727 20728 20729 20730 20731 20732 20733 20734 20735 20736 20737 20738 20739 20740 20741 20742 20743 20744 20745 20746 20747 20748 20749 20750 20751 20752 20753 20754 20755 20756 20757 20758 20759 20760 20761 20762 20763 20764 20765 20766 20767 20768 20769 20770 20771 20772 20773 20774 20775 20776 20777 20778 20779 20780 20781 20782 20783 20784 20785 20786 20787 20788 20789 20790 20791 20792 20793 20794 20795 20796 20797 20798 20799 20800 20801 20802 20803 20804 20805 20806 20807 20808 20809 20810 20811 20812 20813 20814 20815 20816 20817 20818 20819 20820 20821 20822 20823 20824 20825 20826 20827 20828 20829 20830 20831 20832 20833 20834 20835 20836 20837 20838 20839 20840 20841 20842 20843 20844 20845 20846 20847 20848 20849 20850 20851 20852 20853 20854 20855 20856 20857 20858 20859 20860 20861 20862 20863 20864 20865 20866 20867 20868 20869 20870 20871 20872 20873 20874 20875 20876 20877 20878 20879 20880 20881 20882 20883 20884 20885 20886 20887 20888 20889 20890 20891 20892 20893 20894 20895 20896 20897 20898 20899 20900 20901 20902 20903 20904 20905 20906 20907 20908 20909 20910 20911 20912 20913 20914 20915 20916 20917 20918 20919 20920 20921 20922 20923 20924 20925 20926 20927 20928 20929 20930 20931 20932 20933 20934 20935 20936 20937 20938 20939 20940 20941 20942 20943 20944 20945 20946 20947 20948 20949 20950 20951 20952 20953 20954 20955 20956 20957 20958 20959 20960 20961 20962 20963 20964 20965 20966 20967 20968 20969 20970 20971 20972 20973 20974 20975 20976 20977 20978 20979 20980 20981 20982 20983 20984 20985 20986 20987 20988 20989 20990 20991 20992 20993 20994 20995 20996 20997 20998 20999 21000 21001 21002 21003 21004 21005 21006 21007 21008 21009 21010 21011 21012 21013 21014 21015 21016 21017 21018 21019 21020 21021 21022 21023 21024 21025 21026 21027 21028 21029 21030 21031 21032 21033 21034 21035 21036 21037 21038 21039 21040 21041 21042 21043 21044 21045 21046 21047 21048 21049 21050 21051 21052 21053 21054 21055 21056 21057 21058 21059 21060 21061 21062 21063 21064 21065 21066 21067 21068 21069 21070 21071 21072 21073 21074 21075 21076 21077 21078 21079 21080 21081 21082 21083 21084 21085 21086 21087 21088 21089 21090 21091 21092 21093 21094 21095 21096 21097 21098 21099 21100 21101 21102 21103 21104 21105 21106 21107 21108 21109 21110 21111 21112 21113 21114 21115 21116 21117 21118 21119 21120 21121 21122 21123 21124 21125 21126 21127 21128 21129 21130 21131 21132 21133 21134 21135 21136 21137 21138 21139 21140 21141 21142 21143 21144 21145 21146 21147 21148 21149 21150 21151 21152 21153 21154 21155 21156 21157 21158 21159 21160 21161 21162 21163 21164 21165 21166 21167 21168 21169 21170 21171 21172 21173 21174 21175 21176 21177 21178 21179 21180 21181 21182 21183 21184 21185 21186 21187 21188 21189 21190 21191 21192 21193 21194 21195 21196 21197 21198 21199 21200 21201 21202 21203 21204 21205 21206 21207 21208 21209 21210 21211 21212 21213 21214 21215 21216 21217 21218 21219 21220 21221 21222 21223 21224 21225 21226 21227 21228 21229 21230 21231 21232 21233 21234 21235 21236 21237 21238 21239 21240 21241 21242 21243 21244 21245 21246 21247 21248 21249 21250 21251 21252 21253 21254 21255 21256 21257 21258 21259 21260 21261 21262 21263 21264 21265 21266 21267 21268 21269 21270 21271 21272 21273 21274 21275 21276 21277 21278 21279 21280 21281 21282 21283 21284 21285 21286 21287 21288 21289 21290 21291 21292 21293 21294 21295 21296 21297 21298 21299 21300 21301 21302 21303 21304 21305 21306 21307 21308 21309 21310 21311 21312 21313 21314 21315 21316 21317 21318 21319 21320 21321 21322 21323 21324 21325 21326 21327 21328 21329 21330 21331 21332 21333 21334 21335 21336 21337 21338 21339 21340 21341 21342 21343 21344 21345 21346 21347 21348 21349 21350 21351 21352 21353 21354 21355 21356 21357 21358 21359 21360 21361 21362 21363 21364 21365 21366 21367 21368 21369 21370 21371 21372 21373 21374 21375 21376 21377 21378 21379 21380 21381 21382 21383 21384 21385 21386 21387 21388 21389 21390 21391 21392 21393 21394 21395 21396 21397 21398 21399 21400 21401 21402 21403 21404 21405 21406 21407 21408 21409 21410 21411 21412 21413 21414 21415 21416 21417 21418 21419 21420 21421 21422 21423 21424 21425 21426 21427 21428 21429 21430 21431 21432 21433 21434 21435 21436 21437 21438 21439 21440 21441 21442 21443 21444 21445 21446 21447 21448 21449 21450 21451 21452 21453 21454 21455 21456 21457 21458 21459 21460 21461 21462 21463 21464 21465 21466 21467 21468 21469 21470 21471 21472 21473 21474 21475 21476 21477 21478 21479 21480 21481 21482 21483 21484 21485 21486 21487 21488 21489 21490 21491 21492 21493 21494 21495 21496 21497 21498 21499 21500 21501 21502 21503 21504 21505 21506 21507 21508 21509 21510 21511 21512 21513 21514 21515 21516 21517 21518 21519 21520 21521 21522 21523 21524 21525 21526 21527 21528 21529 21530 21531 21532 21533 21534 21535 21536 21537 21538 21539 21540 21541 21542 21543 21544 21545 21546 21547 21548 21549 21550 21551 21552 21553 21554 21555 21556 21557 21558 21559 21560 21561 21562 21563 21564 21565 21566 21567 21568 21569 21570 21571 21572 21573 21574 21575 21576 21577 21578 21579 21580 21581 21582 21583 21584 21585 21586 21587 21588 21589 21590 21591 21592 21593 21594 21595 21596 21597 21598 21599 21600 21601 21602 21603 21604 21605 21606 21607 21608 21609 21610 21611 21612 21613 21614 21615 21616 21617 21618 21619 21620 21621 21622 21623 21624 21625 21626 21627 21628 21629 21630 21631 21632 21633 21634 21635 21636 21637 21638 21639 21640 21641 21642 21643 21644 21645 21646 21647 21648 21649 21650 21651 21652 21653 21654 21655 21656 21657 21658 21659 21660 21661 21662 21663 21664 21665 21666 21667 21668 21669 21670 21671 21672 21673 21674 21675 21676 21677 21678 21679 21680 21681 21682 21683 21684 21685 21686 21687 21688 21689 21690 21691 21692 21693 21694 21695 21696 21697 21698 21699 21700 21701 21702 21703 21704 21705 21706 21707 21708 21709 21710 21711 21712 21713 21714 21715 21716 21717 21718 21719 21720 21721 21722 21723 21724 21725 21726 21727 21728 21729 21730 21731 21732 21733 21734 21735 21736 21737 21738 21739 21740 21741 21742 21743 21744 21745 21746 21747 21748 21749 21750 21751 21752 21753 21754 21755 21756 21757 21758 21759 21760 21761 21762 21763 21764 21765 21766 21767 21768 21769 21770 21771 21772 21773 21774 21775 21776 21777 21778 21779 21780 21781 21782 21783 21784 21785 21786 21787 21788 21789 21790 21791 21792 21793 21794 21795 21796 21797 21798 21799 21800 21801 21802 21803 21804 21805 21806 21807 21808 21809 21810 21811 21812 21813 21814 21815 21816 21817 21818 21819 21820 21821 21822 21823 21824 21825 21826 21827 21828 21829 21830 21831 21832 21833 21834 21835 21836 21837 21838 21839 21840 21841 21842 21843 21844 21845 21846 21847 21848 21849 21850 21851 21852 21853 21854 21855 21856 21857 21858 21859 21860 21861 21862 21863 21864 21865 21866 21867 21868 21869 21870 21871 21872 21873 21874 21875 21876 21877 21878 21879 21880 21881 21882 21883 21884 21885 21886 21887 21888 21889 21890 21891 21892 21893 21894 21895 21896 21897 21898 21899 21900 21901 21902 21903 21904 21905 21906 21907 21908 21909 21910 21911 21912 21913 21914 21915 21916 21917 21918 21919 21920 21921 21922 21923 21924 21925 21926 21927 21928 21929 21930 21931 21932 21933 21934 21935 21936 21937 21938 21939 21940 21941 21942 21943 21944 21945 21946 21947 21948 21949 21950 21951 21952 21953 21954 21955 21956 21957 21958 21959 21960 21961 21962 21963 21964 21965 21966 21967 21968 21969 21970 21971 21972 21973 21974 21975 21976 21977 21978 21979 21980 21981 21982 21983 21984 21985 21986 21987 21988 21989 21990 21991 21992 21993 21994 21995 21996 21997 21998 21999 22000 22001 22002 22003 22004 22005 22006 22007 22008 22009 22010 22011 22012 22013 22014 22015 22016 22017 22018 22019 22020 22021 22022 22023 22024 22025 22026 22027 22028 22029 22030 22031 22032 22033 22034 22035 22036 22037 22038 22039 22040 22041 22042 22043 22044 22045 22046 22047 22048 22049 22050 22051 22052 22053 22054 22055 22056 22057 22058 22059 22060 22061 22062 22063 22064 22065 22066 22067 22068 22069 22070 22071 22072 22073 22074 22075 22076 22077 22078 22079 22080 22081 22082 22083 22084 22085 22086 22087 22088 22089 22090 22091 22092 22093 22094 22095 22096 22097 22098 22099 22100 22101 22102 22103 22104 22105 22106 22107 22108 22109 22110 22111 22112 22113 22114 22115 22116 22117 22118 22119 22120 22121 22122 22123 22124 22125 22126 22127 22128 22129 22130 22131 22132 22133 22134 22135 22136 22137 22138 22139 22140 22141 22142 22143 22144 22145 22146 22147 22148 22149 22150 22151 22152 22153 22154 22155 22156 22157 22158 22159 22160 22161 22162 22163 22164 22165 22166 22167 22168 22169 22170 22171 22172 22173 22174 22175 22176 22177 22178 22179 22180 22181 22182 22183 22184 22185 22186 22187 22188 22189 22190 22191 22192 22193 22194 22195 22196 22197 22198 22199 22200 22201 22202 22203 22204 22205 22206 22207 22208 22209 22210 22211 22212 22213 22214 22215 22216 22217 22218 22219 22220 22221 22222 22223 22224 22225 22226 22227 22228 22229 22230 22231 22232 22233 22234 22235 22236 22237 22238 22239 22240 22241 22242 22243 22244 22245 22246 22247 22248 22249 22250 22251 22252 22253 22254 22255 22256 22257 22258 22259 22260 22261 22262 22263 22264 22265 22266 22267 22268 22269 22270 22271 22272 22273 22274 22275 22276 22277 22278 22279 22280 22281 22282 22283 22284 22285 22286 22287 22288 22289 22290 22291 22292 22293 22294 22295 22296 22297 22298 22299 22300 22301 22302 22303 22304 22305 22306 22307 22308 22309 22310 22311 22312 22313 22314 22315 22316 22317 22318 22319 22320 22321 22322 22323 22324 22325 22326 22327 22328 22329 22330 22331 22332 22333 22334 22335 22336 22337 22338 22339 22340 22341 22342 22343 22344 22345 22346 22347 22348 22349 22350 22351 22352 22353 22354 22355 22356 22357 22358 22359 22360 22361 22362 22363 22364 22365 22366 22367 22368 22369 22370 22371 22372 22373 22374 22375 22376 22377 22378 22379 22380 22381 22382 22383 22384 22385 22386 22387 22388 22389 22390 22391 22392 22393 22394 22395 22396 22397 22398 22399 22400 22401 22402 22403 22404 22405 22406 22407 22408 22409 22410 22411 22412 22413 22414 22415 22416 22417 22418 22419 22420 22421 22422 22423 22424 22425 22426 22427 22428 22429 22430 22431 22432 22433 22434 22435 22436 22437 22438 22439 22440 22441 22442 22443 22444 22445 22446 22447 22448 22449 22450 22451 22452 22453 22454 22455 22456 22457 22458 22459 22460 22461 22462 22463 22464 22465 22466 22467 22468 22469 22470 22471 22472 22473 22474 22475 22476 22477 22478 22479 22480 22481 22482 22483 22484 22485 22486 22487 22488 22489 22490 22491 22492 22493 22494 22495 22496 22497 22498 22499 22500 22501 22502 22503 22504 22505 22506 22507 22508 22509 22510 22511 22512 22513 22514 22515 22516 22517 22518 22519 22520 22521 22522 22523 22524 22525 22526 22527 22528 22529 22530 22531 22532 22533 22534 22535 22536 22537 22538 22539 22540 22541 22542 22543 22544 22545 22546 22547 22548 22549 22550 22551 22552 22553 22554 22555 22556 22557 22558 22559 22560 22561 22562 22563 22564 22565 22566 22567 22568 22569 22570 22571 22572 22573 22574 22575 22576 22577 22578 22579 22580 22581 22582 22583 22584 22585 22586 22587 22588 22589 22590 22591 22592 22593 22594 22595 22596 22597 22598 22599 22600 22601 22602 22603 22604 22605 22606 22607 22608 22609 22610 22611 22612 22613 22614 22615 22616 22617 22618 22619 22620 22621 22622 22623 22624 22625 22626 22627 22628 22629 22630 22631 22632 22633 22634 22635 22636 22637 22638 22639 22640 22641 22642 22643 22644 22645 22646 22647 22648 22649 22650 22651 22652 22653 22654 22655 22656 22657 22658 22659 22660 22661 22662 22663 22664 22665 22666 22667 22668 22669 22670 22671 22672 22673 22674 22675 22676 22677 22678 22679 22680 22681 22682 22683 22684 22685 22686 22687 22688 22689 22690 22691 22692 22693 22694 22695 22696 22697 22698 22699 22700 22701 22702 22703 22704 22705 22706 22707 22708 22709 22710 22711 22712 22713 22714 22715 22716 22717 22718 22719 22720 22721 22722 22723 22724 22725 22726 22727 22728 22729 22730 22731 22732 22733 22734 22735 22736 22737 22738 22739 22740 22741 22742 22743 22744 22745 22746 22747 22748 22749 22750 22751 22752 22753 22754 22755 22756 22757 22758 22759 22760 22761 22762 22763 22764 22765 22766 22767 22768 22769 22770 22771 22772 22773 22774 22775 22776 22777 22778 22779 22780 22781 22782 22783 22784 22785 22786 22787 22788 22789 22790 22791 22792 22793 22794 22795 22796 22797 22798 22799 22800 22801 22802 22803 22804 22805 22806 22807 22808 22809 22810 22811 22812 22813 22814 22815 22816 22817 22818 22819 22820 22821 22822 22823 22824 22825 22826 22827 22828 22829 22830 22831 22832 22833 22834 22835 22836 22837 22838 22839 22840 22841 22842 22843 22844 22845 22846 22847 22848 22849 22850 22851 22852 22853 22854 22855 22856 22857 22858 22859 22860 22861 22862 22863 22864 22865 22866 22867 22868 22869 22870 22871 22872 22873 22874 22875 22876 22877 22878 22879 22880 22881 22882 22883 22884 22885 22886 22887 22888 22889 22890 22891 22892 22893 22894 22895 22896 22897 22898 22899 22900 22901 22902 22903 22904 22905 22906 22907 22908 22909 22910 22911 22912 22913 22914 22915 22916 22917 22918 22919 22920 22921 22922 22923 22924 22925 22926 22927 22928 22929 22930 22931 22932 22933 22934 22935 22936 22937 22938 22939 22940 22941 22942 22943 22944 22945 22946 22947 22948 22949 22950 22951 22952 22953 22954 22955 22956 22957 22958 22959 22960 22961 22962 22963 22964 22965 22966 22967 22968 22969 22970 22971 22972 22973 22974 22975 22976 22977 22978 22979 22980 22981 22982 22983 22984 22985 22986 22987 22988 22989 22990 22991 22992 22993 22994 22995 22996 22997 22998 22999 23000 23001 23002 23003 23004 23005 23006 23007 23008 23009 23010 23011 23012 23013 23014 23015 23016 23017 23018 23019 23020 23021 23022 23023 23024 23025 23026 23027 23028 23029 23030 23031 23032 23033 23034 23035 23036 23037 23038 23039 23040 23041 23042 23043 23044 23045 23046 23047 23048 23049 23050 23051 23052 23053 23054 23055 23056 23057 23058 23059 23060 23061 23062 23063 23064 23065 23066 23067 23068 23069 23070 23071 23072 23073 23074 23075 23076 23077 23078 23079 23080 23081 23082 23083 23084 23085 23086 23087 23088 23089 23090 23091 23092 23093 23094 23095 23096 23097 23098 23099 23100 23101 23102 23103 23104 23105 23106 23107 23108 23109 23110 23111 23112 23113 23114 23115 23116 23117 23118 23119 23120 23121 23122 23123 23124 23125 23126 23127 23128 23129 23130 23131 23132 23133 23134 23135 23136 23137 23138 23139 23140 23141 23142 23143 23144 23145 23146 23147 23148 23149 23150 23151 23152 23153 23154 23155 23156 23157 23158 23159 23160 23161 23162 23163 23164 23165 23166 23167 23168 23169 23170 23171 23172 23173 23174 23175 23176 23177 23178 23179 23180 23181 23182 23183 23184 23185 23186 23187 23188 23189 23190 23191 23192 23193 23194 23195 23196 23197 23198 23199 23200 23201 23202 23203 23204 23205 23206 23207 23208 23209 23210 23211 23212 23213 23214 23215 23216 23217 23218 23219 23220 23221 23222 23223 23224 23225 23226 23227 23228 23229 23230 23231 23232 23233 23234 23235 23236 23237 23238 23239 23240 23241 23242 23243 23244 23245 23246 23247 23248 23249 23250 23251 23252 23253 23254 23255 23256 23257 23258 23259 23260 23261 23262 23263 23264 23265 23266 23267 23268 23269 23270 23271 23272 23273 23274 23275 23276 23277 23278 23279 23280 23281 23282 23283 23284 23285 23286 23287 23288 23289 23290 23291 23292 23293 23294 23295 23296 23297 23298 23299 23300 23301 23302 23303 23304 23305 23306 23307 23308 23309 23310 23311 23312 23313 23314 23315 23316 23317 23318 23319 23320 23321 23322 23323 23324 23325 23326 23327 23328 23329 23330 23331 23332 23333 23334 23335 23336 23337 23338 23339 23340 23341 23342 23343 23344 23345 23346 23347 23348 23349 23350 23351 23352 23353 23354 23355 23356 23357 23358 23359 23360 23361 23362 23363 23364 23365 23366 23367 23368 23369 23370 23371 23372 23373 23374 23375 23376 23377 23378 23379 23380 23381 23382 23383 23384 23385 23386 23387 23388 23389 23390 23391 23392 23393 23394 23395 23396 23397 23398 23399 23400 23401 23402 23403 23404 23405 23406 23407 23408 23409 23410 23411 23412 23413 23414 23415 23416 23417 23418 23419 23420 23421 23422 23423 23424 23425 23426 23427 23428 23429 23430 23431 23432 23433 23434 23435 23436 23437 23438 23439 23440 23441 23442 23443 23444 23445 23446 23447 23448 23449 23450 23451 23452 23453 23454 23455 23456 23457 23458 23459 23460 23461 23462 23463 23464 23465 23466 23467 23468 23469 23470 23471 23472 23473 23474 23475 23476 23477 23478 23479 23480 23481 23482 23483 23484 23485 23486 23487 23488 23489 23490 23491 23492 23493 23494 23495 23496 23497 23498 23499 23500 23501 23502 23503 23504 23505 23506 23507 23508 23509 23510 23511 23512 23513 23514 23515 23516 23517 23518 23519 23520 23521 23522 23523 23524 23525 23526 23527 23528 23529 23530 23531 23532 23533 23534 23535 23536 23537 23538 23539 23540 23541 23542 23543 23544 23545 23546 23547 23548 23549 23550 23551 23552 23553 23554 23555 23556 23557 23558 23559 23560 23561 23562 23563 23564 23565 23566 23567 23568 23569 23570 23571 23572 23573 23574 23575 23576 23577 23578 23579 23580 23581 23582 23583 23584 23585 23586 23587 23588 23589 23590 23591 23592 23593 23594 23595 23596 23597 23598 23599 23600 23601 23602 23603 23604 23605 23606 23607 23608 23609 23610 23611 23612 23613 23614 23615 23616 23617 23618 23619 23620 23621 23622 23623 23624 23625 23626 23627 23628 23629 23630 23631 23632 23633 23634 23635 23636 23637 23638 23639 23640 23641 23642 23643 23644 23645 23646 23647 23648 23649 23650 23651 23652 23653 23654 23655 23656 23657 23658 23659 23660 23661 23662 23663 23664 23665 23666 23667 23668 23669 23670 23671 23672 23673 23674 23675 23676 23677 23678 23679 23680 23681 23682 23683 23684 23685 23686 23687 23688 23689 23690 23691 23692 23693 23694 23695 23696 23697 23698 23699 23700 23701 23702 23703 23704 23705 23706 23707 23708 23709 23710 23711 23712 23713 23714 23715 23716 23717 23718 23719 23720 23721 23722 23723 23724 23725 23726 23727 23728 23729 23730 23731 23732 23733 23734 23735 23736 23737 23738 23739 23740 23741 23742 23743 23744 23745 23746 23747 23748 23749 23750 23751 23752 23753 23754 23755 23756 23757 23758 23759 23760 23761 23762 23763 23764 23765 23766 23767 23768 23769 23770 23771 23772 23773 23774 23775 23776 23777 23778 23779 23780 23781 23782 23783 23784 23785 23786 23787 23788 23789 23790 23791 23792 23793 23794 23795 23796 23797 23798 23799 23800 23801 23802 23803 23804 23805 23806 23807 23808 23809 23810 23811 23812 23813 23814 23815 23816 23817 23818 23819 23820 23821 23822 23823 23824 23825 23826 23827 23828 23829 23830 23831 23832 23833 23834 23835 23836 23837 23838 23839 23840 23841 23842 23843 23844 23845 23846 23847 23848 23849 23850 23851 23852 23853 23854 23855 23856 23857 23858 23859 23860 23861 23862 23863 23864 23865 23866 23867 23868 23869 23870 23871 23872 23873 23874 23875 23876 23877 23878 23879 23880 23881 23882 23883 23884 23885 23886 23887 23888 23889 23890 23891 23892 23893 23894 23895 23896 23897 23898 23899 23900 23901 23902 23903 23904 23905 23906 23907 23908 23909 23910 23911 23912 23913 23914 23915 23916 23917 23918 23919 23920 23921 23922 23923 23924 23925 23926 23927 23928 23929 23930 23931 23932 23933 23934 23935 23936 23937 23938 23939 23940 23941 23942 23943 23944 23945 23946 23947 23948 23949 23950 23951 23952 23953 23954 23955 23956 23957 23958 23959 23960 23961 23962 23963 23964 23965 23966 23967 23968 23969 23970 23971 23972 23973 23974 23975 23976 23977 23978 23979 23980 23981 23982 23983 23984 23985 23986 23987 23988 23989 23990 23991 23992 23993 23994 23995 23996 23997 23998 23999 24000 24001 24002 24003 24004 24005 24006 24007 24008 24009 24010 24011 24012 24013 24014 24015 24016 24017 24018 24019 24020 24021 24022 24023 24024 24025 24026 24027 24028 24029 24030 24031 24032 24033 24034 24035 24036 24037 24038 24039 24040 24041 24042 24043 24044 24045 24046 24047 24048 24049 24050 24051 24052 24053 24054 24055 24056 24057 24058 24059 24060 24061 24062 24063 24064 24065 24066 24067 24068 24069 24070 24071 24072 24073 24074 24075 24076 24077 24078 24079 24080 24081 24082 24083 24084 24085 24086 24087 24088 24089 24090 24091 24092 24093 24094 24095 24096 24097 24098 24099 24100 24101 24102 24103 24104 24105 24106 24107 24108 24109 24110 24111 24112 24113 24114 24115 24116 24117 24118 24119 24120 24121 24122 24123 24124 24125 24126 24127 24128 24129 24130 24131 24132 24133 24134 24135 24136 24137 24138 24139 24140 24141 24142 24143 24144 24145 24146 24147 24148 24149 24150 24151 24152 24153 24154 24155 24156 24157 24158 24159 24160 24161 24162 24163 24164 24165 24166 24167 24168 24169 24170 24171 24172 24173 24174 24175 24176 24177 24178 24179 24180 24181 24182 24183 24184 24185 24186 24187 24188 24189 24190 24191 24192 24193 24194 24195 24196 24197 24198 24199 24200 24201 24202 24203 24204 24205 24206 24207 24208 24209 24210 24211 24212 24213 24214 24215 24216 24217 24218 24219 24220 24221 24222 24223 24224 24225 24226 24227 24228 24229 24230 24231 24232 24233 24234 24235 24236 24237 24238 24239 24240 24241 24242 24243 24244 24245 24246 24247 24248 24249 24250 24251 24252 24253 24254 24255 24256 24257 24258 24259 24260 24261 24262 24263 24264 24265 24266 24267 24268 24269 24270 24271 24272 24273 24274 24275 24276 24277 24278 24279 24280 24281 24282 24283 24284 24285 24286 24287 24288 24289 24290 24291 24292 24293 24294 24295 24296 24297 24298 24299 24300 24301 24302 24303 24304 24305 24306 24307 24308 24309 24310 24311 24312 24313 24314 24315 24316 24317 24318 24319 24320 24321 24322 24323 24324 24325 24326 24327 24328 24329 24330 24331 24332 24333 24334 24335 24336 24337 24338 24339 24340 24341 24342 24343 24344 24345 24346 24347 24348 24349 24350 24351 24352 24353 24354 24355 24356 24357 24358 24359 24360 24361 24362 24363 24364 24365 24366 24367 24368 24369 24370 24371 24372 24373 24374 24375 24376 24377 24378 24379 24380 24381 24382 24383 24384 24385 24386 24387 24388 24389 24390 24391 24392 24393 24394 24395 24396 24397 24398 24399 24400 24401 24402 24403 24404 24405 24406 24407 24408 24409 24410 24411 24412 24413 24414 24415 24416 24417 24418 24419 24420 24421 24422 24423 24424 24425 24426 24427 24428 24429 24430 24431 24432 24433 24434 24435 24436 24437 24438 24439 24440 24441 24442 24443 24444 24445 24446 24447 24448 24449 24450 24451 24452 24453 24454 24455 24456 24457 24458 24459 24460 24461 24462 24463 24464 24465 24466 24467 24468 24469 24470 24471 24472 24473 24474 24475 24476 24477 24478 24479 24480 24481 24482 24483 24484 24485 24486 24487 24488 24489 24490 24491 24492 24493 24494 24495 24496 24497 24498 24499 24500 24501 24502 24503 24504 24505 24506 24507 24508 24509 24510 24511 24512 24513 24514 24515 24516 24517 24518 24519 24520 24521 24522 24523 24524 24525 24526 24527 24528 24529 24530 24531 24532 24533 24534 24535 24536 24537 24538 24539 24540 24541 24542 24543 24544 24545 24546 24547 24548 24549 24550 24551 24552 24553 24554 24555 24556 24557 24558 24559 24560 24561 24562 24563 24564 24565 24566 24567 24568 24569 24570 24571 24572 24573 24574 24575 24576 24577 24578 24579 24580 24581 24582 24583 24584 24585 24586 24587 24588 24589 24590 24591 24592 24593 24594 24595 24596 24597 24598 24599 24600 24601 24602 24603 24604 24605 24606 24607 24608 24609 24610 24611 24612 24613 24614 24615 24616 24617 24618 24619 24620 24621 24622 24623 24624 24625 24626 24627 24628 24629 24630 24631 24632 24633 24634 24635 24636 24637 24638 24639 24640 24641 24642 24643 24644 24645 24646 24647 24648 24649 24650 24651 24652 24653 24654 24655 24656 24657 24658 24659 24660 24661 24662 24663 24664 24665 24666 24667 24668 24669 24670 24671 24672 24673 24674 24675 24676 24677 24678 24679 24680 24681 24682 24683 24684 24685 24686 24687 24688 24689 24690 24691 24692 24693 24694 24695 24696 24697 24698 24699 24700 24701 24702 24703 24704 24705 24706 24707 24708 24709 24710 24711 24712 24713 24714 24715 24716 24717 24718 24719 24720 24721 24722 24723 24724 24725 24726 24727 24728 24729 24730 24731 24732 24733 24734 24735 24736 24737 24738 24739 24740 24741 24742 24743 24744 24745 24746 24747 24748 24749 24750 24751 24752 24753 24754 24755 24756 24757 24758 24759 24760 24761 24762 24763 24764 24765 24766 24767 24768 24769 24770 24771 24772 24773 24774 24775 24776 24777 24778 24779 24780 24781 24782 24783 24784 24785 24786 24787 24788 24789 24790 24791 24792 24793 24794 24795 24796 24797 24798 24799 24800 24801 24802 24803 24804 24805 24806 24807 24808 24809 24810 24811 24812 24813 24814 24815 24816 24817 24818 24819 24820 24821 24822 24823 24824 24825 24826 24827 24828 24829 24830 24831 24832 24833 24834 24835 24836 24837 24838 24839 24840 24841 24842 24843 24844 24845 24846 24847 24848 24849 24850 24851 24852 24853 24854 24855 24856 24857 24858 24859 24860 24861 24862 24863 24864 24865 24866 24867 24868 24869 24870 24871 24872 24873 24874 24875 24876 24877 24878 24879 24880 24881 24882 24883 24884 24885 24886 24887 24888 24889 24890 24891 24892 24893 24894 24895 24896 24897 24898 24899 24900 24901 24902 24903 24904 24905 24906 24907 24908 24909 24910 24911 24912 24913 24914 24915 24916 24917 24918 24919 24920 24921 24922 24923 24924 24925 24926 24927 24928 24929 24930 24931 24932 24933 24934 24935 24936 24937 24938 24939 24940 24941 24942 24943 24944 24945 24946 24947 24948 24949 24950 24951 24952 24953 24954 24955 24956 24957 24958 24959 24960 24961 24962 24963 24964 24965 24966 24967 24968 24969 24970 24971 24972 24973 24974 24975 24976 24977 24978 24979 24980 24981 24982 24983 24984 24985 24986 24987 24988 24989 24990 24991 24992 24993 24994 24995 24996 24997 24998 24999 25000 25001 25002 25003 25004 25005 25006 25007 25008 25009 25010 25011 25012 25013 25014 25015 25016 25017 25018 25019 25020 25021 25022 25023 25024 25025 25026 25027 25028 25029 25030 25031 25032 25033 25034 25035 25036 25037 25038 25039 25040 25041 25042 25043 25044 25045 25046 25047 25048 25049 25050 25051 25052 25053 25054 25055 25056 25057 25058 25059 25060 25061 25062 25063 25064 25065 25066 25067 25068 25069 25070 25071 25072 25073 25074 25075 25076 25077 25078 25079 25080 25081 25082 25083 25084 25085 25086 25087 25088 25089 25090 25091 25092 25093 25094 25095 25096 25097 25098 25099 25100 25101 25102 25103 25104 25105 25106 25107 25108 25109 25110 25111 25112 25113 25114 25115 25116 25117 25118 25119 25120 25121 25122 25123 25124 25125 25126 25127 25128 25129 25130 25131 25132 25133 25134 25135 25136 25137 25138 25139 25140 25141 25142 25143 25144 25145 25146 25147 25148 25149 25150 25151 25152 25153 25154 25155 25156 25157 25158 25159 25160 25161 25162 25163 25164 25165 25166 25167 25168 25169 25170 25171 25172 25173 25174 25175 25176 25177 25178 25179 25180 25181 25182 25183 25184 25185 25186 25187 25188 25189 25190 25191 25192 25193 25194 25195 25196 25197 25198 25199 25200 25201 25202 25203 25204 25205 25206 25207 25208 25209 25210 25211 25212 25213 25214 25215 25216 25217 25218 25219 25220 25221 25222 25223 25224 25225 25226 25227 25228 25229 25230 25231 25232 25233 25234 25235 25236 25237 25238 25239 25240 25241 25242 25243 25244 25245 25246 25247 25248 25249 25250 25251 25252 25253 25254 25255 25256 25257 25258 25259 25260 25261 25262 25263 25264 25265 25266 25267 25268 25269 25270 25271 25272 25273 25274 25275 25276 25277 25278 25279 25280 25281 25282 25283 25284 25285 25286 25287 25288 25289 25290 25291 25292 25293 25294 25295 25296 25297 25298 25299 25300 25301 25302 25303 25304 25305 25306 25307 25308 25309 25310 25311 25312 25313 25314 25315 25316 25317 25318 25319 25320 25321 25322 25323 25324 25325 25326 25327 25328 25329 25330 25331 25332 25333 25334 25335 25336 25337 25338 25339 25340 25341 25342 25343 25344 25345 25346 25347 25348 25349 25350 25351 25352 25353 25354 25355 25356 25357 25358 25359 25360 25361 25362 25363 25364 25365 25366 25367 25368 25369 25370 25371 25372 25373 25374 25375 25376 25377 25378 25379 25380 25381 25382 25383 25384 25385 25386 25387 25388 25389 25390 25391 25392 25393 25394 25395 25396 25397 25398 25399 25400 25401 25402 25403 25404 25405 25406 25407 25408 25409 25410 25411 25412 25413 25414 25415 25416 25417 25418 25419 25420 25421 25422 25423 25424 25425 25426 25427 25428 25429 25430 25431 25432 25433 25434 25435 25436 25437 25438 25439 25440 25441 25442 25443 25444 25445 25446 25447 25448 25449 25450 25451 25452 25453 25454 25455 25456 25457 25458 25459 25460 25461 25462 25463 25464 25465 25466 25467 25468 25469 25470 25471 25472 25473 25474 25475 25476 25477 25478 25479 25480 25481 25482 25483 25484 25485 25486 25487 25488 25489 25490 25491 25492 25493 25494 25495 25496 25497 25498 25499 25500 25501 25502 25503 25504 25505 25506 25507 25508 25509 25510 25511 25512 25513 25514 25515 25516 25517 25518 25519 25520 25521 25522 25523 25524 25525 25526 25527 25528 25529 25530 25531 25532 25533 25534 25535 25536 25537 25538 25539 25540 25541 25542 25543 25544 25545 25546 25547 25548 25549 25550 25551 25552 25553 25554 25555 25556 25557 25558 25559 25560 25561 25562 25563 25564 25565 25566 25567 25568 25569 25570 25571 25572 25573 25574 25575 25576 25577 25578 25579 25580 25581 25582 25583 25584 25585 25586 25587 25588 25589 25590 25591 25592 25593 25594 25595 25596 25597 25598 25599 25600 25601 25602 25603 25604 25605 25606 25607 25608 25609 25610 25611 25612 25613 25614 25615 25616 25617 25618 25619 25620 25621 25622 25623 25624 25625 25626 25627 25628 25629 25630 25631 25632 25633 25634 25635 25636 25637 25638 25639 25640 25641 25642 25643 25644 25645 25646 25647 25648 25649 25650 25651 25652 25653 25654 25655 25656 25657 25658 25659 25660 25661 25662 25663 25664 25665 25666 25667 25668 25669 25670 25671 25672 25673 25674 25675 25676 25677 25678 25679 25680 25681 25682 25683 25684 25685 25686 25687 25688 25689 25690 25691 25692 25693 25694 25695 25696 25697 25698 25699 25700 25701 25702 25703 25704 25705 25706 25707 25708 25709 25710 25711 25712 25713 25714 25715 25716 25717 25718 25719 25720 25721 25722 25723 25724 25725 25726 25727 25728 25729 25730 25731 25732 25733 25734 25735 25736 25737 25738 25739 25740 25741 25742 25743 25744 25745 25746 25747 25748 25749 25750 25751 25752 25753 25754 25755 25756 25757 25758 25759 25760 25761 25762 25763 25764 25765 25766 25767 25768 25769 25770 25771 25772 25773 25774 25775 25776 25777 25778 25779 25780 25781 25782 25783 25784 25785 25786 25787 25788 25789 25790 25791 25792 25793 25794 25795 25796 25797 25798 25799 25800 25801 25802 25803 25804 25805 25806 25807 25808 25809 25810 25811 25812 25813 25814 25815 25816 25817 25818 25819 25820 25821 25822 25823 25824 25825 25826 25827 25828 25829 25830 25831 25832 25833 25834 25835 25836 25837 25838 25839 25840 25841 25842 25843 25844 25845 25846 25847 25848 25849 25850 25851 25852 25853 25854 25855 25856 25857 25858 25859 25860 25861 25862 25863 25864 25865 25866 25867 25868 25869 25870 25871 25872 25873 25874 25875 25876 25877 25878 25879 25880 25881 25882 25883 25884 25885 25886 25887 25888 25889 25890 25891 25892 25893 25894 25895 25896 25897 25898 25899 25900 25901 25902 25903 25904 25905 25906 25907 25908 25909 25910 25911 25912 25913 25914 25915 25916 25917 25918 25919 25920 25921 25922 25923 25924 25925 25926 25927 25928 25929 25930 25931 25932 25933 25934 25935 25936 25937 25938 25939 25940 25941 25942 25943 25944 25945 25946 25947 25948 25949 25950 25951 25952 25953 25954 25955 25956 25957 25958 25959 25960 25961 25962 25963 25964 25965 25966 25967 25968 25969 25970 25971 25972 25973 25974 25975 25976 25977 25978 25979 25980 25981 25982 25983 25984 25985 25986 25987 25988 25989 25990 25991 25992 25993 25994 25995 25996 25997 25998 25999 26000 26001 26002 26003 26004 26005 26006 26007 26008 26009 26010 26011 26012 26013 26014 26015 26016 26017 26018 26019 26020 26021 26022 26023 26024 26025 26026 26027 26028 26029 26030 26031 26032 26033 26034 26035 26036 26037 26038 26039 26040 26041 26042 26043 26044 26045 26046 26047 26048 26049 26050 26051 26052 26053 26054 26055 26056 26057 26058 26059 26060 26061 26062 26063 26064 26065 26066 26067 26068 26069 26070 26071 26072 26073 26074 26075 26076 26077 26078 26079 26080 26081 26082 26083 26084 26085 26086 26087 26088 26089 26090 26091 26092 26093 26094 26095 26096 26097 26098 26099 26100 26101 26102 26103 26104 26105 26106 26107 26108 26109 26110 26111 26112 26113 26114 26115 26116 26117 26118 26119 26120 26121 26122 26123 26124 26125 26126 26127 26128 26129 26130 26131 26132 26133 26134 26135 26136 26137 26138 26139 26140 26141 26142 26143 26144 26145 26146 26147 26148 26149 26150 26151 26152 26153 26154 26155 26156 26157 26158 26159 26160 26161 26162 26163 26164 26165 26166 26167 26168 26169 26170 26171 26172 26173 26174 26175 26176 26177 26178 26179 26180 26181 26182 26183 26184 26185 26186 26187 26188 26189 26190 26191 26192 26193 26194 26195 26196 26197 26198 26199 26200 26201 26202 26203 26204 26205 26206 26207 26208 26209 26210 26211 26212 26213 26214 26215 26216 26217 26218 26219 26220 26221 26222 26223 26224 26225 26226 26227 26228 26229 26230 26231 26232 26233 26234 26235 26236 26237 26238 26239 26240 26241 26242 26243 26244 26245 26246 26247 26248 26249 26250 26251 26252 26253 26254 26255 26256 26257 26258 26259 26260 26261 26262 26263 26264 26265 26266 26267 26268 26269 26270 26271 26272 26273 26274 26275 26276 26277 26278 26279 26280 26281 26282 26283 26284 26285 26286 26287 26288 26289 26290 26291 26292 26293 26294 26295 26296 26297 26298 26299 26300 26301 26302 26303 26304 26305 26306 26307 26308 26309 26310 26311 26312 26313 26314 26315 26316 26317 26318 26319 26320 26321 26322 26323 26324 26325 26326 26327 26328 26329 26330 26331 26332 26333 26334 26335 26336 26337 26338 26339 26340 26341 26342 26343 26344 26345 26346 26347 26348 26349 26350 26351 26352 26353 26354 26355 26356 26357 26358 26359 26360 26361 26362 26363 26364 26365 26366 26367 26368 26369 26370 26371 26372 26373 26374 26375 26376 26377 26378 26379 26380 26381 26382 26383 26384 26385 26386 26387 26388 26389 26390 26391 26392 26393 26394 26395 26396 26397 26398 26399 26400 26401 26402 26403 26404 26405 26406 26407 26408 26409 26410 26411 26412 26413 26414 26415 26416 26417 26418 26419 26420 26421 26422 26423 26424 26425 26426 26427 26428 26429 26430 26431 26432 26433 26434 26435 26436 26437 26438 26439 26440 26441 26442 26443 26444 26445 26446 26447 26448 26449 26450 26451 26452 26453 26454 26455 26456 26457 26458 26459 26460 26461 26462 26463 26464 26465 26466 26467 26468 26469 26470 26471 26472 26473 26474 26475 26476 26477 26478 26479 26480 26481 26482 26483 26484 26485 26486 26487 26488 26489 26490 26491 26492 26493 26494 26495 26496 26497 26498 26499 26500 26501 26502 26503 26504 26505 26506 26507 26508 26509 26510 26511 26512 26513 26514 26515 26516 26517 26518 26519 26520 26521 26522 26523 26524 26525 26526 26527 26528 26529 26530 26531 26532 26533 26534 26535 26536 26537 26538 26539 26540 26541 26542 26543 26544 26545 26546 26547 26548 26549 26550 26551 26552 26553 26554 26555 26556 26557 26558 26559 26560 26561 26562 26563 26564 26565 26566 26567 26568 26569 26570 26571 26572 26573 26574 26575 26576 26577 26578 26579 26580 26581 26582 26583 26584 26585 26586 26587 26588 26589 26590 26591 26592 26593 26594 26595 26596 26597 26598 26599 26600 26601 26602 26603 26604 26605 26606 26607 26608 26609 26610 26611 26612 26613 26614 26615 26616 26617 26618 26619 26620 26621 26622 26623 26624 26625 26626 26627 26628 26629 26630 26631 26632 26633 26634 26635 26636 26637 26638 26639 26640 26641 26642 26643 26644 26645 26646 26647 26648 26649 26650 26651 26652 26653 26654 26655 26656 26657 26658 26659 26660 26661 26662 26663 26664 26665 26666 26667 26668 26669 26670 26671 26672 26673 26674 26675 26676 26677 26678 26679 26680 26681 26682 26683 26684 26685 26686 26687 26688 26689 26690 26691 26692 26693 26694 26695 26696 26697 26698 26699 26700 26701 26702 26703 26704 26705 26706 26707 26708 26709 26710 26711 26712 26713 26714 26715 26716 26717 26718 26719 26720 26721 26722 26723 26724 26725 26726 26727 26728 26729 26730 26731 26732 26733 26734 26735 26736 26737 26738 26739 26740 26741 26742 26743 26744 26745 26746 26747 26748 26749 26750 26751 26752 26753 26754 26755 26756 26757 26758 26759 26760 26761 26762 26763 26764 26765 26766 26767 26768 26769 26770 26771 26772 26773 26774 26775 26776 26777 26778 26779 26780 26781 26782 26783 26784 26785 26786 26787 26788 26789 26790 26791 26792 26793 26794 26795 26796 26797 26798 26799 26800 26801 26802 26803 26804 26805 26806 26807 26808 26809 26810 26811 26812 26813 26814 26815 26816 26817 26818 26819 26820 26821 26822 26823 26824 26825 26826 26827 26828 26829 26830 26831 26832 26833 26834 26835 26836 26837 26838 26839 26840 26841 26842 26843 26844 26845 26846 26847 26848 26849 26850 26851 26852 26853 26854 26855 26856 26857 26858 26859 26860 26861 26862 26863 26864 26865 26866 26867 26868 26869 26870 26871 26872 26873 26874 26875 26876 26877 26878 26879 26880 26881 26882 26883 26884 26885 26886 26887 26888 26889 26890 26891 26892 26893 26894 26895 26896 26897 26898 26899 26900 26901 26902 26903 26904 26905 26906 26907 26908 26909 26910 26911 26912 26913 26914 26915 26916 26917 26918 26919 26920 26921 26922 26923 26924 26925 26926 26927 26928 26929 26930 26931 26932 26933 26934 26935 26936 26937 26938 26939 26940 26941 26942 26943 26944 26945 26946 26947 26948 26949 26950 26951 26952 26953 26954 26955 26956 26957 26958 26959 26960 26961 26962 26963 26964 26965 26966 26967 26968 26969 26970 26971 26972 26973 26974 26975 26976 26977 26978 26979 26980 26981 26982 26983 26984 26985 26986 26987 26988 26989 26990 26991 26992 26993 26994 26995 26996 26997 26998 26999 27000 27001 27002 27003 27004 27005 27006 27007 27008 27009 27010 27011 27012 27013 27014 27015 27016 27017 27018 27019 27020 27021 27022 27023 27024 27025 27026 27027 27028 27029 27030 27031 27032 27033 27034 27035 27036 27037 27038 27039 27040 27041 27042 27043 27044 27045 27046 27047 27048 27049 27050 27051 27052 27053 27054 27055 27056 27057 27058 27059 27060 27061 27062 27063 27064 27065 27066 27067 27068 27069 27070 27071 27072 27073 27074 27075 27076 27077 27078 27079 27080 27081 27082 27083 27084 27085 27086 27087 27088 27089 27090 27091 27092 27093 27094 27095 27096 27097 27098 27099 27100 27101 27102 27103 27104 27105 27106 27107 27108 27109 27110 27111 27112 27113 27114 27115 27116 27117 27118 27119 27120 27121 27122 27123 27124 27125 27126 27127 27128 27129 27130 27131 27132 27133 27134 27135 27136 27137 27138 27139 27140 27141 27142 27143 27144 27145 27146 27147 27148 27149 27150 27151 27152 27153 27154 27155 27156 27157 27158 27159 27160 27161 27162 27163 27164 27165 27166 27167 27168 27169 27170 27171 27172 27173 27174 27175 27176 27177 27178 27179 27180 27181 27182 27183 27184 27185 27186 27187 27188 27189 27190 27191 27192 27193 27194 27195 27196 27197 27198 27199 27200 27201 27202 27203 27204 27205 27206 27207 27208 27209 27210 27211 27212 27213 27214 27215 27216 27217 27218 27219 27220 27221 27222 27223 27224 27225 27226 27227 27228 27229 27230 27231 27232 27233 27234 27235 27236 27237 27238 27239 27240 27241 27242 27243 27244 27245 27246 27247 27248 27249 27250 27251 27252 27253 27254 27255 27256 27257 27258 27259 27260 27261 27262 27263 27264 27265 27266 27267 27268 27269 27270 27271 27272 27273 27274 27275 27276 27277 27278 27279 27280 27281 27282 27283 27284 27285 27286 27287 27288 27289 27290 27291 27292 27293 27294 27295 27296 27297 27298 27299 27300 27301 27302 27303 27304 27305 27306 27307 27308 27309 27310 27311 27312 27313 27314 27315 27316 27317 27318 27319 27320 27321 27322 27323 27324 27325 27326 27327 27328 27329 27330 27331 27332 27333 27334 27335 27336 27337 27338 27339 27340 27341 27342 27343 27344 27345 27346 27347 27348 27349 27350 27351 27352 27353 27354 27355 27356 27357 27358 27359 27360 27361 27362 27363 27364 27365 27366 27367 27368 27369 27370 27371 27372 27373 27374 27375 27376 27377 27378 27379 27380 27381 27382 27383 27384 27385 27386 27387 27388 27389 27390 27391 27392 27393 27394 27395 27396 27397 27398 27399 27400 27401 27402 27403 27404 27405 27406 27407 27408 27409 27410 27411 27412 27413 27414 27415 27416 27417 27418 27419 27420 27421 27422 27423 27424 27425 27426 27427 27428 27429 27430 27431 27432 27433 27434 27435 27436 27437 27438 27439 27440 27441 27442 27443 27444 27445 27446 27447 27448 27449 27450 27451 27452 27453 27454 27455 27456 27457 27458 27459 27460 27461 27462 27463 27464 27465 27466 27467 27468 27469 27470 27471 27472 27473 27474 27475 27476 27477 27478 27479 27480 27481 27482 27483 27484 27485 27486 27487 27488 27489 27490 27491 27492 27493 27494 27495 27496 27497 27498 27499 27500 27501 27502 27503 27504 27505 27506 27507 27508 27509 27510 27511 27512 27513 27514 27515 27516 27517 27518 27519 27520 27521 27522 27523 27524 27525 27526 27527 27528 27529 27530 27531 27532 27533 27534 27535 27536 27537 27538 27539 27540 27541 27542 27543 27544 27545 27546 27547 27548 27549 27550 27551 27552 27553 27554 27555 27556 27557 27558 27559 27560 27561 27562 27563 27564 27565 27566 27567 27568 27569 27570 27571 27572 27573 27574 27575 27576 27577 27578 27579 27580 27581 27582 27583 27584 27585 27586 27587 27588 27589 27590 27591 27592 27593 27594 27595 27596 27597 27598 27599 27600 27601 27602 27603 27604 27605 27606 27607 27608 27609 27610 27611 27612 27613 27614 27615 27616 27617 27618 27619 27620 27621 27622 27623 27624 27625 27626 27627 27628 27629 27630 27631 27632 27633 27634 27635 27636 27637 27638 27639 27640 27641 27642 27643 27644 27645 27646 27647 27648 27649 27650 27651 27652 27653 27654 27655 27656 27657 27658 27659 27660 27661 27662 27663 27664 27665 27666 27667 27668 27669 27670 27671 27672 27673 27674 27675 27676 27677 27678 27679 27680 27681 27682 27683 27684 27685 27686 27687 27688 27689 27690 27691 27692 27693 27694 27695 27696 27697 27698 27699 27700 27701 27702 27703 27704 27705 27706 27707 27708 27709 27710 27711 27712 27713 27714 27715 27716 27717 27718 27719 27720 27721 27722 27723 27724 27725 27726 27727 27728 27729 27730 27731 27732 27733 27734 27735 27736 27737 27738 27739 27740 27741 27742 27743 27744 27745 27746 27747 27748 27749 27750 27751 27752 27753 27754 27755 27756 27757 27758 27759 27760 27761 27762 27763 27764 27765 27766 27767 27768 27769 27770 27771 27772 27773 27774 27775 27776 27777 27778 27779 27780 27781 27782 27783 27784 27785 27786 27787 27788 27789 27790 27791 27792 27793 27794 27795 27796 27797 27798 27799 27800 27801 27802 27803 27804 27805 27806 27807 27808 27809 27810 27811 27812 27813 27814 27815 27816 27817 27818 27819 27820 27821 27822 27823 27824 27825 27826 27827 27828 27829 27830 27831 27832 27833 27834 27835 27836 27837 27838 27839 27840 27841 27842 27843 27844 27845 27846 27847 27848 27849 27850 27851 27852 27853 27854 27855 27856 27857 27858 27859 27860 27861 27862 27863 27864 27865 27866 27867 27868 27869 27870 27871 27872 27873 27874 27875 27876 27877 27878 27879 27880 27881 27882 27883 27884 27885 27886 27887 27888 27889 27890 27891 27892 27893 27894 27895 27896 27897 27898 27899 27900 27901 27902 27903 27904 27905 27906 27907 27908 27909 27910 27911 27912 27913 27914 27915 27916 27917 27918 27919 27920 27921 27922 27923 27924 27925 27926 27927 27928 27929 27930 27931 27932 27933 27934 27935 27936 27937 27938 27939 27940 27941 27942 27943 27944 27945 27946 27947 27948 27949 27950 27951 27952 27953 27954 27955 27956 27957 27958 27959 27960 27961 27962 27963 27964 27965 27966 27967 27968 27969 27970 27971 27972 27973 27974 27975 27976 27977 27978 27979 27980 27981 27982 27983 27984 27985 27986 27987 27988 27989 27990 27991 27992 27993 27994 27995 27996 27997 27998 27999 28000 28001 28002 28003 28004 28005 28006 28007 28008 28009 28010 28011 28012 28013 28014 28015 28016 28017 28018 28019 28020 28021 28022 28023 28024 28025 28026 28027 28028 28029 28030 28031 28032 28033 28034 28035 28036 28037 28038 28039 28040 28041 28042 28043 28044 28045 28046 28047 28048 28049 28050 28051 28052 28053 28054 28055 28056 28057 28058 28059 28060 28061 28062 28063 28064 28065 28066 28067 28068 28069 28070 28071 28072 28073 28074 28075 28076 28077 28078 28079 28080 28081 28082 28083 28084 28085 28086 28087 28088 28089 28090 28091 28092 28093 28094 28095 28096 28097 28098 28099 28100 28101 28102 28103 28104 28105 28106 28107 28108 28109 28110 28111 28112 28113 28114 28115 28116 28117 28118 28119 28120 28121 28122 28123 28124 28125 28126 28127 28128 28129 28130 28131 28132 28133 28134 28135 28136 28137 28138 28139 28140 28141 28142 28143 28144 28145 28146 28147 28148 28149 28150 28151 28152 28153 28154 28155 28156 28157 28158 28159 28160 28161 28162 28163 28164 28165 28166 28167 28168 28169 28170 28171 28172 28173 28174 28175 28176 28177 28178 28179 28180 28181 28182 28183 28184 28185 28186 28187 28188 28189 28190 28191 28192 28193 28194 28195 28196 28197 28198 28199 28200 28201 28202 28203 28204 28205 28206 28207 28208 28209 28210 28211 28212 28213 28214 28215 28216 28217 28218 28219 28220 28221 28222 28223 28224 28225 28226 28227 28228 28229 28230 28231 28232 28233 28234 28235 28236 28237 28238 28239 28240 28241 28242 28243 28244 28245 28246 28247 28248 28249 28250 28251 28252 28253 28254 28255 28256 28257 28258 28259 28260 28261 28262 28263 28264 28265 28266 28267 28268 28269 28270 28271 28272 28273 28274 28275 28276 28277 28278 28279 28280 28281 28282 28283 28284 28285 28286 28287 28288 28289 28290 28291 28292 28293 28294 28295 28296 28297 28298 28299 28300 28301 28302 28303 28304 28305 28306 28307 28308 28309 28310 28311 28312 28313 28314 28315 28316 28317 28318 28319 28320 28321 28322 28323 28324 28325 28326 28327 28328 28329 28330 28331 28332 28333 28334 28335 28336 28337 28338 28339 28340 28341 28342 28343 28344 28345 28346 28347 28348 28349 28350 28351 28352 28353 28354 28355 28356 28357 28358 28359 28360 28361 28362 28363 28364 28365 28366 28367 28368 28369 28370 28371 28372 28373 28374 28375 28376 28377 28378 28379 28380 28381 28382 28383 28384 28385 28386 28387 28388 28389 28390 28391 28392 28393 28394 28395 28396 28397 28398 28399 28400 28401 28402 28403 28404 28405 28406 28407 28408 28409 28410 28411 28412 28413 28414 28415 28416 28417 28418 28419 28420 28421 28422 28423 28424 28425 28426 28427 28428 28429 28430 28431 28432 28433 28434 28435 28436 28437 28438 28439 28440 28441 28442 28443 28444 28445 28446 28447 28448 28449 28450 28451 28452 28453 28454 28455 28456 28457 28458 28459 28460 28461 28462 28463 28464 28465 28466 28467 28468 28469 28470 28471 28472 28473 28474 28475 28476 28477 28478 28479 28480 28481 28482 28483 28484 28485 28486 28487 28488 28489 28490 28491 28492 28493 28494 28495 28496 28497 28498 28499 28500 28501 28502 28503 28504 28505 28506 28507 28508 28509 28510 28511 28512 28513 28514 28515 28516 28517 28518 28519 28520 28521 28522 28523 28524 28525 28526 28527 28528 28529 28530 28531 28532 28533 28534 28535 28536 28537 28538 28539 28540 28541 28542 28543 28544 28545 28546 28547 28548 28549 28550 28551 28552 28553 28554 28555 28556 28557 28558 28559 28560 28561 28562 28563 28564 28565 28566 28567 28568 28569 28570 28571 28572 28573 28574 28575 28576 28577 28578 28579 28580 28581 28582 28583 28584 28585 28586 28587 28588 28589 28590 28591 28592 28593 28594 28595 28596 28597 28598 28599 28600 28601 28602 28603 28604 28605 28606 28607 28608 28609 28610 28611 28612 28613 28614 28615 28616 28617 28618 28619 28620 28621 28622 28623 28624 28625 28626 28627 28628 28629 28630 28631 28632 28633 28634 28635 28636 28637 28638 28639 28640 28641 28642 28643 28644 28645 28646 28647 28648 28649 28650 28651 28652 28653 28654 28655 28656 28657 28658 28659 28660 28661 28662 28663 28664 28665 28666 28667 28668 28669 28670 28671 28672 28673 28674 28675 28676 28677 28678 28679 28680 28681 28682 28683 28684 28685 28686 28687 28688 28689 28690 28691 28692 28693 28694 28695 28696 28697 28698 28699 28700 28701 28702 28703 28704 28705 28706 28707 28708 28709 28710 28711 28712 28713 28714 28715 28716 28717 28718 28719 28720 28721 28722 28723 28724 28725 28726 28727 28728 28729 28730 28731 28732 28733 28734 28735 28736 28737 28738 28739 28740 28741 28742 28743 28744 28745 28746 28747 28748 28749 28750 28751 28752 28753 28754 28755 28756 28757 28758 28759 28760 28761 28762 28763 28764 28765 28766 28767 28768 28769 28770 28771 28772 28773 28774 28775 28776 28777 28778 28779 28780 28781 28782 28783 28784 28785 28786 28787 28788 28789 28790 28791 28792 28793 28794 28795 28796 28797 28798 28799 
</DataArray>
<DataArray type="UInt32" Name="offsets" format="ascii">
3 6 9 11 14 17 19 22 25 28 31 34 37 40 43 45 47 50 53 56 59 61 64 67 69 71 74 76 79 81 84 87 90 92 95 98 101 104 107 110 113 116 119 122 125 128 131 133 135 138 141 144 147 150 153 156 159 162 165 168 171 174 177 180 183 186 189 192 195 198 200 203 206 208 211 214 217 220 223 226 229 232 235 238 241 244 247 250 253 255 258 261 264 267 270 272 275 278 281 284 286 288 291 294 297 300 303 306 309 312 314 316 319 322 324 327 330 332 335 337 340 342 345 347 350 353 356 358 361 363 366 368 371 374 376 379 382 385 388 391 393 396 399 402 405 407 409 412 414 417 419 421 423 426 429 432 435 438 441 444 447 450 453 456 459 462 465 468 471 474 476 479 482 485 488 491 494 497 500 503 506 509 512 515 518 521 524 527 530 533 536 539 542 545 548 551 553 556 559 562 565 568 571 573 576 579 582 585 588 591 594 596 599 602 605 608 610 613 615 618 621 624 627 630 633 636 639 642 645 648 651 654 657 660 663 666 669 672 675 678 681 684 686 689 692 695 698 701 704 707 710 713 716 719 722 725 728 731 733 735 737 740 743 746 749 752 755 757 760 763 766 769 771 773 776 779 782 785 787 789 792 795 797 799 802 805 807 810 813 816 819 821 823 826 829 832 835 838 841 844 846 849 851 854 857 860 863 866 869 871 874 877 880 883 886 888 891 894 897 900 903 906 909 912 915 918 921 924 926 929 932 934 937 940 943 946 949 952 955 958 961 964 967 970 973 976 979 982 985 988 991 994 997 1000 1003 1006 1009 1012 1015 1018 1021 1024 1027 1030 1033 1036 1039 1042 1045 1047 1050 1053 1056 1059 1062 1065 1068 1071 1074 1077 1079 1082 1085 1088 1090 1093 1095 1098 1101 1104 1107 1110 1112 1115 1118 1121 1124 1126 1129 1132 1135 1138 1141 1144 1147 1150 1153 1155 1158 1161 1164 1166 1169 1172 1175 1177 1180 1183 1186 1188 1191 1194 1197 1200 1203 1206 1209 1212 1215 1218 1220 1223 1226 1229 1232 1235 1238 1241 1244 1247 1250 1253 1255 1258 1261 1264 1267 1270 1273 1276 1278 1281 1284 1287 1290 1293 1296 1298 1300 1303 1306 1309 1311 1314 1317 1320 1323 1326 1329 1332 1335 1338 1341 1344 1347 1350 1353 1356 1359 1362 1365 1368 1371 1374 1377 1380 1383 1386 1389 1392 1395 1398 1401 1404 1406 1409 1412 1415 1418 1421 1424 1427 1430 1433 1436 1439 1442 1445 1448 1451 1454 1457 1460 1463 1466 1469 1472 1474 1477 1479 1482 1485 1488 1491 1494 1496 1499 1502 1505 1508 1510 1513 1516 1519 1521 1524 1527 1530 1533 1536 1539 1542 1545 1548 1551 1554 1557 1559 1562 1565 1568 1571 1574 1577 1580 1583 1586 1589 1592 1595 1598 1601 1604 1607 1610 1612 1615 1618 1621 1624 1627 1630 1633 1636 1639 1642 1645 1648 1651 1654 1657 1660 1663 1666 1668 1670 1673 1676 1679 1682 1685 1688 1691 1694 1697 1700 1703 1706 1709 1712 1715 1718 1721 1724 1727 1730 1733 1736 1739 1742 1745 1748 1751 1754 1757 1760 1763 1766 1769 1772 1775 1778 1781 1784 1787 1790 1793 1796 1799 1802 1805 1808 1811 1814 1817 1819 1822 1824 1827 1830 1833 1836 1839 1842 1845 1848 1850 1853 1855 1857 1860 1863 1866 1869 1872 1875 1878 1880 1883 1886 1888 1891 1893 1896 1899 1902 1904 1907 1909 1911 1914 1917 1920 1922 1925 1927 1930 1933 1936 1939 1942 1945 1948 1951 1954 1957 1960 1963 1966 1969 1972 1975 1978 1981 1984 1987 1990 1993 1996 1999 2002 2005 2008 2011 2014 2017 2020 2023 2026 2029 2032 2035 2038 2041 2044 2047 2050 2053 2056 2059 2062 2065 2068 2071 2074 2077 2080 2083 2086 2089 2092 2095 2098 2101 2104 2107 2110 2113 2116 2119 2122 2125 2128 2131 2134 2137 2140 2143 2146 2149 2152 2155 2158 2161 2164 2167 2169 2172 2175 2178 2181 2183 2186 2189 2192 2195 2198 2201 2204 2206 2209 2212 2215 2218 2221 2224 2227 2230 2233 2236 2239 2242 2245 2248 2251 2254 2256 2259 2262 2264 2267 2269 2272 2274 2277 2280 2283 2286 2289 2292 2295 2298 2300 2303 2306 2309 2311 2314 2316 2319 2322 2324 2327 2330 2333 2335 2337 2340 2343 2346 2349 2352 2355 2358 2361 2364 2367 2370 2373 2376 2379 2382 2385 2388 2391 2394 2397 2400 2403 2406 2409 2412 2415 2417 2420 2423 2426 2429 2432 2435 2437 2440 2443 2446 2448 2451 2454 2457 2460 2463 2466 2468 2471 2474 2477 2480 2483 2486 2489 2492 2495 2498 2500 2503 2506 2508 2511 2514 2516 2519 2522 2525 2528 2531 2534 2537 2540 2542 2545 2548 2551 2554 2557 2560 2563 2566 2569 2572 2575 2577 2580 2583 2586 2589 2591 2594 2597 2600 2602 2605 2608 2611 2614 2617 2620 2623 2626 2629 2632 2635 2638 2641 2644 2647 2650 2653 2656 2659 2662 2665 2668 2671 2674 2677 2680 2682 2684 2687 2690 2693 2696 2698 2701 2703 2705 2708 2711 2714 2717 2720 2722 2724 2727 2729 2732 2734 2737 2740 2743 2746 2749 2752 2755 2757 2760 2763 2766 2769 2772 2775 2778 2781 2784 2787 2790 2793 2796 2799 2802 2805 2808 2810 2813 2816 2819 2822 2825 2828 2831 2834 2837 2840 2842 2845 2848 2851 2853 2856 2859 2861 2864 2867 2870 2873 2876 2879 2882 2885 2888 2891 2894 2897 2900 2903 2906 2909 2912 2915 2918 2921 2924 2927 2930 2933 2935 2937 2940 2943 2946 2948 2951 2954 2957 2960 2962 2965 2968 2971 2974 2976 2979 2982 2985 2988 2991 2994 2997 3000 3003 3005 3008 3011 3014 3017 3020 3023 3026 3029 3032 3035 3038 3041 3043 3046 3049 3052 3055 3058 3061 3063 3066 3069 3072 3074 3076 3079 3082 3085 3088 3090 3093 3096 3098 3101 3104 3107 3110 3113 3116 3119 3122 3125 3128 3131 3134 3137 3140 3143 3146 3149 3152 3155 3158 3161 3164 3167 3170 3172 3175 3178 3181 3184 3187 3190 3193 3196 3199 3201 3204 3206 3209 3212 3215 3218 3221 3224 3227 3229 3232 3235 3237 3240 3243 3246 3249 3252 3255 3258 3261 3264 3266 3269 3272 3275 3277 3280 3283 3286 3289 3292 3295 3298 3301 3304 3307 3310 3313 3316 3319 3322 3325 3328 3331 3334 3337 3339 3342 3344 3347 3350 3353 3355 3358 3361 3364 3366 3369 3372 3375 3378 3381 3384 3386 3388 3391 3393 3395 3398 3401 3404 3407 3410 3413 3416 3419 3422 3425 3428 3431 3434 3437 3439 3442 3444 3447 3450 3453 3456 3458 3461 3464 3467 3470 3473 3475 3478 3481 3484 3487 3489 3492 3495 3498 3500 3502 3505 3508 3510 3513 3516 3519 3522 3525 3528 3531 3533 3536 3539 3542 3545 3548 3551 3554 3557 3559 3562 3565 3568 3571 3574 3577 3580 3583 3585 3588 3590 3592 3595 3598 3601 3604 3606 3609 3611 3614 3617 3620 3623 3626 3629 3632 3635 3638 3641 3644 3647 3650 3653 3656 3659 3662 3664 3667 3670 3673 3676 3679 3682 3685 3688 3691 3694 3697 3699 3702 3705 3708 3711 3713 3716 3719 3721 3724 3727 3730 3732 3735 3738 3740 3743 3746 3749 3752 3755 3758 3761 3764 3767 3770 3773 3776 3779 3782 3785 3788 3791 3794 3797 3800 3803 3806 3809 3812 3815 3818 3821 3824 3827 3830 3833 3836 3839 3841 3844 3847 3850 3853 3856 3859 3862 3865 3868 3871 3874 3877 3880 3883 3886 3889 3892 3895 3898 3901 3904 3907 3910 3913 3916 3919 3922 3925 3928 3931 3934 3937 3940 3943 3946 3949 3952 3955 3958 3961 3964 3967 3970 3973 3976 3979 3982 3984 3987 3990 3993 3996 3999 4002 4005 4008 4011 4014 4017 4019 4022 4025 4028 4031 4034 4037 4040 4043 4046 4049 4052 4054 4057 4060 4062 4065 4068 4070 4073 4075 4078 4080 4083 4086 4088 4091 4093 4096 4098 4100 4102 4105 4108 4111 4113 4116 4119 4122 4125 4127 4130 4133 4136 4139 4141 4144 4147 4150 4153 4156 4159 4162 4165 4168 4171 4174 4177 4180 4183 4186 4189 4191 4194 4197 4200 4203 4206 4209 4212 4215 4218 4221 4224 4227 4230 4233 4236 4239 4242 4245 4248 4251 4254 4257 4260 4263 4266 4269 4272 4275 4278 4281 4284 4287 4290 4293 4296 4298 4301 4304 4307 4310 4313 4316 4319 4322 4325 4328 4331 4334 4337 4340 4343 4346 4349 4352 4355 4358 4360 4363 4366 4369 4372 4375 4378 4381 4384 4386 4389 4392 4395 4398 4401 4403 4406 4409 4412 4415 4418 4420 4423 4426 4429 4432 4435 4438 4441 4444 4447 4450 4453 4456 4459 4461 4464 4467 4470 4473 4476 4479 4482 4485 4488 4491 4494 4497 4499 4502 4505 4508 4511 4514 4517 4520 4523 4526 4529 4532 4535 4538 4541 4544 4547 4550 4553 4556 4559 4562 4565 4568 4571 4574 4577 4580 4583 4586 4589 4592 4595 4598 4601 4604 4607 4610 4613 4615 4618 4621 4624 4627 4630 4633 4636 4639 4642 4644 4646 4649 4652 4655 4657 4660 4663 4665 4668 4671 4673 4676 4679 4681 4684 4687 4689 4692 4695 4698 4701 4704 4707 4709 4712 4715 4718 4720 4723 4725 4728 4731 4733 4736 4738 4741 4743 4746 4748 4751 4754 4756 4759 4761 4764 4767 4770 4773 4776 4778 4781 4784 4787 4790 4793 4796 4799 4802 4805 4807 4810 4813 4815 4818 4821 4824 4827 4830 4833 4836 4839 4842 4845 4847 4850 4853 4856 4859 4862 4865 4868 4871 4874 4876 4879 4882 4885 4888 4890 4892 4895 4897 4900 4902 4905 4907 4910 4913 4916 4919 4922 4925 4928 4931 4934 4937 4940 4942 4945 4948 4951 4954 4957 4960 4963 4966 4969 4972 4975 4978 4981 4984 4987 4990 4992 4995 4998 5000 5003 5006 5009 5012 5014 5017 5020 5023 5026 5029 5032 5035 5037 5040 5043 5046 5049 5052 5055 5058 5061 5064 5067 5070 5073 5076 5078 5080 5083 5085 5088 5091 5094 5097 5100 5103 5106 5108 5111 5114 5117 5119 5122 5124 5127 5130 5133 5136 5139 5142 5145 5148 5151 5154 5157 5160 5163 5165 5168 5171 5174 5177 5179 5182 5185 5188 5190 5193 5196 5199 5202 5205 5208 5210 5213 5216 5219 5222 5224 5227 5229 5232 5235 5238 5241 5244 5246 5248 5251 5254 5257 5259 5262 5265 5268 5271 5274 5277 5280 5283 5286 5289 5292 5294 5297 5300 5303 5305 5308 5311 5314 5316 5319 5322 5325 5328 5331 5334 5337 5340 5343 5346 5349 5352 5355 5358 5361 5363 5365 5368 5371 5374 5376 5379 5382 5385 5388 5391 5394 5396 5399 5402 5405 5408 5411 5414 5417 5419 5422 5424 5427 5430 5433 5436 5438 5440 5443 5446 5448 5451 5453 5456 5458 5461 5464 5466 5468 5471 5474 5477 5480 5483 5485 5488 5490 5493 5496 5498 5501 5503 5505 5508 5510 5513 5516 5519 5522 5524 5527 5530 5533 5535 5538 5541 5544 5546 5549 5551 5554 5557 5559 5562 5565 5567 5570 5572 5575 5577 5580 5583 5586 5589 5592 5594 5596 5599 5602 5605 5608 5611 5614 5616 5619 5622 5625 5628 5630 5633 5636 5638 5641 5643 5646 5649 5652 5654 5657 5660 5663 5665 5668 5671 5674 5677 5680 5682 5685 5688 5690 5693 5696 5699 5702 5704 5707 5710 5713 5716 5719 5721 5723 5726 5729 5731 5734 5737 5740 5742 5744 5747 5750 5752 5754 5756 5759 5762 5764 5766 5769 5772 5775 5777 5780 5782 5785 5788 5790 5793 5796 5798 5801 5804 5807 5810 5813 5816 5819 5822 5824 5827 5830 5832 5835 5838 5841 5844 5847 5850 5853 5856 5858 5861 5864 5867 5869 5872 5875 5878 5881 5883 5886 5889 5892 5894 5897 5899 5902 5904 5907 5910 5913 5916 5919 5922 5924 5927 5930 5933 5936 5939 5942 5945 5948 5951 5954 5957 5960 5963 5965 5967 5970 5973 5976 5978 5981 5984 5987 5990 5993 5995 5998 6001 6004 6006 6009 6012 6015 6018 6021 6023 6026 6029 6031 6034 6037 6040 6043 6046 6049 6052 6055 6058 6060 6063 6066 6069 6072 6075 6078 6081 6084 6087 6090 6093 6096 6099 6102 6105 6108 6111 6114 6117 6120 6123 6126 6129 6132 6135 6138 6141 6143 6146 6149 6152 6155 6158 6161 6163 6166 6169 6172 6175 6178 6181 6184 6187 6190 6192 6195 6198 6200 6203 6206 6209 6212 6214 6217 6220 6223 6226 6229 6232 6235 6238 6241 6244 6247 6250 6253 6256 6259 6262 6265 6268 6271 6274 6277 6280 6283 6286 6289 6292 6295 6298 6301 6304 6307 6309 6312 6315 6318 6321 6324 6327 6330 6333 6335 6338 6341 6344 6347 6350 6353 6355 6358 6361 6364 6367 6370 6373 6376 6379 6382 6385 6388 6391 6394 6397 6400 6403 6405 6408 6411 6414 6417 6420 6422 6425 6428 6431 6434 6437 6439 6442 6445 6448 6451 6454 6457 6460 6463 6466 6469 6472 6475 6478 6481 6484 6487 6490 6493 6496 6499 6502 6505 6508 6510 6513 6516 6519 6522 6525 6528 6531 6534 6536 6539 6542 6545 6548 6551 6554 6557 6560 6563 6566 6569 6572 6575 6578 6581 6584 6587 6590 6593 6596 6599 6602 6605 6608 6611 6613 6616 6619 6622 6625 6627 6630 6633 6636 6639 6641 6644 6647 6650 6653 6656 6659 6662 6665 6668 6671 6674 6677 6680 6683 6685 6688 6691 6694 6697 6700 6703 6706 6709 6712 6715 6718 6721 6724 6727 6730 6733 6736 6739 6742 6745 6748 6751 6754 6757 6760 6763 6765 6768 6770 6773 6776 6779 6782 6785 6787 6790 6793 6796 6799 6802 6805 6808 6811 6814 6817 6820 6823 6826 6829 6832 6835 6838 6841 6844 6846 6849 6852 6855 6857 6860 6863 6866 6869 6872 6875 6878 6880 6883 6886 6889 6892 6894 6897 6899 6902 6904 6907 6909 6912 6915 6918 6921 6924 6927 6930 6933 6936 6939 6942 6945 6948 6951 6954 6957 6960 6963 6966 6969 6972 6975 6978 6981 6984 6987 6990 6993 6996 6999 7002 7005 7008 7011 7014 7017 7020 7023 7026 7029 7032 7035 7038 7041 7044 7047 7050 7053 7056 7059 7062 7065 7068 7071 7074 7077 7080 7083 7086 7089 7092 7095 7098 7101 7104 7107 7110 7113 7116 7119 7121 7124 7126 7129 7132 7135 7138 7141 7144 7147 7150 7153 7156 7159 7162 7165 7167 7170 7173 7176 7179 7181 7184 7187 7190 7193 7196 7199 7202 7205 7208 7211 7214 7217 7220 7223 7226 7229 7232 7235 7238 7241 7244 7247 7250 7253 7256 7259 7262 7265 7268 7271 7274 7277 7280 7283 7286 7289 7292 7294 7297 7300 7303 7306 7309 7312 7315 7318 7320 7323 7326 7329 7332 7335 7338 7341 7344 7347 7350 7353 7356 7359 7361 7364 7367 7369 7372 7375 7378 7381 7384 7386 7389 7392 7395 7398 7401 7403 7406 7409 7412 7415 7418 7420 7423 7426 7429 7432 7435 7438 7441 7444 7447 7450 7453 7456 7459 7462 7465 7468 7470 7473 7476 7478 7481 7484 7487 7490 7493 7496 7499 7502 7505 7508 7511 7514 7517 7520 7523 7526 7529 7532 7535 7538 7541 7544 7547 7550 7553 7556 7559 7562 7565 7568 7571 7574 7577 7580 7583 7586 7588 7591 7594 7597 7600 7603 7606 7609 7612 7615 7618 7621 7623 7626 7629 7631 7634 7636 7639 7642 7644 7647 7650 7653 7656 7659 7662 7665 7668 7671 7674 7677 7680 7683 7686 7689 7692 7695 7697 7699 7702 7705 7708 7711 7713 7716 7718 7721 7723 7726 7729 7731 7734 7737 7740 7743 7745 7748 7751 7753 7756 7758 7761 7764 7767 7770 7773 7776 7779 7782 7785 7788 7791 7794 7797 7800 7803 7806 7809 7812 7815 7818 7821 7824 7827 7830 7833 7836 7839 7842 7845 7848 7851 7854 7857 7860 7863 7866 7869 7872 7875 7878 7881 7884 7887 7890 7893 7896 7899 7901 7904 7907 7910 7912 7915 7918 7921 7923 7926 7928 7931 7934 7936 7939 7942 7944 7947 7950 7953 7956 7959 7962 7965 7967 7970 7973 7976 7979 7981 7983 7986 7989 7992 7995 7998 8001 8004 8007 8010 8013 8016 8019 8022 8025 8028 8031 8034 8037 8040 8043 8046 8048 8051 8054 8057 8060 8063 8066 8069 8072 8075 8078 8081 8084 8087 8090 8093 8096 8099 8102 8105 8108 8111 8114 8117 8120 8123 8126 8129 8132 8135 8138 8141 8144 8147 8150 8153 8156 8159 8162 8165 8167 8170 8173 8175 8178 8181 8184 8187 8190 8193 8196 8199 8202 8205 8208 8211 8214 8217 8220 8222 8225 8228 8231 8234 8237 8240 8243 8246 8249 8252 8255 8258 8261 8264 8267 8270 8273 8276 8279 8282 8285 8288 8291 8294 8297 8300 8303 8306 8309 8312 8315 8318 8321 8324 8327 8330 8333 8336 8339 8342 8345 8348 8351 8354 8357 8360 8363 8366 8369 8372 8375 8378 8381 8384 8387 8390 8393 8396 8399 8402 8404 8407 8410 8413 8416 8419 8422 8425 8428 8431 8433 8436 8439 8442 8445 8448 8451 8454 8457 8460 8463 8466 8468 8471 8474 8477 8480 8483 8486 8489 8492 8495 8498 8501 8504 8507 8509 8511 8513 8516 8519 8522 8525 8528 8531 8534 8536 8539 8542 8545 8548 8551 8553 8556 8559 8562 8565 8568 8571 8574 8577 8580 8583 8586 8589 8592 8595 8598 8601 8604 8607 8610 8613 8616 8619 8622 8625 8628 8631 8634 8637 8640 8643 8646 8649 8652 8655 8658 8661 8664 8666 8669 8672 8675 8677 8680 8683 8686 8689 8692 8695 8698 8701 8704 8707 8710 8713 8716 8719 8722 8725 8727 8729 8732 8735 8738 8740 8742 8745 8748 8751 8754 8757 8760 8763 8766 8769 8772 8775 8778 8780 8783 8786 8789 8792 8795 8798 8801 8804 8807 8810 8813 8816 8819 8822 8825 8828 8831 8834 8837 8840 8843 8846 8849 8852 8855 8858 8861 8864 8867 8870 8873 8876 8879 8882 8885 8888 8891 8893 8896 8899 8902 8905 8908 8911 8914 8917 8919 8922 8925 8928 8931 8934 8937 8940 8942 8945 8948 8951 8954 8957 8960 8963 8966 8969 8972 8975 8978 8981 8984 8986 8989 8992 8995 8997 9000 9002 9005 9008 9011 9014 9017 9020 9023 9026 9029 9031 9034 9037 9040 9043 9046 9048 9051 9054 9057 9060 9063 9066 9069 9072 9075 9078 9081 9084 9087 9090 9093 9096 9099 9102 9105 9108 9110 9113 9116 9119 9122 9125 9127 9130 9133 9136 9139 9142 9145 9148 9150 9153 9156 9158 9161 9164 9167 9170 9173 9176 9178 9181 9184 9187 9190 9193 9196 9198 9201 9204 9207 9210 9213 9216 9219 9222 9225 9228 9231 9234 9237 9240 9243 9246 9249 9252 9255 9258 9261 9264 9267 9270 9273 9276 9279 9282 9285 9287 9290 9293 9296 9299 9301 9304 9307 9309 9312 9315 9318 9320 9323 9326 9328 9331 9334 9337 9340 9343 9346 9349 9352 9355 9358 9361 9364 9367 9370 9373 9376 9379 9382 9384 9387 9390 9393 9396 9398 9401 9404 9407 9409 9412 9415 9417 9420 9423 9426 9429 9432 9435 9438 9441 9444 9447 9450 9453 9456 9459 9462 9465 9468 9471 9474 9477 9480 9483 9486 9489 9492 9495 9498 9501 9504 9507 9510 9513 9516 9519 9522 9525 9528 9531 9534 9537 9540 9543 9546 9549 9552 9555 9558 9561 9564 9567 9570 9573 9576 9579 9582 9585 9588 9591 9594 9597 9600 9602 9605 9608 9611 9614 9617 9620 9623 9626 9628 9631 9634 9637 9640 9643 9646 9649 9652 9655 9658 9661 9664 9667 9670 9673 9676 9679 9682 9685 9688 9691 9694 9697 9700 9703 9706 9709 9712 9714 9717 9720 9723 9726 9729 9732 9735 9738 9741 9744 9747 9750 9753 9756 9759 9762 9765 9768 9771 9774 9777 9779 9782 9784 9787 9790 9792 9794 9797 9800 9802 9804 9807 9810 9812 9815 9818 9821 9824 9826 9829 9832 9834 9837 9840 9842 9845 9848 9851 9854 9857 9860 9863 9866 9869 9872 9875 9878 9881 9884 9886 9889 9892 9895 9898 9901 9904 9907 9910 9913 9916 9918 9921 9924 9926 9929 9932 9935 9938 9941 9943 9946 9948 9951 9954 9956 9959 9961 9964 9966 9969 9972 9975 9978 9981 9984 9987 9990 9993 9996 9999 10002 10005 10008 10011 10014 10016 10019 10022 10024 10027 10030 10033 10036 10038 10041 10044 10047 10050 10053 10056 10059 10062 10065 10068 10071 10074 10077 10080 10083 10086 10089 10091 10094 10097 10100 10103 10106 10109 10112 10115 10118 10120 10123 10126 10129 10132 10135 10138 10141 10144 10147 10150 10153 10156 10159 10162 10164 10167 10170 10172 10175 10178 10180 10183 10186 10189 10191 10194 10197 10200 10203 10206 10209 10212 10215 10218 10221 10223 10226 10228 10231 10234 10237 10240 10243 10245 10248 10251 10254 10257 10260 10263 10266 10269 10272 10274 10277 10280 10283 10286 10289 10292 10295 10298 10301 10304 10307 10309 10312 10315 10317 10320 10323 10326 10329 10332 10335 10338 10341 10344 10346 10349 10352 10355 10358 10361 10364 10367 10370 10372 10374 10377 10380 10383 10386 10389 10392 10395 10398 10401 10404 10407 10410 10413 10416 10419 10422 10425 10428 10431 10434 10437 10440 10443 10446 10449 10451 10454 10457 10460 10463 10466 10469 10472 10475 10478 10481 10484 10487 10490 10493 10496 10499 10502 10505 10508 10511 10514 10517 10520 10523 10526 10529 10532 10535 10538 10541 10544 10547 10550 10553 10556 10559 10562 10565 10568 10571 10574 10577 10580 10583 10586 10589 10592 10595 10598 10601 10604 10607 10610 10612 10615 10618 10620 10623 10626 10628 10630 10633 10636 10639 10642 10644 10647 10650 10653 10656 10659 10662 10665 10668 10671 10674 10677 10680 10683 10685 10688 10691 10694 10697 10700 10703 10706 10709 10712 10715 10718 10721 10724 10727 10730 10733 10736 10738 10741 10743 10746 10749 10751 10754 10757 10760 10763 10766 10769 10772 10775 10778 10780 10783 10786 10788 10791 10794 10797 10799 10802 10804 10807 10810 10813 10816 10819 10822 10825 10828 10831 10834 10837 10840 10843 10846 10849 10852 10855 10857 10860 10863 10866 10869 10871 10874 10877 10880 10883 10886 10889 10892 10895 10898 10901 10904 10907 10910 10912 10915 10918 10921 10924 10927 10930 10933 10936 10939 10942 10945 10948 10951 10954 10957 10960 10963 10966 10969 10972 10975 10978 10981 10984 10987 10990 10993 10996 10999 11002 11005 11008 11011 11014 11017 11020 11023 11025 11028 11030 11033 11035 11038 11041 11043 11046 11049 11051 11054 11057 11060 11062 11065 11068 11071 11073 11076 11079 11082 11085 11088 11090 11093 11096 11098 11101 11104 11107 11110 11112 11115 11118 11121 11124 11127 11130 11133 11136 11139 11142 11145 11148 11151 11154 11156 11159 11162 11165 11168 11171 11174 11177 11180 11183 11186 11189 11192 11195 11198 11201 11204 11207 11210 11213 11216 11219 11222 11225 11228 11231 11233 11235 11238 11241 11244 11247 11250 11253 11256 11259 11262 11265 11268 11271 11273 11275 11278 11281 11284 11287 11290 11293 11296 11299 11302 11305 11308 11311 11314 11317 11320 11323 11326 11329 11332 11335 11338 11341 11344 11347 11350 11353 11356 11359 11362 11365 11368 11371 11374 11377 11380 11383 11386 11389 11392 11395 11398 11401 11404 11407 11410 11413 11416 11419 11422 11425 11428 11431 11433 11436 11439 11442 11445 11448 11450 11453 11456 11459 11461 11464 11467 11469 11471 11474 11476 11478 11481 11484 11487 11490 11492 11495 11498 11501 11504 11507 11510 11513 11516 11519 11522 11525 11528 11531 11534 11537 11540 11542 11545 11548 11551 11553 11556 11559 11562 11565 11568 11571 11574 11577 11580 11583 11586 11588 11591 11594 11596 11599 11601 11604 11607 11609 11612 11615 11617 11620 11623 11626 11629 11632 11635 11638 11641 11644 11647 11650 11653 11656 11659 11662 11665 11668 11671 11674 11677 11680 11683 11686 11689 11692 11694 11696 11699 11702 11705 11707 11710 11713 11715 11718 11721 11724 11727 11730 11733 11736 11739 11742 11745 11748 11751 11754 11757 11760 11763 11766 11769 11772 11775 11778 11781 11784 11787 11790 11792 11795 11798 11800 11803 11806 11809 11812 11815 11817 11820 11823 11825 11828 11831 11834 11837 11840 11843 11845 11848 11851 11854 11857 11860 11862 11865 11868 11871 11874 11877 11880 11883 11886 11889 11892 11895 11898 11901 11904 11907 11910 11913 11916 11919 11922 11925 11928 11931 11934 11937 11940 11943 11946 11949 11952 11955 11958 11961 11964 11967 11970 11973 11976 11979 11982 11985 11988 11991 11994 11997 12000 12003 12006 12009 12012 12015 12018 12021 12024 12027 12030 12033 12036 12039 12041 12044 12047 12050 12052 12055 12058 12061 12064 12066 12069 12072 12075 12078 12081 12084 12087 12090 12093 12096 12099 12102 12105 12108 12111 12114 12117 12120 12123 12126 12129 12132 12135 12138 12141 12144 12147 12150 12153 12156 12159 12162 12165 12168 12171 12174 12177 12179 12182 12185 12188 12191 12194 12197 12200 12203 12206 12209 12212 12215 12217 12220 12223 12226 12229 12232 12235 12238 12241 12244 12246 12249 12251 12254 12257 12260 12263 12266 12269 12272 12274 12276 12279 12282 12284 12287 12290 12293 12296 12299 12302 12305 12308 12310 12313 12316 12319 12322 12325 12328 12331 12334 12337 12340 12343 12346 12349 12352 12355 12358 12361 12364 12367 12370 12373 12376 12379 12382 12385 12388 12391 12394 12397 12400 12403 12406 12408 12411 12414 12416 12419 12422 12425 12428 12430 12433 12436 12439 12441 12444 12447 12450 12452 12455 12458 12461 12464 12467 12469 12471 12474 12477 12480 12483 12486 12488 12491 12493 12495 12498 12501 12504 12507 12510 12513 12516 12519 12522 12525 12528 12531 12534 12537 12540 12543 12546 12549 12552 12555 12558 12561 12564 12567 12570 12573 12576 12579 12582 12585 12588 12591 12594 12597 12599 12602 12605 12608 12611 12614 12617 12620 12623 12625 12628 12631 12634 12637 12640 12643 12646 12649 12652 12655 12658 12661 12664 12667 12670 12673 12676 12679 12682 12685 12688 12691 12694 12697 12700 12703 12706 12709 12712 12715 12718 12721 12724 12727 12730 12733 12736 12739 12742 12745 12748 12751 12754 12757 12760 12763 12766 12769 12772 12775 12778 12781 12784 12786 12789 12792 12795 12798 12801 12804 12806 12809 12812 12815 12818 12821 12823 12825 12828 12831 12834 12837 12840 12843 12846 12849 12852 12855 12858 12860 12863 12866 12869 12872 12875 12878 12881 12883 12886 12889 12892 12895 12898 12901 12904 12907 12909 12912 12915 12918 12921 12924 12926 12929 12932 12935 12938 12941 12944 12947 12950 12953 12956 12959 12962 12965 12968 12970 12973 12976 12979 12982 12985 12988 12991 12994 12996 12999 13002 13005 13007 13010 13013 13016 13019 13022 13025 13027 13030 13033 13036 13039 13042 13045 13048 13051 13054 13057 13060 13063 13066 13069 13071 13073 13076 13078 13081 13084 13087 13090 13093 13096 13099 13102 13104 13107 13110 13113 13115 13118 13120 13123 13125 13127 13129 13132 13135 13138 13141 13143 13146 13148 13151 13154 13156 13159 13162 13165 13168 13171 13173 13176 13179 13181 13184 13187 13190 13193 13196 13199 13202 13204 13207 13210 13213 13215 13217 13220 13223 13226 13228 13230 13233 13236 13239 13241 13244 13246 13249 13252 13254 13257 13260 13263 13266 13268 13271 13274 13277 13279 13282 13285 13287 13290 13293 13296 13299 13302 13305 13307 13310 13313 13316 13319 13322 13325 13328 13331 13334 13337 13340 13343 13346 13348 13351 13354 13357 13360 13363 13365 13368 13371 13374 13377 13380 13383 13386 13389 13392 13395 13398 13401 13404 13407 13410 13413 13415 13418 13421 13424 13427 13430 13433 13436 13439 13442 13445 13448 13451 13453 13456 13459 13462 13464 13467 13470 13472 13475 13478 13481 13484 13487 13490 13493 13496 13499 13502 13505 13507 13510 13512 13515 13518 13521 13524 13527 13530 13533 13536 13539 13542 13545 13548 13551 13554 13557 13560 13562 13565 13568 13571 13574 13577 13580 13583 13586 13588 13591 13594 13597 13600 13603 13606 13609 13612 13615 13618 13621 13624 13627 13630 13633 13636 13639 13642 13645 13648 13651 13654 13657 13660 13663 13666 13669 13672 13675 13678 13681 13684 13687 13690 13693 13696 13699 13702 13705 13708 13711 13714 13717 13720 13723 13726 13729 13732 13735 13738 13741 13744 13747 13750 13753 13755 13758 13761 13763 13766 13769 13772 13775 13778 13781 13784 13787 13790 13793 13796 13799 13802 13805 13808 13811 13814 13817 13820 13823 13825 13828 13831 13834 13837 13839 13842 13845 13848 13851 13854 13856 13858 13861 13864 13866 13868 13871 13873 13876 13879 13882 13885 13888 13891 13894 13897 13900 13903 13906 13909 13912 13915 13918 13921 13924 13927 13930 13933 13936 13939 13942 13945 13948 13951 13954 13957 13960 13962 13965 13968 13971 13973 13976 13979 13981 13984 13987 13990 13993 13995 13998 14001 14003 14006 14009 14012 14014 14016 14019 14022 14025 14028 14031 14034 14037 14040 14043 14046 14049 14052 14055 14057 14060 14063 14065 14068 14071 14074 14077 14080 14082 14085 14087 14090 14093 14096 14099 14101 14104 14107 14110 14112 14115 14118 14121 14124 14127 14130 14133 14136 14139 14141 14144 14146 14148 14151 14153 14155 14158 14161 14164 14167 14170 14173 14176 14179 14182 14185 14188 14191 14193 14196 14199 14202 14205 14208 14210 14212 14214 14217 14220 14223 14226 14229 14231 14234 14237 14239 14242 14245 14248 14251 14254 14257 14260 14263 14266 14269 14271 14274 14277 14280 14283 14286 14289 14292 14295 14298 14301 14303 14306 14309 14312 14314 14317 14320 14323 14326 14329 14332 14335 14338 14341 14344 14346 14349 14352 14354 14357 14359 14362 14365 14367 14370 14373 14375 14378 14380 14383 14386 14388 14391 14393 14396 14399 14401 14404 14407 14410 14412 14415 14418 14421 14424 14426 14429 14432 14435 14438 14440 14442 14445 14448 14451 14454 14457 14460 14462 14465 14468 14471 14474 14477 14480 14483 14486 14489 14492 14494 14497 14500 14503 14506 14508 14511 14514 14517 14520 14523 14526 14529 14531 14534 14537 14540 14542 14544 14547 14549 14552 14555 14558 14561 14564 14566 14569 14571 14574 14576 14578 14580 14583 14585 14588 14591 14594 14596 14599 14602 14605 14608 14611 14614 14617 14619 14622 14625 14628 14631 14634 14637 14640 14643 14646 14648 14651 14654 14657 14660 14662 14665 14668 14671 14674 14677 14680 14683 14686 14689 14692 14695 14697 14700 14703 14706 14709 14712 14715 14717 14720 14723 14726 14728 14731 14734 14737 14740 14743 14746 14749 14752 14755 14758 14761 14764 14767 14770 14772 14775 14778 14781 14784 14787 14789 14792 14795 14798 14801 14804 14807 14809 14812 14814 14817 14820 14822 14825 14828 14831 14834 14837 14839 14842 14844 14847 14850 14853 14856 14858 14861 14864 14867 14869 14872 14875 14878 14881 14884 14887 14890 14893 14896 14898 14901 14903 14906 14909 14912 14915 14918 14920 14923 14926 14929 14932 14934 14937 14940 14943 14946 14948 14950 14953 14955 14958 14961 14963 14966 14969 14971 14974 14976 14979 14982 14985 14988 14991 14993 14996 14999 15002 15005 15008 15011 15014 15017 15020 15023 15026 15029 15032 15034 15037 15040 15043 15046 15049 15052 15055 15057 15060 15063 15066 15069 15072 15075 15078 15081 15084 15087 15090 15093 15096 15099 15101 15104 15106 15108 15111 15114 15117 15120 15123 15126 15129 15132 15135 15138 15141 15144 15147 15150 15153 15156 15159 15162 15165 15168 15170 15173 15176 15179 15182 15184 15187 15190 15193 15196 15199 15202 15205 15208 15211 15214 15217 15220 15223 15226 15229 15232 15234 15237 15240 15243 15246 15249 15252 15255 15257 15260 15263 15266 15269 15272 15275 15277 15280 15282 15285 15288 15290 15293 15296 15299 15302 15304 15307 15310 15313 15316 15318 15321 15324 15327 15329 15332 15335 15338 15341 15344 15347 15350 15352 15355 15358 15361 15364 15367 15370 15372 15375 15378 15381 15384 15386 15389 15392 15395 15398 15401 15404 15407 15410 15413 15415 15418 15421 15424 15427 15429 15432 15435 15438 15440 15443 15446 15449 15452 15455 15458 15461 15463 15466 15468 15471 15474 15477 15480 15482 15485 15488 15490 15492 15495 15498 15500 15503 15505 15508 15511 15513 15515 15518 15521 15523 15526 15529 15532 15535 15537 15540 15543 15546 15549 15552 15554 15556 15559 15562 15565 15568 15571 15574 15577 15580 15582 15585 15588 15590 15592 15594 15597 15600 15603 15605 15608 15610 15613 15616 15619 15622 15624 15627 15630 15633 15636 15639 15642 15645 15648 15651 15654 15657 15660 15663 15666 15669 15672 15675 15677 15680 15683 15685 15688 15691 15694 15697 15700 15703 15706 15709 15712 15715 15718 15720 15723 15726 15729 15732 15735 15738 15741 15744 15747 15750 15752 15755 15758 15760 15763 15766 15769 15772 15775 15778 15781 15784 15787 15790 15793 15796 15798 15801 15804 15807 15810 15813 15816 15819 15821 15824 15827 15830 15833 15835 15838 15841 15844 15847 15850 15853 15856 15858 15860 15863 15866 15869 15872 15874 15876 15879 15881 15883 15886 15889 15892 15895 15898 15901 15903 15905 15908 15911 15914 15917 15919 15922 15924 15927 15930 15933 15936 15939 15942 15945 15948 15951 15954 15956 15959 15962 15965 15968 15971 15973 15976 15979 15982 15985 15988 15991 15994 15997 16000 16003 16006 16009 16012 16014 16017 16020 16022 16024 16027 16030 16032 16034 16037 16040 16043 16045 16047 16050 16053 16056 16058 16061 16064 16066 16068 16071 16074 16077 16080 16083 16086 16089 16092 16095 16097 16100 16103 16106 16108 16111 16113 16116 16118 16121 16123 16126 16129 16132 16135 16138 16141 16143 16146 16148 16151 16154 16156 16159 16162 16165 16168 16171 16174 16177 16180 16183 16185 16188 16191 16194 16196 16199 16202 16205 16208 16211 16214 16217 16220 16223 16226 16229 16232 16235 16238 16241 16244 16246 16249 16251 16254 16257 16260 16263 16266 16269 16272 16275 16278 16280 16283 16285 16288 16291 16294 16296 16299 16302 16304 16307 16310 16313 16316 16319 16322 16325 16328 16331 16334 16336 16339 16342 16344 16347 16350 16353 16356 16359 16361 16364 16367 16369 16372 16375 16378 16381 16384 16387 16390 16393 16396 16399 16402 16405 16408 16411 16414 16417 16420 16423 16425 16428 16431 16434 16436 16439 16442 16444 16447 16450 16452 16455 16458 16461 16464 16467 16470 16472 16475 16478 16481 16484 16487 16490 16493 16496 16499 16502 16505 16508 16510 16513 16516 16519 16522 16525 16528 16531 16534 16537 16540 16543 16546 16549 16551 16554 16557 16559 16562 16565 16568 16570 16573 16576 16579 16582 16585 16588 16591 16594 16597 16600 16602 16605 16608 16611 16614 16617 16620 16623 16626 16629 16632 16635 16638 16641 16643 16646 16649 16652 16655 16658 16661 16664 16667 16670 16673 16676 16679 16682 16685 16688 16691 16694 16697 16700 16703 16706 16709 16712 16715 16718 16721 16723 16726 16729 16731 16734 16737 16740 16742 16745 16748 16751 16754 16757 16760 16763 16766 16769 16772 16775 16778 16781 16784 16786 16789 16792 16795 16798 16801 16803 16805 16807 16810 16813 16816 16818 16821 16824 16827 16830 16833 16836 16839 16842 16845 16847 16850 16853 16856 16859 16862 16865 16868 16871 16873 16876 16879 16882 16885 16888 16890 16893 16896 16899 16902 16905 16907 16910 16913 16915 16918 16921 16924 16927 16929 16932 16935 16938 16941 16944 16947 16950 16953 16956 16959 16962 16965 16968 16971 16974 16977 16980 16983 16986 16989 16992 16995 16998 17001 17004 17007 17010 17012 17015 17017 17020 17023 17026 17029 17032 17035 17037 17040 17043 17046 17049 17052 17055 17058 17061 17064 17067 17070 17073 17076 17079 17082 17085 17088 17091 17094 17097 17100 17103 17106 17108 17111 17114 17117 17120 17122 17125 17128 17131 17134 17137 17140 17143 17146 17149 17152 17155 17158 17160 17163 17166 17168 17171 17174 17177 17180 17183 17186 17188 17190 17193 17196 17199 17202 17204 17206 17209 17212 17215 17218 17221 17224 17227 17230 17233 17236 17239 17241 17243 17246 17249 17251 17253 17256 17259 17262 17265 17267 17270 17273 17276 17279 17282 17285 17288 17291 17294 17296 17299 17302 17305 17308 17311 17314 17317 17320 17323 17326 17329 17332 17335 17338 17341 17344 17347 17350 17353 17356 17359 17362 17365 17368 17370 17373 17376 17378 17381 17384 17386 17389 17391 17394 17397 17399 17401 17404 17406 17409 17412 17414 17416 17419 17422 17425 17428 17431 17434 17437 17440 17443 17446 17449 17452 17455 17458 17461 17464 17467 17470 17473 17476 17479 17482 17485 17488 17491 17494 17497 17500 17503 17506 17508 17511 17514 17517 17520 17522 17525 17528 17530 17533 17536 17539 17542 17544 17547 17550 17553 17556 17559 17562 17565 17568 17570 17572 17575 17578 17580 17582 17585 17587 17590 17593 17596 17599 17601 17604 17607 17610 17613 17616 17619 17622 17625 17628 17630 17633 17635 17638 17641 17644 17647 17650 17653 17656 17659 17662 17665 17668 17671 17674 17677 17680 17683 17686 17689 17692 17695 17698 17701 17703 17706 17709 17712 17714 17717 17720 17723 17726 17728 17731 17734 17737 17740 17743 17745 17748 17750 17753 17756 17759 17762 17764 17767 17769 17772 17775 17777 17780 17783 17786 17789 17792 17794 17796 17798 17801 17804 17806 17809 17812 17815 17818 17820 17822 17825 17828 17830 17832 17835 17838 17841 17844 17846 17848 17851 17854 17856 17859 17862 17865 17867 17870 17873 17875 17878 17881 17883 17886 17889 17892 17895 17898 17900 17902 17905 17908 17911 17914 17917 17920 17923 17926 17929 17932 17935 17938 17941 17944 17947 17949 17952 17955 17958 17960 17963 17966 17969 17972 17974 17977 17980 17983 17986 17989 17992 17995 17998 18001 18004 18007 18010 18013 18016 18019 18022 18025 18027 18030 18032 18034 18037 18040 18042 18045 18048 18051 18053 18056 18059 18062 18065 18068 18071 18074 18077 18080 18083 18085 18088 18091 18094 18097 18100 18103 18106 18109 18112 18115 18118 18121 18124 18127 18130 18133 18136 18139 18142 18145 18148 18151 18154 18157 18160 18163 18166 18169 18172 18175 18178 18181 18184 18187 18190 18193 18196 18199 18202 18205 18208 18211 18214 18217 18219 18222 18225 18227 18230 18233 18236 18239 18242 18245 18248 18251 18254 18257 18260 18262 18265 18268 18271 18274 18277 18279 18282 18284 18287 18290 18293 18296 18299 18302 18305 18308 18310 18313 18316 18319 18322 18325 18328 18330 18333 18336 18338 18341 18343 18346 18349 18351 18354 18356 18359 18362 18365 18368 18371 18373 18376 18379 18382 18385 18388 18391 18394 18397 18400 18403 18406 18409 18412 18415 18417 18420 18423 18426 18429 18431 18434 18437 18440 18443 18446 18449 18452 18455 18458 18460 18463 18466 18469 18472 18475 18478 18481 18484 18487 18490 18493 18496 18499 18502 18505 18508 18511 18514 18517 18520 18523 18526 18529 18532 18535 18538 18541 18543 18546 18549 18552 18555 18558 18561 18564 18567 18570 18573 18576 18579 18582 18585 18587 18590 18592 18595 18598 18601 18603 18606 18608 18611 18613 18616 18619 18622 18625 18628 18631 18634 18637 18640 18643 18646 18649 18652 18655 18658 18661 18664 18667 18670 18673 18676 18679 18682 18685 18688 18691 18694 18697 18700 18703 18706 18709 18711 18714 18717 18719 18722 18725 18728 18731 18734 18737 18740 18742 18745 18748 18751 18754 18757 18760 18763 18766 18769 18772 18775 18778 18781 18784 18787 18790 18793 18796 18799 18802 18805 18808 18811 18813 18816 18819 18821 18824 18827 18830 18833 18835 18838 18841 18844 18847 18850 18853 18856 18859 18862 18865 18868 18871 18873 18876 18879 18882 18885 18888 18890 18893 18896 18899 18902 18904 18907 18910 18913 18916 18919 18922 18925 18928 18931 18934 18937 18940 18943 18945 18948 18951 18954 18957 18960 18963 18966 18969 18972 18975 18978 18981 18984 18986 18989 18992 18995 18998 19001 19004 19007 19010 19013 19016 19019 19022 19025 19028 19031 19034 19037 19040 19042 19045 19048 19051 19054 19057 19060 19063 19066 19069 19072 19075 19078 19081 19084 19087 19089 19091 19094 19097 19100 19103 19106 19109 19112 19115 19118 19120 19123 19126 19129 19132 19135 19138 19141 19143 19146 19149 19152 19155 19158 19161 19164 19166 19169 19172 19175 19178 19180 19183 19186 19189 19191 19194 19197 19200 19203 19206 19208 19211 19214 19217 19220 19223 19225 19228 19231 19234 19237 19240 19243 19246 19249 19251 19254 19256 19259 19262 19265 19268 19271 19273 19276 19279 19282 19285 19288 19291 19293 19296 19299 19302 19304 19307 19310 19312 19315 19318 19321 19324 19327 19330 19332 19335 19338 19340 19343 19346 19349 19352 19354 19357 19360 19363 19366 19369 19372 19375 19378 19381 19384 19387 19390 19393 19396 19399 19402 19405 19408 19410 19413 19416 19419 19422 19425 19428 19431 19434 19437 19440 19443 19446 19449 19452 19455 19458 19461 19463 19466 19469 19472 19474 19477 19480 19482 19484 19487 19490 19493 19496 19499 19502 19505 19508 19511 19514 19517 19519 19522 19525 19528 19531 19534 19537 19540 19543 19545 19548 19550 19553 19556 19559 19561 19564 19567 19570 19573 19576 19578 19581 19584 19586 19589 19592 19595 19598 19601 19604 19607 19610 19613 19616 19619 19622 19625 19628 19630 19632 19635 19638 19641 19644 19647 19649 19652 19655 19658 19661 19664 19667 19670 19673 19675 19678 19681 19683 19686 19689 19692 19694 19697 19699 19702 19705 19708 19711 19714 19717 19720 19723 19726 19729 19732 19734 19737 19740 19743 19745 19748 19750 19753 19756 19758 19761 19763 19766 19769 19771 19774 19777 19780 19783 19786 19789 19792 19795 19798 19801 19804 19807 19809 19812 19815 19817 19820 19823 19826 19828 19831 19833 19836 19839 19842 19845 19848 19851 19854 19857 19860 19863 19866 19869 19872 19874 19876 19879 19882 19885 19888 19891 19893 19896 19899 19901 19904 19907 19909 19912 19915 19918 19920 19923 19926 19929 19932 19935 19938 19941 19944 19946 19949 19952 19954 19956 19959 19962 19965 19968 19971 19973 19976 19979 19981 19984 19987 19990 19992 19994 19997 20000 20003 20006 20009 20011 20014 20016 20019 20022 20025 20028 20031 20034 20037 20040 20043 20045 20048 20051 20053 20056 20059 20062 20065 20068 20071 20074 20077 20079 20082 20085 20088 20091 20094 20097 20099 20102 20105 20108 20110 20113 20116 20119 20122 20124 20127 20130 20133 20136 20139 20142 20145 20148 20151 20154 20157 20159 20162 20165 20167 20170 20173 20176 20179 20182 20185 20187 20190 20193 20196 20199 20202 20205 20208 20211 20213 20216 20219 20221 20223 20226 20229 20232 20235 20238 20240 20243 20246 20249 20252 20255 20258 20261 20263 20266 20269 20271 20274 20277 20280 20283 20286 20289 20291 20294 20297 20300 20302 20305 20308 20311 20314 20317 20320 20323 20326 20329 20332 20335 20338 20340 20343 20345 20348 20350 20353 20356 20359 20361 20364 20367 20370 20373 20376 20379 20381 20384 20387 20390 20393 20396 20399 20402 20405 20408 20411 20414 20417 20419 20422 20425 20427 20429 20432 20435 20438 20441 20443 20446 20449 20452 20454 20456 20459 20462 20465 20468 20470 20473 20476 20479 20481 20484 20486 20488 20491 20494 20496 20498 20501 20504 20507 20510 20513 20515 20518 20520 20523 20525 20527 20530 20533 20536 20539 20542 20545 20548 20551 20554 20556 20558 20560 20563 20566 20568 20571 20574 20576 20579 20582 20585 20588 20591 20594 20597 20600 20602 20604 20607 20610 20613 20615 20618 20621 20624 20626 20629 20632 20634 20637 20640 20643 20646 20649 20652 20655 20658 20661 20664 20667 20670 20673 20676 20679 20682 20685 20688 20690 20693 20696 20699 20702 20705 20708 20711 20714 20717 20719 20722 20725 20728 20731 20734 20737 20740 20743 20746 20749 20751 20753 20756 20759 20762 20765 20768 20770 20773 20776 20779 20782 20785 20788 20791 20794 20797 20800 20803 20805 20808 20810 20813 20816 20818 20821 20824 20826 20829 20832 20835 20838 20841 20844 20847 20850 20853 20856 20859 20862 20865 20868 20871 20874 20877 20879 20882 20885 20888 20891 20894 20897 20900 20903 20906 20909 20912 20915 20918 20921 20924 20927 20930 20933 20936 20939 20942 20945 20948 20951 20954 20956 20959 20962 20965 20968 20971 20974 20977 20980 20983 20986 20989 20992 20995 20997 21000 21002 21005 21008 21011 21014 21017 21020 21023 21026 21029 21032 21035 21038 21041 21044 21047 21050 21053 21056 21059 21062 21065 21068 21071 21074 21077 21080 21083 21086 21089 21092 21095 21098 21101 21104 21106 21109 21111 21114 21117 21119 21122 21125 21128 21130 21133 21136 21139 21142 21145 21148 21151 21154 21157 21160 21163 21166 21169 21172 21175 21178 21181 21184 21187 21189 21191 21194 21197 21200 21203 21206 21209 21211 21214 21216 21219 21222 21225 21228 21231 21234 21236 21239 21242 21244 21247 21249 21252 21255 21258 21261 21264 21267 21270 21273 21276 21279 21282 21285 21288 21291 21294 21297 21299 21302 21304 21307 21310 21313 21316 21319 21322 21325 21328 21330 21332 21335 21338 21340 21343 21346 21349 21352 21354 21357 21359 21362 21365 21367 21370 21373 21376 21379 21382 21385 21388 21390 21392 21395 21398 21401 21403 21406 21409 21411 21414 21416 21419 21421 21423 21426 21429 21432 21435 21438 21440 21443 21446 21449 21452 21455 21458 21460 21463 21466 21468 21471 21474 21477 21480 21483 21486 21489 21492 21495 21497 21499 21502 21504 21507 21509 21512 21515 21517 21520 21523 21526 21529 21532 21535 21538 21541 21544 21546 21549 21552 21555 21558 21560 21563 21566 21569 21572 21575 21578 21581 21584 21587 21589 21591 21594 21597 21600 21603 21606 21609 21612 21615 21618 21621 21624 21627 21630 21633 21636 21639 21642 21645 21648 21651 21654 21657 21660 21663 21666 21669 21672 21675 21678 21681 21683 21686 21688 21691 21694 21697 21700 21703 21705 21707 21710 21712 21714 21717 21720 21723 21726 21729 21732 21735 21738 21741 21744 21747 21750 21753 21755 21758 21761 21764 21767 21770 21773 21776 21779 21782 21785 21788 21791 21794 21797 21800 21803 21806 21808 21811 21814 21816 21819 21822 21825 21828 21831 21834 21837 21839 21842 21845 21848 21851 21854 21857 21860 21863 21866 21869 21872 21875 21878 21880 21883 21886 21889 21892 21895 21898 21900 21903 21906 21909 21912 21915 21918 21921 21924 21927 21930 21933 21936 21939 21942 21945 21948 21951 21953 21956 21959 21962 21965 21968 21971 21974 21977 21980 21983 21986 21989 21992 21994 21997 22000 22003 22005 22008 22011 22014 22017 22020 22023 22026 22029 22031 22034 22037 22040 22043 22046 22049 22051 22054 22057 22060 22063 22065 22068 22071 22074 22076 22079 22082 22085 22088 22090 22093 22096 22099 22102 22105 22108 22111 22113 22116 22119 22122 22124 22127 22130 22133 22135 22138 22141 22144 22147 22150 22153 22156 22158 22161 22164 22166 22169 22172 22175 22178 22181 22184 22187 22190 22193 22196 22199 22202 22205 22208 22211 22214 22217 22220 22223 22226 22229 22232 22235 22238 22241 22244 22247 22250 22253 22256 22259 22262 22265 22268 22271 22274 22277 22280 22283 22286 22289 22292 22294 22297 22300 22302 22305 22308 22310 22313 22316 22319 22321 22324 22327 22330 22333 22336 22338 22340 22343 22345 22347 22350 22353 22356 22359 22362 22365 22368 22371 22374 22377 22380 22383 22386 22389 22392 22395 22398 22400 22403 22406 22409 22412 22415 22418 22421 22424 22427 22430 22433 22436 22439 22442 22445 22448 22451 22454 22457 22460 22463 22466 22469 22472 22475 22478 22481 22484 22487 22489 22492 22495 22498 22501 22503 22506 22509 22512 22515 22518 22521 22524 22526 22529 22531 22534 22537 22540 22542 22545 22548 22551 22554 22557 22560 22563 22566 22569 22572 22575 22578 22581 22584 22587 22590 22593 22596 22599 22602 22605 22608 22611 22614 22617 22620 22623 22626 22629 22632 22635 22638 22641 22644 22647 22650 22653 22656 22659 22662 22665 22668 22671 22673 22675 22678 22680 22683 22685 22688 22691 22694 22697 22699 22702 22705 22708 22711 22714 22717 22720 22723 22726 22729 22732 22735 22738 22741 22744 22747 22749 22752 22755 22757 22760 22763 22766 22769 22772 22775 22778 22781 22784 22787 22790 22793 22796 22799 22802 22804 22807 22810 22813 22816 22818 22821 22824 22827 22830 22833 22835 22838 22841 22844 22847 22850 22853 22856 22859 22862 22865 22868 22871 22873 22876 22879 22881 22884 22887 22890 22893 22895 22898 22901 22904 22907 22910 22913 22916 22919 22922 22924 22927 22930 22933 22936 22939 22942 22945 22948 22951 22954 22957 22960 22963 22966 22969 22972 22975 22978 22981 22984 22987 22990 22993 22996 22999 23002 23005 23007 23010 23013 23016 23019 23021 23024 23027 23030 23033 23036 23039 23042 23045 23047 23050 23052 23055 23058 23061 23063 23066 23069 23072 23075 23078 23081 23084 23087 23090 23093 23096 23098 23101 23104 23107 23109 23112 23115 23118 23121 23124 23127 23129 23131 23134 23137 23140 23143 23146 23149 23152 23155 23158 23161 23164 23167 23170 23173 23176 23179 23182 23184 23187 23190 23193 23196 23199 23202 23205 23207 23210 23213 23216 23219 23222 23225 23228 23231 23234 23237 23240 23243 23245 23248 23251 23254 23257 23260 23262 23264 23267 23269 23272 23275 23277 23280 23283 23286 23289 23292 23294 23297 23300 23303 23305 23308 23310 23313 23316 23319 23321 23323 23326 23329 23332 23335 23338 23341 23344 23347 23350 23353 23356 23359 23362 23365 23368 23371 23374 23377 23380 23383 23386 23389 23391 23394 23397 23400 23403 23406 23409 23412 23414 23417 23420 23423 23426 23428 23431 23434 23436 23439 23442 23445 23448 23451 23454 23456 23459 23462 23465 23468 23471 23474 23476 23479 23482 23485 23488 23491 23494 23497 23499 23502 23505 23508 23511 23514 23517 23520 23523 23525 23528 23531 23534 23537 23540 23543 23545 23548 23551 23554 23557 23560 23562 23565 23568 23571 23573 23576 23579 23582 23584 23587 23590 23593 23596 23599 23602 23605 23608 23611 23614 23617 23620 23623 23626 23629 23632 23635 23638 23641 23644 23646 23649 23652 23655 23658 23661 23663 23666 23669 23671 23673 23676 23679 23682 23685 23687 23690 23693 23695 23698 23701 23704 23707 23710 23713 23716 23719 23721 23724 23727 23730 23732 23735 23738 23741 23744 23747 23749 23752 23755 23758 23760 23763 23766 23768 23771 23774 23777 23780 23783 23786 23789 23792 23795 23798 23801 23804 23807 23810 23813 23816 23819 23822 23825 23827 23830 23833 23836 23839 23842 23844 23847 23850 23852 23855 23858 23861 23864 23867 23870 23873 23875 23878 23881 23884 23887 23890 23893 23896 23899 23902 23905 23908 23910 23913 23916 23919 23922 23924 23926 23929 23932 23935 23938 23940 23943 23946 23948 23951 23954 23957 23960 23963 23966 23968 23971 23974 23977 23980 23983 23986 23989 23992 23995 23998 24001 24004 24007 24010 24013 24016 24019 24022 24025 24028 24031 24034 24037 24040 24043 24046 24049 24051 24054 24057 24059 24062 24065 24068 24070 24073 24076 24079 24082 24085 24088 24091 24094 24097 24100 24102 24105 24108 24111 24113 24116 24119 24122 24125 24128 24130 24132 24135 24138 24141 24144 24146 24149 24152 24155 24157 24160 24163 24166 24169 24172 24175 24178 24181 24184 24187 24190 24192 24195 24198 24201 24204 24207 24210 24213 24216 24219 24222 24225 24228 24231 24234 24236 24239 24242 24245 24247 24250 24253 24256 24259 24262 24264 24267 24270 24273 24275 24277 24280 24283 24285 24288 24291 24294 24297 24300 24303 24306 24308 24311 24314 24317 24320 24322 24325 24328 24331 24334 24337 24340 24343 24346 24348 24351 24354 24356 24359 24362 24365 24368 24371 24374 24377 24380 24383 24386 24389 24392 24395 24398 24401 24404 24407 24410 24413 24416 24419 24422 24425 24428 24431 24434 24436 24439 24442 24445 24447 24450 24453 24456 24459 24462 24465 24468 24471 24474 24477 24480 24483 24486 24489 24492 24495 24498 24501 24504 24506 24509 24512 24514 24517 24519 24522 24525 24528 24531 24534 24537 24540 24542 24545 24548 24550 24553 24556 24559 24561 24564 24567 24570 24573 24576 24578 24581 24584 24587 24590 24593 24596 24599 24602 24605 24607 24610 24612 24614 24616 24619 24622 24625 24627 24630 24633 24635 24638 24641 24644 24647 24650 24653 24656 24659 24662 24665 24668 24671 24674 24676 24679 24682 24685 24688 24691 24694 24697 24700 24702 24705 24708 24711 24714 24716 24719 24722 24725 24728 24730 24733 24736 24739 24742 24745 24748 24751 24754 24757 24759 24762 24765 24768 24771 24773 24776 24779 24781 24784 24787 24790 24793 24795 24798 24801 24803 24806 24808 24811 24814 24817 24820 24823 24826 24829 24832 24835 24838 24841 24844 24847 24850 24853 24856 24859 24862 24865 24868 24871 24874 24877 24880 24883 24886 24889 24892 24895 24898 24901 24904 24907 24910 24913 24916 24919 24922 24925 24928 24931 24934 24937 24940 24943 24946 24949 24952 24954 24957 24959 24962 24965 24967 24970 24973 24976 24979 24982 24985 24988 24990 24993 24996 24998 25001 25004 25007 25010 25013 25015 25018 25021 25024 25026 25029 25032 25035 25038 25041 25044 25047 25050 25052 25055 25058 25060 25063 25066 25069 25072 25075 25078 25081 25084 25087 25090 25093 25096 25098 25101 25104 25107 25110 25113 25115 25118 25121 25124 25127 25130 25132 25135 25138 25141 25144 25147 25150 25153 25155 25158 25160 25163 25166 25169 25171 25174 25177 25180 25182 25185 25188 25191 25194 25197 25200 25203 25205 25208 25211 25214 25217 25220 25222 25225 25228 25231 25234 25237 25239 25242 25245 25247 25250 25253 25255 25258 25260 25263 25266 25269 25272 25274 25277 25280 25283 25285 25288 25291 25294 25297 25299 25302 25305 25308 25311 25314 25317 25320 25323 25326 25329 25332 25335 25337 25340 25342 25344 25347 25350 25353 25355 25358 25361 25364 25367 25370 25373 25376 25378 25381 25384 25387 25390 25393 25396 25398 25401 25403 25406 25409 25412 25414 25417 25420 25423 25426 25429 25432 25435 25438 25441 25444 25447 25450 25453 25456 25459 25462 25465 25468 25471 25473 25476 25478 25481 25484 25486 25489 25492 25494 25497 25500 25503 25506 25509 25512 25515 25518 25521 25524 25527 25530 25532 25535 25538 25541 25544 25547 25550 25552 25555 25558 25561 25564 25566 25569 25572 25575 25578 25581 25584 25587 25590 25593 25596 25599 25602 25605 25608 25611 25613 25616 25619 25622 25625 25628 25630 25633 25636 25639 25642 25644 25647 25650 25653 25656 25659 25662 25665 25667 25670 25673 25675 25678 25681 25684 25687 25690 25693 25695 25698 25701 25704 25706 25709 25712 25714 25717 25720 25723 25726 25729 25732 25735 25738 25740 25742 25745 25748 25750 25753 25755 25758 25760 25763 25766 25769 25772 25775 25777 25780 25782 25785 25788 25791 25793 25796 25799 25802 25805 25808 25811 25814 25817 25819 25822 25825 25828 25831 25834 25837 25840 25843 25846 25849 25852 25855 25858 25861 25863 25866 25869 25872 25875 25878 25881 25884 25886 25889 25892 25895 25897 25900 25903 25906 25909 25911 25913 25916 25919 25922 25924 25927 25930 25933 25936 25938 25941 25944 25946 25949 25952 25955 25958 25961 25963 25966 25969 25972 25975 25978 25981 25984 25987 25990 25993 25996 25999 26001 26004 26007 26010 26013 26016 26019 26022 26025 26028 26031 26034 26037 26040 26043 26046 26049 26052 26055 26058 26061 26064 26067 26070 26073 26076 26079 26082 26085 26088 26091 26094 26097 26100 26103 26106 26109 26112 26115 26117 26120 26122 26125 26128 26131 26134 26137 26140 26143 26146 26149 26152 26155 26158 26161 26164 26167 26170 26172 26175 26178 26181 26184 26187 26190 26193 26196 26199 26202 26205 26208 26211 26214 26217 26220 26223 26226 26229 26232 26235 26238 26241 26244 26247 26250 26253 26256 26259 26262 26265 26268 26271 26274 26277 26280 26283 26286 26289 26292 26295 26298 26301 26304 26307 26310 26313 26316 26319 26322 26325 26328 26331 26334 26337 26340 26343 26346 26349 26352 26355 26358 26361 26364 26367 26369 26372 26375 26378 26381 26384 26387 26390 26393 26396 26399 26402 26405 26408 26411 26414 26417 26420 26423 26426 26429 26432 26435 26438 26441 26444 26447 26450 26453 26456 26459 26462 26465 26467 26470 26473 26476 26478 26481 26483 26486 26489 26492 26495 26498 26501 26503 26506 26509 26512 26514 26517 26520 26523 26526 26528 26530 26532 26535 26538 26541 26544 26546 26548 26550 26552 26555 26558 26561 26563 26566 26568 26571 26573 26576 26579 26582 26585 26588 26591 26594 26597 26599 26602 26605 26608 26610 26613 26616 26619 26622 26625 26628 26631 26634 26637 26640 26642 26645 26647 26650 26653 26656 26659 26661 26664 26667 26670 26673 26676 26679 26682 26685 26688 26691 26694 26697 26700 26703 26705 26708 26710 26713 26716 26718 26721 26723 26726 26729 26732 26735 26738 26740 26743 26745 26748 26751 26754 26757 26760 26763 26766 26768 26771 26774 26777 26780 26783 26786 26789 26792 26795 26798 26801 26804 26807 26810 26813 26816 26819 26822 26825 26828 26831 26834 26837 26840 26843 26846 26848 26851 26854 26857 26860 26863 26865 26868 26871 26874 26877 26880 26883 26886 26889 26892 26895 26898 26901 26904 26907 26910 26913 26915 26918 26921 26924 26927 26930 26933 26936 26939 26942 26944 26947 26950 26953 26956 26959 26962 26964 26966 26969 26972 26975 26978 26981 26984 26987 26990 26993 26996 26999 27002 27005 27007 27010 27013 27016 27019 27021 27024 27026 27029 27032 27035 27037 27040 27043 27046 27049 27052 27055 27058 27061 27064 27067 27070 27073 27075 27077 27080 27083 27086 27089 27091 27094 27097 27100 27102 27105 27108 27111 27114 27117 27120 27123 27126 27129 27132 27135 27137 27140 27143 27146 27149 27151 27154 27156 27158 27161 27163 27166 27169 27172 27175 27178 27181 27184 27187 27190 27193 27196 27199 27202 27205 27208 27211 27214 27217 27220 27223 27226 27229 27232 27235 27238 27241 27244 27246 27249 27252 27255 27258 27261 27264 27267 27270 27273 27275 27278 27281 27283 27286 27289 27292 27294 27297 27300 27303 27306 27309 27312 27315 27317 27320 27323 27326 27329 27332 27335 27338 27340 27343 27345 27348 27351 27354 27357 27360 27363 27366 27369 27372 27375 27378 27381 27384 27387 27390 27392 27395 27398 27401 27403 27406 27409 27412 27414 27417 27419 27422 27425 27428 27431 27433 27436 27439 27442 27445 27448 27451 27454 27457 27460 27463 27466 27469 27472 27475 27477 27480 27482 27485 27488 27491 27494 27496 27498 27501 27504 27507 27510 27513 27516 27519 27522 27525 27527 27530 27533 27536 27539 27542 27545 27548 27551 27554 27557 27560 27563 27566 27568 27571 27574 27577 27579 27582 27585 27588 27591 27594 27597 27599 27602 27605 27608 27611 27614 27616 27619 27622 27624 27627 27630 27633 27636 27638 27641 27644 27647 27650 27653 27656 27659 27661 27664 27667 27670 27672 27675 27678 27681 27684 27687 27690 27693 27696 27699 27702 27705 27708 27710 27713 27716 27719 27722 27725 27728 27731 27734 27737 27740 27743 27746 27749 27752 27755 27758 27761 27764 27767 27770 27773 27776 27779 27782 27785 27788 27791 27794 27797 27800 27803 27806 27809 27812 27815 27818 27821 27824 27827 27830 27833 27836 27839 27842 27845 27848 27851 27854 27857 27860 27863 27866 27869 27871 27874 27877 27880 27883 27885 27888 27891 27894 27897 27900 27903 27906 27909 27912 27915 27918 27921 27924 27927 27930 27933 27936 27939 27942 27945 27948 27951 27954 27957 27960 27963 27966 27969 27972 27975 27978 27981 27984 27987 27990 27992 27995 27998 28001 28004 28006 28009 28012 28015 28018 28021 28024 28027 28030 28033 28036 28038 28041 28044 28047 28049 28052 28055 28058 28061 28064 28067 28070 28072 28075 28078 28081 28084 28086 28089 28092 28095 28098 28100 28103 28106 28109 28112 28115 28118 28121 28124 28127 28130 28133 28136 28139 28142 28144 28147 28149 28152 28154 28157 28159 28162 28165 28168 28171 28174 28177 28179 28182 28185 28188 28191 28194 28197 28200 28202 28205 28208 28211 28214 28217 28220 28223 28226 28229 28231 28234 28236 28239 28242 28245 28248 28251 28253 28256 28259 28261 28263 28266 28269 28271 28274 28276 28278 28281 28283 28286 28289 28292 28295 28298 28301 28304 28307 28310 28313 28316 28319 28322 28324 28327 28330 28333 28336 28339 28341 28344 28347 28350 28353 28356 28359 28362 28364 28367 28370 28373 28375 28378 28381 28383 28386 28388 28391 28394 28397 28400 28403 28406 28409 28411 28414 28417 28420 28423 28426 28429 28432 28435 28438 28441 28444 28447 28450 28453 28456 28459 28462 28464 28467 28470 28473 28476 28479 28482 28485 28488 28491 28494 28497 28500 28503 28506 28509 28512 28515 28518 28521 28524 28527 28530 28533 28536 28538 28541 28543 28546 28549 28552 28555 28557 28560 28563 28565 28568 28571 28573 28576 28579 28582 28584 28587 28590 28593 28596 28599 28602 28605 28607 28609 28612 28615 28618 28620 28623 28626 28629 28631 28634 28637 28640 28642 28645 28648 28650 28652 28655 28658 28661 28664 28667 28669 28672 28675 28678 28681 28683 28686 28689 28692 28695 28698 28701 28704 28707 28710 28713 28716 28719 28722 28725 28728 28731 28734 28737 28740 28743 28746 28749 28752 28755 28758 28761 28764 28767 28770 28773 28776 28779 28782 28785 28788 28791 28794 28797 28800 
</DataArray>
<DataArray type="UInt32" Name="types" format="ascii">
5 5 5 3 5 5 3 5 5 5 5 5 5 5 5 3 3 5 5 5 5 3 5 5 3 3 5 3 5 3 5 5 5 3 5 5 5 5 5 5 5 5 5 5 5 5 5 3 3 5 5 5 5 5 5 5 5 5 5 5 5 5 5 5 5 5 5 5 5 5 3 5 5 3 5 5 5 5 5 5 5 5 5 5 5 5 5 5 5 3 5 5 5 5 5 3 5 5 5 5 3 3 5 5 5 5 5 5 5 5 3 3 5 5 3 5 5 3 5 3 5 3 5 3 5 5 5 3 5 3 5 3 5 5 3 5 5 5 5 5 3 5 5 5 5 3 3 5 3 5 3 3 3 5 5 5 5 5 5 5 5 5 5 5 5 5 5 5 5 5 3 5 5 5 5 5 5 5 5 5 5 5 5 5 5 5 5 5 5 5 5 5 5 5 5 5 3 5 5 5 5 5 5 3 5 5 5 5 5 5 5 3 5 5 5 5 3 5 3 5 5 5 5 5 5 5 5 5 5 5 5 5 5 5 5 5 5 5 5 5 5 5 3 5 5 5 5 5 5 5 5 5 5 5 5 5 5 5 3 3 3 5 5 5 5 5 5 3 5 5 5 5 3 3 5 5 5 5 3 3 5 5 3 3 5 5 3 5 5 5 5 3 3 5 5 5 5 5 5 5 3 5 3 5 5 5 5 5 5 3 5 5 5 5 5 3 5 5 5 5 5 5 5 5 5 5 5 5 3 5 5 3 5 5 5 5 5 5 5 5 5 5 5 5 5 5 5 5 5 5 5 5 5 5 5 5 5 5 5 5 5 5 5 5 5 5 5 5 5 3 5 5 5 5 5 5 5 5 5 5 3 5 5 5 3 5 3 5 5 5 5 5 3 5 5 5 5 3 5 5 5 5 5 5 5 5 5 3 5 5 5 3 5 5 5 3 5 5 5 3 5 5 5 5 5 5 5 5 5 5 3 5 5 5 5 5 5 5 5 5 5 5 3 5 5 5 5 5 5 5 3 5 5 5 5 5 5 3 3 5 5 5 3 5 5 5 5 5 5 5 5 5 5 5 5 5 5 5 5 5 5 5 5 5 5 5 5 5 5 5 5 5 5 5 3 5 5 5 5 5 5 5 5 5 5 5 5 5 5 5 5 5 5 5 5 5 5 3 5 3 5 5 5 5 5 3 5 5 5 5 3 5 5 5 3 5 5 5 5 5 5 5 5 5 5 5 5 3 5 5 5 5 5 5 5 5 5 5 5 5 5 5 5 5 5 3 5 5 5 5 5 5 5 5 5 5 5 5 5 5 5 5 5 5 3 3 5 5 5 5 5 5 5 5 5 5 5 5 5 5 5 5 5 5 5 5 5 5 5 5 5 5 5 5 5 5 5 5 5 5 5 5 5 5 5 5 5 5 5 5 5 5 5 5 5 3 5 3 5 5 5 5 5 5 5 5 3 5 3 3 5 5 5 5 5 5 5 3 5 5 3 5 3 5 5 5 3 5 3 3 5 5 5 3 5 3 5 5 5 5 5 5 5 5 5 5 5 5 5 5 5 5 5 5 5 5 5 5 5 5 5 5 5 5 5 5 5 5 5 5 5 5 5 5 5 5 5 5 5 5 5 5 5 5 5 5 5 5 5 5 5 5 5 5 5 5 5 5 5 5 5 5 5 5 5 5 5 5 5 5 5 5 5 5 5 5 3 5 5 5 5 3 5 5 5 5 5 5 5 3 5 5 5 5 5 5 5 5 5 5 5 5 5 5 5 5 3 5 5 3 5 3 5 3 5 5 5 5 5 5 5 5 3 5 5 5 3 5 3 5 5 3 5 5 5 3 3 5 5 5 5 5 5 5 5 5 5 5 5 5 5 5 5 5 5 5 5 5 5 5 5 5 5 3 5 5 5 5 5 5 3 5 5 5 3 5 5 5 5 5 5 3 5 5 5 5 5 5 5 5 5 5 3 5 5 3 5 5 3 5 5 5 5 5 5 5 5 3 5 5 5 5 5 5 5 5 5 5 5 3 5 5 5 5 3 5 5 5 3 5 5 5 5 5 5 5 5 5 5 5 5 5 5 5 5 5 5 5 5 5 5 5 5 5 5 3 3 5 5 5 5 3 5 3 3 5 5 5 5 5 3 3 5 3 5 3 5 5 5 5 5 5 5 3 5 5 5 5 5 5 5 5 5 5 5 5 5 5 5 5 5 3 5 5 5 5 5 5 5 5 5 5 3 5 5 5 3 5 5 3 5 5 5 5 5 5 5 5 5 5 5 5 5 5 5 5 5 5 5 5 5 5 5 5 3 3 5 5 5 3 5 5 5 5 3 5 5 5 5 3 5 5 5 5 5 5 5 5 5 3 5 5 5 5 5 5 5 5 5 5 5 5 3 5 5 5 5 5 5 3 5 5 5 3 3 5 5 5 5 3 5 5 3 5 5 5 5 5 5 5 5 5 5 5 5 5 5 5 5 5 5 5 5 5 5 5 5 3 5 5 5 5 5 5 5 5 5 3 5 3 5 5 5 5 5 5 5 3 5 5 3 5 5 5 5 5 5 5 5 5 3 5 5 5 3 5 5 5 5 5 5 5 5 5 5 5 5 5 5 5 5 5 5 5 5 3 5 3 5 5 5 3 5 5 5 3 5 5 5 5 5 5 3 3 5 3 3 5 5 5 5 5 5 5 5 5 5 5 5 5 5 3 5 3 5 5 5 5 3 5 5 5 5 5 3 5 5 5 5 3 5 5 5 3 3 5 5 3 5 5 5 5 5 5 5 3 5 5 5 5 5 5 5 5 3 5 5 5 5 5 5 5 5 3 5 3 3 5 5 5 5 3 5 3 5 5 5 5 5 5 5 5 5 5 5 5 5 5 5 5 5 3 5 5 5 5 5 5 5 5 5 5 5 3 5 5 5 5 3 5 5 3 5 5 5 3 5 5 3 5 5 5 5 5 5 5 5 5 5 5 5 5 5 5 5 5 5 5 5 5 5 5 5 5 5 5 5 5 5 5 5 5 3 5 5 5 5 5 5 5 5 5 5 5 5 5 5 5 5 5 5 5 5 5 5 5 5 5 5 5 5 5 5 5 5 5 5 5 5 5 5 5 5 5 5 5 5 5 5 5 3 5 5 5 5 5 5 5 5 5 5 5 3 5 5 5 5 5 5 5 5 5 5 5 3 5 5 3 5 5 3 5 3 5 3 5 5 3 5 3 5 3 3 3 5 5 5 3 5 5 5 5 3 5 5 5 5 3 5 5 5 5 5 5 5 5 5 5 5 5 5 5 5 5 3 5 5 5 5 5 5 5 5 5 5 5 5 5 5 5 5 5 5 5 5 5 5 5 5 5 5 5 5 5 5 5 5 5 5 5 3 5 5 5 5 5 5 5 5 5 5 5 5 5 5 5 5 5 5 5 5 3 5 5 5 5 5 5 5 5 3 5 5 5 5 5 3 5 5 5 5 5 3 5 5 5 5 5 5 5 5 5 5 5 5 5 3 5 5 5 5 5 5 5 5 5 5 5 5 3 5 5 5 5 5 5 5 5 5 5 5 5 5 5 5 5 5 5 5 5 5 5 5 5 5 5 5 5 5 5 5 5 5 5 5 5 5 5 3 5 5 5 5 5 5 5 5 5 3 3 5 5 5 3 5 5 3 5 5 3 5 5 3 5 5 3 5 5 5 5 5 5 3 5 5 5 3 5 3 5 5 3 5 3 5 3 5 3 5 5 3 5 3 5 5 5 5 5 3 5 5 5 5 5 5 5 5 5 3 5 5 3 5 5 5 5 5 5 5 5 5 5 3 5 5 5 5 5 5 5 5 5 3 5 5 5 5 3 3 5 3 5 3 5 3 5 5 5 5 5 5 5 5 5 5 5 3 5 5 5 5 5 5 5 5 5 5 5 5 5 5 5 5 3 5 5 3 5 5 5 5 3 5 5 5 5 5 5 5 3 5 5 5 5 5 5 5 5 5 5 5 5 5 3 3 5 3 5 5 5 5 5 5 5 3 5 5 5 3 5 3 5 5 5 5 5 5 5 5 5 5 5 5 5 3 5 5 5 5 3 5 5 5 3 5 5 5 5 5 5 3 5 5 5 5 3 5 3 5 5 5 5 5 3 3 5 5 5 3 5 5 5 5 5 5 5 5 5 5 5 3 5 5 5 3 5 5 5 3 5 5 5 5 5 5 5 5 5 5 5 5 5 5 5 3 3 5 5 5 3 5 5 5 5 5 5 3 5 5 5 5 5 5 5 3 5 3 5 5 5 5 3 3 5 5 3 5 3 5 3 5 5 3 3 5 5 5 5 5 3 5 3 5 5 3 5 3 3 5 3 5 5 5 5 3 5 5 5 3 5 5 5 3 5 3 5 5 3 5 5 3 5 3 5 3 5 5 5 5 5 3 3 5 5 5 5 5 5 3 5 5 5 5 3 5 5 3 5 3 5 5 5 3 5 5 5 3 5 5 5 5 5 3 5 5 3 5 5 5 5 3 5 5 5 5 5 3 3 5 5 3 5 5 5 3 3 5 5 3 3 3 5 5 3 3 5 5 5 3 5 3 5 5 3 5 5 3 5 5 5 5 5 5 5 5 3 5 5 3 5 5 5 5 5 5 5 5 3 5 5 5 3 5 5 5 5 3 5 5 5 3 5 3 5 3 5 5 5 5 5 5 3 5 5 5 5 5 5 5 5 5 5 5 5 5 3 3 5 5 5 3 5 5 5 5 5 3 5 5 5 3 5 5 5 5 5 3 5 5 3 5 5 5 5 5 5 5 5 5 3 5 5 5 5 5 5 5 5 5 5 5 5 5 5 5 5 5 5 5 5 5 5 5 5 5 5 5 3 5 5 5 5 5 5 3 5 5 5 5 5 5 5 5 5 3 5 5 3 5 5 5 5 3 5 5 5 5 5 5 5 5 5 5 5 5 5 5 5 5 5 5 5 5 5 5 5 5 5 5 5 5 5 5 5 3 5 5 5 5 5 5 5 5 3 5 5 5 5 5 5 3 5 5 5 5 5 5 5 5 5 5 5 5 5 5 5 5 3 5 5 5 5 5 3 5 5 5 5 5 3 5 5 5 5 5 5 5 5 5 5 5 5 5 5 5 5 5 5 5 5 5 5 5 3 5 5 5 5 5 5 5 5 3 5 5 5 5 5 5 5 5 5 5 5 5 5 5 5 5 5 5 5 5 5 5 5 5 5 3 5 5 5 5 3 5 5 5 5 3 5 5 5 5 5 5 5 5 5 5 5 5 5 5 3 5 5 5 5 5 5 5 5 5 5 5 5 5 5 5 5 5 5 5 5 5 5 5 5 5 5 3 5 3 5 5 5 5 5 3 5 5 5 5 5 5 5 5 5 5 5 5 5 5 5 5 5 5 5 3 5 5 5 3 5 5 5 5 5 5 5 3 5 5 5 5 3 5 3 5 3 5 3 5 5 5 5 5 5 5 5 5 5 5 5 5 5 5 5 5 5 5 5 5 5 5 5 5 5 5 5 5 5 5 5 5 5 5 5 5 5 5 5 5 5 5 5 5 5 5 5 5 5 5 5 5 5 5 5 5 5 5 5 5 5 5 5 5 5 5 5 5 5 3 5 3 5 5 5 5 5 5 5 5 5 5 5 5 5 3 5 5 5 5 3 5 5 5 5 5 5 5 5 5 5 5 5 5 5 5 5 5 5 5 5 5 5 5 5 5 5 5 5 5 5 5 5 5 5 5 5 5 3 5 5 5 5 5 5 5 5 3 5 5 5 5 5 5 5 5 5 5 5 5 5 3 5 5 3 5 5 5 5 5 3 5 5 5 5 5 3 5 5 5 5 5 3 5 5 5 5 5 5 5 5 5 5 5 5 5 5 5 5 3 5 5 3 5 5 5 5 5 5 5 5 5 5 5 5 5 5 5 5 5 5 5 5 5 5 5 5 5 5 5 5 5 5 5 5 5 5 5 5 3 5 5 5 5 5 5 5 5 5 5 5 3 5 5 3 5 3 5 5 3 5 5 5 5 5 5 5 5 5 5 5 5 5 5 5 5 5 3 3 5 5 5 5 3 5 3 5 3 5 5 3 5 5 5 5 3 5 5 3 5 3 5 5 5 5 5 5 5 5 5 5 5 5 5 5 5 5 5 5 5 5 5 5 5 5 5 5 5 5 5 5 5 5 5 5 5 5 5 5 5 5 5 5 5 5 5 5 5 3 5 5 5 3 5 5 5 3 5 3 5 5 3 5 5 3 5 5 5 5 5 5 5 3 5 5 5 5 3 3 5 5 5 5 5 5 5 5 5 5 5 5 5 5 5 5 5 5 5 5 5 3 5 5 5 5 5 5 5 5 5 5 5 5 5 5 5 5 5 5 5 5 5 5 5 5 5 5 5 5 5 5 5 5 5 5 5 5 5 5 5 3 5 5 3 5 5 5 5 5 5 5 5 5 5 5 5 5 5 5 3 5 5 5 5 5 5 5 5 5 5 5 5 5 5 5 5 5 5 5 5 5 5 5 5 5 5 5 5 5 5 5 5 5 5 5 5 5 5 5 5 5 5 5 5 5 5 5 5 5 5 5 5 5 5 5 5 5 5 5 5 3 5 5 5 5 5 5 5 5 5 3 5 5 5 5 5 5 5 5 5 5 5 3 5 5 5 5 5 5 5 5 5 5 5 5 5 3 3 3 5 5 5 5 5 5 5 3 5 5 5 5 5 3 5 5 5 5 5 5 5 5 5 5 5 5 5 5 5 5 5 5 5 5 5 5 5 5 5 5 5 5 5 5 5 5 5 5 5 5 5 3 5 5 5 3 5 5 5 5 5 5 5 5 5 5 5 5 5 5 5 5 3 3 5 5 5 3 3 5 5 5 5 5 5 5 5 5 5 5 5 3 5 5 5 5 5 5 5 5 5 5 5 5 5 5 5 5 5 5 5 5 5 5 5 5 5 5 5 5 5 5 5 5 5 5 5 5 5 3 5 5 5 5 5 5 5 5 3 5 5 5 5 5 5 5 3 5 5 5 5 5 5 5 5 5 5 5 5 5 5 3 5 5 5 3 5 3 5 5 5 5 5 5 5 5 5 3 5 5 5 5 5 3 5 5 5 5 5 5 5 5 5 5 5 5 5 5 5 5 5 5 5 5 3 5 5 5 5 5 3 5 5 5 5 5 5 5 3 5 5 3 5 5 5 5 5 5 3 5 5 5 5 5 5 3 5 5 5 5 5 5 5 5 5 5 5 5 5 5 5 5 5 5 5 5 5 5 5 5 5 5 5 5 5 3 5 5 5 5 3 5 5 3 5 5 5 3 5 5 3 5 5 5 5 5 5 5 5 5 5 5 5 5 5 5 5 5 5 3 5 5 5 5 3 5 5 5 3 5 5 3 5 5 5 5 5 5 5 5 5 5 5 5 5 5 5 5 5 5 5 5 5 5 5 5 5 5 5 5 5 5 5 5 5 5 5 5 5 5 5 5 5 5 5 5 5 5 5 5 5 5 5 5 5 5 5 5 5 5 5 5 5 3 5 5 5 5 5 5 5 5 3 5 5 5 5 5 5 5 5 5 5 5 5 5 5 5 5 5 5 5 5 5 5 5 5 5 5 5 5 3 5 5 5 5 5 5 5 5 5 5 5 5 5 5 5 5 5 5 5 5 5 3 5 3 5 5 3 3 5 5 3 3 5 5 3 5 5 5 5 3 5 5 3 5 5 3 5 5 5 5 5 5 5 5 5 5 5 5 5 5 3 5 5 5 5 5 5 5 5 5 5 3 5 5 3 5 5 5 5 5 3 5 3 5 5 3 5 3 5 3 5 5 5 5 5 5 5 5 5 5 5 5 5 5 5 5 3 5 5 3 5 5 5 5 3 5 5 5 5 5 5 5 5 5 5 5 5 5 5 5 5 5 3 5 5 5 5 5 5 5 5 5 3 5 5 5 5 5 5 5 5 5 5 5 5 5 5 3 5 5 3 5 5 3 5 5 5 3 5 5 5 5 5 5 5 5 5 5 3 5 3 5 5 5 5 5 3 5 5 5 5 5 5 5 5 5 3 5 5 5 5 5 5 5 5 5 5 5 3 5 5 3 5 5 5 5 5 5 5 5 5 3 5 5 5 5 5 5 5 5 3 3 5 5 5 5 5 5 5 5 5 5 5 5 5 5 5 5 5 5 5 5 5 5 5 5 5 3 5 5 5 5 5 5 5 5 5 5 5 5 5 5 5 5 5 5 5 5 5 5 5 5 5 5 5 5 5 5 5 5 5 5 5 5 5 5 5 5 5 5 5 5 5 5 5 5 5 5 5 5 5 3 5 5 3 5 5 3 3 5 5 5 5 3 5 5 5 5 5 5 5 5 5 5 5 5 5 3 5 5 5 5 5 5 5 5 5 5 5 5 5 5 5 5 5 3 5 3 5 5 3 5 5 5 5 5 5 5 5 5 3 5 5 3 5 5 5 3 5 3 5 5 5 5 5 5 5 5 5 5 5 5 5 5 5 5 5 3 5 5 5 5 3 5 5 5 5 5 5 5 5 5 5 5 5 5 3 5 5 5 5 5 5 5 5 5 5 5 5 5 5 5 5 5 5 5 5 5 5 5 5 5 5 5 5 5 5 5 5 5 5 5 5 5 3 5 3 5 3 5 5 3 5 5 3 5 5 5 3 5 5 5 3 5 5 5 5 5 3 5 5 3 5 5 5 5 3 5 5 5 5 5 5 5 5 5 5 5 5 5 5 3 5 5 5 5 5 5 5 5 5 5 5 5 5 5 5 5 5 5 5 5 5 5 5 5 5 3 3 5 5 5 5 5 5 5 5 5 5 5 5 3 3 5 5 5 5 5 5 5 5 5 5 5 5 5 5 5 5 5 5 5 5 5 5 5 5 5 5 5 5 5 5 5 5 5 5 5 5 5 5 5 5 5 5 5 5 5 5 5 5 5 5 5 5 3 5 5 5 5 5 3 5 5 5 3 5 5 3 3 5 3 3 5 5 5 5 3 5 5 5 5 5 5 5 5 5 5 5 5 5 5 5 5 3 5 5 5 3 5 5 5 5 5 5 5 5 5 5 5 3 5 5 3 5 3 5 5 3 5 5 3 5 5 5 5 5 5 5 5 5 5 5 5 5 5 5 5 5 5 5 5 5 5 5 5 5 3 3 5 5 5 3 5 5 3 5 5 5 5 5 5 5 5 5 5 5 5 5 5 5 5 5 5 5 5 5 5 5 5 5 3 5 5 3 5 5 5 5 5 3 5 5 3 5 5 5 5 5 5 3 5 5 5 5 5 3 5 5 5 5 5 5 5 5 5 5 5 5 5 5 5 5 5 5 5 5 5 5 5 5 5 5 5 5 5 5 5 5 5 5 5 5 5 5 5 5 5 5 5 5 5 5 5 5 5 5 5 5 5 5 5 5 5 5 5 3 5 5 5 3 5 5 5 5 3 5 5 5 5 5 5 5 5 5 5 5 5 5 5 5 5 5 5 5 5 5 5 5 5 5 5 5 5 5 5 5 5 5 5 5 5 5 3 5 5 5 5 5 5 5 5 5 5 5 5 3 5 5 5 5 5 5 5 5 5 3 5 3 5 5 5 5 5 5 5 3 3 5 5 3 5 5 5 5 5 5 5 5 3 5 5 5 5 5 5 5 5 5 5 5 5 5 5 5 5 5 5 5 5 5 5 5 5 5 5 5 5 5 5 5 5 3 5 5 3 5 5 5 5 3 5 5 5 3 5 5 5 3 5 5 5 5 5 3 3 5 5 5 5 5 3 5 3 3 5 5 5 5 5 5 5 5 5 5 5 5 5 5 5 5 5 5 5 5 5 5 5 5 5 5 5 5 5 5 5 5 5 5 3 5 5 5 5 5 5 5 5 3 5 5 5 5 5 5 5 5 5 5 5 5 5 5 5 5 5 5 5 5 5 5 5 5 5 5 5 5 5 5 5 5 5 5 5 5 5 5 5 5 5 5 5 5 5 5 5 5 5 5 5 5 5 3 5 5 5 5 5 5 3 5 5 5 5 5 3 3 5 5 5 5 5 5 5 5 5 5 5 3 5 5 5 5 5 5 5 3 5 5 5 5 5 5 5 5 3 5 5 5 5 5 3 5 5 5 5 5 5 5 5 5 5 5 5 5 5 3 5 5 5 5 5 5 5 5 3 5 5 5 3 5 5 5 5 5 5 3 5 5 5 5 5 5 5 5 5 5 5 5 5 5 3 3 5 3 5 5 5 5 5 5 5 5 3 5 5 5 3 5 3 5 3 3 3 5 5 5 5 3 5 3 5 5 3 5 5 5 5 5 3 5 5 3 5 5 5 5 5 5 5 3 5 5 5 3 3 5 5 5 3 3 5 5 5 3 5 3 5 5 3 5 5 5 5 3 5 5 5 3 5 5 3 5 5 5 5 5 5 3 5 5 5 5 5 5 5 5 5 5 5 5 5 3 5 5 5 5 5 3 5 5 5 5 5 5 5 5 5 5 5 5 5 5 5 5 3 5 5 5 5 5 5 5 5 5 5 5 5 3 5 5 5 3 5 5 3 5 5 5 5 5 5 5 5 5 5 5 3 5 3 5 5 5 5 5 5 5 5 5 5 5 5 5 5 5 5 3 5 5 5 5 5 5 5 5 3 5 5 5 5 5 5 5 5 5 5 5 5 5 5 5 5 5 5 5 5 5 5 5 5 5 5 5 5 5 5 5 5 5 5 5 5 5 5 5 5 5 5 5 5 5 5 5 5 5 5 5 5 5 5 5 3 5 5 3 5 5 5 5 5 5 5 5 5 5 5 5 5 5 5 5 5 5 5 5 3 5 5 5 5 3 5 5 5 5 5 3 3 5 5 3 3 5 3 5 5 5 5 5 5 5 5 5 5 5 5 5 5 5 5 5 5 5 5 5 5 5 5 5 5 5 5 5 3 5 5 5 3 5 5 3 5 5 5 5 3 5 5 3 5 5 5 3 3 5 5 5 5 5 5 5 5 5 5 5 5 5 3 5 5 3 5 5 5 5 5 3 5 3 5 5 5 5 3 5 5 5 3 5 5 5 5 5 5 5 5 5 3 5 3 3 5 3 3 5 5 5 5 5 5 5 5 5 5 5 5 3 5 5 5 5 5 3 3 3 5 5 5 5 5 3 5 5 3 5 5 5 5 5 5 5 5 5 5 3 5 5 5 5 5 5 5 5 5 5 3 5 5 5 3 5 5 5 5 5 5 5 5 5 5 3 5 5 3 5 3 5 5 3 5 5 3 5 3 5 5 3 5 3 5 5 3 5 5 5 3 5 5 5 5 3 5 5 5 5 3 3 5 5 5 5 5 5 3 5 5 5 5 5 5 5 5 5 5 3 5 5 5 5 3 5 5 5 5 5 5 5 3 5 5 5 3 3 5 3 5 5 5 5 5 3 5 3 5 3 3 3 5 3 5 5 5 3 5 5 5 5 5 5 5 3 5 5 5 5 5 5 5 5 5 3 5 5 5 5 3 5 5 5 5 5 5 5 5 5 5 5 3 5 5 5 5 5 5 3 5 5 5 3 5 5 5 5 5 5 5 5 5 5 5 5 5 5 3 5 5 5 5 5 3 5 5 5 5 5 5 3 5 3 5 5 3 5 5 5 5 5 3 5 3 5 5 5 5 3 5 5 5 3 5 5 5 5 5 5 5 5 5 3 5 3 5 5 5 5 5 3 5 5 5 5 3 5 5 5 5 3 3 5 3 5 5 3 5 5 3 5 3 5 5 5 5 5 3 5 5 5 5 5 5 5 5 5 5 5 5 5 3 5 5 5 5 5 5 5 3 5 5 5 5 5 5 5 5 5 5 5 5 5 5 3 5 3 3 5 5 5 5 5 5 5 5 5 5 5 5 5 5 5 5 5 5 5 5 3 5 5 5 5 3 5 5 5 5 5 5 5 5 5 5 5 5 5 5 5 5 3 5 5 5 5 5 5 5 3 5 5 5 5 5 5 3 5 3 5 5 3 5 5 5 5 3 5 5 5 5 3 5 5 5 3 5 5 5 5 5 5 5 3 5 5 5 5 5 5 3 5 5 5 5 3 5 5 5 5 5 5 5 5 5 3 5 5 5 5 3 5 5 5 3 5 5 5 5 5 5 5 3 5 3 5 5 5 5 3 5 5 3 3 5 5 3 5 3 5 5 3 3 5 5 3 5 5 5 5 3 5 5 5 5 5 3 3 5 5 5 5 5 5 5 5 3 5 5 3 3 3 5 5 5 3 5 3 5 5 5 5 3 5 5 5 5 5 5 5 5 5 5 5 5 5 5 5 5 5 3 5 5 3 5 5 5 5 5 5 5 5 5 5 5 3 5 5 5 5 5 5 5 5 5 5 3 5 5 3 5 5 5 5 5 5 5 5 5 5 5 5 3 5 5 5 5 5 5 5 3 5 5 5 5 3 5 5 5 5 5 5 5 3 3 5 5 5 5 3 3 5 3 3 5 5 5 5 5 5 3 3 5 5 5 5 3 5 3 5 5 5 5 5 5 5 5 5 5 3 5 5 5 5 5 3 5 5 5 5 5 5 5 5 5 5 5 5 5 3 5 5 3 3 5 5 3 3 5 5 5 3 3 5 5 5 3 5 5 3 3 5 5 5 5 5 5 5 5 5 3 5 5 5 3 5 3 5 3 5 3 5 5 5 5 5 5 3 5 3 5 5 3 5 5 5 5 5 5 5 5 5 3 5 5 5 3 5 5 5 5 5 5 5 5 5 5 5 5 5 5 5 5 3 5 3 5 5 5 5 5 5 5 5 5 3 5 3 5 5 5 3 5 5 3 5 5 5 5 5 5 5 5 5 5 3 5 5 3 5 5 5 5 5 3 5 5 3 5 5 5 5 5 5 5 5 5 5 5 5 5 5 5 5 5 5 3 5 5 5 3 5 5 3 5 5 3 5 5 5 5 5 5 3 5 5 5 5 5 5 5 5 5 5 5 5 3 5 5 5 5 5 5 5 5 5 5 5 5 5 3 5 5 3 5 5 5 3 5 5 5 5 5 5 5 5 5 5 3 5 5 5 5 5 5 5 5 5 5 5 5 5 3 5 5 5 5 5 5 5 5 5 5 5 5 5 5 5 5 5 5 5 5 5 5 5 5 5 5 3 5 5 3 5 5 5 3 5 5 5 5 5 5 5 5 5 5 5 5 5 5 3 5 5 5 5 5 3 3 3 5 5 5 3 5 5 5 5 5 5 5 5 5 3 5 5 5 5 5 5 5 5 3 5 5 5 5 5 3 5 5 5 5 5 3 5 5 3 5 5 5 5 3 5 5 5 5 5 5 5 5 5 5 5 5 5 5 5 5 5 5 5 5 5 5 5 5 5 5 5 3 5 3 5 5 5 5 5 5 3 5 5 5 5 5 5 5 5 5 5 5 5 5 5 5 5 5 5 5 5 5 5 5 3 5 5 5 5 3 5 5 5 5 5 5 5 5 5 5 5 5 3 5 5 3 5 5 5 5 5 5 3 3 5 5 5 5 3 3 5 5 5 5 5 5 5 5 5 5 5 3 3 5 5 3 3 5 5 5 5 3 5 5 5 5 5 5 5 5 5 3 5 5 5 5 5 5 5 5 5 5 5 5 5 5 5 5 5 5 5 5 5 5 5 5 3 5 5 3 5 5 3 5 3 5 5 3 3 5 3 5 5 3 3 5 5 5 5 5 5 5 5 5 5 5 5 5 5 5 5 5 5 5 5 5 5 5 5 5 5 5 5 5 5 3 5 5 5 5 3 5 5 3 5 5 5 5 3 5 5 5 5 5 5 5 5 3 3 5 5 3 3 5 3 5 5 5 5 3 5 5 5 5 5 5 5 5 5 3 5 3 5 5 5 5 5 5 5 5 5 5 5 5 5 5 5 5 5 5 5 5 5 5 3 5 5 5 3 5 5 5 5 3 5 5 5 5 5 3 5 3 5 5 5 5 3 5 3 5 5 3 5 5 5 5 5 3 3 3 5 5 3 5 5 5 5 3 3 5 5 3 3 5 5 5 5 3 3 5 5 3 5 5 5 3 5 5 3 5 5 3 5 5 5 5 5 3 3 5 5 5 5 5 5 5 5 5 5 5 5 5 5 5 3 5 5 5 3 5 5 5 5 3 5 5 5 5 5 5 5 5 5 5 5 5 5 5 5 5 5 3 5 3 3 5 5 3 5 5 5 3 5 5 5 5 5 5 5 5 5 5 3 5 5 5 5 5 5 5 5 5 5 5 5 5 5 5 5 5 5 5 5 5 5 5 5 5 5 5 5 5 5 5 5 5 5 5 5 5 5 5 5 5 5 5 5 3 5 5 3 5 5 5 5 5 5 5 5 5 5 5 3 5 5 5 5 5 3 5 3 5 5 5 5 5 5 5 5 3 5 5 5 5 5 5 3 5 5 3 5 3 5 5 3 5 3 5 5 5 5 5 3 5 5 5 5 5 5 5 5 5 5 5 5 5 5 3 5 5 5 5 3 5 5 5 5 5 5 5 5 5 3 5 5 5 5 5 5 5 5 5 5 5 5 5 5 5 5 5 5 5 5 5 5 5 5 5 5 5 3 5 5 5 5 5 5 5 5 5 5 5 5 5 5 3 5 3 5 5 5 3 5 3 5 3 5 5 5 5 5 5 5 5 5 5 5 5 5 5 5 5 5 5 5 5 5 5 5 5 5 5 5 5 5 5 5 5 3 5 5 3 5 5 5 5 5 5 5 3 5 5 5 5 5 5 5 5 5 5 5 5 5 5 5 5 5 5 5 5 5 5 5 3 5 5 3 5 5 5 5 3 5 5 5 5 5 5 5 5 5 5 5 5 3 5 5 5 5 5 3 5 5 5 5 3 5 5 5 5 5 5 5 5 5 5 5 5 5 3 5 5 5 5 5 5 5 5 5 5 5 5 5 3 5 5 5 5 5 5 5 5 5 5 5 5 5 5 5 5 5 5 3 5 5 5 5 5 5 5 5 5 5 5 5 5 5 5 3 3 5 5 5 5 5 5 5 5 5 3 5 5 5 5 5 5 5 3 5 5 5 5 5 5 5 3 5 5 5 5 3 5 5 5 3 5 5 5 5 5 3 5 5 5 5 5 3 5 5 5 5 5 5 5 5 3 5 3 5 5 5 5 5 3 5 5 5 5 5 5 3 5 5 5 3 5 5 3 5 5 5 5 5 5 3 5 5 3 5 5 5 5 3 5 5 5 5 5 5 5 5 5 5 5 5 5 5 5 5 5 5 3 5 5 5 5 5 5 5 5 5 5 5 5 5 5 5 5 5 3 5 5 5 3 5 5 3 3 5 5 5 5 5 5 5 5 5 5 5 3 5 5 5 5 5 5 5 5 3 5 3 5 5 5 3 5 5 5 5 5 3 5 5 3 5 5 5 5 5 5 5 5 5 5 5 5 5 5 3 3 5 5 5 5 5 3 5 5 5 5 5 5 5 5 3 5 5 3 5 5 5 3 5 3 5 5 5 5 5 5 5 5 5 5 5 3 5 5 5 3 5 3 5 5 3 5 3 5 5 3 5 5 5 5 5 5 5 5 5 5 5 5 3 5 5 3 5 5 5 3 5 3 5 5 5 5 5 5 5 5 5 5 5 5 5 3 3 5 5 5 5 5 3 5 5 3 5 5 3 5 5 5 3 5 5 5 5 5 5 5 5 3 5 5 3 3 5 5 5 5 5 3 5 5 3 5 5 5 3 3 5 5 5 5 5 3 5 3 5 5 5 5 5 5 5 5 5 3 5 5 3 5 5 5 5 5 5 5 5 3 5 5 5 5 5 5 3 5 5 5 3 5 5 5 5 3 5 5 5 5 5 5 5 5 5 5 5 3 5 5 3 5 5 5 5 5 5 3 5 5 5 5 5 5 5 5 3 5 5 3 3 5 5 5 5 5 3 5 5 5 5 5 5 5 3 5 5 3 5 5 5 5 5 5 3 5 5 5 3 5 5 5 5 5 5 5 5 5 5 5 5 3 5 3 5 3 5 5 5 3 5 5 5 5 5 5 3 5 5 5 5 5 5 5 5 5 5 5 5 3 5 5 3 3 5 5 5 5 3 5 5 5 3 3 5 5 5 5 3 5 5 5 3 5 3 3 5 5 3 3 5 5 5 5 5 3 5 3 5 3 3 5 5 5 5 5 5 5 5 5 3 3 3 5 5 3 5 5 3 5 5 5 5 5 5 5 5 3 3 5 5 5 3 5 5 5 3 5 5 3 5 5 5 5 5 5 5 5 5 5 5 5 5 5 5 5 5 5 3 5 5 5 5 5 5 5 5 5 3 5 5 5 5 5 5 5 5 5 5 3 3 5 5 5 5 5 3 5 5 5 5 5 5 5 5 5 5 5 3 5 3 5 5 3 5 5 3 5 5 5 5 5 5 5 5 5 5 5 5 5 5 5 5 5 3 5 5 5 5 5 5 5 5 5 5 5 5 5 5 5 5 5 5 5 5 5 5 5 5 5 3 5 5 5 5 5 5 5 5 5 5 5 5 5 3 5 3 5 5 5 5 5 5 5 5 5 5 5 5 5 5 5 5 5 5 5 5 5 5 5 5 5 5 5 5 5 5 5 5 5 5 3 5 3 5 5 3 5 5 5 3 5 5 5 5 5 5 5 5 5 5 5 5 5 5 5 5 5 5 5 3 3 5 5 5 5 5 5 3 5 3 5 5 5 5 5 5 3 5 5 3 5 3 5 5 5 5 5 5 5 5 5 5 5 5 5 5 5 5 3 5 3 5 5 5 5 5 5 5 5 3 3 5 5 3 5 5 5 5 3 5 3 5 5 3 5 5 5 5 5 5 5 3 3 5 5 5 3 5 5 3 5 3 5 3 3 5 5 5 5 5 3 5 5 5 5 5 5 3 5 5 3 5 5 5 5 5 5 5 5 5 3 3 5 3 5 3 5 5 3 5 5 5 5 5 5 5 5 5 3 5 5 5 5 3 5 5 5 5 5 5 5 5 5 3 3 5 5 5 5 5 5 5 5 5 5 5 5 5 5 5 5 5 5 5 5 5 5 5 5 5 5 5 5 5 5 3 5 3 5 5 5 5 5 3 3 5 3 3 5 5 5 5 5 5 5 5 5 5 5 5 5 3 5 5 5 5 5 5 5 5 5 5 5 5 5 5 5 5 5 3 5 5 3 5 5 5 5 5 5 5 3 5 5 5 5 5 5 5 5 5 5 5 5 5 3 5 5 5 5 5 5 3 5 5 5 5 5 5 5 5 5 5 5 5 5 5 5 5 5 3 5 5 5 5 5 5 5 5 5 5 5 5 5 3 5 5 5 3 5 5 5 5 5 5 5 5 3 5 5 5 5 5 5 3 5 5 5 5 3 5 5 5 3 5 5 5 5 3 5 5 5 5 5 5 5 3 5 5 5 3 5 5 5 3 5 5 5 5 5 5 5 3 5 5 3 5 5 5 5 5 5 5 5 5 5 5 5 5 5 5 5 5 5 5 5 5 5 5 5 5 5 5 5 5 5 5 5 5 5 5 5 5 5 5 5 5 5 3 5 5 3 5 5 3 5 5 5 3 5 5 5 5 5 3 3 5 3 3 5 5 5 5 5 5 5 5 5 5 5 5 5 5 5 5 5 3 5 5 5 5 5 5 5 5 5 5 5 5 5 5 5 5 5 5 5 5 5 5 5 5 5 5 5 5 5 3 5 5 5 5 3 5 5 5 5 5 5 5 3 5 3 5 5 5 3 5 5 5 5 5 5 5 5 5 5 5 5 5 5 5 5 5 5 5 5 5 5 5 5 5 5 5 5 5 5 5 5 5 5 5 5 5 5 5 5 5 5 5 3 3 5 3 5 3 5 5 5 5 3 5 5 5 5 5 5 5 5 5 5 5 5 5 5 5 5 3 5 5 3 5 5 5 5 5 5 5 5 5 5 5 5 5 5 5 3 5 5 5 5 3 5 5 5 5 5 3 5 5 5 5 5 5 5 5 5 5 5 5 3 5 5 3 5 5 5 5 3 5 5 5 5 5 5 5 5 5 3 5 5 5 5 5 5 5 5 5 5 5 5 5 5 5 5 5 5 5 5 5 5 5 5 5 5 5 3 5 5 5 5 3 5 5 5 5 5 5 5 5 3 5 3 5 5 5 3 5 5 5 5 5 5 5 5 5 5 5 3 5 5 5 3 5 5 5 5 5 5 3 3 5 5 5 5 5 5 5 5 5 5 5 5 5 5 5 5 5 3 5 5 5 5 5 5 5 3 5 5 5 5 5 5 5 5 5 5 5 5 3 5 5 5 5 5 3 3 5 3 5 5 3 5 5 5 5 5 3 5 5 5 3 5 3 5 5 5 3 3 5 5 5 5 5 5 5 5 5 5 5 5 5 5 5 5 5 5 5 5 5 5 3 5 5 5 5 5 5 5 3 5 5 5 5 3 5 5 3 5 5 5 5 5 5 3 5 5 5 5 5 5 3 5 5 5 5 5 5 5 3 5 5 5 5 5 5 5 5 3 5 5 5 5 5 5 3 5 5 5 5 5 3 5 5 5 3 5 5 5 3 5 5 5 5 5 5 5 5 5 5 5 5 5 5 5 5 5 5 5 5 3 5 5 5 5 5 3 5 5 3 3 5 5 5 5 3 5 5 3 5 5 5 5 5 5 5 5 3 5 5 5 3 5 5 5 5 5 3 5 5 5 3 5 5 3 5 5 5 5 5 5 5 5 5 5 5 5 5 5 5 5 5 5 5 3 5 5 5 5 5 3 5 5 3 5 5 5 5 5 5 5 3 5 5 5 5 5 5 5 5 5 5 5 3 5 5 5 5 3 3 5 5 5 5 3 5 5 3 5 5 5 5 5 5 3 5 5 5 5 5 5 5 5 5 5 5 5 5 5 5 5 5 5 5 5 5 5 5 5 5 5 5 3 5 5 3 5 5 5 3 5 5 5 5 5 5 5 5 5 5 3 5 5 5 3 5 5 5 5 5 3 3 5 5 5 5 3 5 5 5 3 5 5 5 5 5 5 5 5 5 5 5 3 5 5 5 5 5 5 5 5 5 5 5 5 5 5 3 5 5 5 3 5 5 5 5 5 3 5 5 5 3 3 5 5 3 5 5 5 5 5 5 5 3 5 5 5 5 3 5 5 5 5 5 5 5 5 3 5 5 3 5 5 5 5 5 5 5 5 5 5 5 5 5 5 5 5 5 5 5 5 5 5 5 5 5 5 3 5 5 5 3 5 5 5 5 5 5 5 5 5 5 5 5 5 5 5 5 5 5 5 3 5 5 3 5 3 5 5 5 5 5 5 5 3 5 5 3 5 5 5 3 5 5 5 5 5 3 5 5 5 5 5 5 5 5 5 3 5 3 3 3 5 5 5 3 5 5 3 5 5 5 5 5 5 5 5 5 5 5 5 5 3 5 5 5 5 5 5 5 5 3 5 5 5 5 3 5 5 5 5 3 5 5 5 5 5 5 5 5 5 3 5 5 5 5 3 5 5 3 5 5 5 5 3 5 5 3 5 3 5 5 5 5 5 5 5 5 5 5 5 5 5 5 5 5 5 5 5 5 5 5 5 5 5 5 5 5 5 5 5 5 5 5 5 5 5 5 5 5 5 5 5 5 5 5 5 5 3 5 3 5 5 3 5 5 5 5 5 5 5 3 5 5 3 5 5 5 5 5 3 5 5 5 3 5 5 5 5 5 5 5 5 3 5 5 3 5 5 5 5 5 5 5 5 5 5 5 5 3 5 5 5 5 5 3 5 5 5 5 5 3 5 5 5 5 5 5 5 3 5 3 5 5 5 3 5 5 5 3 5 5 5 5 5 5 5 3 5 5 5 5 5 3 5 5 5 5 5 3 5 5 3 5 5 3 5 3 5 5 5 5 3 5 5 5 3 5 5 5 5 3 5 5 5 5 5 5 5 5 5 5 5 5 3 5 3 3 5 5 5 3 5 5 5 5 5 5 5 3 5 5 5 5 5 5 3 5 3 5 5 5 3 5 5 5 5 5 5 5 5 5 5 5 5 5 5 5 5 5 5 5 3 5 3 5 5 3 5 5 3 5 5 5 5 5 5 5 5 5 5 5 5 3 5 5 5 5 5 5 3 5 5 5 5 3 5 5 5 5 5 5 5 5 5 5 5 5 5 5 5 3 5 5 5 5 5 3 5 5 5 5 3 5 5 5 5 5 5 5 3 5 5 3 5 5 5 5 5 5 3 5 5 5 3 5 5 3 5 5 5 5 5 5 5 5 3 3 5 5 3 5 3 5 3 5 5 5 5 5 3 5 3 5 5 5 3 5 5 5 5 5 5 5 5 3 5 5 5 5 5 5 5 5 5 5 5 5 5 5 3 5 5 5 5 5 5 5 3 5 5 5 3 5 5 5 5 3 3 5 5 5 3 5 5 5 5 3 5 5 3 5 5 5 5 5 3 5 5 5 5 5 5 5 5 5 5 5 5 3 5 5 5 5 5 5 5 5 5 5 5 5 5 5 5 5 5 5 5 5 5 5 5 5 5 5 5 5 5 5 5 5 5 5 5 5 5 5 3 5 3 5 5 5 5 5 5 5 5 5 5 5 5 5 5 5 5 3 5 5 5 5 5 5 5 5 5 5 5 5 5 5 5 5 5 5 5 5 5 5 5 5 5 5 5 5 5 5 5 5 5 5 5 5 5 5 5 5 5 5 5 5 5 5 5 5 5 5 5 5 5 5 5 5 5 5 5 5 5 5 5 5 5 3 5 5 5 5 5 5 5 5 5 5 5 5 5 5 5 5 5 5 5 5 5 5 5 5 5 5 5 5 5 5 5 5 3 5 5 5 3 5 3 5 5 5 5 5 5 3 5 5 5 3 5 5 5 5 3 3 3 5 5 5 5 3 3 3 3 5 5 5 3 5 3 5 3 5 5 5 5 5 5 5 5 3 5 5 5 3 5 5 5 5 5 5 5 5 5 5 3 5 3 5 5 5 5 3 5 5 5 5 5 5 5 5 5 5 5 5 5 5 3 5 3 5 5 3 5 3 5 5 5 5 5 3 5 3 5 5 5 5 5 5 5 3 5 5 5 5 5 5 5 5 5 5 5 5 5 5 5 5 5 5 5 5 5 5 5 5 5 5 3 5 5 5 5 5 3 5 5 5 5 5 5 5 5 5 5 5 5 5 5 5 5 3 5 5 5 5 5 5 5 5 5 3 5 5 5 5 5 5 3 3 5 5 5 5 5 5 5 5 5 5 5 5 5 3 5 5 5 5 3 5 3 5 5 5 3 5 5 5 5 5 5 5 5 5 5 5 5 3 3 5 5 5 5 3 5 5 5 3 5 5 5 5 5 5 5 5 5 5 5 3 5 5 5 5 3 5 3 3 5 3 5 5 5 5 5 5 5 5 5 5 5 5 5 5 5 5 5 5 5 5 5 5 5 5 5 5 5 3 5 5 5 5 5 5 5 5 5 3 5 5 3 5 5 5 3 5 5 5 5 5 5 5 3 5 5 5 5 5 5 5 3 5 3 5 5 5 5 5 5 5 5 5 5 5 5 5 5 5 3 5 5 5 3 5 5 5 3 5 3 5 5 5 5 3 5 5 5 5 5 5 5 5 5 5 5 5 5 5 3 5 3 5 5 5 5 3 3 5 5 5 5 5 5 5 5 5 3 5 5 5 5 5 5 5 5 5 5 5 5 5 3 5 5 5 3 5 5 5 5 5 5 3 5 5 5 5 5 3 5 5 3 5 5 5 5 3 5 5 5 5 5 5 5 3 5 5 5 3 5 5 5 5 5 5 5 5 5 5 5 5 3 5 5 5 5 5 5 5 5 5 5 5 5 5 5 5 5 5 5 5 5 5 5 5 5 5 5 5 5 5 5 5 5 5 5 5 5 5 5 5 5 5 5 5 5 5 5 5 5 5 5 5 5 5 3 5 5 5 5 3 5 5 5 5 5 5 5 5 5 5 5 5 5 5 5 5 5 5 5 5 5 5 5 5 5 5 5 5 5 5 5 5 5 5 5 3 5 5 5 5 3 5 5 5 5 5 5 5 5 5 5 3 5 5 5 3 5 5 5 5 5 5 5 3 5 5 5 5 3 5 5 5 5 3 5 5 5 5 5 5 5 5 5 5 5 5 5 5 3 5 3 5 3 5 3 5 5 5 5 5 5 3 5 5 5 5 5 5 5 3 5 5 5 5 5 5 5 5 5 3 5 3 5 5 5 5 5 3 5 5 3 3 5 5 3 5 3 3 5 3 5 5 5 5 5 5 5 5 5 5 5 5 5 3 5 5 5 5 5 3 5 5 5 5 5 5 5 3 5 5 5 3 5 5 3 5 3 5 5 5 5 5 5 5 3 5 5 5 5 5 5 5 5 5 5 5 5 5 5 5 5 5 3 5 5 5 5 5 5 5 5 5 5 5 5 5 5 5 5 5 5 5 5 5 5 5 5 3 5 3 5 5 5 5 3 5 5 3 5 5 3 5 5 5 3 5 5 5 5 5 5 5 3 3 5 5 5 3 5 5 5 3 5 5 5 3 5 5 3 3 5 5 5 5 5 3 5 5 5 5 3 5 5 5 5 5 5 5 5 5 5 5 5 5 5 5 5 5 5 5 5 5 5 5 5 5 5 5 5 5 5 5 5 5 5 5 5 5 5 5 
</DataArray>
</Cells>
<PointData Scalars="" Vectors="displacement," Tensors="">
<DataArray type="Float64" Name="displacement" NumberOfComponents="3" format="ascii">
-2.1744435704230334e-07 -0.034997001793285465 0 5.3128627190961689e-07 -0.034999929659652124 0 7.5377403078266355e-05 -0.033499009372855125 0 5.3128627190961689e-07 -0.034999929659652124 0 7.5377403078266355e-05 -0.033499009372855125 0 -9.3861414801392847e-07 -0.03117362858399389 0 7.325837447161471e-05 -0.033383842585946975 0 -1.2449289405699464e-05 -0.033379873112770506 0 -0.0001203058257795428 -0.033235113049722577 0 0.0001027659268079382 -0.033320900253955871 0 -8.4539771186432975e-05 -0.032660626667743595 0 7.5377403078266355e-05 -0.033499009372855125 0 7.325837447161471e-05 -0.033383842585946975 0 -1.2449289405699464e-05 -0.033379873112770506 0 -2.1744435704230334e-07 -0.034997001793285465 0 7.5377403078266355e-05 -0.033499009372855125 0 7.325837447161471e-05 -0.033383842585946975 0 -3.2248986534374303e-07 -0.034999347619855646 0 3.9599565073905221e-05 -0.034417484529309296 0 1.5565911428050309e-09 -0.035000004460545318 0 -1.2000843806492212e-05 -0.034994726018457795 0 -4.9372849382079262e-09 -0.03500000336031163 0 -4.9372849382079262e-09 -0.03500000336031163 0 -7.6997225992788072e-10 -0.03499995172116277 0 -9.8487081232205405e-06 -0.034989806199176812 0 -1.2000843806492212e-05 -0.034994726018457795 0 -4.9372849382079262e-09 -0.03500000336031163 0 -9.8487081232205405e-06 -0.034989806199176812 0 -1.2000843806492212e-05 -0.034994726018457795 0 -1.9876461864416003e-05 -0.034980535199501984 0 -9.8487081232205405e-06 -0.034989806199176812 0 -1.2000843806492212e-05 -0.034994726018457795 0 -1.9876461864416003e-05 -0.034980535199501984 0 -2.8892374985175466e-05 -0.034971195815807196 0 -1.9876461864416003e-05 -0.034980535199501984 0 -9.8487081232205405e-06 -0.034989806199176812 0 -1.9089215208584053e-05 -0.034977514779687198 0 -0.00022272953992269806 -0.03484598341242718 0 -0.00023705548553904616 -0.034862092624067045 0 -0.00021768796841418466 -0.034865404128064666 0 -9.8487081232205405e-06 -0.034989806199176812 0 -1.9089215208584053e-05 -0.034977514779687198 0 -8.1786339201207676e-06 -0.034973934839516566 0 -0.00028779955601539159 -0.035114333624507596 0 -3.08520842351979e-05 -0.034947981967134251 0 3.3326578240301701e-08 -0.035000050409016471 0 -3.08520842351979e-05 -0.034947981967134251 0 -5.0203021552577921e-11 -0.034999999954445839 0 -2.2832224827703051e-10 -0.034999999307273266 0 -1.6863602729537634e-07 -0.03499979930067789 0 -7.6997225992788072e-10 -0.03499995172116277 0 -9.8487081232205405e-06 -0.034989806199176812 0 -8.1786339201207676e-06 -0.034973934839516566 0 -0.00016655177036719462 -0.030900451171726958 0 -0.00030425240709087487 -0.030792827304696537 0 -0.00013938567909528078 -0.031069890805823515 0 -0.0002086244936058408 -0.034857077151934833 0 -0.0002059866670959429 -0.034820401441613219 0 -0.00021012019502159886 -0.034865758742607035 0 -0.00014715440925938686 -0.032719560958547757 0 -0.00018798634738240879 -0.033232921893409373 0 -0.00022272953992269806 -0.03484598341242718 0 -0.0002086244936058408 -0.034857077151934833 0 -0.0002059866670959429 -0.034820401441613219 0 -0.00022272953992269806 -0.03484598341242718 0 -0.0002086244936058408 -0.034857077151934833 0 -0.00021768796841418466 -0.034865404128064666 0 3.9599565073905221e-05 -0.034417484529309296 0 -0.00014715440925938686 -0.032719560958547757 0 -0.00028779955601539159 -0.035114333624507596 0 -0.00014715440925938686 -0.032719560958547757 0 -1.9876461864416003e-05 -0.034980535199501984 0 -1.9089215208584053e-05 -0.034977514779687198 0 -2.8892374985175466e-05 -0.034971195815807196 0 -8.4539771186432975e-05 -0.032660626667743595 0 -0.00014715440925938686 -0.032719560958547757 0 -2.3212777930651677e-05 -0.032004051428451204 0 -4.0273399991289662e-05 -0.031381270314422283 0 -6.2530760371696948e-05 -0.031405364790929424 0 -0.00014715440925938686 -0.032719560958547757 0 7.0561120529863723e-05 -0.030706987142187628 0 -4.0273399991289662e-05 -0.031381270314422283 0 -0.00014314442323984866 -0.030926087846123707 0 -6.2530760371696948e-05 -0.031405364790929424 0 -0.00012993656481927247 -0.030861211431093237 0 -0.00014471482828347447 -0.030853415091577772 0 -0.00014314442323984866 -0.030926087846123707 0 -0.00016655177036719462 -0.030900451171726958 0 -0.00012993656481927247 -0.030861211431093237 0 -0.00014471482828347447 -0.030853415091577772 0 -0.00046955731238280339 -0.030654040569560278 0 -0.00014715440925938686 -0.032719560958547757 0 -0.00016655177036719462 -0.030900451171726958 0 -0.00014471482828347447 -0.030853415091577772 0 -8.820609990179566e-05 -0.030752574658713443 0 -0.00014471482828347447 -0.030853415091577772 0 -0.00014314442323984866 -0.030926087846123707 0 -8.820609990179566e-05 -0.030752574658713443 0 -0.00014314442323984866 -0.030926087846123707 0 -9.3861414801392847e-07 -0.03117362858399389 0 -0.00014211649616369581 -0.030415542551224504 0 -0.00014314442323984866 -0.030926087846123707 0 -6.2530760371696948e-05 -0.031405364790929424 0 -9.3861414801392847e-07 -0.03117362858399389 0 7.5377403078266355e-05 -0.033499009372855125 0 -2.3212777930651677e-05 -0.032004051428451204 0 -9.3861414801392847e-07 -0.03117362858399389 0 -2.3212777930651677e-05 -0.032004051428451204 0 -6.2530760371696948e-05 -0.031405364790929424 0 -9.3861414801392847e-07 -0.03117362858399389 0 -9.3861414801392847e-07 -0.03117362858399389 0 2.0937429953347383e-05 -0.029124846103603642 0 1.0808043865052004e-06 -0.026213663474561982 0 -9.3861414801392847e-07 -0.03117362858399389 0 2.0937429953347383e-05 -0.029124846103603642 0 -0.00014211649616369581 -0.030415542551224504 0 2.0937429953347383e-05 -0.029124846103603642 0 0.00020218455156764217 -0.030352809248724917 0 -0.00014211649616369581 -0.030415542551224504 0 2.0937429953347383e-05 -0.029124846103603642 0 0.00020218455156764217 -0.030352809248724917 0 0.00066498689531194102 -0.029854011500978883 0 -0.00014314442323984866 -0.030926087846123707 0 -0.00014211649616369581 -0.030415542551224504 0 -8.820609990179566e-05 -0.030752574658713443 0 0.00020218455156764217 -0.030352809248724917 0 -0.00014211649616369581 -0.030415542551224504 0 -8.820609990179566e-05 -0.030752574658713443 0 2.0937429953347383e-05 -0.029124846103603642 0 -9.0608349799655872e-05 -0.027178316636415407 0 1.0808043865052004e-06 -0.026213663474561982 0 0.00048439285564837382 -0.028591913375419446 0 0.00089704633166280646 -0.026339584260980226 0 -9.4035566509274851e-05 -0.028884887304420855 0 0.00048439285564837382 -0.028591913375419446 0 2.0937429953347383e-05 -0.029124846103603642 0 0.0010554597825058456 -0.02946866149655886 0 0.00066498689531194102 -0.029854011500978883 0 0.00020218455156764217 -0.030352809248724917 0 0.00071307713316323717 -0.03024584848211602 0 0.00066498689531194102 -0.029854011500978883 0 0.00071307713316323717 -0.03024584848211602 0 0.00066498689531194102 -0.029854011500978883 0 0.0011517865145206584 -0.029934109279484304 0 0.0010554597825058456 -0.02946866149655886 0 0.0011517865145206584 -0.029934109279484304 0 0.0017568211141231929 -0.029569882485757239 0 0.0010554597825058456 -0.02946866149655886 0 0.00066498689531194102 -0.029854011500978883 0 0.0011517865145206584 -0.029934109279484304 0 0.0011286775546700235 -0.030417705978877212 0 0.0014872330819140124 -0.030419520523430846 0 0.0014264549020997185 -0.030729107581838545 0 0.0011286775546700235 -0.030417705978877212 0 0.0014733035282907018 -0.030139615784532992 0 0.0014872330819140124 -0.030419520523430846 0 0.0011517865145206584 -0.029934109279484304 0 0.0011286775546700235 -0.030417705978877212 0 0.0014733035282907018 -0.030139615784532992 0 0.00071307713316323717 -0.03024584848211602 0 0.0011517865145206584 -0.029934109279484304 0 0.0011286775546700235 -0.030417705978877212 0 0.0011286775546700235 -0.030417705978877212 0 0.00075416908154439868 -0.030633352387496857 0 0.00098929494200192649 -0.030763159890416007 0 0.00020218455156764217 -0.030352809248724917 0 0.00071307713316323717 -0.03024584848211602 0 0.00044625471184665068 -0.030603766614244479 0 0.00071307713316323717 -0.03024584848211602 0 0.0011286775546700235 -0.030417705978877212 0 0.00075416908154439868 -0.030633352387496857 0 0.00071307713316323717 -0.03024584848211602 0 0.00075416908154439868 -0.030633352387496857 0 0.00044625471184665068 -0.030603766614244479 0 0.00075416908154439868 -0.030633352387496857 0 0.00044625471184665068 -0.030603766614244479 0 0.00054384129593583734 -0.030799937410745225 0 0.00044625471184665068 -0.030603766614244479 0 0.00054384129593583734 -0.030799937410745225 0 0.0003107458937300989 -0.030861873438748025 0 0.00054384129593583734 -0.030799937410745225 0 0.00050677192034560804 -0.031001224324469508 0 0.00071532204456306668 -0.030903284546081013 0 0.00054384129593583734 -0.030799937410745225 0 0.00050677192034560804 -0.031001224324469508 0 0.0003107458937300989 -0.030861873438748025 0 0.00071532204456306668 -0.030903284546081013 0 0.00088579566818716444 -0.031001872611453332 0 0.0007328055486480724 -0.031059961035128848 0 0.00050677192034560804 -0.031001224324469508 0 0.00071532204456306668 -0.030903284546081013 0 0.0007328055486480724 -0.031059961035128848 0 0.00075416908154439868 -0.030633352387496857 0 0.00054384129593583734 -0.030799937410745225 0 0.00071532204456306668 -0.030903284546081013 0 0.00075416908154439868 -0.030633352387496857 0 0.00071532204456306668 -0.030903284546081013 0 0.00098929494200192649 -0.030763159890416007 0 0.0011678871289122989 -0.026796586232003695 0 0.000925555912086651 -0.023466293904052572 0 -0.00067266560149402063 -0.017060794457914485 0 -0.00015914066068480303 -0.017309000147156594 0 0.00029198727218983069 -0.016430082932802324 0 0.00098929494200192649 -0.030763159890416007 0 0.00092980821182000388 -0.031023171893786929 0 0.0014264549020997185 -0.030729107581838545 0 0.0006564878357086997 -0.031112385863503633 0 0.0011678871289122989 -0.026796586232003695 0 0.00071532204456306668 -0.030903284546081013 0 0.00098929494200192649 -0.030763159890416007 0 0.00088579566818716444 -0.031001872611453332 0 0.0011286775546700235 -0.030417705978877212 0 0.00098929494200192649 -0.030763159890416007 0 0.0014264549020997185 -0.030729107581838545 0 -8.820609990179566e-05 -0.030752574658713443 0 0.00016386840151530921 -0.030703276004385341 0 2.9192590895360871e-05 -0.030915777213412206 0 0.00020218455156764217 -0.030352809248724917 0 -8.820609990179566e-05 -0.030752574658713443 0 0.00016386840151530921 -0.030703276004385341 0 0.00020218455156764217 -0.030352809248724917 0 0.00044625471184665068 -0.030603766614244479 0 0.00016386840151530921 -0.030703276004385341 0 0.00044625471184665068 -0.030603766614244479 0 0.00016386840151530921 -0.030703276004385341 0 0.0003107458937300989 -0.030861873438748025 0 0.00016386840151530921 -0.030703276004385341 0 0.0003107458937300989 -0.030861873438748025 0 2.9192590895360871e-05 -0.030915777213412206 0 0.00050677192034560804 -0.031001224324469508 0 0.0003107458937300989 -0.030861873438748025 0 0.00026248802679367731 -0.031065582191221311 0 0.0003107458937300989 -0.030861873438748025 0 2.9192590895360871e-05 -0.030915777213412206 0 0.00026248802679367731 -0.031065582191221311 0 2.9192590895360871e-05 -0.030915777213412206 0 8.0621948858785691e-05 -0.031136821482015312 0 0.00026248802679367731 -0.031065582191221311 0 -0.00016655177036719462 -0.030900451171726958 0 -8.820609990179566e-05 -0.030752574658713443 0 2.9192590895360871e-05 -0.030915777213412206 0 -0.00016655177036719462 -0.030900451171726958 0 2.9192590895360871e-05 -0.030915777213412206 0 -0.00013938567909528078 -0.031069890805823515 0 2.9192590895360871e-05 -0.030915777213412206 0 8.0621948858785691e-05 -0.031136821482015312 0 -0.00013938567909528078 -0.031069890805823515 0 8.0621948858785691e-05 -0.031136821482015312 0 0.00014783113725446887 -0.031495833229950913 0 -0.00013938567909528078 -0.031069890805823515 0 -0.00027831897203864662 -0.034851211704353811 0 -0.00021012019502159886 -0.034865758742607035 0 -0.00022532557696280261 -0.034865487693241555 0 0.00024912052786629741 -0.031746245278536186 0 -0.00018798634738240879 -0.033232921893409373 0 8.0621948858785691e-05 -0.031136821482015312 0 0.00026248802679367731 -0.031065582191221311 0 0.00028047218591674395 -0.031256287104358633 0 8.0621948858785691e-05 -0.031136821482015312 0 0.00028047218591674395 -0.031256287104358633 0 0.00014783113725446887 -0.031495833229950913 0 0.00050677192034560804 -0.031001224324469508 0 0.00026248802679367731 -0.031065582191221311 0 0.00048514507413547589 -0.031185246097537651 0 0.00026248802679367731 -0.031065582191221311 0 0.00028047218591674395 -0.031256287104358633 0 0.00048514507413547589 -0.031185246097537651 0 0.00028047218591674395 -0.031256287104358633 0 0.00048514507413547589 -0.031185246097537651 0 0.00044386473659077273 -0.031401911643876915 0 0.00024912052786629741 -0.031746245278536186 0 0.00025645034475043282 -0.029645213057737752 0 0.00028047218591674395 -0.031256287104358633 0 0.00014783113725446887 -0.031495833229950913 0 0.00044386473659077273 -0.031401911643876915 0 -0.00089570316383939851 -0.028524685610492546 0 -0.00055586966050925207 -0.028950351107753788 0 0.00029419271806537407 -0.028046515087634685 0 -0.00031078628933460566 -0.034829499122173715 0 -0.00027536000494551019 -0.034850997657230452 0 -0.00028399913668279475 -0.034829764831939884 0 -0.00028324411279699732 -0.034851756279144948 0 -0.00031078628933460566 -0.034829499122173715 0 -0.00027536000494551019 -0.034850997657230452 0 0.00024912052786629741 -0.031746245278536186 0 0.00013007320453520228 -0.031864605600888975 0 0.00024912052786629741 -0.031746245278536186 0 0.00026860488919721172 -0.030154313067333949 0 -0.00027536000494551019 -0.034850997657230452 0 -0.00026641288500164239 -0.034845709890565332 0 -0.00024848706009536481 -0.034856258329800292 0 -0.00027536000494551019 -0.034850997657230452 0 -0.00026641288500164239 -0.034845709890565332 0 -0.00028399913668279475 -0.034829764831939884 0 -0.00027831897203864662 -0.034851211704353811 0 -0.00027536000494551019 -0.034850997657230452 0 -0.00022532557696280261 -0.034865487693241555 0 -0.00027536000494551019 -0.034850997657230452 0 -0.00024848706009536481 -0.034856258329800292 0 -0.00022532557696280261 -0.034865487693241555 0 -0.00024848706009536481 -0.034856258329800292 0 -0.00022532557696280261 -0.034865487693241555 0 -0.00023284032144393405 -0.03486273392959293 0 -0.00026641288500164239 -0.034845709890565332 0 -0.00024816851223347937 -0.034852581495314831 0 -0.00024848706009536481 -0.034856258329800292 0 -0.00024816851223347937 -0.034852581495314831 0 -0.00024848706009536481 -0.034856258329800292 0 -0.00023284032144393405 -0.03486273392959293 0 0.00084307731477880992 -0.019629221729567489 0 0.00072462671223302486 -0.020930322599475228 0 0.0017652881617286399 -0.019280164619844026 0 0.00068560999430530942 -0.020456368834063467 0 0.0014207450793683048 -0.01733316844800387 0 0.00068560999430530942 -0.020456368834063467 0 0.0014763294713594998 -0.017068394687173964 0 0.00017318424190999266 -0.019105207962061346 0 0.0017594267321541705 -0.018507468636879607 0 0.0020898752687220292 -0.017978659740781312 0 -0.00015914066068480303 -0.017309000147156594 0 -0.00041384431056338156 -0.017893594293568283 0 0.00041809744027418016 -0.01728832106731196 0 0.0011678871289122989 -0.026796586232003695 0 -0.00011496114499575783 -0.024374104112159501 0 -0.00067266560149402063 -0.017060794457914485 0 -0.00015914066068480303 -0.017309000147156594 0 -0.00041384431056338156 -0.017893594293568283 0 -0.00067266560149402063 -0.017060794457914485 0 -0.00041384431056338156 -0.017893594293568283 0 -0.00089540331557151653 -0.018097310327692889 0 0.00068560999430530942 -0.020456368834063467 0 0.00021968651398400585 -0.023771987102781188 0 0.0012684291289379718 -0.021940050224506621 0 -0.00065224247487066518 -0.022652322122354403 0 -0.00074439077288356525 -0.023109910918890815 0 0.00068560999430530942 -0.020456368834063467 0 -0.00011496114499575783 -0.024374104112159501 0 0.00076376336092513926 -0.031280394201943604 0 0.0007328055486480724 -0.031059961035128848 0 0.00048514507413547589 -0.031185246097537651 0 -0.00011496114499575783 -0.024374104112159501 0 0.00021968651398400585 -0.023771987102781188 0 0.0008413792929040354 -0.030980783229625858 0 0.00076376336092513926 -0.031280394201943604 0 0.0007328055486480724 -0.031059961035128848 0 0.0011678871289122989 -0.026796586232003695 0 5.4663712774565446e-05 -0.028731488820358746 0 0.00050677192034560804 -0.031001224324469508 0 0.0007328055486480724 -0.031059961035128848 0 0.00048514507413547589 -0.031185246097537651 0 0.00076376336092513926 -0.031280394201943604 0 0.00048514507413547589 -0.031185246097537651 0 0.00044386473659077273 -0.031401911643876915 0 -0.00055586966050925207 -0.028950351107753788 0 0.00029419271806537407 -0.028046515087634685 0 0.0014565547942859151 -0.027705460263173481 0 0.00026860488919721172 -0.030154313067333949 0 0.00021968651398400585 -0.023771987102781188 0 7.4545098232966356e-05 -0.026111949966401916 0 0.00062126322244785944 -0.026102854048741721 0 0.00069706359107817343 -0.025709711245573065 0 -0.00011496114499575783 -0.024374104112159501 0 0.00025645034475043282 -0.029645213057737752 0 -4.5704207932462171e-05 -0.02128441187593309 0 0.00020900061285736158 -0.020005817475073628 0 0.00072462671223302486 -0.020930322599475228 0 0.0002467850045435473 -0.023834851968855236 0 0.00021968651398400585 -0.023771987102781188 0 0.0014833685158198858 -0.027564227103962391 0 0.00029419271806537407 -0.028046515087634685 0 0.0014565547942859151 -0.027705460263173481 0 -3.8339184012017253e-05 -0.015859156199840723 0 0.0005069104100650588 -0.015401735526222931 0 0.00045904266356273628 -0.015731579341748902 0 0.00043340081169585107 -0.017904666685256788 0 0.0014207450793683048 -0.01733316844800387 0 0.00084307731477880992 -0.019629221729567489 0 0.00020900061285736158 -0.020005817475073628 0 0.00072462671223302486 -0.020930322599475228 0 -3.8339184012017253e-05 -0.015859156199840723 0 6.3727444363118657e-05 -0.016047840838634187 0 0.00045904266356273628 -0.015731579341748902 0 -3.8339184012017253e-05 -0.015859156199840723 0 6.3727444363118657e-05 -0.016047840838634187 0 -8.2964666876735529e-05 -0.016060380648125712 0 -3.8339184012017253e-05 -0.015859156199840723 0 -8.2964666876735529e-05 -0.016060380648125712 0 -0.00016896680444972289 -0.01610475111792211 0 6.3727444363118657e-05 -0.016047840838634187 0 -8.2964666876735529e-05 -0.016060380648125712 0 -0.0001905975643481667 -0.016034942348868653 0 0.00043340081169585107 -0.017904666685256788 0 0.00026504023708889157 -0.022576702445308985 0 -4.5704207932462171e-05 -0.02128441187593309 0 0.00072462671223302486 -0.020930322599475228 0 -0.00030477638077970913 -0.022555625308079506 0 7.4545098232966356e-05 -0.026111949966401916 0 0.00062126322244785944 -0.026102854048741721 0 0.00054223852840454159 -0.026481518516319986 0 7.4545098232966356e-05 -0.026111949966401916 0 0.00054223852840454159 -0.026481518516319986 0 0.00047484125748052604 -0.026590468965482377 0 -8.2964666876735529e-05 -0.016060380648125712 0 -0.00016896680444972289 -0.01610475111792211 0 -0.00015715879181020198 -0.016073518670218143 0 0.0002467850045435473 -0.023834851968855236 0 0.00026504023708889157 -0.022576702445308985 0 -0.0015347206550635447 -0.02298969695151042 0 -0.0019697640734639811 -0.014475533699209477 0 -0.00011914924986386059 -0.016088515311800524 0 -0.00021663653679485933 -0.016005587713204508 0 -0.00027373387705487471 -0.015882886066320327 0 0.00026504023708889157 -0.022576702445308985 0 -0.0015347206550635447 -0.02298969695151042 0 0.00024311856568712714 -0.023324672364399283 0 -0.0014762159080128352 -0.026023942683551838 0 -0.00055308202682422534 -0.02718850948419909 0 0.00026504023708889157 -0.022576702445308985 0 -2.9113032945263997e-05 -0.028283277748401742 0 -2.9113032945263997e-05 -0.028283277748401742 0 -0.0015347206550635447 -0.02298969695151042 0 -2.9113032945263997e-05 -0.028283277748401742 0 -0.00069262234786592232 -0.034888243079077563 0 0.00037936380850217506 -0.03279159711069863 0 0.00047424927483884156 -0.032914886231618881 0 -0.0001821770982464953 -0.033735940819902284 0 -0.00011914924986386059 -0.016088515311800524 0 -0.00015715879181020198 -0.016073518670218143 0 -0.00021663653679485933 -0.016005587713204508 0 -0.00016896680444972289 -0.01610475111792211 0 -0.00011914924986386059 -0.016088515311800524 0 -0.00015715879181020198 -0.016073518670218143 0 -8.2964666876735529e-05 -0.016060380648125712 0 -0.00015715879181020198 -0.016073518670218143 0 -0.0001905975643481667 -0.016034942348868653 0 -0.00015715879181020198 -0.016073518670218143 0 -0.00021663653679485933 -0.016005587713204508 0 -0.0001905975643481667 -0.016034942348868653 0 -0.00021663653679485933 -0.016005587713204508 0 -0.0001905975643481667 -0.016034942348868653 0 -0.00046466742898458146 -0.015911273084552112 0 -0.00027880291865883637 -0.03481899775432136 0 -0.00030917276538027226 -0.034797281729014862 0 -0.000282867041344003 -0.034800985513022548 0 -0.00027880291865883637 -0.03481899775432136 0 -0.00028399913668279475 -0.034829764831939884 0 -0.00030917276538027226 -0.034797281729014862 0 -0.00027880291865883637 -0.03481899775432136 0 -0.00025589018371087723 -0.034832038446800551 0 -0.00026395800005396091 -0.034838645415901107 0 -0.00027880291865883637 -0.03481899775432136 0 -0.00025589018371087723 -0.034832038446800551 0 -0.000282867041344003 -0.034800985513022548 0 -0.00025589018371087723 -0.034832038446800551 0 -0.00024444923078641151 -0.034850284386435636 0 -0.00026395800005396091 -0.034838645415901107 0 -0.00024816851223347937 -0.034852581495314831 0 -0.00024444923078641151 -0.034850284386435636 0 -0.00026395800005396091 -0.034838645415901107 0 -0.00024816851223347937 -0.034852581495314831 0 -0.00024444923078641151 -0.034850284386435636 0 -0.00023284032144393405 -0.03486273392959293 0 -0.00026641288500164239 -0.034845709890565332 0 -0.00024816851223347937 -0.034852581495314831 0 -0.00026395800005396091 -0.034838645415901107 0 -0.00027880291865883637 -0.03481899775432136 0 -0.00026395800005396091 -0.034838645415901107 0 -0.00028399913668279475 -0.034829764831939884 0 -0.00026641288500164239 -0.034845709890565332 0 -0.00026395800005396091 -0.034838645415901107 0 -0.00028399913668279475 -0.034829764831939884 0 -0.00031078628933460566 -0.034829499122173715 0 -0.00028399913668279475 -0.034829764831939884 0 -0.00030917276538027226 -0.034797281729014862 0 0.00026860488919721172 -0.030154313067333949 0 -2.9113032945263997e-05 -0.028283277748401742 0 -0.00031078628933460566 -0.034829499122173715 0 -0.00038228509467522399 -0.034742892046593331 0 -0.00034460569621735926 -0.034766334086174203 0 -0.00031078628933460566 -0.034829499122173715 0 -0.00030917276538027226 -0.034797281729014862 0 -0.00034460569621735926 -0.034766334086174203 0 -0.00030917276538027226 -0.034797281729014862 0 -0.00034460569621735926 -0.034766334086174203 0 -0.00031857789938038018 -0.034765401601171121 0 -0.00038228509467522399 -0.034742892046593331 0 -0.00034460569621735926 -0.034766334086174203 0 -0.00037250571188643958 -0.03472898021898925 0 -0.00034460569621735926 -0.034766334086174203 0 -0.00031857789938038018 -0.034765401601171121 0 -0.00037250571188643958 -0.03472898021898925 0 -0.00031857789938038018 -0.034765401601171121 0 -0.000282867041344003 -0.034800985513022548 0 -0.00028355938995218666 -0.034769464445866663 0 -0.00030917276538027226 -0.034797281729014862 0 -0.00031857789938038018 -0.034765401601171121 0 -0.000282867041344003 -0.034800985513022548 0 -0.00025589018371087723 -0.034832038446800551 0 -0.000282867041344003 -0.034800985513022548 0 -0.00025652735439647375 -0.034814827846970417 0 -0.00025652735439647375 -0.034814827846970417 0 -0.00026012620428328279 -0.034803567979987779 0 -0.00028355938995218666 -0.034769464445866663 0 -0.000282867041344003 -0.034800985513022548 0 -0.00025652735439647375 -0.034814827846970417 0 -0.00028355938995218666 -0.034769464445866663 0 -0.00025652735439647375 -0.034814827846970417 0 -0.00023161101743257253 -0.034845249378251598 0 -0.00026012620428328279 -0.034803567979987779 0 -0.00023161101743257253 -0.034845249378251598 0 -0.00020969800202927825 -0.034878317120747925 0 -0.00025107468111366119 -0.034833826498988474 0 -0.00023161101743257253 -0.034845249378251598 0 -0.00023844201766432072 -0.03484148193205279 0 -0.00022116085536106185 -0.034860673283256351 0 -0.00023161101743257253 -0.034845249378251598 0 -0.00022116085536106185 -0.034860673283256351 0 -0.00020904653420748061 -0.034872924691669929 0 -0.00025589018371087723 -0.034832038446800551 0 -0.00025652735439647375 -0.034814827846970417 0 -0.00023844201766432072 -0.03484148193205279 0 -0.00025652735439647375 -0.034814827846970417 0 -0.00023161101743257253 -0.034845249378251598 0 -0.00023844201766432072 -0.03484148193205279 0 -0.00025589018371087723 -0.034832038446800551 0 -0.00023844201766432072 -0.03484148193205279 0 -0.00022838090246584913 -0.034860579813509103 0 -0.00025589018371087723 -0.034832038446800551 0 -0.00024444923078641151 -0.034850284386435636 0 -0.00022838090246584913 -0.034860579813509103 0 -0.00023844201766432072 -0.03484148193205279 0 -0.00022116085536106185 -0.034860673283256351 0 -0.00022838090246584913 -0.034860579813509103 0 -0.00022116085536106185 -0.034860673283256351 0 -0.00022838090246584913 -0.034860579813509103 0 -0.00019923478720257072 -0.034886752541302787 0 -0.00022838090246584913 -0.034860579813509103 0 -0.00019923478720257072 -0.034886752541302787 0 -0.00020886130964742816 -0.034880105815121125 0 -0.00024444923078641151 -0.034850284386435636 0 -0.00022838090246584913 -0.034860579813509103 0 -0.00023284032144393405 -0.03486273392959293 0 -0.00014732554692397141 -0.034929357094635412 0 -0.00019923478720257072 -0.034886752541302787 0 -0.00018406840639338106 -0.034897822703934385 0 -0.00022116085536106185 -0.034860673283256351 0 -0.00019923478720257072 -0.034886752541302787 0 -0.00020904653420748061 -0.034872924691669929 0 -0.00019923478720257072 -0.034886752541302787 0 -0.00020904653420748061 -0.034872924691669929 0 -0.00019810214408168459 -0.034894126415015034 0 -0.00019347090383802409 -0.034899946055375698 0 -0.00015061065772086171 -0.034918555263939388 0 -0.00014732554692397141 -0.034929357094635412 0 -0.00019923478720257072 -0.034886752541302787 0 -0.00010086290424220998 -0.034932584788875357 0 -0.00020904653420748061 -0.034872924691669929 0 -0.00020969800202927825 -0.034878317120747925 0 -0.00019810214408168459 -0.034894126415015034 0 -0.00020969800202927825 -0.034878317120747925 0 -0.00019810214408168459 -0.034894126415015034 0 -0.00020244283450656601 -0.034904307695873917 0 -0.00023161101743257253 -0.034845249378251598 0 -0.00020904653420748061 -0.034872924691669929 0 -0.00020969800202927825 -0.034878317120747925 0 -0.00019810214408168459 -0.034894126415015034 0 -0.00014697063155560578 -0.034962062685519726 0 -0.00020244283450656601 -0.034904307695873917 0 -4.5726162991171628e-05 -0.034963251222346767 0 -0.00010086290424220998 -0.034932584788875357 0 -2.638670543331553e-05 -0.034972575397455935 0 -0.00015061065772086171 -0.034918555263939388 0 -8.2312964303237813e-05 -0.034963137730401876 0 -4.5726162991171628e-05 -0.034963251222346767 0 -0.00010086290424220998 -0.034932584788875357 0 -4.2658401745783048e-05 -0.034970076108023475 0 -4.5726162991171628e-05 -0.034963251222346767 0 -3.3951277629628829e-08 -0.03499994227474694 0 -4.2658401745783048e-05 -0.034970076108023475 0 -4.5726162991171628e-05 -0.034963251222346767 0 -3.3951277629628829e-08 -0.03499994227474694 0 -2.638670543331553e-05 -0.034972575397455935 0 -3.3951277629628829e-08 -0.03499994227474694 0 -1.532017484842048e-08 -0.034999959986325761 0 -4.2658401745783048e-05 -0.034970076108023475 0 -0.00014732554692397141 -0.034929357094635412 0 -4.2658401745783048e-05 -0.034970076108023475 0 -6.012480389043999e-05 -0.035014705881345046 0 -0.00014732554692397141 -0.034929357094635412 0 -0.00010086290424220998 -0.034932584788875357 0 -4.2658401745783048e-05 -0.034970076108023475 0 -4.2658401745783048e-05 -0.034970076108023475 0 -6.012480389043999e-05 -0.035014705881345046 0 -1.9179820888649879e-05 -0.035003739960855859 0 -0.00014675365009392244 -0.034931309688036753 0 -0.00015006844905126164 -0.034938335581792226 0 -1.532017484842048e-08 -0.034999959986325761 0 -1.9179820888649879e-05 -0.035003739960855859 0 -2.366016890974302e-08 -0.035000090652154293 0 -1.532017484842048e-08 -0.034999959986325761 0 -4.2658401745783048e-05 -0.034970076108023475 0 -1.9179820888649879e-05 -0.035003739960855859 0 -6.012480389043999e-05 -0.035014705881345046 0 -1.9179820888649879e-05 -0.035003739960855859 0 -2.4099478759713491e-05 -0.035029588258451018 0 -1.9179820888649879e-05 -0.035003739960855859 0 -2.366016890974302e-08 -0.035000090652154293 0 -2.4099478759713491e-05 -0.035029588258451018 0 -2.4195584736661474e-08 -0.035000011173877334 0 -3.08520842351979e-05 -0.034947981967134251 0 -0.00021838556327200063 -0.034884713776222445 0 -0.00023705548553904616 -0.034862092624067045 0 -0.00021768796841418466 -0.034865404128064666 0 -0.00015006844905126164 -0.034938335581792226 0 -3.08520842351979e-05 -0.034947981967134251 0 -0.0002086244936058408 -0.034857077151934833 0 -0.00021768796841418466 -0.034865404128064666 0 -0.00020065840320864086 -0.034876113048510828 0 -0.00021838556327200063 -0.034884713776222445 0 -0.00021768796841418466 -0.034865404128064666 0 -0.00020065840320864086 -0.034876113048510828 0 -0.0002086244936058408 -0.034857077151934833 0 -0.00020065840320864086 -0.034876113048510828 0 -0.00021012019502159886 -0.034865758742607035 0 -0.00020065840320864086 -0.034876113048510828 0 -0.00021012019502159886 -0.034865758742607035 0 -0.00022532557696280261 -0.034865487693241555 0 -0.00020065840320864086 -0.034876113048510828 0 -0.00022532557696280261 -0.034865487693241555 0 -0.00020886130964742816 -0.034880105815121125 0 -0.00022532557696280261 -0.034865487693241555 0 -0.00023284032144393405 -0.03486273392959293 0 -0.00020886130964742816 -0.034880105815121125 0 -0.00022838090246584913 -0.034860579813509103 0 -0.00023284032144393405 -0.03486273392959293 0 -0.00020886130964742816 -0.034880105815121125 0 -0.00014732554692397141 -0.034929357094635412 0 -0.00021838556327200063 -0.034884713776222445 0 -0.00018406840639338106 -0.034897822703934385 0 -0.00019923478720257072 -0.034886752541302787 0 -0.00020886130964742816 -0.034880105815121125 0 -0.00018406840639338106 -0.034897822703934385 0 -0.00021838556327200063 -0.034884713776222445 0 -0.00020065840320864086 -0.034876113048510828 0 -0.00018406840639338106 -0.034897822703934385 0 -0.00020065840320864086 -0.034876113048510828 0 -0.00020886130964742816 -0.034880105815121125 0 -0.00018406840639338106 -0.034897822703934385 0 0.00033747513815221526 -0.01568686210646323 0 0.00057877238015563459 -0.014608934832153711 0 0.00034130877561458831 -0.0146166622913092 0 0.00033747513815221526 -0.01568686210646323 0 0.00089522520072416638 -0.015297008448346883 0 0.00057877238015563459 -0.014608934832153711 0 0.00033747513815221526 -0.01568686210646323 0 7.0318465117200085e-05 -0.015404707865931464 0 0.00034130877561458831 -0.0146166622913092 0 0.00033747513815221526 -0.01568686210646323 0 3.999088822282497e-05 -0.016757799560227101 0 7.0318465117200085e-05 -0.015404707865931464 0 3.999088822282497e-05 -0.016757799560227101 0 -9.3696290999586628e-07 -0.018616142203993043 0 5.7427229751107067e-08 -0.016799889688546198 0 3.999088822282497e-05 -0.016757799560227101 0 -9.3696290999586628e-07 -0.018616142203993043 0 0.00026935473544905292 -0.017208312987349171 0 -9.3696290999586628e-07 -0.018616142203993043 0 0.00026935473544905292 -0.017208312987349171 0 3.5980220345743542e-06 -0.020425483263498488 0 0.00033747513815221526 -0.01568686210646323 0 3.999088822282497e-05 -0.016757799560227101 0 0.00026935473544905292 -0.017208312987349171 0 0.00026935473544905292 -0.017208312987349171 0 0.00089011591539679116 -0.017758919633133127 0 0.0012025595221691477 -0.016425086483790596 0 0.00026935473544905292 -0.017208312987349171 0 0.00089011591539679116 -0.017758919633133127 0 3.5980220345743542e-06 -0.020425483263498488 0 0.00089011591539679116 -0.017758919633133127 0 3.5980220345743542e-06 -0.020425483263498488 0 0.0018825152066826694 -0.018000275883945854 0 6.6465757395481673e-07 -0.020432649587351189 0 8.1094222993639728e-05 -0.022330939227548714 0 -1.9582975337843733e-07 -0.022151150837167639 0 -8.0337073570621017e-08 -0.020431482853984297 0 0.00077400236654189567 -0.020223039366458345 0 0.00089011591539679116 -0.017758919633133127 0 0.0018825152066826694 -0.018000275883945854 0 0.0016633266821590345 -0.017016472474966633 0 0.00089011591539679116 -0.017758919633133127 0 0.0016633266821590345 -0.017016472474966633 0 0.0012025595221691477 -0.016425086483790596 0 0.0016633266821590345 -0.017016472474966633 0 0.0012025595221691477 -0.016425086483790596 0 0.0017131310087379749 -0.016396416347864658 0 0.0012025595221691477 -0.016425086483790596 0 0.0015152508071138247 -0.015427795912953927 0 0.0017131310087379749 -0.016396416347864658 0 0.00033747513815221526 -0.01568686210646323 0 0.00026935473544905292 -0.017208312987349171 0 0.0012025595221691477 -0.016425086483790596 0 0.00033747513815221526 -0.01568686210646323 0 0.0012025595221691477 -0.016425086483790596 0 0.00089522520072416638 -0.015297008448346883 0 0.0012025595221691477 -0.016425086483790596 0 0.00089522520072416638 -0.015297008448346883 0 0.0015152508071138247 -0.015427795912953927 0 0.00087543379520842537 -0.015847736583566804 0 0.0013061015685449002 -0.015837717941976727 0 0.0017131310087379749 -0.016396416347864658 0 0.0013061015685449002 -0.015837717941976727 0 0.00152461559384659 -0.016085669506030725 0 0.0017131310087379749 -0.016396416347864658 0 0.0013061015685449002 -0.015837717941976727 0 0.0013709011905730991 -0.015863585520381116 0 0.00152461559384659 -0.016085669506030725 0 0.00152461559384659 -0.016085669506030725 0 0.001666590640960059 -0.016186314325301113 0 0.0014414788523105417 -0.01614737938384379 0 0.0013709011905730991 -0.015863585520381116 0 0.00152461559384659 -0.016085669506030725 0 0.0014414788523105417 -0.01614737938384379 0 0.00152461559384659 -0.016085669506030725 0 0.001666590640960059 -0.016186314325301113 0 0.0017131310087379749 -0.016396416347864658 0 0.001666590640960059 -0.016186314325301113 0 0.0017131310087379749 -0.016396416347864658 0 0.001905026448944667 -0.016807207998683391 0 0.001666590640960059 -0.016186314325301113 0 0.001905026448944667 -0.016807207998683391 0 0.0018285046805472532 -0.016362901167762022 0 0.00063879560865091401 -0.016891489774516467 0 0.0010405327346265649 -0.019731035946274449 0 0.001193614624586689 -0.015631851053353959 0 0.0016592031866309218 -0.016311496345540369 0 0.00077400236654189567 -0.020223039366458345 0 0.00086849791185444501 -0.019994371923322551 0 0.0016633266821590345 -0.017016472474966633 0 0.0017131310087379749 -0.016396416347864658 0 0.001905026448944667 -0.016807207998683391 0 0.0018825152066826694 -0.018000275883945854 0 0.0016633266821590345 -0.017016472474966633 0 0.001905026448944667 -0.016807207998683391 0 -1.9582975337843733e-07 -0.022151150837167639 0 -9.7128817769318769e-05 -0.022923271291937185 0 -6.5767966794093249e-07 -0.02387121153098953 0 8.1094222993639728e-05 -0.022330939227548714 0 -0.00011329600975102736 -0.023162726862175322 0 -9.7128817769318769e-05 -0.022923271291937185 0 8.1094222993639728e-05 -0.022330939227548714 0 -1.9582975337843733e-07 -0.022151150837167639 0 -9.7128817769318769e-05 -0.022923271291937185 0 -9.7128817769318769e-05 -0.022923271291937185 0 -6.5767966794093249e-07 -0.02387121153098953 0 -5.6722480811705537e-05 -0.023253429256425491 0 0.00086849791185444501 -0.019994371923322551 0 0.0010405327346265649 -0.019731035946274449 0 -0.00011329600975102736 -0.023162726862175322 0 -5.6722480811705537e-05 -0.023253429256425491 0 0.00017287308694213555 -0.022917947792262063 0 -0.00011329600975102736 -0.023162726862175322 0 -9.7128817769318769e-05 -0.022923271291937185 0 -5.6722480811705537e-05 -0.023253429256425491 0 0.0019313689635250895 -0.024964955135248771 0 -0.0001101640800392081 -0.022559230076711113 0 0.0012718651810630698 -0.021689142233283592 0 -5.6722480811705537e-05 -0.023253429256425491 0 0.00055577742135865264 -0.023374353929204523 0 0.00017287308694213555 -0.022917947792262063 0 0.00089704633166280646 -0.026339584260980226 0 0.0010405327346265649 -0.019731035946274449 0 -0.00043229689555003087 -0.022696095597633508 0 0.00089704633166280646 -0.026339584260980226 0 -6.5767966794093249e-07 -0.02387121153098953 0 -5.6722480811705537e-05 -0.023253429256425491 0 7.7840024300371963e-05 -0.024595168431791457 0 -6.5767966794093249e-07 -0.02387121153098953 0 1.1141039554961804e-06 -0.025587946539083452 0 7.7840024300371963e-05 -0.024595168431791457 0 -9.0608349799655872e-05 -0.027178316636415407 0 1.0808043865052004e-06 -0.026213663474561982 0 0.00046287357508269938 -0.026743860952288794 0 -4.2389120181747722e-08 -0.026207790556638796 0 5.0843517090085723e-08 -0.025593390694407279 0 8.9121472812799745e-06 -0.025423616321532075 0 -3.4246165819958028e-07 -0.026210024981101646 0 0.00089704633166280646 -0.026339584260980226 0 3.7216567820279345e-08 -0.025589420135235835 0 0.00089704633166280646 -0.026339584260980226 0 0.0011517865145206584 -0.029934109279484304 0 0.0017568211141231929 -0.029569882485757239 0 0.0014733035282907018 -0.030139615784532992 0 0.0017568211141231929 -0.029569882485757239 0 0.0014733035282907018 -0.030139615784532992 0 0.0019151928943009228 -0.030389752855530971 0 0.00089704633166280646 -0.026339584260980226 0 0.0012141835625920491 -0.022849998221316826 0 0.0012141835625920491 -0.022849998221316826 0 0.000925555912086651 -0.023466293904052572 0 0.0014872330819140124 -0.030419520523430846 0 0.0019151928943009228 -0.030389752855530971 0 0.0014264549020997185 -0.030729107581838545 0 0.0014733035282907018 -0.030139615784532992 0 0.0014872330819140124 -0.030419520523430846 0 0.0019151928943009228 -0.030389752855530971 0 0.0010405327346265649 -0.019731035946274449 0 0.0012141835625920491 -0.022849998221316826 0 0.0014759028466240819 -0.015918181633124757 0 0.0013878053456678515 -0.016115827229749795 0 0.0011360467518801306 -0.016065776983664921 0 0.001666590640960059 -0.016186314325301113 0 0.0014759028466240819 -0.015918181633124757 0 0.0013878053456678515 -0.016115827229749795 0 0.001666590640960059 -0.016186314325301113 0 0.0013878053456678515 -0.016115827229749795 0 0.0014414788523105417 -0.01614737938384379 0 0.0013878053456678515 -0.016115827229749795 0 0.0011360467518801306 -0.016065776983664921 0 0.0011266028642640221 -0.01619140667916643 0 0.0012141835625920491 -0.022849998221316826 0 0.00053635248552867426 -0.0171678243714753 0 0.0013836437472538208 -0.015986939924114138 0 0.0014763294713594998 -0.017068394687173964 0 0.0011266028642640221 -0.01619140667916643 0 0.0014414788523105417 -0.01614737938384379 0 0.00041809744027418016 -0.01728832106731196 0 0.0014414788523105417 -0.01614737938384379 0 0.0013879508662362843 -0.015704793474946098 0 0.0021802512622386889 -0.015462727703864523 0 0.0013878053456678515 -0.016115827229749795 0 0.0011266028642640221 -0.01619140667916643 0 0.0014414788523105417 -0.01614737938384379 0 0.0013709011905730991 -0.015863585520381116 0 0.0014414788523105417 -0.01614737938384379 0 0.0013879508662362843 -0.015704793474946098 0 0.0010575582955320041 -0.01588170931931562 0 0.0011266028642640221 -0.01619140667916643 0 0.00029198727218983069 -0.016430082932802324 0 0.0011266028642640221 -0.01619140667916643 0 0.00029198727218983069 -0.016430082932802324 0 0.00041809744027418016 -0.01728832106731196 0 -0.00015914066068480303 -0.017309000147156594 0 0.00029198727218983069 -0.016430082932802324 0 0.00041809744027418016 -0.01728832106731196 0 0.0014426059318761312 -0.015151385612544479 0 0.0014207450793683048 -0.01733316844800387 0 0.0013879508662362843 -0.015704793474946098 0 0.0022576339505146772 -0.015333243032508598 0 0.0021802512622386889 -0.015462727703864523 0 0.0014207450793683048 -0.01733316844800387 0 0.0014763294713594998 -0.017068394687173964 0 0.0013879508662362843 -0.015704793474946098 0 0.0005069104100650588 -0.015401735526222931 0 0.00098221407259134561 -0.015622117143138544 0 0.0013879508662362843 -0.015704793474946098 0 0.00098221407259134561 -0.015622117143138544 0 0.0012569586570003652 -0.015628706664417149 0 0.00098221407259134561 -0.015622117143138544 0 0.0011201068653669528 -0.015527030293320357 0 0.0012569586570003652 -0.015628706664417149 0 0.00098221407259134561 -0.015622117143138544 0 0.00073990871006503049 -0.015897538072076958 0 0.0011201068653669528 -0.015527030293320357 0 0.0005069104100650588 -0.015401735526222931 0 0.00098221407259134561 -0.015622117143138544 0 0.00045904266356273628 -0.015731579341748902 0 0.00098221407259134561 -0.015622117143138544 0 0.00045904266356273628 -0.015731579341748902 0 0.00073990871006503049 -0.015897538072076958 0 2.6519912830048984e-05 -0.016026022850229568 0 1.3242295822023058e-05 -0.016039925240920155 0 6.3727444363118657e-05 -0.016047840838634187 0 0.00045904266356273628 -0.015731579341748902 0 0.00073990871006503049 -0.015897538072076958 0 6.3727444363118657e-05 -0.016047840838634187 0 0.00069907870574020001 -0.016184117311354183 0 0.00073990871006503049 -0.015897538072076958 0 6.3727444363118657e-05 -0.016047840838634187 0 -0.0001905975643481667 -0.016034942348868653 0 -0.0006587350419777593 -0.015947650688295439 0 -0.0001905975643481667 -0.016034942348868653 0 -0.0006587350419777593 -0.015947650688295439 0 -0.00046466742898458146 -0.015911273084552112 0 0.00069907870574020001 -0.016184117311354183 0 0.00073990871006503049 -0.015897538072076958 0 0.00083799959754112755 -0.016147992171369533 0 0.00085682791470048051 -0.015455884567361938 0 0.0010752448401023036 -0.015506353712681319 0 0.00073990871006503049 -0.015897538072076958 0 0.00083799959754112755 -0.016147992171369533 0 0.0011201068653669528 -0.015527030293320357 0 0.00069907870574020001 -0.016184117311354183 0 0.00083799959754112755 -0.016147992171369533 0 0.00065010620546533161 -0.016072624847340445 0 0.00091005151259599282 -0.014792577132308377 0 0.00062592890833936714 -0.014646448356681527 0 0.00058348116190435717 -0.014650286139075727 0 0.00091005151259599282 -0.014792577132308377 0 0.00082787355347693986 -0.015033414491711106 0 0.00062592890833936714 -0.014646448356681527 0 0.00091005151259599282 -0.014792577132308377 0 0.00082787355347693986 -0.015033414491711106 0 0.0011201068653669528 -0.015527030293320357 0 0.00082787355347693986 -0.015033414491711106 0 0.0011201068653669528 -0.015527030293320357 0 0.0010486657831642559 -0.015473749438973929 0 0.0011201068653669528 -0.015527030293320357 0 0.0012569586570003652 -0.015628706664417149 0 0.0010486657831642559 -0.015473749438973929 0 0.0013061015685449002 -0.015837717941976727 0 0.0012569586570003652 -0.015628706664417149 0 0.0010486657831642559 -0.015473749438973929 0 0.0013709011905730991 -0.015863585520381116 0 0.0013879508662362843 -0.015704793474946098 0 0.0012569586570003652 -0.015628706664417149 0 0.0013061015685449002 -0.015837717941976727 0 0.0013709011905730991 -0.015863585520381116 0 0.0012569586570003652 -0.015628706664417149 0 0.00087543379520842537 -0.015847736583566804 0 0.0013061015685449002 -0.015837717941976727 0 0.0010486657831642559 -0.015473749438973929 0 0.00087543379520842537 -0.015847736583566804 0 0.0010486657831642559 -0.015473749438973929 0 0.00056811305104631331 -0.015224836750797659 0 0.001193614624586689 -0.015631851053353959 0 0.00079368466521928386 -0.014932090576643067 0 0.00089522520072416638 -0.015297008448346883 0 0.0009702956004687042 -0.01461443528153436 0 0.00057877238015563459 -0.014608934832153711 0 0.00089522520072416638 -0.015297008448346883 0 0.0015152508071138247 -0.015427795912953927 0 0.0009702956004687042 -0.01461443528153436 0 0.00079368466521928386 -0.014932090576643067 0 0.00064700570166883152 -0.014517559860171761 0 0.00056811305104631331 -0.015224836750797659 0 0.00063392171016012089 -0.014708872893428841 0 0.00063858320533645896 -0.014445718588988767 0 0.00082787355347693986 -0.015033414491711106 0 0.00056811305104631331 -0.015224836750797659 0 0.00063392171016012089 -0.014708872893428841 0 0.00082787355347693986 -0.015033414491711106 0 0.0010486657831642559 -0.015473749438973929 0 0.00056811305104631331 -0.015224836750797659 0 0.00082787355347693986 -0.015033414491711106 0 0.00062592890833936714 -0.014646448356681527 0 0.00063392171016012089 -0.014708872893428841 0 0.00062592890833936714 -0.014646448356681527 0 0.00063392171016012089 -0.014708872893428841 0 0.00066730086628587172 -0.014454769434625614 0 0.00062592890833936714 -0.014646448356681527 0 0.00066730086628587172 -0.014454769434625614 0 0.00065727610655723389 -0.014617539413987867 0 0.00063392171016012089 -0.014708872893428841 0 0.00063858320533645896 -0.014445718588988767 0 0.00066730086628587172 -0.014454769434625614 0 0.00063858320533645896 -0.014445718588988767 0 0.00066730086628587172 -0.014454769434625614 0 0.00071502490354066165 -0.014196501879661519 0 0.00066730086628587172 -0.014454769434625614 0 0.00084823434395810615 -0.014287649637358693 0 0.00071502490354066165 -0.014196501879661519 0 0.00063858320533645896 -0.014445718588988767 0 0.00071502490354066165 -0.014196501879661519 0 0.00061242086137295129 -0.014071686445919673 0 0.00063858320533645896 -0.014445718588988767 0 0.00057877238015563459 -0.014608934832153711 0 0.00061242086137295129 -0.014071686445919673 0 0.0009702956004687042 -0.01461443528153436 0 0.00063858320533645896 -0.014445718588988767 0 0.00057877238015563459 -0.014608934832153711 0 0.00057877238015563459 -0.014608934832153711 0 0.00061242086137295129 -0.014071686445919673 0 0.00034130877561458831 -0.0146166622913092 0 0.0011625785735523198 -0.015688134042578013 0 0.0011538490797054293 -0.015201822327759374 0 0.0013629309136365189 -0.015664749260701976 0 0.0011625785735523198 -0.015688134042578013 0 0.00091872164125282618 -0.015230295725766533 0 0.0011538490797054293 -0.015201822327759374 0 0.0011625785735523198 -0.015688134042578013 0 0.00091872164125282618 -0.015230295725766533 0 0.00072051871467402619 -0.015618898640832395 0 0.0011625785735523198 -0.015688134042578013 0 0.00072051871467402619 -0.015618898640832395 0 0.0010333427984025158 -0.016027511292247887 0 0.00091872164125282618 -0.015230295725766533 0 0.0011538490797054293 -0.015201822327759374 0 0.00090911648012539058 -0.014777122251787886 0 0.00091872164125282618 -0.015230295725766533 0 0.00090911648012539058 -0.014777122251787886 0 0.00074171556772039988 -0.014875218957640173 0 0.0011538490797054293 -0.015201822327759374 0 0.0011310176723063803 -0.014769907077376273 0 0.00090911648012539058 -0.014777122251787886 0 0.0011310176723063803 -0.014769907077376273 0 0.00083755940944038262 -0.014511836653438095 0 0.0010890312598594843 -0.014351002640557371 0 0.0011310176723063803 -0.014769907077376273 0 0.00083755940944038262 -0.014511836653438095 0 0.00090911648012539058 -0.014777122251787886 0 0.00084823434395810615 -0.014287649637358693 0 0.00083755940944038262 -0.014511836653438095 0 0.0010890312598594843 -0.014351002640557371 0 0.00066730086628587172 -0.014454769434625614 0 0.00083755940944038262 -0.014511836653438095 0 0.00065727610655723389 -0.014617539413987867 0 0.00066730086628587172 -0.014454769434625614 0 0.00084823434395810615 -0.014287649637358693 0 0.00083755940944038262 -0.014511836653438095 0 0.00083755940944038262 -0.014511836653438095 0 0.00090911648012539058 -0.014777122251787886 0 0.00065727610655723389 -0.014617539413987867 0 0.00090911648012539058 -0.014777122251787886 0 0.00074171556772039988 -0.014875218957640173 0 0.00065727610655723389 -0.014617539413987867 0 0.00074171556772039988 -0.014875218957640173 0 0.00065727610655723389 -0.014617539413987867 0 0.00052535236299153265 -0.014767892020923372 0 0.00074171556772039988 -0.014875218957640173 0 0.00052535236299153265 -0.014767892020923372 0 0.00063419881559532336 -0.015085013638115163 0 0.00062592890833936714 -0.014646448356681527 0 0.00065727610655723389 -0.014617539413987867 0 0.00058348116190435717 -0.014650286139075727 0 0.00058348116190435717 -0.014650286139075727 0 0.00052535236299153265 -0.014767892020923372 0 0.00054041932237704009 -0.01466575018881764 0 0.00065727610655723389 -0.014617539413987867 0 0.00058348116190435717 -0.014650286139075727 0 0.00052535236299153265 -0.014767892020923372 0 0.00052535236299153265 -0.014767892020923372 0 0.00021944941622028332 -0.015071147606534902 0 0.00054041932237704009 -0.01466575018881764 0 0.00021944941622028332 -0.015071147606534902 0 0.00063419881559532336 -0.015085013638115163 0 0.00072051871467402619 -0.015618898640832395 0 0.00052535236299153265 -0.014767892020923372 0 0.00021944941622028332 -0.015071147606534902 0 0.00063419881559532336 -0.015085013638115163 0 0.00091872164125282618 -0.015230295725766533 0 0.00074171556772039988 -0.014875218957640173 0 0.00063419881559532336 -0.015085013638115163 0 0.00091872164125282618 -0.015230295725766533 0 0.00063419881559532336 -0.015085013638115163 0 0.00072051871467402619 -0.015618898640832395 0 0.00010386305036948601 -0.015556211730051133 0 0.00023862136049591725 -0.016116734584428919 0 -0.00010230286737431538 -0.015988643691556805 0 -0.00019546696809391448 -0.016142865528183867 0 0.00024355274933659634 -0.016122603027015122 0 0.00021944941622028332 -0.015071147606534902 0 0.00072051871467402619 -0.015618898640832395 0 0.00024355274933659634 -0.016122603027015122 0 -0.00019546696809391448 -0.016142865528183867 0 -0.0003184429731020075 -0.016581560500236941 0 0.00024355274933659634 -0.016122603027015122 0 -0.00019546696809391448 -0.016142865528183867 0 -0.00060619574099726704 -0.016336651476854081 0 -0.0003184429731020075 -0.016581560500236941 0 -0.00060619574099726704 -0.016336651476854081 0 -0.0010426718628709776 -0.016569376898220259 0 -0.00078150479536484585 -0.016933467593783228 0 -0.00060619574099726704 -0.016336651476854081 0 -0.00069595820269793742 -0.015978408126666545 0 -0.00093779601608981824 -0.016171879717326105 0 -0.00019546696809391448 -0.016142865528183867 0 -0.00060619574099726704 -0.016336651476854081 0 -0.00041201327947582142 -0.016037346287783791 0 -0.00060619574099726704 -0.016336651476854081 0 -0.00069595820269793742 -0.015978408126666545 0 -0.00041201327947582142 -0.016037346287783791 0 -0.00019546696809391448 -0.016142865528183867 0 -0.00041201327947582142 -0.016037346287783791 0 -1.3333866601078552e-05 -0.015975946886922738 0 -0.00010230286737431538 -0.015988643691556805 0 -0.00019546696809391448 -0.016142865528183867 0 -1.3333866601078552e-05 -0.015975946886922738 0 0.00010386305036948601 -0.015556211730051133 0 0.00041803808293010617 -0.015363589796229522 0 -1.3333866601078552e-05 -0.015975946886922738 0 0.00030204770053468593 -0.016058716373472715 0 0.00065010620546533161 -0.016072624847340445 0 -0.00010230286737431538 -0.015988643691556805 0 -1.3333866601078552e-05 -0.015975946886922738 0 0.00030204770053468593 -0.016058716373472715 0 0.00091005151259599282 -0.014792577132308377 0 0.00058348116190435717 -0.014650286139075727 0 0.00054041932237704009 -0.01466575018881764 0 0.00085682791470048051 -0.015455884567361938 0 0.00041803808293010617 -0.015363589796229522 0 0.00083799959754112755 -0.016147992171369533 0 0.00030204770053468593 -0.016058716373472715 0 0.00065010620546533161 -0.016072624847340445 0 1.589026128441532e-05 -0.015989729931015891 0 -1.5472540840058851e-05 -0.015931183246357356 0 -0.00069595820269793742 -0.015978408126666545 0 -0.00041201327947582142 -0.016037346287783791 0 -0.0007028937629114184 -0.0157297891832535 0 -0.00041201327947582142 -0.016037346287783791 0 -1.3333866601078552e-05 -0.015975946886922738 0 -0.0007028937629114184 -0.0157297891832535 0 -0.00069595820269793742 -0.015978408126666545 0 -0.0008589399499426847 -0.01580678934417231 0 -0.00093779601608981824 -0.016171879717326105 0 -0.00069595820269793742 -0.015978408126666545 0 -0.0007028937629114184 -0.0157297891832535 0 -0.0008589399499426847 -0.01580678934417231 0 -0.0006587350419777593 -0.015947650688295439 0 -0.0007028937629114184 -0.0157297891832535 0 -0.0008589399499426847 -0.01580678934417231 0 1.3242295822023058e-05 -0.016039925240920155 0 -1.5472540840058851e-05 -0.015931183246357356 0 -0.0006587350419777593 -0.015947650688295439 0 -0.00068054279042769532 -0.015851723912446155 0 -0.00046466742898458146 -0.015911273084552112 0 -0.0006587350419777593 -0.015947650688295439 0 -0.0008589399499426847 -0.01580678934417231 0 -0.00068054279042769532 -0.015851723912446155 0 -0.00068054279042769532 -0.015851723912446155 0 -0.00046466742898458146 -0.015911273084552112 0 -0.00073871162709395095 -0.015779878311239271 0 -0.0008589399499426847 -0.01580678934417231 0 -0.00073871162709395095 -0.015779878311239271 0 -0.0012665794907856427 -0.016117532526919835 0 -0.0011909448867061651 -0.016056326778821128 0 -0.0012771841314048271 -0.016059216807380396 0 -0.0008589399499426847 -0.01580678934417231 0 -0.00068054279042769532 -0.015851723912446155 0 -0.00073871162709395095 -0.015779878311239271 0 -0.0012665794907856427 -0.016117532526919835 0 -0.0013934644236938704 -0.016506637672386189 0 -0.0021602974315678269 -0.016435753934119699 0 -0.0020176222391088319 -0.015845341626544125 0 -0.0012665794907856427 -0.016117532526919835 0 -0.0021602974315678269 -0.016435753934119699 0 -0.0008589399499426847 -0.01580678934417231 0 -0.0012665794907856427 -0.016117532526919835 0 -0.00093779601608981824 -0.016171879717326105 0 -0.0012665794907856427 -0.016117532526919835 0 -0.00093779601608981824 -0.016171879717326105 0 -0.0013934644236938704 -0.016506637672386189 0 -0.00093779601608981824 -0.016171879717326105 0 -0.0010426718628709776 -0.016569376898220259 0 -0.0013934644236938704 -0.016506637672386189 0 -0.0010426718628709776 -0.016569376898220259 0 -0.0013121888477029505 -0.016773817255834923 0 -0.0013934644236938704 -0.016506637672386189 0 -0.00060619574099726704 -0.016336651476854081 0 -0.00093779601608981824 -0.016171879717326105 0 -0.0010426718628709776 -0.016569376898220259 0 -0.0018394666386549821 -0.017032764012537029 0 -0.0020712266571316796 -0.017256257332738927 0 -0.0021602974315678269 -0.016435753934119699 0 -0.0021449688785769054 -0.017604764492819825 0 -0.0021836574310489863 -0.016491225780766408 0 -0.0018394666386549821 -0.017032764012537029 0 -0.0013934644236938704 -0.016506637672386189 0 -0.0021602974315678269 -0.016435753934119699 0 -0.0013121888477029505 -0.016773817255834923 0 -0.0018394666386549821 -0.017032764012537029 0 -0.0013934644236938704 -0.016506637672386189 0 -0.0018394666386549821 -0.017032764012537029 0 -0.0020712266571316796 -0.017256257332738927 0 -0.0012662995353215653 -0.017750828274301682 0 -0.0018290105459613487 -0.017007732652590944 0 -0.0010663876080517331 -0.01733130578793677 0 -0.0010426718628709776 -0.016569376898220259 0 -0.0013121888477029505 -0.016773817255834923 0 -0.00078150479536484585 -0.016933467593783228 0 -0.0013121888477029505 -0.016773817255834923 0 -0.0018394666386549821 -0.017032764012537029 0 -0.00078150479536484585 -0.016933467593783228 0 -0.0023255240483308383 -0.018499307736241886 0 -0.001394456192883942 -0.019117519601605147 0 -0.0012662995353215653 -0.017750828274301682 0 -0.0021449688785769054 -0.017604764492819825 0 -0.0023013131855176491 -0.018882932306825771 0 -0.0020712266571316796 -0.017256257332738927 0 -0.0023255240483308383 -0.018499307736241886 0 -0.0012662995353215653 -0.017750828274301682 0 -0.0021778278702777147 -0.017986920527206018 0 -0.0023005405267754199 -0.019213670728430519 0 -0.0025785925244864939 -0.018588725776110943 0 -0.0023005405267754199 -0.019213670728430519 0 -0.0023696954479846873 -0.020125099214698804 0 -0.0030109223900676189 -0.019771603395313347 0 -0.0023013131855176491 -0.018882932306825771 0 -0.0023288904228300736 -0.020050390093378265 0 -0.0023696954479846873 -0.020125099214698804 0 -0.0030109223900676189 -0.019771603395313347 0 -0.0030677358914781416 -0.020705744048260699 0 -0.0023696954479846873 -0.020125099214698804 0 -0.001394456192883942 -0.019117519601605147 0 -0.0015432377531508445 -0.020555586611809038 0 -0.0023255240483308383 -0.018499307736241886 0 -0.0023696954479846873 -0.020125099214698804 0 -0.001394456192883942 -0.019117519601605147 0 -0.001394456192883942 -0.019117519601605147 0 -0.00073203161635619412 -0.01958238005877519 0 -0.00017081734023068567 -0.0183984838755697 0 -0.00073203161635619412 -0.01958238005877519 0 -0.0015432377531508445 -0.020555586611809038 0 -0.00066667843475642691 -0.020513715898626595 0 -0.001394456192883942 -0.019117519601605147 0 -0.00073203161635619412 -0.01958238005877519 0 -0.0015432377531508445 -0.020555586611809038 0 -0.00073203161635619412 -0.01958238005877519 0 1.0649794492221052e-05 -0.019620323067231368 0 -0.00066667843475642691 -0.020513715898626595 0 -0.00073203161635619412 -0.01958238005877519 0 1.0649794492221052e-05 -0.019620323067231368 0 -0.00017081734023068567 -0.0183984838755697 0 -0.00033611943603731868 -0.017131228078784498 0 -0.00078150479536484585 -0.016933467593783228 0 -0.0003184429731020075 -0.016581560500236941 0 -0.00033611943603731868 -0.017131228078784498 0 -0.0003184429731020075 -0.016581560500236941 0 0.00021035648162067038 -0.016673875680950957 0 -0.00020430055362387665 -0.017794688698386487 0 -0.0010663876080517331 -0.01733130578793677 0 -0.001394456192883942 -0.019117519601605147 0 -0.00017081734023068567 -0.0183984838755697 0 -0.0012662995353215653 -0.017750828274301682 0 -0.00060619574099726704 -0.016336651476854081 0 -0.00078150479536484585 -0.016933467593783228 0 -0.0003184429731020075 -0.016581560500236941 0 0.00024355274933659634 -0.016122603027015122 0 0.00090740293708792177 -0.016515053743302071 0 0.00021035648162067038 -0.016673875680950957 0 -0.0003184429731020075 -0.016581560500236941 0 0.00024355274933659634 -0.016122603027015122 0 0.00021035648162067038 -0.016673875680950957 0 0.00072051871467402619 -0.015618898640832395 0 0.00090740293708792177 -0.016515053743302071 0 0.0010333427984025158 -0.016027511292247887 0 0.00072051871467402619 -0.015618898640832395 0 0.00024355274933659634 -0.016122603027015122 0 0.00090740293708792177 -0.016515053743302071 0 0.00090740293708792177 -0.016515053743302071 0 0.00021035648162067038 -0.016673875680950957 0 0.00088396338764930717 -0.017369395141948768 0 0.00090740293708792177 -0.016515053743302071 0 0.00088396338764930717 -0.017369395141948768 0 0.0014564400152207889 -0.016921365886180286 0 -0.00033611943603731868 -0.017131228078784498 0 0.00021035648162067038 -0.016673875680950957 0 0.00088396338764930717 -0.017369395141948768 0 -0.00033611943603731868 -0.017131228078784498 0 0.0010423770247067836 -0.01853682689737977 0 0.00088396338764930717 -0.017369395141948768 0 1.0649794492221052e-05 -0.019620323067231368 0 -0.00017081734023068567 -0.0183984838755697 0 0.0005142360991718984 -0.019183888242878672 0 -0.00020430055362387665 -0.017794688698386487 0 0.0010185561484099539 -0.018523877107118451 0 -0.00017081734023068567 -0.0183984838755697 0 0.0005142360991718984 -0.019183888242878672 0 0.0010423770247067836 -0.01853682689737977 0 0.0005142360991718984 -0.019183888242878672 0 0.0013813945048877689 -0.019606866188517008 0 0.00069938091491771937 -0.020266823376994012 0 1.0649794492221052e-05 -0.019620323067231368 0 0.0005142360991718984 -0.019183888242878672 0 0.00069938091491771937 -0.020266823376994012 0 0.0013813945048877689 -0.019606866188517008 0 0.0018714744397811355 -0.019287858321674345 0 0.0027891264905570965 -0.020873557227121132 0 0.0013813945048877689 -0.019606866188517008 0 0.0018714744397811355 -0.019287858321674345 0 0.0010423770247067836 -0.01853682689737977 0 0.0005142360991718984 -0.019183888242878672 0 0.0013813945048877689 -0.019606866188517008 0 0.0010423770247067836 -0.01853682689737977 0 0.0018714744397811355 -0.019287858321674345 0 0.0014005667389488186 -0.018327285450879787 0 0.0024051328925248239 -0.01874760680500881 0 0.0017746786665945682 -0.018280342790784773 0 0.0016616748999923154 -0.017950214621578094 0 0.0014005667389488186 -0.018327285450879787 0 0.0022286364998126882 -0.018609682283056973 0 0.0014564400152207889 -0.016921365886180286 0 0.0018714744397811355 -0.019287858321674345 0 0.0014005667389488186 -0.018327285450879787 0 0.0010423770247067836 -0.01853682689737977 0 0.0014005667389488186 -0.018327285450879787 0 0.0010423770247067836 -0.01853682689737977 0 0.00088396338764930717 -0.017369395141948768 0 0.0014005667389488186 -0.018327285450879787 0 0.00088396338764930717 -0.017369395141948768 0 0.0014564400152207889 -0.016921365886180286 0 0.0013221934059754665 -0.016587815966560115 0 0.0013718239489299545 -0.016489716503674326 0 0.0013395168555247945 -0.016466195556359697 0 0.0013221934059754665 -0.016587815966560115 0 0.0013718239489299545 -0.016489716503674326 0 0.0014564400152207889 -0.016921365886180286 0 0.0016616748999923154 -0.017950214621578094 0 0.0015232087151148856 -0.016924348486346507 0 0.0016616748999923154 -0.017950214621578094 0 0.0026030243933957728 -0.020519976196648939 0 0.0015495521110111014 -0.018229364273040689 0 0.0017791130663875148 -0.019317546473673047 0 0.0026746227802626186 -0.018624113847606306 0 0.0018714744397811355 -0.019287858321674345 0 0.0024051328925248239 -0.01874760680500881 0 0.0027891264905570965 -0.020873557227121132 0 0.0013718239489299545 -0.016489716503674326 0 0.0013395168555247945 -0.016466195556359697 0 0.0013841696024112823 -0.016503289802875697 0 0.0016616748999923154 -0.017950214621578094 0 0.0018781042880970551 -0.017514982723127719 0 0.0013395168555247945 -0.016466195556359697 0 0.0014054185593235645 -0.016368900916522853 0 0.0013841696024112823 -0.016503289802875697 0 0.0013221934059754665 -0.016587815966560115 0 0.0013395168555247945 -0.016466195556359697 0 0.0013559680901186295 -0.016310392696290584 0 0.0013395168555247945 -0.016466195556359697 0 0.0013559680901186295 -0.016310392696290584 0 0.0014054185593235645 -0.016368900916522853 0 0.0013559680901186295 -0.016310392696290584 0 0.0013328100304604348 -0.016062762823155729 0 0.0014883127982076878 -0.016034451474298769 0 0.0013559680901186295 -0.016310392696290584 0 0.0013328100304604348 -0.016062762823155729 0 0.0012822515051768169 -0.016355270286724625 0 0.0013221934059754665 -0.016587815966560115 0 0.0013559680901186295 -0.016310392696290584 0 0.0012822515051768169 -0.016355270286724625 0 0.00090740293708792177 -0.016515053743302071 0 0.0014564400152207889 -0.016921365886180286 0 0.0012822515051768169 -0.016355270286724625 0 0.0013221934059754665 -0.016587815966560115 0 0.0014564400152207889 -0.016921365886180286 0 0.0012822515051768169 -0.016355270286724625 0 0.0011625785735523198 -0.015688134042578013 0 0.0012822515051768169 -0.016355270286724625 0 0.0010333427984025158 -0.016027511292247887 0 0.00090740293708792177 -0.016515053743302071 0 0.0012822515051768169 -0.016355270286724625 0 0.0010333427984025158 -0.016027511292247887 0 0.0011625785735523198 -0.015688134042578013 0 0.0013328100304604348 -0.016062762823155729 0 0.0013629309136365189 -0.015664749260701976 0 0.0013328100304604348 -0.016062762823155729 0 0.0013629309136365189 -0.015664749260701976 0 0.0014883127982076878 -0.016034451474298769 0 0.0011625785735523198 -0.015688134042578013 0 0.0013328100304604348 -0.016062762823155729 0 0.0012822515051768169 -0.016355270286724625 0 -0.00025887702498869993 -0.03490761308244706 0 -0.00019976752197440486 -0.034950853138315967 0 -0.00020796915533759043 -0.034918889931473761 0 -0.00030820532497628875 -0.034910695147960628 0 -0.00025887702498869993 -0.03490761308244706 0 -0.00019976752197440486 -0.034950853138315967 0 -0.00030820532497628875 -0.034910695147960628 0 -0.00025887702498869993 -0.03490761308244706 0 -0.00033492044101303512 -0.034859338371773511 0 -0.00025887702498869993 -0.03490761308244706 0 -0.00033492044101303512 -0.034859338371773511 0 -0.00027186242731033782 -0.034862695545944608 0 -0.00033492044101303512 -0.034859338371773511 0 -0.00040831210340072605 -0.034910537248001909 0 -0.00038409974055215974 -0.034856340571650227 0 -0.00030820532497628875 -0.034910695147960628 0 -0.00033492044101303512 -0.034859338371773511 0 -0.00040831210340072605 -0.034910537248001909 0 -0.00030820532497628875 -0.034910695147960628 0 -0.00031041327785091691 -0.034952693100419083 0 -0.00019976752197440486 -0.034950853138315967 0 -0.00030820532497628875 -0.034910695147960628 0 -0.00040831210340072605 -0.034910537248001909 0 -0.00031041327785091691 -0.034952693100419083 0 -0.00031041327785091691 -0.034952693100419083 0 -0.00019976752197440486 -0.034950853138315967 0 -0.00016637213271496039 -0.034981176063385466 0 -1.0276059328398668e-07 -0.034999954024149765 0 -0.00019976752197440486 -0.034950853138315967 0 -0.00016637213271496039 -0.034981176063385466 0 -1.0276059328398668e-07 -0.034999954024149765 0 -1.2101733003508033e-07 -0.03499995170417558 0 -0.00016637213271496039 -0.034981176063385466 0 -1.0276059328398668e-07 -0.034999954024149765 0 -0.00019976752197440486 -0.034950853138315967 0 -0.00011406013830189609 -0.034967019839316847 0 -0.00019976752197440486 -0.034950853138315967 0 -0.00011406013830189609 -0.034967019839316847 0 -0.00020796915533759043 -0.034918889931473761 0 -0.00011406013830189609 -0.034967019839316847 0 -0.00014652504908383498 -0.034954197482688867 0 -0.00020796915533759043 -0.034918889931473761 0 -1.0276059328398668e-07 -0.034999954024149765 0 -0.00011406013830189609 -0.034967019839316847 0 -2.1464042559462324e-07 -0.034999957613805963 0 -0.00011406013830189609 -0.034967019839316847 0 -2.1464042559462324e-07 -0.034999957613805963 0 -0.00014652504908383498 -0.034954197482688867 0 -2.1464042559462324e-07 -0.034999957613805963 0 -0.00014697063155560578 -0.034962062685519726 0 -0.00014652504908383498 -0.034954197482688867 0 -3.3951277629628829e-08 -0.03499994227474694 0 5.6524319224532555e-09 -0.034999985995863944 0 -2.638670543331553e-05 -0.034972575397455935 0 -2.3397084600346577e-08 -0.034999966787627353 0 -8.2312964303237813e-05 -0.034963137730401876 0 -0.00014697063155560578 -0.034962062685519726 0 -0.00014652504908383498 -0.034954197482688867 0 -0.00020244283450656601 -0.034904307695873917 0 -0.00014652504908383498 -0.034954197482688867 0 -0.00020244283450656601 -0.034904307695873917 0 -0.00020796915533759043 -0.034918889931473761 0 -0.00020244283450656601 -0.034904307695873917 0 -0.00024234820891064535 -0.034870682738914305 0 -0.00020796915533759043 -0.034918889931473761 0 -0.00020244283450656601 -0.034904307695873917 0 -0.00024234820891064535 -0.034870682738914305 0 -0.00025107468111366119 -0.034833826498988474 0 -0.00020969800202927825 -0.034878317120747925 0 -0.00020244283450656601 -0.034904307695873917 0 -0.00025107468111366119 -0.034833826498988474 0 -0.00024234820891064535 -0.034870682738914305 0 -0.00020796915533759043 -0.034918889931473761 0 -0.00027186242731033782 -0.034862695545944608 0 -0.00025887702498869993 -0.03490761308244706 0 -0.00020796915533759043 -0.034918889931473761 0 -0.00027186242731033782 -0.034862695545944608 0 -0.00033492044101303512 -0.034859338371773511 0 -0.00027186242731033782 -0.034862695545944608 0 -0.00032575162692247573 -0.034794953955526703 0 -0.00027186242731033782 -0.034862695545944608 0 -0.00028748617143533575 -0.034811371502340656 0 -0.00032575162692247573 -0.034794953955526703 0 -0.00024234820891064535 -0.034870682738914305 0 -0.00027186242731033782 -0.034862695545944608 0 -0.00028748617143533575 -0.034811371502340656 0 -0.00028748617143533575 -0.034811371502340656 0 -0.00029111244333211424 -0.034743133342447573 0 -0.00032575162692247573 -0.034794953955526703 0 -0.00028748617143533575 -0.034811371502340656 0 -0.00025107468111366119 -0.034833826498988474 0 -0.00029111244333211424 -0.034743133342447573 0 -0.00024234820891064535 -0.034870682738914305 0 -0.00028748617143533575 -0.034811371502340656 0 -0.00025107468111366119 -0.034833826498988474 0 -0.00023161101743257253 -0.034845249378251598 0 -0.00025107468111366119 -0.034833826498988474 0 -0.00026012620428328279 -0.034803567979987779 0 -0.00025107468111366119 -0.034833826498988474 0 -0.00026012620428328279 -0.034803567979987779 0 -0.00029111244333211424 -0.034743133342447573 0 -0.00026012620428328279 -0.034803567979987779 0 -0.00028355938995218666 -0.034769464445866663 0 -0.00029111244333211424 -0.034743133342447573 0 -0.00029111244333211424 -0.034743133342447573 0 -0.00030986381823621989 -0.034717065632358005 0 -0.00033077208663523865 -0.034584013456562465 0 -0.00028355938995218666 -0.034769464445866663 0 -0.00029111244333211424 -0.034743133342447573 0 -0.00030986381823621989 -0.034717065632358005 0 -0.00031857789938038018 -0.034765401601171121 0 -0.00028355938995218666 -0.034769464445866663 0 -0.00030986381823621989 -0.034717065632358005 0 -0.00031857789938038018 -0.034765401601171121 0 -0.00030986381823621989 -0.034717065632358005 0 -0.00037250571188643958 -0.03472898021898925 0 -0.0001821770982464953 -0.033735940819902284 0 -0.00033077208663523865 -0.034584013456562465 0 3.4630392168687876e-05 -0.034474156353106057 0 -0.00030986381823621989 -0.034717065632358005 0 -0.00037250571188643958 -0.03472898021898925 0 -0.00033077208663523865 -0.034584013456562465 0 -0.00069262234786592232 -0.034888243079077563 0 -0.00019693573096529811 -0.034281067794755885 0 -0.00033765204222243564 -0.034754884195807169 0 3.4630392168687876e-05 -0.034474156353106057 0 -0.0002452306977823101 -0.034801607920665438 0 -0.0020018326597599522 -0.025399796336684231 0 -0.002501289651888082 -0.026951828060214976 0 -0.00033077208663523865 -0.034584013456562465 0 -0.00033765204222243564 -0.034754884195807169 0 3.4630392168687876e-05 -0.034474156353106057 0 -0.00033765204222243564 -0.034754884195807169 0 -0.00032575162692247573 -0.034794953955526703 0 -0.00033018781319105444 -0.034713246934571555 0 -0.00029111244333211424 -0.034743133342447573 0 -0.00032575162692247573 -0.034794953955526703 0 -0.00033018781319105444 -0.034713246934571555 0 -0.00033077208663523865 -0.034584013456562465 0 -0.00033765204222243564 -0.034754884195807169 0 -0.00033018781319105444 -0.034713246934571555 0 -0.00029111244333211424 -0.034743133342447573 0 -0.00033077208663523865 -0.034584013456562465 0 -0.00033018781319105444 -0.034713246934571555 0 -0.0011909448867061651 -0.016056326778821128 0 -0.0019697640734639811 -0.014475533699209477 0 -0.0020176222391088319 -0.015845341626544125 0 -0.0024425675263813449 -0.015301182936897549 0 -0.002485780080652744 -0.015779773466108364 0 -0.00046466742898458146 -0.015911273084552112 0 -0.00073871162709395095 -0.015779878311239271 0 -0.00027373387705487471 -0.015882886066320327 0 -0.00021663653679485933 -0.016005587713204508 0 -0.00046466742898458146 -0.015911273084552112 0 -0.00027373387705487471 -0.015882886066320327 0 -0.0024425675263813449 -0.015301182936897549 0 -0.002485780080652744 -0.015779773466108364 0 -0.0030857232310812881 -0.01545906000505538 0 -0.0015347206550635447 -0.02298969695151042 0 -0.0020018326597599522 -0.025399796336684231 0 -0.0033670222104765298 -0.014023168933241693 0 -0.0024425675263813449 -0.015301182936897549 0 -0.0030857232310812881 -0.01545906000505538 0 -0.0033670222104765298 -0.014023168933241693 0 -0.0030857232310812881 -0.01545906000505538 0 -0.004034783329434217 -0.016102250658915913 0 0.00047424927483884156 -0.032914886231618881 0 -0.0001821770982464953 -0.033735940819902284 0 3.4630392168687876e-05 -0.034474156353106057 0 -0.0025231273393571353 -0.01587707814681881 0 -0.0032446314765882641 -0.018093201881706766 0 -0.002485780080652744 -0.015779773466108364 0 -0.002543445605834489 -0.01616867829900924 0 -0.0032380356243337832 -0.01659048400712607 0 -0.004034783329434217 -0.016102250658915913 0 -0.0035033349870415972 -0.017085696858014573 0 -0.0048107694081775468 -0.019231858263482785 0 -0.002485780080652744 -0.015779773466108364 0 -0.0030857232310812881 -0.01545906000505538 0 -0.0035033349870415972 -0.017085696858014573 0 -0.0030857232310812881 -0.01545906000505538 0 -0.004034783329434217 -0.016102250658915913 0 -0.0035033349870415972 -0.017085696858014573 0 -0.002485780080652744 -0.015779773466108364 0 -0.0035033349870415972 -0.017085696858014573 0 -0.0032324586438624518 -0.019374925951534047 0 -0.0020176222391088319 -0.015845341626544125 0 -0.002543445605834489 -0.01616867829900924 0 -0.0021602974315678269 -0.016435753934119699 0 -0.0020176222391088319 -0.015845341626544125 0 -0.002485780080652744 -0.015779773466108364 0 -0.002543445605834489 -0.01616867829900924 0 -0.002543445605834489 -0.01616867829900924 0 -0.0021602974315678269 -0.016435753934119699 0 -0.0027022996426069646 -0.016518961381904021 0 -0.002543445605834489 -0.01616867829900924 0 -0.0027022996426069646 -0.016518961381904021 0 -0.0032380356243337832 -0.01659048400712607 0 -0.0021602974315678269 -0.016435753934119699 0 -0.0027022996426069646 -0.016518961381904021 0 -0.0028380836888528388 -0.016954412234984628 0 -0.0035033349870415972 -0.017085696858014573 0 -0.0032324586438624518 -0.019374925951534047 0 -0.0048107694081775468 -0.019231858263482785 0 -0.0027022996426069646 -0.016518961381904021 0 -0.0032380356243337832 -0.01659048400712607 0 -0.0028380836888528388 -0.016954412234984628 0 -0.0032446314765882641 -0.018093201881706766 0 -0.0043862927820731224 -0.020424175928525606 0 -0.0032380356243337832 -0.01659048400712607 0 -0.0032628904168913574 -0.017165941959510593 0 -0.0040272811308697505 -0.018190576421885835 0 -0.0032628904168913574 -0.017165941959510593 0 -0.0040272811308697505 -0.018190576421885835 0 -0.0034405128705257918 -0.017759643257107639 0 -0.0030393262768429715 -0.017636440707772719 0 -0.0032628904168913574 -0.017165941959510593 0 -0.0034405128705257918 -0.017759643257107639 0 -0.0032380356243337832 -0.01659048400712607 0 -0.0032628904168913574 -0.017165941959510593 0 -0.0028380836888528388 -0.016954412234984628 0 -0.0030393262768429715 -0.017636440707772719 0 -0.0032628904168913574 -0.017165941959510593 0 -0.0028380836888528388 -0.016954412234984628 0 -0.0021778278702777147 -0.017986920527206018 0 -0.0021602974315678269 -0.016435753934119699 0 -0.0025878710793563104 -0.017414281477171396 0 -0.0021602974315678269 -0.016435753934119699 0 -0.0028380836888528388 -0.016954412234984628 0 -0.0025878710793563104 -0.017414281477171396 0 -0.0030393262768429715 -0.017636440707772719 0 -0.0025878710793563104 -0.017414281477171396 0 -0.0026955391720734369 -0.018011659245893086 0 -0.0030393262768429715 -0.017636440707772719 0 -0.0028380836888528388 -0.016954412234984628 0 -0.0025878710793563104 -0.017414281477171396 0 -0.00034890908662239698 -0.034816288616004859 0 -0.00033463182667199003 -0.034814923784789759 0 -0.00038409974055215974 -0.034856340571650227 0 -0.00033492044101303512 -0.034859338371773511 0 -0.00034890908662239698 -0.034816288616004859 0 -0.00038409974055215974 -0.034856340571650227 0 -0.00033765204222243564 -0.034754884195807169 0 -0.00032575162692247573 -0.034794953955526703 0 -0.00034890908662239698 -0.034816288616004859 0 -0.00033492044101303512 -0.034859338371773511 0 -0.00032575162692247573 -0.034794953955526703 0 -0.00034890908662239698 -0.034816288616004859 0 -0.00033765204222243564 -0.034754884195807169 0 -0.00034890908662239698 -0.034816288616004859 0 -0.00033463182667199003 -0.034814923784789759 0 -0.00033765204222243564 -0.034754884195807169 0 -0.0002452306977823101 -0.034801607920665438 0 -0.00033463182667199003 -0.034814923784789759 0 -0.0002452306977823101 -0.034801607920665438 0 -0.00033463182667199003 -0.034814923784789759 0 -0.00036108192427038323 -0.034839933629813122 0 -0.0002452306977823101 -0.034801607920665438 0 -0.00036108192427038323 -0.034839933629813122 0 -0.00042543902965619975 -0.034850332604624439 0 -0.002501289651888082 -0.026951828060214976 0 -0.0030423088237945626 -0.029097171398337611 0 -0.0032324586438624518 -0.019374925951534047 0 -0.0055055018968997674 -0.022994243090145975 0 -0.0045437606417962871 -0.023469926850983869 0 -0.0032324586438624518 -0.019374925951534047 0 -0.0048107694081775468 -0.019231858263482785 0 -0.0055055018968997674 -0.022994243090145975 0 -0.00036108192427038323 -0.034839933629813122 0 -0.00041072702860960438 -0.034860987469080083 0 -0.00042543902965619975 -0.034850332604624439 0 -0.00036108192427038323 -0.034839933629813122 0 -0.00041072702860960438 -0.034860987469080083 0 -0.00038409974055215974 -0.034856340571650227 0 -0.00041072702860960438 -0.034860987469080083 0 -0.00038409974055215974 -0.034856340571650227 0 -0.00043421343249837422 -0.034880415825862675 0 -0.00033463182667199003 -0.034814923784789759 0 -0.00036108192427038323 -0.034839933629813122 0 -0.00038409974055215974 -0.034856340571650227 0 -0.00040831210340072605 -0.034910537248001909 0 -0.00038409974055215974 -0.034856340571650227 0 -0.00043421343249837422 -0.034880415825862675 0 -0.00040831210340072605 -0.034910537248001909 0 -0.00043421343249837422 -0.034880415825862675 0 -0.0004871827655161829 -0.034900426846993349 0 -0.0004871827655161829 -0.034900426846993349 0 -0.00051421884400060832 -0.034894184412993128 0 -0.00056976448182096296 -0.03491962497729427 0 -0.0004871827655161829 -0.034900426846993349 0 -0.00056976448182096296 -0.03491962497729427 0 -0.00050604605174352289 -0.034929549640308789 0 -0.0004871827655161829 -0.034900426846993349 0 -0.00051421884400060832 -0.034894184412993128 0 -0.00045544733148154761 -0.034877087309988598 0 -0.00043421343249837422 -0.034880415825862675 0 -0.0004871827655161829 -0.034900426846993349 0 -0.00045544733148154761 -0.034877087309988598 0 -0.00041072702860960438 -0.034860987469080083 0 -0.00043421343249837422 -0.034880415825862675 0 -0.00045544733148154761 -0.034877087309988598 0 -0.00051421884400060832 -0.034894184412993128 0 -0.00042543902965619975 -0.034850332604624439 0 -0.0005311230047478899 -0.034903848172919423 0 -0.0055055018968997674 -0.022994243090145975 0 -0.0045437606417962871 -0.023469926850983869 0 -0.0062054626511442836 -0.026716130273919649 0 -0.00041072702860960438 -0.034860987469080083 0 -0.00045544733148154761 -0.034877087309988598 0 -0.00042543902965619975 -0.034850332604624439 0 -0.00051421884400060832 -0.034894184412993128 0 -0.00045544733148154761 -0.034877087309988598 0 -0.00042543902965619975 -0.034850332604624439 0 -0.0040272811308697505 -0.018190576421885835 0 -0.0040028847561167594 -0.018897841517864538 0 -0.0041866095434799008 -0.019202221483616236 0 -0.0043862927820731224 -0.020424175928525606 0 -0.0041267946574713443 -0.025484312997264311 0 -0.0030423088237945626 -0.029097171398337611 0 -0.0028666638036354605 -0.030034549887774351 0 -0.0045437606417962871 -0.023469926850983869 0 -0.0062054626511442836 -0.026716130273919649 0 -0.0059340971748235716 -0.027508396781429228 0 -0.0040272811308697505 -0.018190576421885835 0 -0.0041866095434799008 -0.019202221483616236 0 -0.0044189665936889321 -0.019508939697239654 0 -0.00042543902965619975 -0.034850332604624439 0 -0.00055801036351530949 -0.034932903686195567 0 -0.0005311230047478899 -0.034903848172919423 0 -0.0040272811308697505 -0.018190576421885835 0 -0.0040028847561167594 -0.018897841517864538 0 -0.0037859821199190155 -0.018598145954531055 0 -0.0041866095434799008 -0.019202221483616236 0 -0.0038322854439152344 -0.01913865781338291 0 -0.0038738770120851523 -0.0193806080589989 0 -0.0040028847561167594 -0.018897841517864538 0 -0.0041866095434799008 -0.019202221483616236 0 -0.0038322854439152344 -0.01913865781338291 0 -0.00055801036351530949 -0.034932903686195567 0 -0.00058461301927452739 -0.034935961795444927 0 -0.0005311230047478899 -0.034903848172919423 0 -0.00058461301927452739 -0.034935961795444927 0 -0.00059309170391811153 -0.034916489473522182 0 -0.0005311230047478899 -0.034903848172919423 0 -0.00058461301927452739 -0.034935961795444927 0 -0.00059309170391811153 -0.034916489473522182 0 -0.00070601249644637262 -0.034948853970546603 0 -0.00059309170391811153 -0.034916489473522182 0 -0.00070601249644637262 -0.034948853970546603 0 -0.00056976448182096296 -0.03491962497729427 0 -0.00070601249644637262 -0.034948853970546603 0 -0.00056976448182096296 -0.03491962497729427 0 -0.00058830362275007295 -0.034946463202738427 0 -0.00051421884400060832 -0.034894184412993128 0 -0.00059309170391811153 -0.034916489473522182 0 -0.00056976448182096296 -0.03491962497729427 0 -0.00051421884400060832 -0.034894184412993128 0 -0.00059309170391811153 -0.034916489473522182 0 -0.0005311230047478899 -0.034903848172919423 0 -0.0021778278702777147 -0.017986920527206018 0 -0.0026955391720734369 -0.018011659245893086 0 -0.0025785925244864939 -0.018588725776110943 0 -0.0026955391720734369 -0.018011659245893086 0 -0.002933423379747049 -0.018522446883220949 0 -0.0025785925244864939 -0.018588725776110943 0 -0.0021778278702777147 -0.017986920527206018 0 -0.0025878710793563104 -0.017414281477171396 0 -0.0026955391720734369 -0.018011659245893086 0 -0.0030393262768429715 -0.017636440707772719 0 -0.0026955391720734369 -0.018011659245893086 0 -0.003073447961197419 -0.018062922879422412 0 -0.0026955391720734369 -0.018011659245893086 0 -0.003073447961197419 -0.018062922879422412 0 -0.002933423379747049 -0.018522446883220949 0 -0.003073447961197419 -0.018062922879422412 0 -0.002933423379747049 -0.018522446883220949 0 -0.0033186610143589347 -0.018362608803204322 0 -0.0033186610143589347 -0.018362608803204322 0 -0.0034562836382206622 -0.018048168285301817 0 -0.0037078359544043811 -0.018318557589765347 0 -0.003073447961197419 -0.018062922879422412 0 -0.0033186610143589347 -0.018362608803204322 0 -0.0034562836382206622 -0.018048168285301817 0 -0.0030393262768429715 -0.017636440707772719 0 -0.003073447961197419 -0.018062922879422412 0 -0.0034562836382206622 -0.018048168285301817 0 -0.0030393262768429715 -0.017636440707772719 0 -0.0034405128705257918 -0.017759643257107639 0 -0.0034562836382206622 -0.018048168285301817 0 -0.0040272811308697505 -0.018190576421885835 0 -0.0034405128705257918 -0.017759643257107639 0 -0.0034562836382206622 -0.018048168285301817 0 -0.0040272811308697505 -0.018190576421885835 0 -0.0034562836382206622 -0.018048168285301817 0 -0.0037078359544043811 -0.018318557589765347 0 -0.0040272811308697505 -0.018190576421885835 0 -0.0037078359544043811 -0.018318557589765347 0 -0.0037859821199190155 -0.018598145954531055 0 -0.0033186610143589347 -0.018362608803204322 0 -0.0037078359544043811 -0.018318557589765347 0 -0.0035632887832662227 -0.018606167330291822 0 -0.0037078359544043811 -0.018318557589765347 0 -0.0037859821199190155 -0.018598145954531055 0 -0.0035632887832662227 -0.018606167330291822 0 -0.0037859821199190155 -0.018598145954531055 0 -0.0035632887832662227 -0.018606167330291822 0 -0.0036680438057001877 -0.01890761448170682 0 -0.0040028847561167594 -0.018897841517864538 0 -0.0037859821199190155 -0.018598145954531055 0 -0.0036680438057001877 -0.01890761448170682 0 -0.0038322854439152344 -0.01913865781338291 0 -0.0036680438057001877 -0.01890761448170682 0 -0.0034433164762757381 -0.01929280740411473 0 -0.0040028847561167594 -0.018897841517864538 0 -0.0038322854439152344 -0.01913865781338291 0 -0.0036680438057001877 -0.01890761448170682 0 -0.0036680438057001877 -0.01890761448170682 0 -0.0032723687167768101 -0.018821289326999703 0 -0.0034433164762757381 -0.01929280740411473 0 -0.0033186610143589347 -0.018362608803204322 0 -0.0035632887832662227 -0.018606167330291822 0 -0.0032723687167768101 -0.018821289326999703 0 -0.002933423379747049 -0.018522446883220949 0 -0.0033186610143589347 -0.018362608803204322 0 -0.0032723687167768101 -0.018821289326999703 0 -0.0035632887832662227 -0.018606167330291822 0 -0.0036680438057001877 -0.01890761448170682 0 -0.0032723687167768101 -0.018821289326999703 0 -0.0023005405267754199 -0.019213670728430519 0 -0.0028871305268325237 -0.019080427638853828 0 -0.0025785925244864939 -0.018588725776110943 0 -0.002933423379747049 -0.018522446883220949 0 -0.0032723687167768101 -0.018821289326999703 0 -0.0028871305268325237 -0.019080427638853828 0 -0.0032723687167768101 -0.018821289326999703 0 -0.0028871305268325237 -0.019080427638853828 0 -0.0034433164762757381 -0.01929280740411473 0 -0.002933423379747049 -0.018522446883220949 0 -0.0028871305268325237 -0.019080427638853828 0 -0.0025785925244864939 -0.018588725776110943 0 -0.0028871305268325237 -0.019080427638853828 0 -0.0030109223900676189 -0.019771603395313347 0 -0.0034433164762757381 -0.01929280740411473 0 -0.0023005405267754199 -0.019213670728430519 0 -0.0028871305268325237 -0.019080427638853828 0 -0.0030109223900676189 -0.019771603395313347 0 -0.0030109223900676189 -0.019771603395313347 0 -0.0037146359830171356 -0.01962613989562163 0 -0.003586470036104249 -0.02015169073882107 0 -0.0037146359830171356 -0.01962613989562163 0 -0.003586470036104249 -0.02015169073882107 0 -0.004344256478755938 -0.019662908016488255 0 -0.0030109223900676189 -0.019771603395313347 0 -0.0034433164762757381 -0.01929280740411473 0 -0.0037146359830171356 -0.01962613989562163 0 -0.0038322854439152344 -0.01913865781338291 0 -0.0034433164762757381 -0.01929280740411473 0 -0.0038738770120851523 -0.0193806080589989 0 -0.0034433164762757381 -0.01929280740411473 0 -0.0038738770120851523 -0.0193806080589989 0 -0.0037146359830171356 -0.01962613989562163 0 -0.0038738770120851523 -0.0193806080589989 0 -0.0037146359830171356 -0.01962613989562163 0 -0.0040922861137123135 -0.019485066742465605 0 -0.0058773902221910283 -0.021450923218156583 0 -0.0063272435370256355 -0.021714459781127186 0 -0.005898947922738958 -0.022024245904847948 0 -0.005064322889100038 -0.02015077833505128 0 -0.0038425703462805815 -0.021439100984957511 0 -0.0030109223900676189 -0.019771603395313347 0 -0.003586470036104249 -0.02015169073882107 0 -0.0030677358914781416 -0.020705744048260699 0 -0.0018583795180409761 -0.031302903068316512 0 -0.0021612357076686729 -0.032994180228034679 0 -0.00097767207267292645 -0.034777747342520676 0 -0.001024063988281366 -0.034878527038466417 0 -0.0011761464646205747 -0.034662869366623883 0 -0.0018562910653444663 -0.029426239511453754 0 -0.0023213653665176198 -0.029086622011080407 0 -0.0030740358480245769 -0.03281956038262307 0 -0.00097767207267292645 -0.034777747342520676 0 -0.00086953864039248361 -0.034868222298462877 0 -0.001024063988281366 -0.034878527038466417 0 -0.00097767207267292645 -0.034777747342520676 0 -0.00087279213402963077 -0.034821489944629788 0 -0.00088659348078512967 -0.034779747891925221 0 -0.00087279213402963077 -0.034821489944629788 0 -0.00086953864039248361 -0.034868222298462877 0 -0.00073072154947310573 -0.034886339533987037 0 -0.00097767207267292645 -0.034777747342520676 0 -0.00087279213402963077 -0.034821489944629788 0 -0.00086953864039248361 -0.034868222298462877 0 -0.00070601249644637262 -0.034948853970546603 0 -0.00086953864039248361 -0.034868222298462877 0 -0.00073072154947310573 -0.034886339533987037 0 -0.00058461301927452739 -0.034935961795444927 0 -0.00070601249644637262 -0.034948853970546603 0 -0.0005583606106705232 -0.03499726231630388 0 8.5194202904010757e-05 -0.034947688105913963 0 -0.0018583795180409761 -0.031302903068316512 0 -0.00070601249644637262 -0.034948853970546603 0 -0.00086953864039248361 -0.034868222298462877 0 -0.001024063988281366 -0.034878527038466417 0 -0.0028666638036354605 -0.030034549887774351 0 -0.0041267946574713443 -0.025484312997264311 0 -0.0028666638036354605 -0.030034549887774351 0 -0.0018583795180409761 -0.031302903068316512 0 -0.0026832653588060081 -0.0301302227797174 0 -0.0026495341514981702 -0.030156305111600779 0 -0.0027366467953780409 -0.030388290665101521 0 -0.00055801036351530949 -0.034932903686195567 0 -0.00058461301927452739 -0.034935961795444927 0 -0.0005583606106705232 -0.03499726231630388 0 -0.0037146359830171356 -0.01962613989562163 0 -0.0040922861137123135 -0.019485066742465605 0 -0.004344256478755938 -0.019662908016488255 0 -0.0027134360252144682 -0.029092920538934863 0 -0.0027059774932248278 -0.029013419088171642 0 -0.0027448011446082284 -0.029020576424637446 0 -0.0041866095434799008 -0.019202221483616236 0 -0.0042449707196449615 -0.019427163591430392 0 -0.0044189665936889321 -0.019508939697239654 0 -0.0042449707196449615 -0.019427163591430392 0 -0.0042857422609181321 -0.019511458486222155 0 -0.0044189665936889321 -0.019508939697239654 0 -0.0042857422609181321 -0.019511458486222155 0 -0.0040922861137123135 -0.019485066742465605 0 -0.004344256478755938 -0.019662908016488255 0 -0.0041267946574713443 -0.025484312997264311 0 -0.00487407386529047 -0.024876158207275022 0 -0.0042857422609181321 -0.019511458486222155 0 -0.0044189665936889321 -0.019508939697239654 0 -0.004344256478755938 -0.019662908016488255 0 -0.0039381792751074195 -0.026563825988758602 0 -0.0039827768708634468 -0.026693323821275913 0 -0.0040615838428587981 -0.026475250272562287 0 -0.003632103518137403 -0.027822459556888939 0 -0.0041267946574713443 -0.025484312997264311 0 -0.0027367703083641141 -0.028991479831645062 0 -0.0027059774932248278 -0.029013419088171642 0 -0.0027448011446082284 -0.029020576424637446 0 -0.003632103518137403 -0.027822459556888939 0 -0.0018583795180409761 -0.031302903068316512 0 -0.0041866095434799008 -0.019202221483616236 0 -0.0038738770120851523 -0.0193806080589989 0 -0.0040922861137123135 -0.019485066742465605 0 -0.0041866095434799008 -0.019202221483616236 0 -0.0042449707196449615 -0.019427163591430392 0 -0.0040922861137123135 -0.019485066742465605 0 -0.0042449707196449615 -0.019427163591430392 0 -0.0042857422609181321 -0.019511458486222155 0 -0.0040922861137123135 -0.019485066742465605 0 -0.003632103518137403 -0.027822459556888939 0 -0.00487407386529047 -0.024876158207275022 0 -0.0058773902221910283 -0.021450923218156583 0 -0.0064924028516395692 -0.021102768614283843 0 -0.0063272435370256355 -0.021714459781127186 0 -0.005064322889100038 -0.02015077833505128 0 -0.00487407386529047 -0.024876158207275022 0 -0.00487407386529047 -0.024876158207275022 0 -0.0044035793389043234 -0.02630391420179071 0 -0.0026495341514981702 -0.030156305111600779 0 -0.0026649368652938237 -0.03043951307313263 0 -0.0027366467953780409 -0.030388290665101521 0 -0.0026495341514981702 -0.030156305111600779 0 -0.0026005564937351911 -0.030460743036967795 0 -0.0026649368652938237 -0.03043951307313263 0 -0.0026649368652938237 -0.03043951307313263 0 -0.0027366467953780409 -0.030388290665101521 0 -0.0026554058798053605 -0.030492313113292355 0 -0.003632103518137403 -0.027822459556888939 0 -0.0021612357076686729 -0.032994180228034679 0 -0.0012777656673191046 -0.03459860216395598 0 -0.0011761464646205747 -0.034662869366623883 0 -0.0010703117858049443 -0.034683383786586384 0 -0.0020922978449722765 -0.033948746064927947 0 -0.0021612357076686729 -0.032994180228034679 0 -0.00097767207267292645 -0.034777747342520676 0 -0.0011761464646205747 -0.034662869366623883 0 -0.0010703117858049443 -0.034683383786586384 0 -0.00097767207267292645 -0.034777747342520676 0 -0.0010703117858049443 -0.034683383786586384 0 -0.00088659348078512967 -0.034779747891925221 0 -0.0010703117858049443 -0.034683383786586384 0 -0.0011754014699834751 -0.034582791813083304 0 -0.00095328187551876463 -0.034666352072053618 0 -0.0012777656673191046 -0.03459860216395598 0 -0.0010703117858049443 -0.034683383786586384 0 -0.0011754014699834751 -0.034582791813083304 0 -0.0011754014699834751 -0.034582791813083304 0 -0.00095328187551876463 -0.034666352072053618 0 -0.0010694161252022567 -0.034500468211007537 0 -0.00095328187551876463 -0.034666352072053618 0 -0.00075011528797000264 -0.034660793355935318 0 -0.0010694161252022567 -0.034500468211007537 0 -0.00095328187551876463 -0.034666352072053618 0 -0.00075011528797000264 -0.034660793355935318 0 -0.00078128050544834233 -0.034777168899349183 0 -0.0010703117858049443 -0.034683383786586384 0 -0.00095328187551876463 -0.034666352072053618 0 -0.00088659348078512967 -0.034779747891925221 0 -0.00095328187551876463 -0.034666352072053618 0 -0.00078128050544834233 -0.034777168899349183 0 -0.00088659348078512967 -0.034779747891925221 0 -0.00075011528797000264 -0.034660793355935318 0 -0.0004880266037409881 -0.034677001648055497 0 -0.00048039200513466971 -0.034843676415792786 0 -0.00078128050544834233 -0.034777168899349183 0 -0.00048039200513466971 -0.034843676415792786 0 -0.00057302625265640169 -0.034880258118810133 0 -0.00075011528797000264 -0.034660793355935318 0 -0.00078128050544834233 -0.034777168899349183 0 -0.00048039200513466971 -0.034843676415792786 0 -0.0004880266037409881 -0.034677001648055497 0 -0.00048039200513466971 -0.034843676415792786 0 -0.00032535512481097112 -0.034838459842100794 0 -0.00048039200513466971 -0.034843676415792786 0 -0.00057302625265640169 -0.034880258118810133 0 -0.00033938856760734566 -0.034926781653114101 0 -0.00048039200513466971 -0.034843676415792786 0 -0.00033938856760734566 -0.034926781653114101 0 -0.00032535512481097112 -0.034838459842100794 0 -0.00057302625265640169 -0.034880258118810133 0 -0.00033938856760734566 -0.034926781653114101 0 -0.00050806956090006206 -0.034940814596383991 0 -0.00087279213402963077 -0.034821489944629788 0 -0.00088659348078512967 -0.034779747891925221 0 -0.00073072154947310573 -0.034886339533987037 0 -0.00078128050544834233 -0.034777168899349183 0 -0.00088659348078512967 -0.034779747891925221 0 -0.00073072154947310573 -0.034886339533987037 0 -0.00078128050544834233 -0.034777168899349183 0 -0.00057302625265640169 -0.034880258118810133 0 -0.00073072154947310573 -0.034886339533987037 0 -0.00073072154947310573 -0.034886339533987037 0 -0.00058830362275007295 -0.034946463202738427 0 -0.00050806956090006206 -0.034940814596383991 0 -0.00057302625265640169 -0.034880258118810133 0 -0.00073072154947310573 -0.034886339533987037 0 -0.00050806956090006206 -0.034940814596383991 0 -0.00058830362275007295 -0.034946463202738427 0 -0.00050806956090006206 -0.034940814596383991 0 -0.00044366050289661288 -0.034952617118894816 0 -0.00070601249644637262 -0.034948853970546603 0 -0.00073072154947310573 -0.034886339533987037 0 -0.00058830362275007295 -0.034946463202738427 0 -0.00056976448182096296 -0.03491962497729427 0 -0.00058830362275007295 -0.034946463202738427 0 -0.00050604605174352289 -0.034929549640308789 0 -0.00058830362275007295 -0.034946463202738427 0 -0.00050604605174352289 -0.034929549640308789 0 -0.00044366050289661288 -0.034952617118894816 0 -0.00030175921275353112 -0.0349727847655232 0 -0.00050806956090006206 -0.034940814596383991 0 -0.00044366050289661288 -0.034952617118894816 0 -0.00033938856760734566 -0.034926781653114101 0 -0.00030175921275353112 -0.0349727847655232 0 -0.00050806956090006206 -0.034940814596383991 0 -0.00031041327785091691 -0.034952693100419083 0 -0.00030175921275353112 -0.0349727847655232 0 -0.00044366050289661288 -0.034952617118894816 0 -0.00040831210340072605 -0.034910537248001909 0 -0.00031041327785091691 -0.034952693100419083 0 -0.00044366050289661288 -0.034952617118894816 0 -0.00040831210340072605 -0.034910537248001909 0 -0.00050604605174352289 -0.034929549640308789 0 -0.00044366050289661288 -0.034952617118894816 0 -0.00040831210340072605 -0.034910537248001909 0 -0.0004871827655161829 -0.034900426846993349 0 -0.00050604605174352289 -0.034929549640308789 0 -1.2101733003508033e-07 -0.03499995170417558 0 -0.00016637213271496039 -0.034981176063385466 0 -0.00013980405499996632 -0.034979758498093622 0 -0.00030175921275353112 -0.0349727847655232 0 -0.00016637213271496039 -0.034981176063385466 0 -0.00013980405499996632 -0.034979758498093622 0 -0.00031041327785091691 -0.034952693100419083 0 -0.00030175921275353112 -0.0349727847655232 0 -0.00016637213271496039 -0.034981176063385466 0 -0.00033938856760734566 -0.034926781653114101 0 -0.00030175921275353112 -0.0349727847655232 0 -0.00013980405499996632 -0.034979758498093622 0 -1.2101733003508033e-07 -0.03499995170417558 0 -0.00013980405499996632 -0.034979758498093622 0 -1.7241402083668167e-07 -0.035000050839041917 0 -0.00013980405499996632 -0.034979758498093622 0 -1.7241402083668167e-07 -0.035000050839041917 0 -0.00014687407920795559 -0.034908599733705116 0 -0.00033938856760734566 -0.034926781653114101 0 -0.00013980405499996632 -0.034979758498093622 0 -0.00014687407920795559 -0.034908599733705116 0 -0.00033938856760734566 -0.034926781653114101 0 -0.00032535512481097112 -0.034838459842100794 0 -0.00014687407920795559 -0.034908599733705116 0 -0.00014687407920795559 -0.034908599733705116 0 -3.2429076298132882e-05 -0.034868938346208064 0 -0.00020938001791593087 -0.034759316435208881 0 -0.00032535512481097112 -0.034838459842100794 0 -0.00014687407920795559 -0.034908599733705116 0 -0.00020938001791593087 -0.034759316435208881 0 -0.0004880266037409881 -0.034677001648055497 0 -0.00032535512481097112 -0.034838459842100794 0 -0.00020938001791593087 -0.034759316435208881 0 -1.7241402083668167e-07 -0.035000050839041917 0 3.7613641288848471e-07 -0.034998946303608419 0 -3.2429076298132882e-05 -0.034868938346208064 0 -1.7241402083668167e-07 -0.035000050839041917 0 -0.00014687407920795559 -0.034908599733705116 0 -3.2429076298132882e-05 -0.034868938346208064 0 3.7613641288848471e-07 -0.034998946303608419 0 5.3834312579421859e-05 -0.034764255947291531 0 -3.2429076298132882e-05 -0.034868938346208064 0 5.3834312579421859e-05 -0.034764255947291531 0 -3.2429076298132882e-05 -0.034868938346208064 0 -9.2901689234509957e-05 -0.03464280577811444 0 -3.2429076298132882e-05 -0.034868938346208064 0 -0.00020938001791593087 -0.034759316435208881 0 -9.2901689234509957e-05 -0.03464280577811444 0 -0.0004880266037409881 -0.034677001648055497 0 -0.00020938001791593087 -0.034759316435208881 0 -0.00039632385970638401 -0.03441303374544092 0 -0.00020938001791593087 -0.034759316435208881 0 -9.2901689234509957e-05 -0.03464280577811444 0 -0.00039632385970638401 -0.03441303374544092 0 -9.2901689234509957e-05 -0.03464280577811444 0 -2.9258155159851909e-05 -0.034358895478650696 0 -0.00039632385970638401 -0.03441303374544092 0 5.3834312579421859e-05 -0.034764255947291531 0 -9.2901689234509957e-05 -0.03464280577811444 0 -2.9258155159851909e-05 -0.034358895478650696 0 -2.9258155159851909e-05 -0.034358895478650696 0 -0.00039632385970638401 -0.03441303374544092 0 -0.00043895727813498468 -0.033701492554577571 0 -2.9258155159851909e-05 -0.034358895478650696 0 -0.00043895727813498468 -0.033701492554577571 0 0.00010179418929662045 -0.033652695326063464 0 -2.9258155159851909e-05 -0.034358895478650696 0 0.00020389202475989019 -0.034802590603177752 0 0.00010179418929662045 -0.033652695326063464 0 3.7613641288848471e-07 -0.034998946303608419 0 0.00020389202475989019 -0.034802590603177752 0 2.0690728974482649e-07 -0.034999773046402435 0 3.7613641288848471e-07 -0.034998946303608419 0 5.3834312579421859e-05 -0.034764255947291531 0 0.00020389202475989019 -0.034802590603177752 0 5.3834312579421859e-05 -0.034764255947291531 0 -2.9258155159851909e-05 -0.034358895478650696 0 0.00020389202475989019 -0.034802590603177752 0 -0.0010694161252022567 -0.034500468211007537 0 -0.001296144276350251 -0.034089641960342969 0 -0.0013222631826740291 -0.034412702513770647 0 -0.00075011528797000264 -0.034660793355935318 0 -0.0010694161252022567 -0.034500468211007537 0 -0.0008137625998373715 -0.034425699702568271 0 -0.0008137625998373715 -0.034425699702568271 0 -0.00082819092421941186 -0.034027877485731522 0 -0.001296144276350251 -0.034089641960342969 0 -0.0010694161252022567 -0.034500468211007537 0 -0.0008137625998373715 -0.034425699702568271 0 -0.001296144276350251 -0.034089641960342969 0 -0.0008137625998373715 -0.034425699702568271 0 -0.00039632385970638401 -0.03441303374544092 0 -0.00082819092421941186 -0.034027877485731522 0 -0.00075011528797000264 -0.034660793355935318 0 -0.0004880266037409881 -0.034677001648055497 0 -0.0008137625998373715 -0.034425699702568271 0 -0.0004880266037409881 -0.034677001648055497 0 -0.0008137625998373715 -0.034425699702568271 0 -0.00039632385970638401 -0.03441303374544092 0 -0.00043895727813498468 -0.033701492554577571 0 -0.00082819092421941186 -0.034027877485731522 0 -0.0011326744557115629 -0.033359884654141796 0 -0.00039632385970638401 -0.03441303374544092 0 -0.00043895727813498468 -0.033701492554577571 0 -0.00082819092421941186 -0.034027877485731522 0 -0.001296144276350251 -0.034089641960342969 0 -0.0011326744557115629 -0.033359884654141796 0 -0.0021384734356359866 -0.033048682183985996 0 -0.00082819092421941186 -0.034027877485731522 0 -0.001296144276350251 -0.034089641960342969 0 -0.0011326744557115629 -0.033359884654141796 0 -0.0011326744557115629 -0.033359884654141796 0 -0.0012616264183360935 -0.032129116593995907 0 -0.0021384734356359866 -0.033048682183985996 0 -0.00043895727813498468 -0.033701492554577571 0 -0.00070336895992402493 -0.032743396283345452 0 -0.0001028114700792486 -0.03266542546435857 0 -0.00043895727813498468 -0.033701492554577571 0 -0.0011326744557115629 -0.033359884654141796 0 -0.00070336895992402493 -0.032743396283345452 0 -0.0011326744557115629 -0.033359884654141796 0 -0.00070336895992402493 -0.032743396283345452 0 -0.0012616264183360935 -0.032129116593995907 0 -0.00070336895992402493 -0.032743396283345452 0 -0.00061570129987877965 -0.031774860442293579 0 -0.0001028114700792486 -0.03266542546435857 0 -0.00061570129987877965 -0.031774860442293579 0 -1.129530555487309e-05 -0.031569993987423633 0 -0.00053624769159472225 -0.030669658129707077 0 -0.00061570129987877965 -0.031774860442293579 0 -0.0012616264183360935 -0.032129116593995907 0 -0.0012650651838817415 -0.030871418522653619 0 -0.00061570129987877965 -0.031774860442293579 0 -0.00053624769159472225 -0.030669658129707077 0 -0.0012650651838817415 -0.030871418522653619 0 -0.00070336895992402493 -0.032743396283345452 0 -0.00061570129987877965 -0.031774860442293579 0 -0.0012616264183360935 -0.032129116593995907 0 -0.0012616264183360935 -0.032129116593995907 0 -0.002121049510730224 -0.030835880449488973 0 -0.0021384734356359866 -0.033048682183985996 0 -0.0012616264183360935 -0.032129116593995907 0 -0.002121049510730224 -0.030835880449488973 0 -0.0012650651838817415 -0.030871418522653619 0 0.00020389202475989019 -0.034802590603177752 0 0.00010179418929662045 -0.033652695326063464 0 0.0008488211544928348 -0.032423568898236638 0 0.00026628216291522819 -0.034634825762906933 0 0.00037943272245093471 -0.033708157997583692 0 0.00020389202475989019 -0.034802590603177752 0 2.0690728974482649e-07 -0.034999773046402435 0 2.4313358579281928e-05 -0.035024284888791869 0 -0.00043895727813498468 -0.033701492554577571 0 0.00010179418929662045 -0.033652695326063464 0 -0.0001028114700792486 -0.03266542546435857 0 0.00010179418929662045 -0.033652695326063464 0 -0.0001028114700792486 -0.03266542546435857 0 0.0008488211544928348 -0.032423568898236638 0 -1.129530555487309e-05 -0.031569993987423633 0 0.0008488211544928348 -0.032423568898236638 0 0.00043552019323317442 -0.030359860557166708 0 0.00037943272245093471 -0.033708157997583692 0 0.00019190171308893679 -0.032673008757069244 0 -0.0001028114700792486 -0.03266542546435857 0 -1.129530555487309e-05 -0.031569993987423633 0 0.0008488211544928348 -0.032423568898236638 0 -0.00061570129987877965 -0.031774860442293579 0 -0.0001028114700792486 -0.03266542546435857 0 -1.129530555487309e-05 -0.031569993987423633 0 2.0690728974482649e-07 -0.034999773046402435 0 2.4313358579281928e-05 -0.035024284888791869 0 -2.9376226545173652e-08 -0.035000080493735194 0 2.4313358579281928e-05 -0.035024284888791869 0 -2.9376226545173652e-08 -0.035000080493735194 0 -7.4364825581647559e-06 -0.034985769683523814 0 -2.9376226545173652e-08 -0.035000080493735194 0 -6.7872302046172887e-06 -0.034987824291368742 0 -7.4364825581647559e-06 -0.034985769683523814 0 -2.9376226545173652e-08 -0.035000080493735194 0 -6.7872302046172887e-06 -0.034987824291368742 0 4.2796948980413029e-09 -0.034999940503490083 0 0.00043552019323317442 -0.030359860557166708 0 -0.00051125863207659137 -0.029755920625212786 0 -0.00022247535492702408 -0.028922766519587223 0 0.00019190171308893679 -0.032673008757069244 0 -2.2077652275689877e-05 -0.032015186216944908 0 -6.7872302046172887e-06 -0.034987824291368742 0 -7.4364825581647559e-06 -0.034985769683523814 0 -2.0128387199063008e-05 -0.034973492313968534 0 0.00043552019323317442 -0.030359860557166708 0 -0.00053624769159472225 -0.030669658129707077 0 -0.00051125863207659137 -0.029755920625212786 0 -1.129530555487309e-05 -0.031569993987423633 0 0.00043552019323317442 -0.030359860557166708 0 -0.00053624769159472225 -0.030669658129707077 0 -0.00053624769159472225 -0.030669658129707077 0 -0.0012650651838817415 -0.030871418522653619 0 -0.0012397250532912604 -0.02983988418513921 0 -0.00053624769159472225 -0.030669658129707077 0 -0.0012397250532912604 -0.02983988418513921 0 -0.00051125863207659137 -0.029755920625212786 0 -0.001875188033983236 -0.030223387237250734 0 -0.0012397250532912604 -0.02983988418513921 0 -0.0021101972811348882 -0.029601079728088023 0 -0.0012650651838817415 -0.030871418522653619 0 -0.001875188033983236 -0.030223387237250734 0 -0.0012397250532912604 -0.02983988418513921 0 -0.002121049510730224 -0.030835880449488973 0 -0.0012650651838817415 -0.030871418522653619 0 -0.001875188033983236 -0.030223387237250734 0 -0.0018475708637065919 -0.029125863273742114 0 -0.0012397250532912604 -0.02983988418513921 0 -0.00091882285269947485 -0.029139369818008017 0 -0.0018475708637065919 -0.029125863273742114 0 -0.0012397250532912604 -0.02983988418513921 0 -0.0021101972811348882 -0.029601079728088023 0 -0.0012397250532912604 -0.02983988418513921 0 -0.00051125863207659137 -0.029755920625212786 0 -0.00091882285269947485 -0.029139369818008017 0 -0.00051125863207659137 -0.029755920625212786 0 -0.00091882285269947485 -0.029139369818008017 0 -0.00022247535492702408 -0.028922766519587223 0 -0.00091882285269947485 -0.029139369818008017 0 -0.00078471541411864883 -0.028661076596480078 0 -0.00022247535492702408 -0.028922766519587223 0 -0.00091882285269947485 -0.029139369818008017 0 -0.00078471541411864883 -0.028661076596480078 0 -0.001290370335916031 -0.028605725642245752 0 -0.0018475708637065919 -0.029125863273742114 0 -0.00091882285269947485 -0.029139369818008017 0 -0.001290370335916031 -0.028605725642245752 0 -0.001290370335916031 -0.028605725642245752 0 -0.0014506181708129021 -0.028323706742603396 0 -0.00071303185947431305 -0.028062314386217212 0 -0.0011766277346253393 -0.028621114649359684 0 -0.0010967923111686543 -0.031357480269761852 0 -0.00078471541411864883 -0.028661076596480078 0 -0.001290370335916031 -0.028605725642245752 0 -0.00071303185947431305 -0.028062314386217212 0 -0.00078471541411864883 -0.028661076596480078 0 -0.00071303185947431305 -0.028062314386217212 0 -0.00022247535492702408 -0.028922766519587223 0 -0.0010967923111686543 -0.031357480269761852 0 -0.00012477388997084816 -0.034136737265478424 0 -5.2545222644130758e-05 -0.034918446791874058 0 -2.9805338142853097e-05 -0.034919087107297707 0 -1.3645676175498657e-05 -0.034957728586409671 0 -0.00012477388997084816 -0.034136737265478424 0 0.00014564828598915948 -0.034906289679945413 0 -5.2545222644130758e-05 -0.034918446791874058 0 -1.3645676175498657e-05 -0.034957728586409671 0 -2.0128387199063008e-05 -0.034973492313968534 0 -0.0010967923111686543 -0.031357480269761852 0 -2.2077652275689877e-05 -0.032015186216944908 0 -1.3877257982690492e-05 -0.034954634137292287 0 -1.3645676175498657e-05 -0.034957728586409671 0 -1.4473791427518832e-08 -0.034999948332699177 0 4.2796948980413029e-09 -0.034999940503490083 0 -5.4634016749010593e-06 -0.034981192599170749 0 -1.4473791427518832e-08 -0.034999948332699177 0 -1.3645676175498657e-05 -0.034957728586409671 0 -5.4634016749010593e-06 -0.034981192599170749 0 -1.4473791427518832e-08 -0.034999948332699177 0 -6.7872302046172887e-06 -0.034987824291368742 0 4.2796948980413029e-09 -0.034999940503490083 0 -5.4634016749010593e-06 -0.034981192599170749 0 -1.3645676175498657e-05 -0.034957728586409671 0 -5.4634016749010593e-06 -0.034981192599170749 0 -2.0128387199063008e-05 -0.034973492313968534 0 -6.7872302046172887e-06 -0.034987824291368742 0 -5.4634016749010593e-06 -0.034981192599170749 0 -2.0128387199063008e-05 -0.034973492313968534 0 -0.0014743580335661187 -0.028396643175843801 0 -0.0012147047540653844 -0.028442280646640221 0 -0.00098241116140929856 -0.028243009882924986 0 -0.0012147047540653844 -0.028442280646640221 0 -0.0014136053136554604 -0.028548101780551602 0 -0.00094371499210503789 -0.028580406322755519 0 -0.0024356792893932278 -0.028517017137071336 0 -0.0022816567716210175 -0.028435433826968243 0 -0.0014743580335661187 -0.028396643175843801 0 -0.0012147047540653844 -0.028442280646640221 0 -0.0014136053136554604 -0.028548101780551602 0 0.00115077472005731 -0.029350539772793924 0 0.0016507927063022191 -0.029789660761332618 0 0.0010885434559672336 -0.029907428879237689 0 0.00115077472005731 -0.029350539772793924 0 0.001906507656953878 -0.029355688914743515 0 0.0016507927063022191 -0.029789660761332618 0 -0.00013071997202764851 -0.028948518133466716 0 0.00047955889332018155 -0.02895030563054524 0 -0.0014743580335661187 -0.028396643175843801 0 -0.0014136053136554604 -0.028548101780551602 0 -0.001606122549615927 -0.02848601008317151 0 -0.00013071997202764851 -0.028948518133466716 0 -0.00069591417919754467 -0.028960445781587654 0 0.00115077472005731 -0.029350539772793924 0 0.0002120157074238375 -0.029375083018490771 0 0.0010885434559672336 -0.029907428879237689 0 -0.0014506181708129021 -0.028323706742603396 0 -0.001606122549615927 -0.02848601008317151 0 -0.0016118473817744697 -0.028502025120850503 0 -0.0011766277346253393 -0.028621114649359684 0 -0.00069591417919754467 -0.028960445781587654 0 -0.001290370335916031 -0.028605725642245752 0 -0.0014506181708129021 -0.028323706742603396 0 -0.0016118473817744697 -0.028502025120850503 0 -0.00089977986181348382 -0.029472067215863599 0 0.0002120157074238375 -0.029375083018490771 0 -5.0037796669439581e-05 -0.029993170236857981 0 -0.0018475708637065919 -0.029125863273742114 0 -0.001290370335916031 -0.028605725642245752 0 -0.0025462065356405745 -0.028684850601515842 0 -0.0013328638905079023 -0.028592420949563806 0 -0.0020582258647607664 -0.028593420195465208 0 -0.0024356792893932278 -0.028517017137071336 0 -0.0020582258647607664 -0.028593420195465208 0 -0.0014743580335661187 -0.028396643175843801 0 -0.001606122549615927 -0.02848601008317151 0 -0.0016118473817744697 -0.028502025120850503 0 -0.003381695188665271 -0.028644626937280322 0 -0.0025462065356405745 -0.028684850601515842 0 -0.0029676905611948508 -0.029024217899535763 0 -0.0025462065356405745 -0.028684850601515842 0 -0.0029676905611948508 -0.029024217899535763 0 -0.0025491741564754727 -0.029326237226164644 0 -0.0029676905611948508 -0.029024217899535763 0 -0.0025491741564754727 -0.029326237226164644 0 -0.0028411804972576496 -0.029513344599688945 0 -0.0018475708637065919 -0.029125863273742114 0 -0.0025491741564754727 -0.029326237226164644 0 -0.0021101972811348882 -0.029601079728088023 0 -0.0018475708637065919 -0.029125863273742114 0 -0.0025462065356405745 -0.028684850601515842 0 -0.0025491741564754727 -0.029326237226164644 0 -0.0025491741564754727 -0.029326237226164644 0 -0.0021101972811348882 -0.029601079728088023 0 -0.0024611496636785858 -0.030127906975323717 0 -0.001875188033983236 -0.030223387237250734 0 -0.0021101972811348882 -0.029601079728088023 0 -0.0024611496636785858 -0.030127906975323717 0 -0.002121049510730224 -0.030835880449488973 0 -0.001875188033983236 -0.030223387237250734 0 -0.0024611496636785858 -0.030127906975323717 0 -0.0025491741564754727 -0.029326237226164644 0 -0.0024611496636785858 -0.030127906975323717 0 -0.0028411804972576496 -0.029513344599688945 0 -0.0024611496636785858 -0.030127906975323717 0 -0.0028411804972576496 -0.029513344599688945 0 -0.0028039792467524929 -0.029886397406400943 0 -0.0028411804972576496 -0.029513344599688945 0 -0.0028039792467524929 -0.029886397406400943 0 -0.0030977334995165372 -0.029602847011269435 0 -0.0030977334995165372 -0.029602847011269435 0 -0.0033976318864371068 -0.029381039848531871 0 -0.0032779442062243753 -0.029967838162295327 0 -0.0030977334995165372 -0.029602847011269435 0 -0.0031249080761707564 -0.029265575882783681 0 -0.0033822839569310164 -0.029042023205760745 0 -0.0030977334995165372 -0.029602847011269435 0 -0.0033822839569310164 -0.029042023205760745 0 -0.0033976318864371068 -0.029381039848531871 0 -0.0028411804972576496 -0.029513344599688945 0 -0.0030977334995165372 -0.029602847011269435 0 -0.0031249080761707564 -0.029265575882783681 0 -0.0029676905611948508 -0.029024217899535763 0 -0.0031249080761707564 -0.029265575882783681 0 -0.0032883514207446003 -0.028925190777452849 0 -0.0029676905611948508 -0.029024217899535763 0 -0.0028411804972576496 -0.029513344599688945 0 -0.0031249080761707564 -0.029265575882783681 0 -0.0031249080761707564 -0.029265575882783681 0 -0.0032883514207446003 -0.028925190777452849 0 -0.0033822839569310164 -0.029042023205760745 0 -0.003381695188665271 -0.028644626937280322 0 -0.0029676905611948508 -0.029024217899535763 0 -0.0032883514207446003 -0.028925190777452849 0 -0.003381695188665271 -0.028644626937280322 0 -0.0036045207228472338 -0.02867284521787062 0 -0.0036837809337830667 -0.028561904182319325 0 -0.003381695188665271 -0.028644626937280322 0 -0.0032883514207446003 -0.028925190777452849 0 -0.0036045207228472338 -0.02867284521787062 0 -0.0036045207228472338 -0.02867284521787062 0 -0.0035817521294540747 -0.028871587324766964 0 -0.0033822839569310164 -0.029042023205760745 0 -0.0032883514207446003 -0.028925190777452849 0 -0.0036045207228472338 -0.02867284521787062 0 -0.0033822839569310164 -0.029042023205760745 0 -0.0035817521294540747 -0.028871587324766964 0 -0.0033822839569310164 -0.029042023205760745 0 -0.0033976318864371068 -0.029381039848531871 0 -0.0035817521294540747 -0.028871587324766964 0 -0.0033976318864371068 -0.029381039848531871 0 -0.0037370151504895013 -0.029619789536569581 0 -0.0045120232750949308 -0.027370825080028804 0 -0.0039698025399136369 -0.028396754998573168 0 -0.0037370151504895013 -0.029619789536569581 0 -0.0032779442062243753 -0.029967838162295327 0 -0.0031322081960024617 -0.030575402109491046 0 -0.0051413673392918767 -0.025530099257649565 0 -0.0060063536946250032 -0.023988486923254691 0 -0.0050540911418098045 -0.024373603203698097 0 -0.0051413673392918767 -0.025530099257649565 0 -0.0050540911418098045 -0.024373603203698097 0 -0.0041168136457832658 -0.024820379282799305 0 -0.0033976318864371068 -0.029381039848531871 0 -0.0037370151504895013 -0.029619789536569581 0 -0.0032779442062243753 -0.029967838162295327 0 -0.0030977334995165372 -0.029602847011269435 0 -0.0029185317227522411 -0.030159965460006898 0 -0.0032779442062243753 -0.029967838162295327 0 -0.0028039792467524929 -0.029886397406400943 0 -0.0030977334995165372 -0.029602847011269435 0 -0.0029185317227522411 -0.030159965460006898 0 -0.0030806456129710068 -0.030638165646833512 0 -0.0039698025399136369 -0.028396754998573168 0 -0.0029185317227522411 -0.030159965460006898 0 -0.0032779442062243753 -0.029967838162295327 0 -0.0030643125868997129 -0.030494996797472345 0 -0.0029185317227522411 -0.030159965460006898 0 -0.0030643125868997129 -0.030494996797472345 0 -0.0027162783823458658 -0.030509385595727665 0 -0.0030643125868997129 -0.030494996797472345 0 -0.0027162783823458658 -0.030509385595727665 0 -0.0027080203433146391 -0.030650978266090676 0 -0.0039698025399136369 -0.028396754998573168 0 -0.0024918615739011325 -0.030720688642104171 0 -0.0060063536946250032 -0.023988486923254691 0 -0.0052926953590814183 -0.023794824548082707 0 -0.0053046355439064895 -0.023018321766391809 0 -0.0060063536946250032 -0.023988486923254691 0 -0.0052926953590814183 -0.023794824548082707 0 -0.0050540911418098045 -0.024373603203698097 0 -0.0052926953590814183 -0.023794824548082707 0 -0.0053046355439064895 -0.023018321766391809 0 -0.0045377297227962915 -0.023773729561423748 0 -0.0052926953590814183 -0.023794824548082707 0 -0.0050540911418098045 -0.024373603203698097 0 -0.0045377297227962915 -0.023773729561423748 0 -0.002121049510730224 -0.030835880449488973 0 -0.0024611496636785858 -0.030127906975323717 0 -0.0024693791998987211 -0.030562522030881938 0 -0.002121049510730224 -0.030835880449488973 0 -0.0024693791998987211 -0.030562522030881938 0 -0.0024906695166683674 -0.030613270173436829 0 -0.0021294611281668938 -0.030863823519358142 0 -0.0022750845357546001 -0.031779387366236998 0 -0.0024611496636785858 -0.030127906975323717 0 -0.0024693791998987211 -0.030562522030881938 0 -0.0026744192908525854 -0.030266169711295639 0 -0.0024693791998987211 -0.030562522030881938 0 -0.0026744192908525854 -0.030266169711295639 0 -0.0027162783823458658 -0.030509385595727665 0 -0.0024611496636785858 -0.030127906975323717 0 -0.0028039792467524929 -0.029886397406400943 0 -0.0026744192908525854 -0.030266169711295639 0 -0.0028039792467524929 -0.029886397406400943 0 -0.0029185317227522411 -0.030159965460006898 0 -0.0026744192908525854 -0.030266169711295639 0 -0.0029185317227522411 -0.030159965460006898 0 -0.0026744192908525854 -0.030266169711295639 0 -0.0027162783823458658 -0.030509385595727665 0 -0.0024693791998987211 -0.030562522030881938 0 -0.0027162783823458658 -0.030509385595727665 0 -0.0025830278367252354 -0.030612893413394144 0 -0.0027162783823458658 -0.030509385595727665 0 -0.0025830278367252354 -0.030612893413394144 0 -0.0027080203433146391 -0.030650978266090676 0 -0.0024693791998987211 -0.030562522030881938 0 -0.0024906695166683674 -0.030613270173436829 0 -0.0025830278367252354 -0.030612893413394144 0 -0.001296144276350251 -0.034089641960342969 0 -0.0021384734356359866 -0.033048682183985996 0 -0.0016705931591480586 -0.034180501006446901 0 -0.0024906695166683674 -0.030613270173436829 0 -0.0025830278367252354 -0.030612893413394144 0 -0.0026528216595438419 -0.030565192946248855 0 -0.0022750845357546001 -0.031779387366236998 0 -0.0021259835623401351 -0.032222983190442388 0 -0.0025830278367252354 -0.030612893413394144 0 -0.0026166473421110358 -0.030537344967077468 0 -0.0026528216595438419 -0.030565192946248855 0 -0.0025830278367252354 -0.030612893413394144 0 -0.0027080203433146391 -0.030650978266090676 0 -0.0026166473421110358 -0.030537344967077468 0 -0.0024918615739011325 -0.030720688642104171 0 -0.0027153137870115263 -0.030437475845379924 0 -0.002689233242324418 -0.030302262696455216 0 -0.0026666833790441428 -0.030490406791752089 0 -0.0026166473421110358 -0.030537344967077468 0 -0.002689233242324418 -0.030302262696455216 0 -0.0026666833790441428 -0.030490406791752089 0 -0.0027518423012238397 -0.03044576622692257 0 -0.0044035793389043234 -0.02630391420179071 0 -0.0045860843646737398 -0.026247901874916706 0 -0.0026005564937351911 -0.030460743036967795 0 -0.0026666833790441428 -0.030490406791752089 0 -0.0027518423012238397 -0.03044576622692257 0 -0.0026005564937351911 -0.030460743036967795 0 -0.0026666833790441428 -0.030490406791752089 0 -0.0026366563502573108 -0.030493403132122038 0 -0.0026649368652938237 -0.03043951307313263 0 -0.0026366563502573108 -0.030493403132122038 0 -0.0026554058798053605 -0.030492313113292355 0 -0.0026005564937351911 -0.030460743036967795 0 -0.0026649368652938237 -0.03043951307313263 0 -0.0026366563502573108 -0.030493403132122038 0 -0.0026366563502573108 -0.030493403132122038 0 -0.0026554058798053605 -0.030492313113292355 0 -0.0026166473421110358 -0.030537344967077468 0 -0.0026666833790441428 -0.030490406791752089 0 -0.0026366563502573108 -0.030493403132122038 0 -0.0026166473421110358 -0.030537344967077468 0 -0.0027366467953780409 -0.030388290665101521 0 -0.0026554058798053605 -0.030492313113292355 0 -0.0026528216595438419 -0.030565192946248855 0 -0.0012777656673191046 -0.03459860216395598 0 -0.0011685894415554923 -0.034735648617294147 0 -0.0016705931591480586 -0.034180501006446901 0 -0.0021612357076686729 -0.032994180228034679 0 -0.0021259835623401351 -0.032222983190442388 0 -0.0012777656673191046 -0.03459860216395598 0 -0.0016705931591480586 -0.034180501006446901 0 -0.0013222631826740291 -0.034412702513770647 0 -0.0026554058798053605 -0.030492313113292355 0 -0.0026166473421110358 -0.030537344967077468 0 -0.0026528216595438419 -0.030565192946248855 0 -0.0011754014699834751 -0.034582791813083304 0 -0.0010694161252022567 -0.034500468211007537 0 -0.0013222631826740291 -0.034412702513770647 0 -0.0012777656673191046 -0.03459860216395598 0 -0.0011754014699834751 -0.034582791813083304 0 -0.0013222631826740291 -0.034412702513770647 0 -0.001296144276350251 -0.034089641960342969 0 -0.0016705931591480586 -0.034180501006446901 0 -0.0013222631826740291 -0.034412702513770647 0 -0.0053046355439064895 -0.023018321766391809 0 -0.0056420439750107347 -0.022485295442993693 0 -0.0048485371676568172 -0.021894301726020034 0 -0.0053046355439064895 -0.023018321766391809 0 -0.0048485371676568172 -0.021894301726020034 0 -0.0044470766751934683 -0.022793045864082186 0 -0.0053046355439064895 -0.023018321766391809 0 -0.0044470766751934683 -0.022793045864082186 0 -0.0045377297227962915 -0.023773729561423748 0 -0.0029578240940649017 -0.030020616291340545 0 -0.002689233242324418 -0.030302262696455216 0 -0.0027518423012238397 -0.03044576622692257 0 -0.0053046355439064895 -0.023018321766391809 0 -0.0062148569640370147 -0.022672156819287574 0 -0.0056420439750107347 -0.022485295442993693 0 -0.0060063536946250032 -0.023988486923254691 0 -0.0053046355439064895 -0.023018321766391809 0 -0.0062148569640370147 -0.022672156819287574 0 -0.0039698025399136369 -0.028396754998573168 0 -0.0045860843646737398 -0.026247901874916706 0 -0.0062148569640370147 -0.022672156819287574 0 -0.0056420439750107347 -0.022485295442993693 0 -0.005898947922738958 -0.022024245904847948 0 -0.0063272435370256355 -0.021714459781127186 0 -0.0062148569640370147 -0.022672156819287574 0 -0.005898947922738958 -0.022024245904847948 0 -0.0058773902221910283 -0.021450923218156583 0 -0.005898947922738958 -0.022024245904847948 0 -0.0048485371676568172 -0.021894301726020034 0 -0.0056420439750107347 -0.022485295442993693 0 -0.005898947922738958 -0.022024245904847948 0 -0.0048485371676568172 -0.021894301726020034 0 -0.0038425703462805815 -0.021439100984957511 0 -0.0029303139650095722 -0.022135674919080802 0 -0.0023696954479846873 -0.020125099214698804 0 -0.0030677358914781416 -0.020705744048260699 0 -0.0025379451780335174 -0.021672975958422963 0 -0.0044470766751934683 -0.022793045864082186 0 -0.0034145522680027272 -0.022522605598058746 0 -0.0032983158666321029 -0.023757235964309842 0 -0.0048485371676568172 -0.021894301726020034 0 -0.0044470766751934683 -0.022793045864082186 0 -0.0034145522680027272 -0.022522605598058746 0 -0.0029303139650095722 -0.022135674919080802 0 -0.0016575624429792063 -0.023177731573173526 0 -0.0023696954479846873 -0.020125099214698804 0 -0.0025379451780335174 -0.021672975958422963 0 -0.0015432377531508445 -0.020555586611809038 0 -0.0025379451780335174 -0.021672975958422963 0 -0.0015432377531508445 -0.020555586611809038 0 -0.0010621218930558958 -0.021702249981978793 0 -0.0015432377531508445 -0.020555586611809038 0 -0.00066667843475642691 -0.020513715898626595 0 -0.0010621218930558958 -0.021702249981978793 0 1.0649794492221052e-05 -0.019620323067231368 0 -4.5884448122341497e-05 -0.021059834676159822 0 -0.00066667843475642691 -0.020513715898626595 0 -4.5884448122341497e-05 -0.021059834676159822 0 -0.00066667843475642691 -0.020513715898626595 0 -0.0010621218930558958 -0.021702249981978793 0 -4.5884448122341497e-05 -0.021059834676159822 0 -6.8200528329233313e-05 -0.022770551106755844 0 -0.0010621218930558958 -0.021702249981978793 0 -6.8200528329233313e-05 -0.022770551106755844 0 -0.0010621218930558958 -0.021702249981978793 0 -0.0016389704285498152 -0.023221663486204927 0 -0.0025379451780335174 -0.021672975958422963 0 -0.0010621218930558958 -0.021702249981978793 0 -0.0016389704285498152 -0.023221663486204927 0 -0.0016389704285498152 -0.023221663486204927 0 -0.00048148111130003556 -0.024319348801925249 0 -0.0015192245016662125 -0.024788917693561424 0 -6.8200528329233313e-05 -0.022770551106755844 0 -0.00048148111130003556 -0.024319348801925249 0 0.00063497147922947719 -0.024459562196871579 0 -6.8200528329233313e-05 -0.022770551106755844 0 -0.0016389704285498152 -0.023221663486204927 0 -0.00048148111130003556 -0.024319348801925249 0 -0.00048148111130003556 -0.024319348801925249 0 -4.3011095101858401e-05 -0.025351062860543609 0 0.00063497147922947719 -0.024459562196871579 0 -0.00048148111130003556 -0.024319348801925249 0 -4.3011095101858401e-05 -0.025351062860543609 0 -0.00086545782890663574 -0.025676849764574728 0 -0.0015192245016662125 -0.024788917693561424 0 -0.0028633416210705133 -0.025430764794948085 0 -0.0018396094809671126 -0.025998770753645151 0 -0.00048148111130003556 -0.024319348801925249 0 -0.0015192245016662125 -0.024788917693561424 0 -0.00086545782890663574 -0.025676849764574728 0 -0.0015192245016662125 -0.024788917693561424 0 -0.0018396094809671126 -0.025998770753645151 0 -0.00086545782890663574 -0.025676849764574728 0 -0.0028633416210705133 -0.025430764794948085 0 -0.0041168136457832658 -0.024820379282799305 0 -0.0032983158666321029 -0.023757235964309842 0 -0.0015192245016662125 -0.024788917693561424 0 -0.0028633416210705133 -0.025430764794948085 0 -0.0032983158666321029 -0.023757235964309842 0 -0.0028633416210705133 -0.025430764794948085 0 -0.0041168136457832658 -0.024820379282799305 0 -0.003686594280285609 -0.026086133573465887 0 -0.0051413673392918767 -0.025530099257649565 0 -0.0041168136457832658 -0.024820379282799305 0 -0.003686594280285609 -0.026086133573465887 0 -0.0041168136457832658 -0.024820379282799305 0 -0.0045377297227962915 -0.023773729561423748 0 -0.0032983158666321029 -0.023757235964309842 0 -0.0044470766751934683 -0.022793045864082186 0 -0.0045377297227962915 -0.023773729561423748 0 -0.0032983158666321029 -0.023757235964309842 0 -0.0050540911418098045 -0.024373603203698097 0 -0.0041168136457832658 -0.024820379282799305 0 -0.0045377297227962915 -0.023773729561423748 0 -0.0034145522680027272 -0.022522605598058746 0 -0.0016389704285498152 -0.023221663486204927 0 -0.0032983158666321029 -0.023757235964309842 0 -0.0016389704285498152 -0.023221663486204927 0 -0.0015192245016662125 -0.024788917693561424 0 -0.0032983158666321029 -0.023757235964309842 0 0.0035069171104222066 -0.024038372392717874 0 0.0029353720845482134 -0.02392246648948523 0 0.0035997369484671942 -0.024661961214646446 0 0.0027724759750212165 -0.021666503590990246 0 0.0028652297497749743 -0.022689425753128815 0 0.0027724759750212165 -0.021666503590990246 0 0.0024158373382419814 -0.020275398361335743 0 0.0021861898837133935 -0.019357832230602556 0 0.0022300748319981347 -0.019074647142678411 0 0.0019557663952846751 -0.019159951815254008 0 0.0027666654589506706 -0.021619354595222628 0 0.0027504793891751354 -0.02160155400269272 0 0.0027478266199022724 -0.021614652737072391 0 0.0021861898837133935 -0.019357832230602556 0 0.0022300748319981347 -0.019074647142678411 0 0.0024466425717827394 -0.019075055216175391 0 0.0019537294950486297 -0.01946892217065441 0 0.0017791130663875148 -0.019317546473673047 0 0.0026746227802626186 -0.018624113847606306 0 0.0024158373382419814 -0.020275398361335743 0 0.0018781042880970551 -0.017514982723127719 0 0.0022300748319981347 -0.019074647142678411 0 0.0019557663952846751 -0.019159951815254008 0 0.0023316081394514666 -0.018705523328905942 0 0.0024158373382419814 -0.020275398361335743 0 0.0026030243933957728 -0.020519976196648939 0 0.0026030243933957728 -0.020519976196648939 0 0.0026934464173624805 -0.021532701761178465 0 0.0027371303590205029 -0.020658526067134159 0 0.0026340746843217773 -0.020568231373105057 0 0.0026685793937407413 -0.020738192432186262 0 0.0034088487723777042 -0.021122919720163731 0 0.0025937748127235209 -0.021857792937168569 0 0.002090184183691334 -0.021086616834311542 0 0.0034088487723777042 -0.021122919720163731 0 0.0025937748127235209 -0.021857792937168569 0 0.0035305441975873771 -0.021767114979320844 0 0.00310160589410122 -0.022265951588899973 0 0.0030093528978474842 -0.0224623950555108 0 0.0021073768472042419 -0.023384589954995039 0 0.0025937748127235209 -0.021857792937168569 0 0.0035305441975873771 -0.021767114979320844 0 0.0021073768472042419 -0.023384589954995039 0 0.0026934464173624805 -0.021532701761178465 0 0.0023055123034284486 -0.023382975297407366 0 0.0026934464173624805 -0.021532701761178465 0 0.0028652297497749743 -0.022689425753128815 0 0.0027504793891751354 -0.02160155400269272 0 0.0027467226430673702 -0.021608004610512377 0 0.0027478266199022724 -0.021614652737072391 0 0.0024158373382419814 -0.020275398361335743 0 0.0026934464173624805 -0.021532701761178465 0 0.00310160589410122 -0.022265951588899973 0 0.0030093528978474842 -0.0224623950555108 0 0.0031458556166905475 -0.022489126735096402 0 0.0028938733760016156 -0.022682561669571617 0 0.0028652297497749743 -0.022689425753128815 0 0.0030093528978474842 -0.0224623950555108 0 0.0031633467326862411 -0.022484679633254651 0 0.0029126898578323863 -0.023330970863571759 0 0.0030093528978474842 -0.0224623950555108 0 0.0021073768472042419 -0.023384589954995039 0 0.0029126898578323863 -0.023330970863571759 0 0.001734445123881418 -0.021913540742305514 0 0.0010892610632799427 -0.02314629357919628 0 0.0021073768472042419 -0.023384589954995039 0 0.0025937748127235209 -0.021857792937168569 0 0.001734445123881418 -0.021913540742305514 0 0.0021073768472042419 -0.023384589954995039 0 0.0025937748127235209 -0.021857792937168569 0 0.001734445123881418 -0.021913540742305514 0 0.002090184183691334 -0.021086616834311542 0 0.0013813945048877689 -0.019606866188517008 0 0.0034088487723777042 -0.021122919720163731 0 0.002090184183691334 -0.021086616834311542 0 0.0013813945048877689 -0.019606866188517008 0 0.002090184183691334 -0.021086616834311542 0 0.00136831042832678 -0.020900768308564008 0 0.0017036496733301226 -0.019879257010601992 0 0.0026030243933957728 -0.020519976196648939 0 0.0013813945048877689 -0.019606866188517008 0 0.00136831042832678 -0.020900768308564008 0 0.00069938091491771937 -0.020266823376994012 0 0.001734445123881418 -0.021913540742305514 0 0.00136831042832678 -0.020900768308564008 0 0.00084630760105275718 -0.02163544779357051 0 0.001734445123881418 -0.021913540742305514 0 0.002090184183691334 -0.021086616834311542 0 0.00136831042832678 -0.020900768308564008 0 0.00136831042832678 -0.020900768308564008 0 0.00069938091491771937 -0.020266823376994012 0 0.00084630760105275718 -0.02163544779357051 0 1.0649794492221052e-05 -0.019620323067231368 0 -4.5884448122341497e-05 -0.021059834676159822 0 0.00069938091491771937 -0.020266823376994012 0 -4.5884448122341497e-05 -0.021059834676159822 0 0.00069938091491771937 -0.020266823376994012 0 0.00084630760105275718 -0.02163544779357051 0 -6.8200528329233313e-05 -0.022770551106755844 0 0.00084630760105275718 -0.02163544779357051 0 0.0010892610632799427 -0.02314629357919628 0 0.001734445123881418 -0.021913540742305514 0 0.00084630760105275718 -0.02163544779357051 0 0.0010892610632799427 -0.02314629357919628 0 -4.5884448122341497e-05 -0.021059834676159822 0 -6.8200528329233313e-05 -0.022770551106755844 0 0.00084630760105275718 -0.02163544779357051 0 -6.8200528329233313e-05 -0.022770551106755844 0 0.0010892610632799427 -0.02314629357919628 0 0.00063497147922947719 -0.024459562196871579 0 0.0010892610632799427 -0.02314629357919628 0 0.00063497147922947719 -0.024459562196871579 0 0.001535179476764352 -0.024781316733999376 0 0.00063497147922947719 -0.024459562196871579 0 0.001535179476764352 -0.024781316733999376 0 0.00067836463737392392 -0.025793207597274395 0 -4.3011095101858401e-05 -0.025351062860543609 0 0.00063497147922947719 -0.024459562196871579 0 0.00067836463737392392 -0.025793207597274395 0 0.001535179476764352 -0.024781316733999376 0 0.0021073768472042419 -0.023384589954995039 0 0.0024394976111761515 -0.024840794257179888 0 0.001535179476764352 -0.024781316733999376 0 0.0024394976111761515 -0.024840794257179888 0 0.0019764232824920087 -0.0255033810662504 0 0.0010892610632799427 -0.02314629357919628 0 0.001535179476764352 -0.024781316733999376 0 0.0021073768472042419 -0.023384589954995039 0 0.0031633467326862411 -0.022484679633254651 0 0.0029126898578323863 -0.023330970863571759 0 0.0034787415075431647 -0.024393265943279972 0 0.0028652297497749743 -0.022689425753128815 0 0.0033698965050307427 -0.024884449281324977 0 0.0021073768472042419 -0.023384589954995039 0 0.002855751643303935 -0.02409094306395132 0 0.0024394976111761515 -0.024840794257179888 0 0.0021073768472042419 -0.023384589954995039 0 0.0029126898578323863 -0.023330970863571759 0 0.002855751643303935 -0.02409094306395132 0 0.0029126898578323863 -0.023330970863571759 0 0.002855751643303935 -0.02409094306395132 0 0.0034787415075431647 -0.024393265943279972 0 0.002855751643303935 -0.02409094306395132 0 0.0024394976111761515 -0.024840794257179888 0 0.0029248941317987377 -0.024692243599631597 0 0.0029248941317987377 -0.024692243599631597 0 0.0034787415075431647 -0.024393265943279972 0 0.0029200745051660144 -0.02540629897412643 0 0.0024394976111761515 -0.024840794257179888 0 0.0029248941317987377 -0.024692243599631597 0 0.0029200745051660144 -0.02540629897412643 0 0.002855751643303935 -0.02409094306395132 0 0.0029248941317987377 -0.024692243599631597 0 0.0034787415075431647 -0.024393265943279972 0 0.0032200356422440327 -0.025134172093565381 0 0.0034029303661178892 -0.025382054829413525 0 0.0035997369484671942 -0.024661961214646446 0 0.0032200356422440327 -0.025134172093565381 0 0.0034029303661178892 -0.025382054829413525 0 0.0034561739990608665 -0.026050101317627028 0 0.0034029303661178892 -0.025382054829413525 0 0.0036815815595626325 -0.025494801493846274 0 0.0038249026444651226 -0.025353079220027632 0 0.0033698965050307427 -0.024884449281324977 0 0.0034544511271131458 -0.025909324526405552 0 0.0034029303661178892 -0.025382054829413525 0 0.0036349759923581079 -0.025680911915422371 0 0.0036815815595626325 -0.025494801493846274 0 0.0029353720845482134 -0.02392246648948523 0 0.0032200356422440327 -0.025134172093565381 0 0.0035997369484671942 -0.024661961214646446 0 0.0034029303661178892 -0.025382054829413525 0 0.0035997369484671942 -0.024661961214646446 0 0.0041960874899204092 -0.024661815089387903 0 0.0035242970061609151 -0.0254362017030401 0 0.0036555397009827417 -0.024531817388313091 0 0.0035069171104222066 -0.024038372392717874 0 0.0035997369484671942 -0.024661961214646446 0 0.0041960874899204092 -0.024661815089387903 0 0.0029448474519389203 -0.02691205291318588 0 0.0033977394206372419 -0.027012248500111743 0 0.0037128715564935222 -0.026794892161886755 0 0.0029705226600370799 -0.026854890373872325 0 0.0037595413744746474 -0.026539379550843546 0 0.0034561739990608665 -0.026050101317627028 0 0.0029448474519389203 -0.02691205291318588 0 0.0039008048842168281 -0.026249943107746036 0 0.0034561739990608665 -0.026050101317627028 0 0.0036349759923581079 -0.025680911915422371 0 0.0038554006739775081 -0.025851858512086785 0 0.0034029303661178892 -0.025382054829413525 0 0.0034561739990608665 -0.026050101317627028 0 0.0036349759923581079 -0.025680911915422371 0 0.0034787415075431647 -0.024393265943279972 0 0.0034561739990608665 -0.026050101317627028 0 0.0029200745051660144 -0.02540629897412643 0 0.0034561739990608665 -0.026050101317627028 0 0.0029200745051660144 -0.02540629897412643 0 0.002713636172915816 -0.026238544158148608 0 0.0024394976111761515 -0.024840794257179888 0 0.0029200745051660144 -0.02540629897412643 0 0.0024491547975230817 -0.025721278307094402 0 0.0029200745051660144 -0.02540629897412643 0 0.0024491547975230817 -0.025721278307094402 0 0.002713636172915816 -0.026238544158148608 0 0.0024491547975230817 -0.025721278307094402 0 0.002713636172915816 -0.026238544158148608 0 0.0020654659187536988 -0.026232138235925594 0 0.002713636172915816 -0.026238544158148608 0 0.0023249710845599549 -0.026824414783829575 0 0.0020654659187536988 -0.026232138235925594 0 0.0034561739990608665 -0.026050101317627028 0 0.002713636172915816 -0.026238544158148608 0 0.0029448474519389203 -0.02691205291318588 0 0.0029448474519389203 -0.02691205291318588 0 0.0023249710845599549 -0.026824414783829575 0 0.002127653517537912 -0.027579379363299038 0 0.002713636172915816 -0.026238544158148608 0 0.0029448474519389203 -0.02691205291318588 0 0.0023249710845599549 -0.026824414783829575 0 0.0016324594219836895 -0.026812470933149431 0 0.00053713869343764752 -0.027291177644526748 0 0.002127653517537912 -0.027579379363299038 0 0.0023249710845599549 -0.026824414783829575 0 0.0016324594219836895 -0.026812470933149431 0 0.002127653517537912 -0.027579379363299038 0 0.0023249710845599549 -0.026824414783829575 0 0.0016324594219836895 -0.026812470933149431 0 0.0020654659187536988 -0.026232138235925594 0 0.001535179476764352 -0.024781316733999376 0 0.0019764232824920087 -0.0255033810662504 0 0.0013949327459921864 -0.026090820967321873 0 0.0024394976111761515 -0.024840794257179888 0 0.0024491547975230817 -0.025721278307094402 0 0.0019764232824920087 -0.0255033810662504 0 0.0024491547975230817 -0.025721278307094402 0 0.0020654659187536988 -0.026232138235925594 0 0.0019764232824920087 -0.0255033810662504 0 0.0020654659187536988 -0.026232138235925594 0 0.0019764232824920087 -0.0255033810662504 0 0.0013949327459921864 -0.026090820967321873 0 0.0016324594219836895 -0.026812470933149431 0 0.0020654659187536988 -0.026232138235925594 0 0.0013949327459921864 -0.026090820967321873 0 0.0013949327459921864 -0.026090820967321873 0 0.00067836463737392392 -0.025793207597274395 0 0.00053713869343764752 -0.027291177644526748 0 0.001535179476764352 -0.024781316733999376 0 0.0013949327459921864 -0.026090820967321873 0 0.00067836463737392392 -0.025793207597274395 0 0.0016324594219836895 -0.026812470933149431 0 0.0013949327459921864 -0.026090820967321873 0 0.00053713869343764752 -0.027291177644526748 0 0.00053713869343764752 -0.027291177644526748 0 0.002127653517537912 -0.027579379363299038 0 0.00035734838504337051 -0.028093580799087244 0 0.0021908587619961931 -0.02810077352568564 0 0.0013069114130515309 -0.028091676719889682 0 0.0020119454443787315 -0.027123025735206342 0 0.0013069114130515309 -0.028091676719889682 0 0.0022304735983582997 -0.029202073951933024 0 0.0020926278838063481 -0.029236743032640431 0 0.0022831020473999875 -0.02928059754080985 0 0.0022304735983582997 -0.029202073951933024 0 0.0020926278838063481 -0.029236743032640431 0 0.0021764739069895255 -0.029017958589169519 0 0.0020060524801071206 -0.026932487806276058 0 0.0020234319009798944 -0.026836252157154024 0 0.0018384079206184927 -0.02688163862636363 0 0.0020119454443787315 -0.027123025735206342 0 0.0027920669993787835 -0.026932367245837991 0 0.0020060524801071206 -0.026932487806276058 0 0.0020234319009798944 -0.026836252157154024 0 0.0021086273717839318 -0.026889628835163923 0 0.0029448474519389203 -0.02691205291318588 0 0.002127653517537912 -0.027579379363299038 0 0.0033977394206372419 -0.027012248500111743 0 0.0020234319009798944 -0.026836252157154024 0 0.0021086273717839318 -0.026889628835163923 0 0.0021854615070776989 -0.026801208109609603 0 0.0020060524801071206 -0.026932487806276058 0 0.0021086273717839318 -0.026889628835163923 0 0.0021459486075334501 -0.026974681335398099 0 0.0021908587619961931 -0.02810077352568564 0 0.0019561075606905559 -0.028055505930984784 0 0.0020926278838063481 -0.029236743032640431 0 0.00172976294501971 -0.029091227804407999 0 0.0019349396107832823 -0.028996999339822273 0 0.0021086273717839318 -0.026889628835163923 0 0.0021459486075334501 -0.026974681335398099 0 0.0022166444394986573 -0.026889466824187403 0 0.0021086273717839318 -0.026889628835163923 0 0.0021854615070776989 -0.026801208109609603 0 0.0022166444394986573 -0.026889466824187403 0 -0.0018361856412533063 -0.028306604006113834 0 -0.0021851837981121205 -0.028148924698412538 0 -0.0036837809337830667 -0.028561904182319325 0 -0.0011396616929549885 -0.027964389396509869 0 -0.0022816567716210175 -0.028435433826968243 0 -0.0029463072414331951 -0.027917326179548743 0 -0.0021851837981121205 -0.028148924698412538 0 -0.0036837809337830667 -0.028561904182319325 0 -0.0029463072414331951 -0.027917326179548743 0 -0.0036896393827885936 -0.027914550472813743 0 -0.0026629772603600685 -0.026913924896698777 0 -0.0029463072414331951 -0.027917326179548743 0 -0.0021950148140499983 -0.027531388031894848 0 -0.0026629772603600685 -0.026913924896698777 0 -0.0029463072414331951 -0.027917326179548743 0 -0.0021950148140499983 -0.027531388031894848 0 -0.0021851837981121205 -0.028148924698412538 0 -0.0036045207228472338 -0.02867284521787062 0 -0.0036896393827885936 -0.027914550472813743 0 -0.0036837809337830667 -0.028561904182319325 0 -0.0029463072414331951 -0.027917326179548743 0 -0.0036896393827885936 -0.027914550472813743 0 -0.0036837809337830667 -0.028561904182319325 0 -0.0036045207228472338 -0.02867284521787062 0 -0.0035817521294540747 -0.028871587324766964 0 -0.0036896393827885936 -0.027914550472813743 0 -0.0035817521294540747 -0.028871587324766964 0 -0.0037370151504895013 -0.029619789536569581 0 -0.0036896393827885936 -0.027914550472813743 0 -0.0051413673392918767 -0.025530099257649565 0 -0.0036896393827885936 -0.027914550472813743 0 -0.003686594280285609 -0.026086133573465887 0 -0.0045120232750949308 -0.027370825080028804 0 -0.0036437191642120876 -0.028086895325822529 0 -0.0028633416210705133 -0.025430764794948085 0 -0.003686594280285609 -0.026086133573465887 0 -0.0026629772603600685 -0.026913924896698777 0 -0.0036896393827885936 -0.027914550472813743 0 -0.003686594280285609 -0.026086133573465887 0 -0.0026629772603600685 -0.026913924896698777 0 -0.0028633416210705133 -0.025430764794948085 0 -0.0026629772603600685 -0.026913924896698777 0 -0.0018396094809671126 -0.025998770753645151 0 -0.0018396094809671126 -0.025998770753645151 0 -0.00086545782890663574 -0.025676849764574728 0 -0.0014205094708703658 -0.026868020558198012 0 -0.0026629772603600685 -0.026913924896698777 0 -0.0018396094809671126 -0.025998770753645151 0 -0.0014205094708703658 -0.026868020558198012 0 -0.0021950148140499983 -0.027531388031894848 0 -0.0026629772603600685 -0.026913924896698777 0 -0.0014205094708703658 -0.026868020558198012 0 0.00067836463737392392 -0.025793207597274395 0 0.00053713869343764752 -0.027291177644526748 0 -0.00024113490881930209 -0.026470890885227659 0 -4.3011095101858401e-05 -0.025351062860543609 0 0.00067836463737392392 -0.025793207597274395 0 -0.00024113490881930209 -0.026470890885227659 0 -4.3011095101858401e-05 -0.025351062860543609 0 -0.00086545782890663574 -0.025676849764574728 0 -0.00024113490881930209 -0.026470890885227659 0 -0.0014205094708703658 -0.026868020558198012 0 -0.00024113490881930209 -0.026470890885227659 0 -0.00087281706841837667 -0.027290893283513102 0 -0.00086545782890663574 -0.025676849764574728 0 -0.0014205094708703658 -0.026868020558198012 0 -0.00024113490881930209 -0.026470890885227659 0 0.00053713869343764752 -0.027291177644526748 0 -0.00087281706841837667 -0.027290893283513102 0 -0.0016634295339630885 -0.02825221760770516 0 0.00034151879158946988 -0.027344348450743107 0 -0.0011396616929549885 -0.027964389396509869 0 0.00053713869343764752 -0.027291177644526748 0 -0.00024113490881930209 -0.026470890885227659 0 -0.00087281706841837667 -0.027290893283513102 0 -0.0021950148140499983 -0.027531388031894848 0 -0.0014205094708703658 -0.026868020558198012 0 -0.0016362298821983078 -0.027578647118161558 0 -0.0021950148140499983 -0.027531388031894848 0 -0.0016362298821983078 -0.027578647118161558 0 -0.0021851837981121205 -0.028148924698412538 0 -0.0014205094708703658 -0.026868020558198012 0 -0.0016362298821983078 -0.027578647118161558 0 -0.00087281706841837667 -0.027290893283513102 0 -0.0016362298821983078 -0.027578647118161558 0 -0.00087281706841837667 -0.027290893283513102 0 -0.0016634295339630885 -0.02825221760770516 0 -0.0016362298821983078 -0.027578647118161558 0 -0.0016634295339630885 -0.02825221760770516 0 -0.0021851837981121205 -0.028148924698412538 0 -0.0011396616929549885 -0.027964389396509869 0 -0.0016833121425764452 -0.027887292211115869 0 -0.00021519107660927859 -0.028102832127292292 0 -0.00024782914213530047 -0.028534023515074374 0 -0.00060255268438337269 -0.028368823586281119 0 -0.00021519107660927859 -0.028102832127292292 0 -0.00024782914213530047 -0.028534023515074374 0 0.00052928847807260575 -0.028431619473220062 0 0.00053713869343764752 -0.027291177644526748 0 -0.00095564827174203352 -0.027489598344457255 0 0.00035734838504337051 -0.028093580799087244 0 -0.0011396616929549885 -0.027964389396509869 0 0.0013069114130515309 -0.028091676719889682 0 0.0010195347693850191 -0.028990725481043415 0 0.0013069114130515309 -0.028091676719889682 0 0.0022682612675902864 -0.029277766637560446 0 0.0022831020473999875 -0.02928059754080985 0 0.0023289282206694815 -0.029238209483978973 0 0.0022304735983582997 -0.029202073951933024 0 0.0022831020473999875 -0.02928059754080985 0 0.0023289282206694815 -0.029238209483978973 0 0.0027232039020263919 -0.029700133337274105 0 0.0021349752006621261 -0.029355323809726143 0 0.0023378571389327642 -0.029828839009263294 0 0.0022682612675902864 -0.029277766637560446 0 0.0023289282206694815 -0.029238209483978973 0 0.0021349752006621261 -0.029355323809726143 0 0.0025094278403966132 -0.029463729364409448 0 0.0021470450846244452 -0.029350260274267657 0 0.0020187551475221908 -0.029684693178416464 0 0.0021349752006621261 -0.029355323809726143 0 0.0023378571389327642 -0.029828839009263294 0 0.0020187551475221908 -0.029684693178416464 0 0.0021349752006621261 -0.029355323809726143 0 0.001906507656953878 -0.029355688914743515 0 0.0010195347693850191 -0.028990725481043415 0 0.00047955889332018155 -0.02895030563054524 0 0.0022682612675902864 -0.029277766637560446 0 0.0021349752006621261 -0.029355323809726143 0 0.001906507656953878 -0.029355688914743515 0 -0.00021519107660927859 -0.028102832127292292 0 -0.00060255268438337269 -0.028368823586281119 0 -0.00098241116140929856 -0.028243009882924986 0 -0.00024782914213530047 -0.028534023515074374 0 -0.00060255268438337269 -0.028368823586281119 0 -0.00094371499210503789 -0.028580406322755519 0 -0.00060255268438337269 -0.028368823586281119 0 -0.00098241116140929856 -0.028243009882924986 0 -0.00094371499210503789 -0.028580406322755519 0 -0.0012147047540653844 -0.028442280646640221 0 -0.00098241116140929856 -0.028243009882924986 0 -0.00094371499210503789 -0.028580406322755519 0 0.0020187551475221908 -0.029684693178416464 0 0.001906507656953878 -0.029355688914743515 0 0.0016507927063022191 -0.029789660761332618 0 0.0020187551475221908 -0.029684693178416464 0 0.0016507927063022191 -0.029789660761332618 0 0.0020289303568897738 -0.030138042224336251 0 0.0016507927063022191 -0.029789660761332618 0 0.0020289303568897738 -0.030138042224336251 0 0.0015145573685041002 -0.030292487572133285 0 0.0020289303568897738 -0.030138042224336251 0 0.0018714281248219204 -0.030724304447314329 0 0.0015145573685041002 -0.030292487572133285 0 0.0021897786741062525 -0.03047981800356293 0 0.0020289303568897738 -0.030138042224336251 0 0.0024228720231508996 -0.030195039461280774 0 0.0021897786741062525 -0.03047981800356293 0 0.0020289303568897738 -0.030138042224336251 0 0.0018714281248219204 -0.030724304447314329 0 0.0020187551475221908 -0.029684693178416464 0 0.0020289303568897738 -0.030138042224336251 0 0.0023378571389327642 -0.029828839009263294 0 0.0020289303568897738 -0.030138042224336251 0 0.0023378571389327642 -0.029828839009263294 0 0.0024228720231508996 -0.030195039461280774 0 0.0025974090503356907 -0.029931013868633193 0 0.0023378571389327642 -0.029828839009263294 0 0.0024228720231508996 -0.030195039461280774 0 0.0027232039020263919 -0.029700133337274105 0 0.0025974090503356907 -0.029931013868633193 0 0.0023378571389327642 -0.029828839009263294 0 0.0027232039020263919 -0.029700133337274105 0 0.0025974090503356907 -0.029931013868633193 0 0.0028074015259969766 -0.029937443182357429 0 0.0027018292560034895 -0.030203356932894259 0 0.0028074015259969766 -0.029937443182357429 0 0.0029077566695239936 -0.030007283798832076 0 0.0025974090503356907 -0.029931013868633193 0 0.0027018292560034895 -0.030203356932894259 0 0.0028074015259969766 -0.029937443182357429 0 0.0025974090503356907 -0.029931013868633193 0 0.0027018292560034895 -0.030203356932894259 0 0.0024228720231508996 -0.030195039461280774 0 0.0021897786741062525 -0.03047981800356293 0 0.0024228720231508996 -0.030195039461280774 0 0.0025010882938088282 -0.030506751667263573 0 0.0027018292560034895 -0.030203356932894259 0 0.0024228720231508996 -0.030195039461280774 0 0.0025010882938088282 -0.030506751667263573 0 0.0027018292560034895 -0.030203356932894259 0 0.0027718002944927098 -0.030334315067023582 0 0.0029077566695239936 -0.030007283798832076 0 0.0027018292560034895 -0.030203356932894259 0 0.0025010882938088282 -0.030506751667263573 0 0.0027718002944927098 -0.030334315067023582 0 0.0025010882938088282 -0.030506751667263573 0 0.0027718002944927098 -0.030334315067023582 0 0.0025475118674135621 -0.030612337369063772 0 0.0021499787553316114 -0.030862048968714587 0 0.0022963008386540878 -0.031106262262761832 0 0.0025010882938088282 -0.030506751667263573 0 0.0021574086136973386 -0.030934714427374114 0 0.0025475118674135621 -0.030612337369063772 0 0.0021574086136973386 -0.030934714427374114 0 0.0019989328902990633 -0.031440591020995654 0 0.0022183239667587277 -0.031331977890040379 0 0.0021574086136973386 -0.030934714427374114 0 0.0017624460213627963 -0.031409611738746582 0 0.0019989328902990633 -0.031440591020995654 0 0.0017624460213627963 -0.031409611738746582 0 0.0018714281248219204 -0.030724304447314329 0 0.0014258010903803809 -0.030943794937044678 0 0.0021574086136973386 -0.030934714427374114 0 0.0017624460213627963 -0.031409611738746582 0 0.0018714281248219204 -0.030724304447314329 0 0.0021897786741062525 -0.03047981800356293 0 0.0025010882938088282 -0.030506751667263573 0 0.0021574086136973386 -0.030934714427374114 0 0.0021897786741062525 -0.03047981800356293 0 0.0021574086136973386 -0.030934714427374114 0 0.0018714281248219204 -0.030724304447314329 0 0.0015641947963138537 -0.028627068905091327 0 0.0016770957887169953 -0.028872163730913499 0 0.0012709533801546788 -0.028885114863413445 0 0.0015641947963138537 -0.028627068905091327 0 0.0018349027258537708 -0.028742248020426502 0 0.0013333204439128462 -0.028432539240897389 0 0.0025084341388500503 -0.029303618557210396 0 0.0018439118206084746 -0.02859591186157634 0 0.0015641947963138537 -0.028627068905091327 0 0.0016770957887169953 -0.028872163730913499 0 0.0018349027258537708 -0.028742248020426502 0 0.0019561075606905559 -0.028055505930984784 0 0.0015514662331808759 -0.02779973085308415 0 0.0021459486075334501 -0.026974681335398099 0 0.0022763619009047225 -0.027034160635723684 0 0.0022166444394986573 -0.026889466824187403 0 0.00172976294501971 -0.029091227804407999 0 0.0016770957887169953 -0.028872163730913499 0 0.0012709533801546788 -0.028885114863413445 0 0.00172976294501971 -0.029091227804407999 0 0.0016770957887169953 -0.028872163730913499 0 0.0019349396107832823 -0.028996999339822273 0 0.0016770957887169953 -0.028872163730913499 0 0.0019349396107832823 -0.028996999339822273 0 0.0018349027258537708 -0.028742248020426502 0 0.0019349396107832823 -0.028996999339822273 0 0.0018349027258537708 -0.028742248020426502 0 0.0021764739069895255 -0.029017958589169519 0 0.0031344068661800662 -0.029757086448454175 0 0.0030215592335423249 -0.029834183340434511 0 0.0031238928090524575 -0.029758187132952654 0 0.0031344068661800662 -0.029757086448454175 0 0.0031238928090524575 -0.029758187132952654 0 0.0031168814271358872 -0.029505693088952852 0 0.0025084341388500503 -0.029303618557210396 0 0.0025901081124803231 -0.029412209417564197 0 0.0030215592335423249 -0.029834183340434511 0 0.0030384939671209044 -0.029912207779158689 0 0.0031238928090524575 -0.029758187132952654 0 0.0020926278838063481 -0.029236743032640431 0 0.0019349396107832823 -0.028996999339822273 0 0.0021764739069895255 -0.029017958589169519 0 0.0025094278403966132 -0.029463729364409448 0 0.0025901081124803231 -0.029412209417564197 0 0.0022304735983582997 -0.029202073951933024 0 0.0023289282206694815 -0.029238209483978973 0 0.0021764739069895255 -0.029017958589169519 0 0.0027232039020263919 -0.029700133337274105 0 0.0028074015259969766 -0.029937443182357429 0 0.0030215592335423249 -0.029834183340434511 0 0.0028074015259969766 -0.029937443182357429 0 0.0030215592335423249 -0.029834183340434511 0 0.0029077566695239936 -0.030007283798832076 0 0.0030215592335423249 -0.029834183340434511 0 0.0029077566695239936 -0.030007283798832076 0 0.0030384939671209044 -0.029912207779158689 0 0.0029077566695239936 -0.030007283798832076 0 0.0029813345417937331 -0.030116526415794768 0 0.0030384939671209044 -0.029912207779158689 0 0.0027718002944927098 -0.030334315067023582 0 0.0029077566695239936 -0.030007283798832076 0 0.0029813345417937331 -0.030116526415794768 0 0.0027718002944927098 -0.030334315067023582 0 0.0029813345417937331 -0.030116526415794768 0 0.0029930958862733024 -0.030347472692374301 0 0.0029813345417937331 -0.030116526415794768 0 0.0031706124479213994 -0.029857826702753169 0 0.0029930958862733024 -0.030347472692374301 0 0.0029813345417937331 -0.030116526415794768 0 0.0030384939671209044 -0.029912207779158689 0 0.0031706124479213994 -0.029857826702753169 0 0.0036787500664618735 -0.028943628182328825 0 0.0046057015084528261 -0.028549214508795634 0 0.0030384939671209044 -0.029912207779158689 0 0.0031238928090524575 -0.029758187132952654 0 0.0031706124479213994 -0.029857826702753169 0 0.0031238928090524575 -0.029758187132952654 0 0.0031168814271358872 -0.029505693088952852 0 0.0031706124479213994 -0.029857826702753169 0 0.0031168814271358872 -0.029505693088952852 0 0.0031706124479213994 -0.029857826702753169 0 0.0030227924498022526 -0.029068372609086904 0 0.0036787500664618735 -0.028943628182328825 0 0.0030737740030048867 -0.029104770767632078 0 0.004445497597280192 -0.027916492099270763 0 0.0027233209379908634 -0.027924801826493935 0 0.0030227924498022526 -0.029068372609086904 0 0.004445497597280192 -0.027916492099270763 0 0.0027233209379908634 -0.027924801826493935 0 0.0033256180038962972 -0.027043493369521311 0 0.0027233209379908634 -0.027924801826493935 0 0.0030227924498022526 -0.029068372609086904 0 0.0025257021081979275 -0.028845251217077372 0 0.0031344068661800662 -0.029757086448454175 0 0.0028129537441935969 -0.029349691895587979 0 0.0025550945788309957 -0.029394046807663492 0 0.0031344068661800662 -0.029757086448454175 0 0.0031168814271358872 -0.029505693088952852 0 0.0028129537441935969 -0.029349691895587979 0 0.0030227924498022526 -0.029068372609086904 0 0.0028129537441935969 -0.029349691895587979 0 0.0025257021081979275 -0.028845251217077372 0 0.0031168814271358872 -0.029505693088952852 0 0.0030227924498022526 -0.029068372609086904 0 0.0028129537441935969 -0.029349691895587979 0 0.003495276225707038 -0.025399935182289009 0 0.0029976793391983812 -0.026163115334210459 0 0.0042254562384894476 -0.026460338792336464 0 0.002543744325989316 -0.025247971631650122 0 0.003495276225707038 -0.025399935182289009 0 0.0029976793391983812 -0.026163115334210459 0 0.002543744325989316 -0.025247971631650122 0 0.0029976793391983812 -0.026163115334210459 0 0.0021355991538360391 -0.025805597698395799 0 0.0029976793391983812 -0.026163115334210459 0 0.0033256180038962972 -0.027043493369521311 0 0.0042254562384894476 -0.026460338792336464 0 0.0029976793391983812 -0.026163115334210459 0 0.0033256180038962972 -0.027043493369521311 0 0.0021285844437457491 -0.026680403078044802 0 0.0027233209379908634 -0.027924801826493935 0 0.0033256180038962972 -0.027043493369521311 0 0.0021285844437457491 -0.026680403078044802 0 0.004445497597280192 -0.027916492099270763 0 0.0033256180038962972 -0.027043493369521311 0 0.0042254562384894476 -0.026460338792336464 0 0.0042254562384894476 -0.026460338792336464 0 0.0044108830504914417 -0.025474850720105805 0 0.0050392186131899431 -0.0261236170662568 0 0.003495276225707038 -0.025399935182289009 0 0.0042254562384894476 -0.026460338792336464 0 0.0044108830504914417 -0.025474850720105805 0 0.0057514448376088882 -0.025474045836874105 0 0.0050392186131899431 -0.0261236170662568 0 0.0056518632671493756 -0.027133880630067202 0 0.0044108830504914417 -0.025474850720105805 0 0.0057514448376088882 -0.025474045836874105 0 0.0050392186131899431 -0.0261236170662568 0 0.0042254562384894476 -0.026460338792336464 0 0.0050392186131899431 -0.0261236170662568 0 0.0056518632671493756 -0.027133880630067202 0 0.004445497597280192 -0.027916492099270763 0 0.0042254562384894476 -0.026460338792336464 0 0.0056518632671493756 -0.027133880630067202 0 0.0046057015084528261 -0.028549214508795634 0 0.0034727290991600898 -0.029602414142444713 0 0.0027718002944927098 -0.030334315067023582 0 0.0029930958862733024 -0.030347472692374301 0 0.0027750285809056761 -0.030602374538228595 0 0.0045317789249114627 -0.027894655683251862 0 0.0034727290991600898 -0.029602414142444713 0 0.0030421705910875928 -0.030428682468511579 0 0.0028691320355919299 -0.030284881601140692 0 0.0028576373844856938 -0.030626418156440818 0 0.0057514448376088882 -0.025474045836874105 0 0.0056518632671493756 -0.027133880630067202 0 0.0068779760013415207 -0.026428934352064712 0 0.0030421705910875928 -0.030428682468511579 0 0.0030785697239936842 -0.03056426911366782 0 0.0028576373844856938 -0.030626418156440818 0 0.0031096601688791912 -0.03061581497510598 0 0.0028556922523533586 -0.030514260916600394 0 0.0029895696201411755 -0.030356058123255408 0 0.002989385659096208 -0.030151353922109336 0 0.0028576373844856938 -0.030626418156440818 0 0.0029895696201411755 -0.030356058123255408 0 0.002989385659096208 -0.030151353922109336 0 0.0029281812893392819 -0.029703242453117076 0 0.0030421705910875928 -0.030428682468511579 0 0.0030785697239936842 -0.03056426911366782 0 0.0031171743004155838 -0.030506787518381102 0 0.0045317789249114627 -0.027894655683251862 0 0.0038253781539347217 -0.027400333476860769 0 0.0044108830504914417 -0.025474850720105805 0 0.0057514448376088882 -0.025474045836874105 0 0.0045553927452223085 -0.024495875078908397 0 0.0037534221167727397 -0.024694612864609965 0 0.0045553927452223085 -0.024495875078908397 0 0.0033363060698577752 -0.023573479559013885 0 0.0044108830504914417 -0.025474850720105805 0 0.0037534221167727397 -0.024694612864609965 0 0.0045553927452223085 -0.024495875078908397 0 0.003495276225707038 -0.025399935182289009 0 0.0044108830504914417 -0.025474850720105805 0 0.0037534221167727397 -0.024694612864609965 0 0.0030785697239936842 -0.03056426911366782 0 0.0031171743004155838 -0.030506787518381102 0 0.0031551940277266704 -0.030496316366228089 0 0.002989385659096208 -0.030151353922109336 0 0.002588158597643624 -0.02933897470727562 0 0.0029281812893392819 -0.029703242453117076 0 0.0031096601688791912 -0.03061581497510598 0 0.0027781014375963982 -0.028094785383874658 0 0.0038253781539347217 -0.027400333476860769 0 0.0027781014375963982 -0.028094785383874658 0 0.0023830662598079188 -0.028547642660071499 0 0.0016751692389471368 -0.027652952329197483 0 0.0020812388009443026 -0.028104313047774263 0 0.0027781014375963982 -0.028094785383874658 0 0.0017573183167905648 -0.025276083728698266 0 0.0027781014375963982 -0.028094785383874658 0 0.0022582807392246959 -0.028310153363537323 0 0.0033363060698577752 -0.023573479559013885 0 0.0029843109626257309 -0.024550246468408404 0 0.0024690491385458454 -0.023943433155115643 0 0.0029843109626257309 -0.024550246468408404 0 0.0021800407781855488 -0.024491229562089503 0 0.0024690491385458454 -0.023943433155115643 0 0.0037534221167727397 -0.024694612864609965 0 0.0033363060698577752 -0.023573479559013885 0 0.0029843109626257309 -0.024550246468408404 0 0.003495276225707038 -0.025399935182289009 0 0.0037534221167727397 -0.024694612864609965 0 0.0029843109626257309 -0.024550246468408404 0 0.002543744325989316 -0.025247971631650122 0 0.003495276225707038 -0.025399935182289009 0 0.0029843109626257309 -0.024550246468408404 0 0.002543744325989316 -0.025247971631650122 0 0.0029843109626257309 -0.024550246468408404 0 0.0021800407781855488 -0.024491229562089503 0 0.0018036951967875961 -0.031647155902091682 0 0.0019964133408839212 -0.031621737116770333 0 0.0018267809702173698 -0.031296745563767318 0 0.0018036951967875961 -0.031647155902091682 0 0.0019989328902990633 -0.031440591020995654 0 0.0019964133408839212 -0.031621737116770333 0 0.0018036951967875961 -0.031647155902091682 0 0.0018267809702173698 -0.031296745563767318 0 0.0017699835745368659 -0.031547651371391837 0 0.0018036951967875961 -0.031647155902091682 0 0.0017699835745368659 -0.031547651371391837 0 0.0016255251992694265 -0.031939959912992151 0 0.0017624460213627963 -0.031409611738746582 0 0.0018036951967875961 -0.031647155902091682 0 0.0016255251992694265 -0.031939959912992151 0 0.0017624460213627963 -0.031409611738746582 0 0.0018036951967875961 -0.031647155902091682 0 0.0019989328902990633 -0.031440591020995654 0 0.0019989328902990633 -0.031440591020995654 0 0.0022183239667587277 -0.031331977890040379 0 0.0019964133408839212 -0.031621737116770333 0 0.0022183239667587277 -0.031331977890040379 0 0.0023914361090074253 -0.031470651942610513 0 0.0019964133408839212 -0.031621737116770333 0 0.0022963008386540878 -0.031106262262761832 0 0.0034727290991600898 -0.029602414142444713 0 0.0027718002944927098 -0.030334315067023582 0 0.0025475118674135621 -0.030612337369063772 0 0.0027750285809056761 -0.030602374538228595 0 0.0034727290991600898 -0.029602414142444713 0 0.0020099154718419706 -0.031319697331871912 0 0.0028691320355919299 -0.030284881601140692 0 0.0024776179619809685 -0.030528296438998681 0 0.0028576373844856938 -0.030626418156440818 0 0.0024776179619809685 -0.030528296438998681 0 0.0028576373844856938 -0.030626418156440818 0 0.0023453436841802456 -0.031203798888297451 0 0.0028576373844856938 -0.030626418156440818 0 0.0023453436841802456 -0.031203798888297451 0 0.0028324397697790998 -0.030788451008906252 0 0.0029895696201411755 -0.030356058123255408 0 0.0028576373844856938 -0.030626418156440818 0 0.0028324397697790998 -0.030788451008906252 0 0.0020099154718419706 -0.031319697331871912 0 0.0019897722623623362 -0.031173838045535095 0 0.0024776179619809685 -0.030528296438998681 0 0.0023453436841802456 -0.031203798888297451 0 0.0018267809702173698 -0.031296745563767318 0 0.0023453436841802456 -0.031203798888297451 0 0.0018267809702173698 -0.031296745563767318 0 0.0017158900203680561 -0.031672062168269642 0 0.0018267809702173698 -0.031296745563767318 0 0.0017616175054850555 -0.031374959910725739 0 0.0017158900203680561 -0.031672062168269642 0 0.0012836066946160241 -0.031564860193404411 0 0.0012757733097274323 -0.03205202476213783 0 0.0017158900203680561 -0.031672062168269642 0 0.00092904074684841331 -0.032059578798889536 0 0.0012836066946160241 -0.031564860193404411 0 0.0012757733097274323 -0.03205202476213783 0 0.0015179612199521693 -0.031340532433145905 0 0.0017407206856638667 -0.031728188963660447 0 0.00092904074684841331 -0.032059578798889536 0 0.0004726353186106594 -0.031688408027419804 0 0.00054559225114429841 -0.032602936596509494 0 0.00092904074684841331 -0.032059578798889536 0 0.0008939612151206641 -0.031605448512018235 0 0.0012836066946160241 -0.031564860193404411 0 0.00092904074684841331 -0.032059578798889536 0 0.0008939612151206641 -0.031605448512018235 0 0.0004726353186106594 -0.031688408027419804 0 0.0008939612151206641 -0.031605448512018235 0 0.0008845021632574514 -0.031123831448476205 0 0.0004726353186106594 -0.031688408027419804 0 0.001050620182955404 -0.032443241546235388 0 0.00026382955120566416 -0.032946953026551012 0 0.0008939612151206641 -0.031605448512018235 0 0.0012836066946160241 -0.031564860193404411 0 0.0008845021632574514 -0.031123831448476205 0 0.0017616175054850555 -0.031374959910725739 0 0.0017699835745368659 -0.031547651371391837 0 0.0019901785293126003 -0.031565144806608783 0 0.0018267809702173698 -0.031296745563767318 0 0.0017616175054850555 -0.031374959910725739 0 0.0017699835745368659 -0.031547651371391837 0 0.0015179612199521693 -0.031340532433145905 0 0.001050620182955404 -0.032443241546235388 0 0.001050620182955404 -0.032443241546235388 0 0.0017716221051258506 -0.031906510434902779 0 0.0017699835745368659 -0.031547651371391837 0 0.0019901785293126003 -0.031565144806608783 0 0.0016255251992694265 -0.031939959912992151 0 0.0010533962677607557 -0.033129582728205084 0 0.0016255251992694265 -0.031939959912992151 0 0.00060074245160757385 -0.032661660245232732 0 0.001050620182955404 -0.032443241546235388 0 0.0005162458055397235 -0.033218182143748644 0 0.0010890137384314377 -0.032034700650756719 0 0.0016255251992694265 -0.031939959912992151 0 0.00060074245160757385 -0.032661660245232732 0 0.00068925878904376413 -0.032350043357308796 0 0.0010890137384314377 -0.032034700650756719 0 0.00060074245160757385 -0.032661660245232732 0 -8.7560404866023447e-05 -0.033640037517341889 0 -0.0003009478430280601 -0.033712596170462704 0 -0.00033328156297554297 -0.033186104015692081 0 -0.0003009478430280601 -0.033712596170462704 0 -0.00033328156297554297 -0.033186104015692081 0 -0.00032918752285675387 -0.033773421867382462 0 -8.7560404866023447e-05 -0.033640037517341889 0 -0.00033328156297554297 -0.033186104015692081 0 0.00015707432112693014 -0.032925877256274674 0 -8.7560404866023447e-05 -0.033640037517341889 0 0.00015707432112693014 -0.032925877256274674 0 0.00036319430340335242 -0.033632900111602207 0 0.00068925878904376413 -0.032350043357308796 0 0.00015707432112693014 -0.032925877256274674 0 0.00060074245160757385 -0.032661660245232732 0 0.00014729393184374046 -0.032855752074676191 0 0.0005162458055397235 -0.033218182143748644 0 0.00047870007641635651 -0.033891062667811236 0 0.00036319430340335242 -0.033632900111602207 0 6.9120836650676584e-05 -0.033950296871122429 0 -8.7560404866023447e-05 -0.033640037517341889 0 0.00036319430340335242 -0.033632900111602207 0 6.9120836650676584e-05 -0.033950296871122429 0 -8.7560404866023447e-05 -0.033640037517341889 0 6.9120836650676584e-05 -0.033950296871122429 0 -0.00021475111526046418 -0.033974775386543338 0 -8.7560404866023447e-05 -0.033640037517341889 0 -0.0003009478430280601 -0.033712596170462704 0 -0.00021475111526046418 -0.033974775386543338 0 6.9120836650676584e-05 -0.033950296871122429 0 -0.00010529395861960702 -0.034153572632577289 0 -0.00021475111526046418 -0.033974775386543338 0 6.9120836650676584e-05 -0.033950296871122429 0 0.00013659311901009817 -0.034152697955182332 0 -0.00010529395861960702 -0.034153572632577289 0 0.00047870007641635651 -0.033891062667811236 0 6.9120836650676584e-05 -0.033950296871122429 0 0.00013659311901009817 -0.034152697955182332 0 0.0004726353186106594 -0.031688408027419804 0 0.00054559225114429841 -0.032602936596509494 0 5.8515967604531816e-05 -0.032559613348284187 0 0.00026382955120566416 -0.032946953026551012 0 1.734307165685954e-05 -0.033362840114950783 0 -0.00010529395861960702 -0.034153572632577289 0 -0.00011881524104026055 -0.034206889903143432 0 -7.0891252223014009e-05 -0.034204517833016514 0 0.00013659311901009817 -0.034152697955182332 0 -0.00010529395861960702 -0.034153572632577289 0 -0.00011881524104026055 -0.034206889903143432 0 -0.00010529395861960702 -0.034153572632577289 0 -0.00014129346682701039 -0.034160129205626034 0 -7.0891252223014009e-05 -0.034204517833016514 0 -0.00014129346682701039 -0.034160129205626034 0 -0.00024298131058618849 -0.034171395183297502 0 -0.00012385939535635189 -0.03447336732689809 0 -0.00014129346682701039 -0.034160129205626034 0 -0.00024298131058618849 -0.034171395183297502 0 -0.00023197749146035624 -0.034077495675707482 0 -0.00014129346682701039 -0.034160129205626034 0 -0.00021475111526046418 -0.033974775386543338 0 -0.00023197749146035624 -0.034077495675707482 0 -0.00010529395861960702 -0.034153572632577289 0 -0.00014129346682701039 -0.034160129205626034 0 -0.00021475111526046418 -0.033974775386543338 0 8.9205726536558086e-08 -0.034999935071721174 0 -9.2250666541828424e-05 -0.034941354536286655 0 -2.2604892628834051e-05 -0.034802530182396409 0 -0.00015787982222819927 -0.034536857307776676 0 -0.00013012837092049299 -0.034505759014493161 0 -0.00024298131058618849 -0.034171395183297502 0 -0.00014350089519225088 -0.03412073946364555 0 -0.00023197749146035624 -0.034077495675707482 0 -0.00015787982222819927 -0.034536857307776676 0 -6.3553387438224196e-05 -0.034684850978311137 0 -1.3382039792378319e-07 -0.035000291893912246 0 -6.3553387438224196e-05 -0.034684850978311137 0 8.9205726536558086e-08 -0.034999935071721174 0 -9.2250666541828424e-05 -0.034941354536286655 0 -5.0780626939831428e-05 -0.035043780944871365 0 -1.5294322376514887e-12 -0.034999999490418598 0 -2.8030338206770035e-07 -0.034998847191961197 0 -3.7453862221353825e-10 -0.034999997168192527 0 -2.8030338206770035e-07 -0.034998847191961197 0 -3.7453862221353825e-10 -0.034999997168192527 0 9.1218482769945387e-11 -0.03500000023850143 0 -6.1519450085390079e-05 -0.034625615142914741 0 -0.00014479330490813414 -0.034383833498136972 0 8.5718112416910698e-08 -0.034998567653987969 0 -6.3553387438224196e-05 -0.034684850978311137 0 7.2196642807732438e-08 -0.035000127127820899 0 -0.00014350089519225088 -0.03412073946364555 0 -0.00014479330490813414 -0.034383833498136972 0 -0.00023197749146035624 -0.034077495675707482 0 -6.3553387438224196e-05 -0.034684850978311137 0 -0.00014346029025094791 -0.034284220976119738 0 -0.00014479330490813414 -0.034383833498136972 0 8.5718112416910698e-08 -0.034998567653987969 0 -2.5842118225114134e-05 -0.034780141482243745 0 -0.00021475111526046418 -0.033974775386543338 0 -0.00023197749146035624 -0.034077495675707482 0 -0.00030052742305427469 -0.033983001235571193 0 -0.0003009478430280601 -0.033712596170462704 0 -0.00021475111526046418 -0.033974775386543338 0 -0.00030052742305427469 -0.033983001235571193 0 -0.00014479330490813414 -0.034383833498136972 0 -0.00023197749146035624 -0.034077495675707482 0 -0.00030052742305427469 -0.033983001235571193 0 -0.00014479330490813414 -0.034383833498136972 0 -0.00030052742305427469 -0.033983001235571193 0 -0.00024120719243134618 -0.034191122833153953 0 -0.00030052742305427469 -0.033983001235571193 0 -0.00032918752285675387 -0.033773421867382462 0 -0.00024120719243134618 -0.034191122833153953 0 -0.0003009478430280601 -0.033712596170462704 0 -0.00030052742305427469 -0.033983001235571193 0 -0.00032918752285675387 -0.033773421867382462 0 -0.00033328156297554297 -0.033186104015692081 0 -0.00032918752285675387 -0.033773421867382462 0 -0.00040468845011915386 -0.034299526354235728 0 -0.00032918752285675387 -0.033773421867382462 0 -0.00031424093320405648 -0.034187980818219312 0 -0.00040468845011915386 -0.034299526354235728 0 -0.00032918752285675387 -0.033773421867382462 0 -0.00031424093320405648 -0.034187980818219312 0 -0.00024120719243134618 -0.034191122833153953 0 -0.00014479330490813414 -0.034383833498136972 0 -0.00024120719243134618 -0.034191122833153953 0 -0.00012202921715113732 -0.034557256948352197 0 -0.00031424093320405648 -0.034187980818219312 0 -0.00024120719243134618 -0.034191122833153953 0 -0.00022286383549360338 -0.03448175193660144 0 -0.00024120719243134618 -0.034191122833153953 0 -0.00012202921715113732 -0.034557256948352197 0 -0.00022286383549360338 -0.03448175193660144 0 -0.00031424093320405648 -0.034187980818219312 0 -0.00022286383549360338 -0.03448175193660144 0 -0.00032651428841878703 -0.034717385102705008 0 -0.00012202921715113732 -0.034557256948352197 0 -0.00022286383549360338 -0.03448175193660144 0 -0.00016186524538428738 -0.034781847834662864 0 -0.00022286383549360338 -0.03448175193660144 0 -0.00016186524538428738 -0.034781847834662864 0 -0.00032651428841878703 -0.034717385102705008 0 -0.00031424093320405648 -0.034187980818219312 0 -0.00034214214637803337 -0.03431743771480756 0 -0.00040468845011915386 -0.034299526354235728 0 -0.0003644601840590796 -0.034159396432765846 0 -0.00023187067524823823 -0.034775961084133389 0 -0.0012051898066385209 -0.031462176019777917 0 -0.0010642144068619406 -0.030683405357809421 0 -0.00051388515883146594 -0.031080977766531129 0 8.5718112416910698e-08 -0.034998567653987969 0 -5.9125826819862897e-08 -0.034999958091001829 0 -2.5842118225114134e-05 -0.034780141482243745 0 -0.00014479330490813414 -0.034383833498136972 0 -0.00012202921715113732 -0.034557256948352197 0 -2.5842118225114134e-05 -0.034780141482243745 0 -0.00012202921715113732 -0.034557256948352197 0 -0.00016186524538428738 -0.034781847834662864 0 -5.1668668111003256e-05 -0.034850523082763936 0 -0.00012202921715113732 -0.034557256948352197 0 -2.5842118225114134e-05 -0.034780141482243745 0 -5.1668668111003256e-05 -0.034850523082763936 0 -5.9125826819862897e-08 -0.034999958091001829 0 -2.5842118225114134e-05 -0.034780141482243745 0 4.9431379520294395e-08 -0.034999828395102385 0 -2.5842118225114134e-05 -0.034780141482243745 0 4.9431379520294395e-08 -0.034999828395102385 0 -5.1668668111003256e-05 -0.034850523082763936 0 4.9431379520294395e-08 -0.034999828395102385 0 -5.1668668111003256e-05 -0.034850523082763936 0 -3.7369188251502475e-05 -0.034970238963696713 0 -5.1668668111003256e-05 -0.034850523082763936 0 -0.00010797308509686805 -0.03493399255234645 0 -3.7369188251502475e-05 -0.034970238963696713 0 -0.00016186524538428738 -0.034781847834662864 0 -5.1668668111003256e-05 -0.034850523082763936 0 -0.00010797308509686805 -0.03493399255234645 0 -9.4944573413554843e-05 -0.035036758295426441 0 -0.00010797308509686805 -0.03493399255234645 0 -3.7369188251502475e-05 -0.034970238963696713 0 -0.00012477388997084816 -0.034136737265478424 0 -3.8914582982277434e-08 -0.035000499609186539 0 -9.4944573413554843e-05 -0.035036758295426441 0 -3.7369188251502475e-05 -0.034970238963696713 0 -1.6178710400092412e-08 -0.035000092428696901 0 4.9431379520294395e-08 -0.034999828395102385 0 -3.7369188251502475e-05 -0.034970238963696713 0 -1.6178710400092412e-08 -0.035000092428696901 0 -0.0010642144068619406 -0.030683405357809421 0 -0.001746487098650835 -0.030479259810000332 0 -0.001243603176744553 -0.030116897662315446 0 -0.00034214214637803337 -0.03431743771480756 0 -0.00040468845011915386 -0.034299526354235728 0 -0.00031082375233158733 -0.034356360239554226 0 -0.00082150460145715635 -0.03275955290303862 0 -0.00085878155085417399 -0.03301983214170668 0 -0.0012051898066385209 -0.031462176019777917 0 -0.0010642144068619406 -0.030683405357809421 0 -0.001746487098650835 -0.030479259810000332 0 -0.0010642144068619406 -0.030683405357809421 0 -0.001243603176744553 -0.030116897662315446 0 -0.0006140048471189192 -0.030340791602934396 0 -0.00023187067524823823 -0.034775961084133389 0 -0.00085878155085417399 -0.03301983214170668 0 -0.00016186524538428738 -0.034781847834662864 0 -0.00032651428841878703 -0.034717385102705008 0 -0.00022743691729697646 -0.034926750189825037 0 -0.00016186524538428738 -0.034781847834662864 0 -0.00010797308509686805 -0.03493399255234645 0 -0.00022743691729697646 -0.034926750189825037 0 -0.00083833491644866201 -0.032955208829087618 0 -0.00081781768325761214 -0.032955196868951493 0 -0.00085767504229816412 -0.032908043569686012 0 -0.00012477388997084816 -0.034136737265478424 0 -0.00085878155085417399 -0.03301983214170668 0 -0.0019927971636810394 -0.029644264800982523 0 -0.001746487098650835 -0.030479259810000332 0 -0.001243603176744553 -0.030116897662315446 0 -9.4944573413554843e-05 -0.035036758295426441 0 -0.00010797308509686805 -0.03493399255234645 0 -0.00022743691729697646 -0.034926750189825037 0 -0.0010967923111686543 -0.031357480269761852 0 -0.00085878155085417399 -0.03301983214170668 0 -0.00089977986181348382 -0.029472067215863599 0 -0.0019927971636810394 -0.029644264800982523 0 -0.001243603176744553 -0.030116897662315446 0 -0.00089977986181348382 -0.029472067215863599 0 -0.001243603176744553 -0.030116897662315446 0 -0.0006140048471189192 -0.030340791602934396 0 -0.00089977986181348382 -0.029472067215863599 0 -0.0006140048471189192 -0.030340791602934396 0 -5.0037796669439581e-05 -0.029993170236857981 0 -0.0006140048471189192 -0.030340791602934396 0 9.2946063237236845e-05 -0.030685211712819682 0 -0.00051388515883146594 -0.031080977766531129 0 -0.0010642144068619406 -0.030683405357809421 0 -0.0006140048471189192 -0.030340791602934396 0 -0.00051388515883146594 -0.031080977766531129 0 -0.0006140048471189192 -0.030340791602934396 0 9.2946063237236845e-05 -0.030685211712819682 0 -5.0037796669439581e-05 -0.029993170236857981 0 9.2946063237236845e-05 -0.030685211712819682 0 0.00061804261261219694 -0.030284388839015176 0 0.00083119820355442072 -0.031103905652025147 0 9.2946063237236845e-05 -0.030685211712819682 0 -5.0037796669439581e-05 -0.029993170236857981 0 0.00061804261261219694 -0.030284388839015176 0 0.0002120157074238375 -0.029375083018490771 0 -5.0037796669439581e-05 -0.029993170236857981 0 0.00061804261261219694 -0.030284388839015176 0 0.00061804261261219694 -0.030284388839015176 0 0.0010885434559672336 -0.029907428879237689 0 0.001117618921443791 -0.030539985540814198 0 0.0002120157074238375 -0.029375083018490771 0 0.00061804261261219694 -0.030284388839015176 0 0.0010885434559672336 -0.029907428879237689 0 0.0010885434559672336 -0.029907428879237689 0 0.0015145573685041002 -0.030292487572133285 0 0.001117618921443791 -0.030539985540814198 0 0.0016507927063022191 -0.029789660761332618 0 0.0010885434559672336 -0.029907428879237689 0 0.0015145573685041002 -0.030292487572133285 0 0.0018714281248219204 -0.030724304447314329 0 0.0015145573685041002 -0.030292487572133285 0 0.0014258010903803809 -0.030943794937044678 0 0.0015145573685041002 -0.030292487572133285 0 0.001117618921443791 -0.030539985540814198 0 0.0014258010903803809 -0.030943794937044678 0 0.00061804261261219694 -0.030284388839015176 0 0.001117618921443791 -0.030539985540814198 0 0.00083119820355442072 -0.031103905652025147 0 0.00083119820355442072 -0.031103905652025147 0 0.0013734972930661655 -0.031517191506939879 0 0.00090413300932099211 -0.031782621886154765 0 0.001117618921443791 -0.030539985540814198 0 0.00083119820355442072 -0.031103905652025147 0 0.0014258010903803809 -0.030943794937044678 0 0.00083119820355442072 -0.031103905652025147 0 0.00090413300932099211 -0.031782621886154765 0 0.00049914799813441661 -0.031774629193143611 0 0.00083119820355442072 -0.031103905652025147 0 0.0014258010903803809 -0.030943794937044678 0 0.0013734972930661655 -0.031517191506939879 0 0.0017624460213627963 -0.031409611738746582 0 0.0016255251992694265 -0.031939959912992151 0 0.0013734972930661655 -0.031517191506939879 0 0.0010890137384314377 -0.032034700650756719 0 0.0016255251992694265 -0.031939959912992151 0 0.0013734972930661655 -0.031517191506939879 0 0.0017624460213627963 -0.031409611738746582 0 0.0014258010903803809 -0.030943794937044678 0 0.0013734972930661655 -0.031517191506939879 0 0.0010890137384314377 -0.032034700650756719 0 0.0013734972930661655 -0.031517191506939879 0 0.00090413300932099211 -0.031782621886154765 0 0.00068925878904376413 -0.032350043357308796 0 0.00090413300932099211 -0.031782621886154765 0 0.00050777644602653877 -0.032189426177174137 0 0.00068925878904376413 -0.032350043357308796 0 0.0010890137384314377 -0.032034700650756719 0 0.00090413300932099211 -0.031782621886154765 0 0.00068925878904376413 -0.032350043357308796 0 0.00015707432112693014 -0.032925877256274674 0 0.00050777644602653877 -0.032189426177174137 0 0.00050777644602653877 -0.032189426177174137 0 0.00049914799813441661 -0.031774629193143611 0 0.00014068661994696207 -0.032199560671145294 0 0.00090413300932099211 -0.031782621886154765 0 0.00050777644602653877 -0.032189426177174137 0 0.00049914799813441661 -0.031774629193143611 0 0.00015707432112693014 -0.032925877256274674 0 0.00050777644602653877 -0.032189426177174137 0 0.00014068661994696207 -0.032199560671145294 0 -0.00033328156297554297 -0.033186104015692081 0 -0.0012051898066385209 -0.031462176019777917 0 -0.00034674760718782162 -0.031827019562376484 0 -0.00033328156297554297 -0.033186104015692081 0 0.00015707432112693014 -0.032925877256274674 0 0.00014068661994696207 -0.032199560671145294 0 -0.00033328156297554297 -0.033186104015692081 0 0.00014068661994696207 -0.032199560671145294 0 -0.00034674760718782162 -0.031827019562376484 0 -0.00032352337663605707 -0.033284826197962469 0 -0.00082150460145715635 -0.03275955290303862 0 -0.00034674760718782162 -0.031827019562376484 0 -0.00051388515883146594 -0.031080977766531129 0 0.00015092107370414919 -0.031369439367740982 0 -0.0012051898066385209 -0.031462176019777917 0 -0.00034674760718782162 -0.031827019562376484 0 -0.00051388515883146594 -0.031080977766531129 0 9.2946063237236845e-05 -0.030685211712819682 0 -0.00051388515883146594 -0.031080977766531129 0 0.00015092107370414919 -0.031369439367740982 0 0.00083119820355442072 -0.031103905652025147 0 0.00049914799813441661 -0.031774629193143611 0 0.00015092107370414919 -0.031369439367740982 0 9.2946063237236845e-05 -0.030685211712819682 0 0.00083119820355442072 -0.031103905652025147 0 0.00015092107370414919 -0.031369439367740982 0 0.00014068661994696207 -0.032199560671145294 0 -0.00034674760718782162 -0.031827019562376484 0 0.00015092107370414919 -0.031369439367740982 0 0.00049914799813441661 -0.031774629193143611 0 0.00014068661994696207 -0.032199560671145294 0 0.00015092107370414919 -0.031369439367740982 0 -0.0013867678759074394 -0.022024107422116423 0 -0.0010796750151274672 -0.0223999325685766 0 -0.0015273978275890223 -0.022340011176625468 0 -0.0013867678759074394 -0.022024107422116423 0 -0.0010796750151274672 -0.0223999325685766 0 -0.00094662431747289115 -0.022024133865330964 0 -0.0015273978275890223 -0.022340011176625468 0 -0.0017903563282512518 -0.022013451775744958 0 -0.0019278447029888136 -0.022250938262121378 0 -0.0013867678759074394 -0.022024107422116423 0 -0.0015273978275890223 -0.022340011176625468 0 -0.0017903563282512518 -0.022013451775744958 0 -0.0013867678759074394 -0.022024107422116423 0 -0.0017903563282512518 -0.022013451775744958 0 -0.0016590464098959303 -0.021717129760723097 0 -0.0017903563282512518 -0.022013451775744958 0 -0.0016590464098959303 -0.021717129760723097 0 -0.0020418511586482555 -0.021732703970755156 0 -0.0016590464098959303 -0.021717129760723097 0 -0.0015775124094454277 -0.02141324655559864 0 -0.0019130225984599839 -0.021441714136172796 0 -0.0016590464098959303 -0.021717129760723097 0 -0.0020418511586482555 -0.021732703970755156 0 -0.0019130225984599839 -0.021441714136172796 0 -0.0016590464098959303 -0.021717129760723097 0 -0.0012455339222383901 -0.021670134012815388 0 -0.0015775124094454277 -0.02141324655559864 0 -0.0013867678759074394 -0.022024107422116423 0 -0.0012455339222383901 -0.021670134012815388 0 -0.00094662431747289115 -0.022024133865330964 0 -0.0012455339222383901 -0.021670134012815388 0 -0.00094662431747289115 -0.022024133865330964 0 -0.00083815440489252947 -0.02151266186189827 0 -0.0013867678759074394 -0.022024107422116423 0 -0.0016590464098959303 -0.021717129760723097 0 -0.0012455339222383901 -0.021670134012815388 0 -0.00094662431747289115 -0.022024133865330964 0 -0.00046349814196971871 -0.021937920793273388 0 -0.00083815440489252947 -0.02151266186189827 0 -0.00046349814196971871 -0.021937920793273388 0 -0.00063595041328580167 -0.022480591502620786 0 -9.584959969370314e-05 -0.022783023232132753 0 -0.00063595041328580167 -0.022480591502620786 0 -0.00036398549271020114 -0.022784608294492553 0 -9.584959969370314e-05 -0.022783023232132753 0 -0.00094662431747289115 -0.022024133865330964 0 -0.00046349814196971871 -0.021937920793273388 0 -0.00063595041328580167 -0.022480591502620786 0 -0.0010796750151274672 -0.0223999325685766 0 -0.00094662431747289115 -0.022024133865330964 0 -0.00063595041328580167 -0.022480591502620786 0 -0.0010796750151274672 -0.0223999325685766 0 -0.00063595041328580167 -0.022480591502620786 0 -0.00080030571128947997 -0.022792701654963856 0 -0.00063595041328580167 -0.022480591502620786 0 -0.00080030571128947997 -0.022792701654963856 0 -0.00036398549271020114 -0.022784608294492553 0 -0.00080030571128947997 -0.022792701654963856 0 -0.00036398549271020114 -0.022784608294492553 0 -0.00033682921900925352 -0.02326897457192521 0 -0.00036398549271020114 -0.022784608294492553 0 -0.00017008336453580306 -0.022738672991373835 0 -0.00033682921900925352 -0.02326897457192521 0 -0.00080030571128947997 -0.022792701654963856 0 -0.0010496116360884857 -0.023030133364703022 0 -0.00078212613176159812 -0.023208475762579329 0 -0.00080030571128947997 -0.022792701654963856 0 -0.00078212613176159812 -0.023208475762579329 0 -0.00033682921900925352 -0.02326897457192521 0 -0.0010496116360884857 -0.023030133364703022 0 -0.0010279695943600216 -0.023351084158703579 0 -0.00078212613176159812 -0.023208475762579329 0 -0.0010496116360884857 -0.023030133364703022 0 -0.0012231012087172278 -0.023136898875454382 0 -0.0010279695943600216 -0.023351084158703579 0 -0.0012231012087172278 -0.023136898875454382 0 -0.0013466338861733967 -0.022938506047778223 0 -0.0014396060130085397 -0.023141277232168533 0 -0.0010496116360884857 -0.023030133364703022 0 -0.0012231012087172278 -0.023136898875454382 0 -0.0013466338861733967 -0.022938506047778223 0 -0.0010496116360884857 -0.023030133364703022 0 -0.0013466338861733967 -0.022938506047778223 0 -0.0012249923827139426 -0.022673970723128982 0 -0.00080030571128947997 -0.022792701654963856 0 -0.0010496116360884857 -0.023030133364703022 0 -0.0012249923827139426 -0.022673970723128982 0 -0.0010796750151274672 -0.0223999325685766 0 -0.0015273978275890223 -0.022340011176625468 0 -0.0012249923827139426 -0.022673970723128982 0 -0.0013466338861733967 -0.022938506047778223 0 -0.0012249923827139426 -0.022673970723128982 0 -0.0015441628512183135 -0.022683783106534669 0 -0.0010796750151274672 -0.0223999325685766 0 -0.00080030571128947997 -0.022792701654963856 0 -0.0012249923827139426 -0.022673970723128982 0 -0.0015273978275890223 -0.022340011176625468 0 -0.0017662257515781916 -0.022499839384267199 0 -0.0019278447029888136 -0.022250938262121378 0 -0.0015273978275890223 -0.022340011176625468 0 -0.0017662257515781916 -0.022499839384267199 0 -0.0015441628512183135 -0.022683783106534669 0 -0.0015273978275890223 -0.022340011176625468 0 -0.0012249923827139426 -0.022673970723128982 0 -0.0015441628512183135 -0.022683783106534669 0 -0.0017662257515781916 -0.022499839384267199 0 -0.0015441628512183135 -0.022683783106534669 0 -0.0018429026917782516 -0.022746740826220725 0 -0.0017662257515781916 -0.022499839384267199 0 -0.0018429026917782516 -0.022746740826220725 0 -0.0019946545117806276 -0.022477667505398206 0 -0.0018429026917782516 -0.022746740826220725 0 -0.0015924682196541188 -0.022969216800370628 0 -0.0018117660558407854 -0.023054567446433433 0 -0.0018117660558407854 -0.023054567446433433 0 -0.0021253354445272253 -0.022895271349435191 0 -0.0015610887928478125 -0.023228882291706283 0 -0.0015441628512183135 -0.022683783106534669 0 -0.0018429026917782516 -0.022746740826220725 0 -0.0015924682196541188 -0.022969216800370628 0 -0.00038870825762149204 -0.013795155850165278 0 -0.0006501198459836397 -0.018364844327438339 0 -0.0013466338861733967 -0.022938506047778223 0 -0.0015441628512183135 -0.022683783106534669 0 -0.0015924682196541188 -0.022969216800370628 0 -0.0013466338861733967 -0.022938506047778223 0 -0.0015924682196541188 -0.022969216800370628 0 -0.0014396060130085397 -0.023141277232168533 0 -0.0015924682196541188 -0.022969216800370628 0 -0.0014396060130085397 -0.023141277232168533 0 -0.001567172793708764 -0.023266792934986801 0 -0.0015924682196541188 -0.022969216800370628 0 -0.0018117660558407854 -0.023054567446433433 0 -0.001567172793708764 -0.023266792934986801 0 0.001502236421615075 -0.0056606640086456798 0 0.0025741964654648693 -0.0065431631921362109 0 0.0017390170736215139 -0.0063391848045910981 0 -0.0018429026917782516 -0.022746740826220725 0 -0.0021253354445272253 -0.022895271349435191 0 -0.0021880655017322698 -0.022564591637721728 0 -0.0018429026917782516 -0.022746740826220725 0 -0.0018117660558407854 -0.023054567446433433 0 -0.0021253354445272253 -0.022895271349435191 0 0.001502236421615075 -0.0056606640086456798 0 0.0017390170736215139 -0.0063391848045910981 0 0.0012627389296305919 -0.0064243295497552174 0 0.001502236421615075 -0.0056606640086456798 0 6.3609199679667543e-05 -0.0058240700686351529 0 0.0012627389296305919 -0.0064243295497552174 0 0.001502236421615075 -0.0056606640086456798 0 0.00038089049468873111 -0.0047464016106379004 0 6.3609199679667543e-05 -0.0058240700686351529 0 -0.0026894956666144074 -0.022434223795099462 0 -0.0021880655017322698 -0.022564591637721728 0 -0.0022856376879883192 -0.022267553729384805 0 -0.00038870825762149204 -0.013795155850165278 0 -0.00099852089560556901 -0.014387962755369868 0 -0.0021253354445272253 -0.022895271349435191 0 -0.0026894956666144074 -0.022434223795099462 0 -0.0021880655017322698 -0.022564591637721728 0 -0.0026894956666144074 -0.022434223795099462 0 -0.0022856376879883192 -0.022267553729384805 0 -0.0026270589973745951 -0.022063285543759199 0 -0.0019946545117806276 -0.022477667505398206 0 -0.0021880655017322698 -0.022564591637721728 0 -0.0022856376879883192 -0.022267553729384805 0 -0.0017662257515781916 -0.022499839384267199 0 -0.0019946545117806276 -0.022477667505398206 0 -0.0019278447029888136 -0.022250938262121378 0 -0.0019946545117806276 -0.022477667505398206 0 -0.0019278447029888136 -0.022250938262121378 0 -0.0022856376879883192 -0.022267553729384805 0 -0.0018429026917782516 -0.022746740826220725 0 -0.0019946545117806276 -0.022477667505398206 0 -0.0021880655017322698 -0.022564591637721728 0 0.0029388053009946078 0.011682966906355572 0 0.002750348997352776 0.011933487721537893 0 0.0026704479339706723 0.011705629476665699 0 0.0029388053009946078 0.011682966906355572 0 0.0027714958682876147 0.011524251894940149 0 0.0031288377425969204 0.011348813045035662 0 0.0029388053009946078 0.011682966906355572 0 0.0027714958682876147 0.011524251894940149 0 0.0026704479339706723 0.011705629476665699 0 0.0029388053009946078 0.011682966906355572 0 0.0033187673160071283 0.011550245748395277 0 0.003065049238059022 0.011957902668287206 0 0.0029388053009946078 0.011682966906355572 0 0.0033187673160071283 0.011550245748395277 0 0.0031288377425969204 0.011348813045035662 0 0.0016184952624865156 0.0028915398282713975 0 0.0014515762092009218 0.0039031635939409319 0 -0.0026894956666144074 -0.022434223795099462 0 -0.0031350459066785377 -0.021960685629880652 0 -0.0028134640720286082 -0.022077358560245817 0 6.3609199679667543e-05 -0.0058240700686351529 0 -0.00048058936961015635 -0.004412473280007898 0 -0.00067466978025606692 -0.0044481483830924092 0 -0.00099852089560556901 -0.014387962755369868 0 -0.00042230562227128164 -0.0062068104474987769 0 0.00038089049468873111 -0.0047464016106379004 0 -0.00048058936961015635 -0.004412473280007898 0 -0.00080778877471464501 -0.0037885173894433135 0 0.00038089049468873111 -0.0047464016106379004 0 6.3609199679667543e-05 -0.0058240700686351529 0 -0.00048058936961015635 -0.004412473280007898 0 0.0014515762092009218 0.0039031635939409319 0 0.0036984978693670439 0.004221595912476046 0 -0.00048058936961015635 -0.004412473280007898 0 -0.00067568400688164647 -0.0044468356239838035 0 -0.00080778877471464501 -0.0037885173894433135 0 0.0004480771374015042 0.0029454543397188391 0 0.0014515762092009218 0.0039031635939409319 0 0.0057216928776973293 0.018719598619534896 0 0.0064959357553946691 0.019348649186934044 0 0.0056021287834059344 0.019582699483238354 0 0.0014515762092009218 0.0039031635939409319 0 0.0050135382424190047 0.013307368597818385 0 0.0029388053009946078 0.011682966906355572 0 0.003065049238059022 0.011957902668287206 0 0.002750348997352776 0.011933487721537893 0 0.0014448886110469672 0.0077209100065862343 0 0.0060649630492026927 0.0088613857537723703 0 0.0025731563475075037 0.0056857867783287235 0 0.0050135382424190047 0.013307368597818385 0 0.0036984978693670439 0.004221595912476046 0 0.0064959357553946691 0.019348649186934044 0 0.0063190114821033826 0.019707292751666473 0 0.0056021287834059344 0.019582699483238354 0 0.0017913063579626501 0.0044050294435720979 0 0.0038769956471997038 0.014566079391888125 0 0.0063190114821033826 0.019707292751666473 0 0.0056021287834059344 0.019582699483238354 0 0.0055479381470942097 0.02037918653774011 0 0.0036984978693670439 0.004221595912476046 0 -0.00042230562227128164 -0.0062068104474987769 0 0.0036984978693670439 0.004221595912476046 0 0.0017913063579626501 0.0044050294435720979 0 0.0017913063579626501 0.0044050294435720979 0 -0.00042230562227128164 -0.0062068104474987769 0 0.0029112879085012901 -0.0036138829835363402 0 -0.00035664169694478757 0.0022973518355298927 0 0.0051387946092244473 -0.0016173928330430792 0 -0.0010156010624214752 -0.004909526776385815 0 -0.0017517418127974435 -0.0043988417599281626 0 -0.0022625127694861631 -0.0059185857187674029 0 -0.0017517418127974435 -0.0043988417599281626 0 -0.0037720000669020726 -0.0064519926254927341 0 -0.0022625127694861631 -0.0059185857187674029 0 -0.00042230562227128164 -0.0062068104474987769 0 -0.0046488720295915584 -0.017614555606449249 0 -0.00067568400688164647 -0.0044468356239838035 0 -0.0009551695917458785 -0.0039117453840272105 0 -0.00080778877471464501 -0.0037885173894433135 0 -0.0031350459066785377 -0.021960685629880652 0 -0.0028134640720286082 -0.022077358560245817 0 -0.0027964023043652001 -0.021862716521471589 0 -0.0031350459066785377 -0.021960685629880652 0 -0.0027964023043652001 -0.021862716521471589 0 -0.002787525013598113 -0.021722393982997034 0 -0.0032440903760660757 -0.021755244139505244 0 -0.0044577000712042042 -0.02135629261210999 0 -0.0037797106283755945 -0.021107032189943132 0 -0.0046488720295915584 -0.017614555606449249 0 0.0016416779491488901 0.00018202209270267827 0 -0.0037720000669020726 -0.0064519926254927341 0 -0.0022625127694861631 -0.0059185857187674029 0 0.00018015279980299618 -0.007020183410883671 0 -0.0032440903760660757 -0.021755244139505244 0 -0.0031871385569550393 -0.021097741964694564 0 -0.0037797106283755945 -0.021107032189943132 0 0.0045838350060516189 0.007265798612068824 0 0.0034154562046878321 0.0094402094707312957 0 0.002777953861015251 0.0086009591551122148 0 -0.0010156010624214752 -0.004909526776385815 0 -0.0022625127694861631 -0.0059185857187674029 0 0.00018015279980299618 -0.007020183410883671 0 0.0017913063579626501 0.0044050294435720979 0 0.0016416779491488901 0.00018202209270267827 0 -0.0021372143739026212 -0.022017038199452943 0 -0.0024143185359895062 -0.021992611460304495 0 -0.002274325942913903 -0.021815650493730895 0 -0.0017903563282512518 -0.022013451775744958 0 -0.0021372143739026212 -0.022017038199452943 0 -0.0019278447029888136 -0.022250938262121378 0 -0.0017903563282512518 -0.022013451775744958 0 -0.0021372143739026212 -0.022017038199452943 0 -0.0020418511586482555 -0.021732703970755156 0 -0.0021372143739026212 -0.022017038199452943 0 -0.0019278447029888136 -0.022250938262121378 0 -0.0022856376879883192 -0.022267553729384805 0 -0.0021372143739026212 -0.022017038199452943 0 -0.0022856376879883192 -0.022267553729384805 0 -0.0024143185359895062 -0.021992611460304495 0 -0.0022856376879883192 -0.022267553729384805 0 -0.0026270589973745951 -0.022063285543759199 0 -0.0024143185359895062 -0.021992611460304495 0 -0.0026894956666144074 -0.022434223795099462 0 -0.0028134640720286082 -0.022077358560245817 0 -0.0026270589973745951 -0.022063285543759199 0 -0.0028134640720286082 -0.022077358560245817 0 -0.0027964023043652001 -0.021862716521471589 0 -0.0026270589973745951 -0.022063285543759199 0 -0.0027964023043652001 -0.021862716521471589 0 -0.0026270589973745951 -0.022063285543759199 0 -0.0026549604779878204 -0.021881734050870408 0 -0.0027964023043652001 -0.021862716521471589 0 -0.0026549604779878204 -0.021881734050870408 0 -0.0027458510950339205 -0.02181323317289513 0 -0.0026549604779878204 -0.021881734050870408 0 -0.0027458510950339205 -0.02181323317289513 0 -0.0027063735505899415 -0.0217929291240513 0 -0.0026549604779878204 -0.021881734050870408 0 -0.0024143185359895062 -0.021992611460304495 0 -0.0024964368859958504 -0.021813925351852469 0 -0.0026270589973745951 -0.022063285543759199 0 -0.0026549604779878204 -0.021881734050870408 0 -0.0024143185359895062 -0.021992611460304495 0 -0.0024143185359895062 -0.021992611460304495 0 -0.0024964368859958504 -0.021813925351852469 0 -0.002274325942913903 -0.021815650493730895 0 -0.0032440903760660757 -0.021755244139505244 0 -0.0024971494823011987 -0.02137241975232515 0 -0.0031871385569550393 -0.021097741964694564 0 -0.0024964368859958504 -0.021813925351852469 0 -0.002624596941622535 -0.021725392913879701 0 -0.0024971494823011987 -0.02137241975232515 0 -0.0046488720295915584 -0.017614555606449249 0 -0.0026230094552160831 -0.022073500350154138 0 -0.002787525013598113 -0.021722393982997034 0 -0.002624596941622535 -0.021725392913879701 0 -0.0024971494823011987 -0.02137241975232515 0 -0.0026549604779878204 -0.021881734050870408 0 -0.0024964368859958504 -0.021813925351852469 0 -0.002624596941622535 -0.021725392913879701 0 -0.002787525013598113 -0.021722393982997034 0 -0.0027063735505899415 -0.0217929291240513 0 -0.002624596941622535 -0.021725392913879701 0 -0.0027964023043652001 -0.021862716521471589 0 -0.002787525013598113 -0.021722393982997034 0 -0.0027458510950339205 -0.02181323317289513 0 -0.002787525013598113 -0.021722393982997034 0 -0.0027458510950339205 -0.02181323317289513 0 -0.0027063735505899415 -0.0217929291240513 0 -0.0026549604779878204 -0.021881734050870408 0 -0.0027063735505899415 -0.0217929291240513 0 -0.002624596941622535 -0.021725392913879701 0 -0.0024964368859958504 -0.021813925351852469 0 -0.002274325942913903 -0.021815650493730895 0 -0.0024971494823011987 -0.02137241975232515 0 -0.0020418511586482555 -0.021732703970755156 0 -0.0024971494823011987 -0.02137241975232515 0 -0.0019130225984599839 -0.021441714136172796 0 -0.002274325942913903 -0.021815650493730895 0 -0.0020418511586482555 -0.021732703970755156 0 -0.0024971494823011987 -0.02137241975232515 0 -0.0021372143739026212 -0.022017038199452943 0 -0.002274325942913903 -0.021815650493730895 0 -0.0020418511586482555 -0.021732703970755156 0 -0.0024971494823011987 -0.02137241975232515 0 -0.0018845517171432852 -0.020966400336150347 0 -0.0019130225984599839 -0.021441714136172796 0 -0.0024971494823011987 -0.02137241975232515 0 -0.0027626743586008124 -0.020625756945175561 0 -0.0018845517171432852 -0.020966400336150347 0 -0.0031871385569550393 -0.021097741964694564 0 -0.0027626743586008124 -0.020625756945175561 0 -0.0036445488976820928 -0.020486602937942782 0 -0.0024971494823011987 -0.02137241975232515 0 -0.0031871385569550393 -0.021097741964694564 0 -0.0027626743586008124 -0.020625756945175561 0 -0.0027626743586008124 -0.020625756945175561 0 -0.0036445488976820928 -0.020486602937942782 0 -0.0031333050465312332 -0.019902169236464613 0 -0.0027626743586008124 -0.020625756945175561 0 -0.0022850921156152225 -0.01999296164241 0 -0.0018845517171432852 -0.020966400336150347 0 -0.0044577000712042042 -0.02135629261210999 0 -0.0042836163646631873 -0.02068044331595683 0 -0.0037797106283755945 -0.021107032189943132 0 -0.0042836163646631873 -0.02068044331595683 0 -0.0037797106283755945 -0.021107032189943132 0 -0.0036445488976820928 -0.020486602937942782 0 -0.0031871385569550393 -0.021097741964694564 0 -0.0037797106283755945 -0.021107032189943132 0 -0.0036445488976820928 -0.020486602937942782 0 -0.0042836163646631873 -0.02068044331595683 0 -0.0036445488976820928 -0.020486602937942782 0 -0.0043341438118345036 -0.020055618199353351 0 -0.0036445488976820928 -0.020486602937942782 0 -0.0043341438118345036 -0.020055618199353351 0 -0.0038802420120893056 -0.019446188965467074 0 -0.0042836163646631873 -0.02068044331595683 0 -0.0043341438118345036 -0.020055618199353351 0 -0.0050803380987412316 -0.020331681257398086 0 -0.0043341438118345036 -0.020055618199353351 0 -0.0038802420120893056 -0.019446188965467074 0 -0.00478439889786955 -0.019324860333751453 0 -0.0038802420120893056 -0.019446188965467074 0 -0.0031333050465312332 -0.019902169236464613 0 -0.0030767682597988965 -0.019048150598743142 0 -0.0036445488976820928 -0.020486602937942782 0 -0.0038802420120893056 -0.019446188965467074 0 -0.0031333050465312332 -0.019902169236464613 0 -0.0038802420120893056 -0.019446188965467074 0 -0.0030767682597988965 -0.019048150598743142 0 -0.0036406240589829668 -0.018302407240186325 0 -0.0038802420120893056 -0.019446188965467074 0 -0.00437570855911424 -0.018408914330985127 0 -0.0036406240589829668 -0.018302407240186325 0 -0.0038802420120893056 -0.019446188965467074 0 -0.00478439889786955 -0.019324860333751453 0 -0.00437570855911424 -0.018408914330985127 0 -0.0022850921156152225 -0.01999296164241 0 -0.0031333050465312332 -0.019902169236464613 0 -0.0030767682597988965 -0.019048150598743142 0 -0.0027626743586008124 -0.020625756945175561 0 -0.0022850921156152225 -0.01999296164241 0 -0.0031333050465312332 -0.019902169236464613 0 -0.0022850921156152225 -0.01999296164241 0 -0.0030767682597988965 -0.019048150598743142 0 -0.0022303428482087547 -0.019120183095827494 0 -0.0022850921156152225 -0.01999296164241 0 -0.0022303428482087547 -0.019120183095827494 0 -0.0016788768340285723 -0.019783160475925234 0 -0.0022303428482087547 -0.019120183095827494 0 -0.0016788768340285723 -0.019783160475925234 0 -0.0011122390780554073 -0.019349908122224934 0 -0.0012372842598741259 -0.020597789560315945 0 -0.00049380113840821738 -0.02070598621467841 0 -0.0011122390780554073 -0.019349908122224934 0 -0.0016788768340285723 -0.019783160475925234 0 -0.0012372842598741259 -0.020597789560315945 0 -0.0011122390780554073 -0.019349908122224934 0 -0.00053447953068633974 -0.02061166869198218 0 -0.00096696414717192109 -0.020057437252375108 0 -0.0022850921156152225 -0.01999296164241 0 -0.0016788768340285723 -0.019783160475925234 0 -0.0012372842598741259 -0.020597789560315945 0 -0.0022850921156152225 -0.01999296164241 0 -0.0012372842598741259 -0.020597789560315945 0 -0.0018845517171432852 -0.020966400336150347 0 -0.0012372842598741259 -0.020597789560315945 0 -0.0018845517171432852 -0.020966400336150347 0 -0.0012235547242533367 -0.021229075401470929 0 -0.0012372842598741259 -0.020597789560315945 0 -0.0012235547242533367 -0.021229075401470929 0 -0.00070036193074279537 -0.021013408685000658 0 -0.0012455339222383901 -0.021670134012815388 0 -0.0012235547242533367 -0.021229075401470929 0 -0.00083815440489252947 -0.02151266186189827 0 -0.0012455339222383901 -0.021670134012815388 0 -0.0012235547242533367 -0.021229075401470929 0 -0.0015775124094454277 -0.02141324655559864 0 -0.0018845517171432852 -0.020966400336150347 0 -0.0012235547242533367 -0.021229075401470929 0 -0.0015775124094454277 -0.02141324655559864 0 -0.0018845517171432852 -0.020966400336150347 0 -0.0015775124094454277 -0.02141324655559864 0 -0.0019130225984599839 -0.021441714136172796 0 -0.00046349814196971871 -0.021937920793273388 0 -0.00083815440489252947 -0.02151266186189827 0 -0.0003923510544585009 -0.021253873138057395 0 -0.00046349814196971871 -0.021937920793273388 0 -0.0003923510544585009 -0.021253873138057395 0 5.2547509289992938e-06 -0.021573534298268485 0 -0.0012235547242533367 -0.021229075401470929 0 -0.00083815440489252947 -0.02151266186189827 0 -0.00070036193074279537 -0.021013408685000658 0 -0.00083815440489252947 -0.02151266186189827 0 -0.00070036193074279537 -0.021013408685000658 0 -0.0003923510544585009 -0.021253873138057395 0 -0.00070036193074279537 -0.021013408685000658 0 -0.0003923510544585009 -0.021253873138057395 0 -0.00033772007138647986 -0.021017032401509199 0 -0.00033772007138647986 -0.021017032401509199 0 -0.00049380113840821738 -0.02070598621467841 0 -0.00025205514845768191 -0.021250471343548426 0 -0.0012372842598741259 -0.020597789560315945 0 -0.00070036193074279537 -0.021013408685000658 0 -0.00049380113840821738 -0.02070598621467841 0 -0.00070036193074279537 -0.021013408685000658 0 -0.00033772007138647986 -0.021017032401509199 0 -0.00049380113840821738 -0.02070598621467841 0 -0.00049380113840821738 -0.02070598621467841 0 -0.00025205514845768191 -0.021250471343548426 0 -0.00036639289233924855 -0.021042443291850003 0 -0.00025205514845768191 -0.021250471343548426 0 -0.00035818101112583447 -0.021985159910614848 0 -0.00029424671306891019 -0.021501691738645811 0 -0.00025205514845768191 -0.021250471343548426 0 -0.00021768767069683121 -0.021090488941660462 0 -0.00035818101112583447 -0.021985159910614848 0 -0.00033772007138647986 -0.021017032401509199 0 -0.00025205514845768191 -0.021250471343548426 0 -0.00021768767069683121 -0.021090488941660462 0 -0.00045446494193060981 -0.022312065752765047 0 -0.00038166716518380249 -0.021994234591416827 0 -0.00077661999219642429 -0.023523061221898237 0 -0.00035818101112583447 -0.021985159910614848 0 9.7285355646820751e-05 -0.023117926679726897 0 -0.00077661999219642429 -0.023523061221898237 0 9.7285355646820751e-05 -0.023117926679726897 0 -0.00031102704593495551 -0.023801494248144955 0 -0.00035818101112583447 -0.021985159910614848 0 9.7285355646820751e-05 -0.023117926679726897 0 6.7660636700886539e-05 -0.022534509622511519 0 0.0003404815302187585 -0.023026773019171026 0 9.7285355646820751e-05 -0.023117926679726897 0 6.7660636700886539e-05 -0.022534509622511519 0 9.7285355646820751e-05 -0.023117926679726897 0 0.00024522353965825627 -0.023725230713282149 0 0.00043344503602677046 -0.023194212939270473 0 0.0003404815302187585 -0.023026773019171026 0 9.7285355646820751e-05 -0.023117926679726897 0 0.00043344503602677046 -0.023194212939270473 0 9.7285355646820751e-05 -0.023117926679726897 0 -0.00031102704593495551 -0.023801494248144955 0 0.00024522353965825627 -0.023725230713282149 0 -0.0010947444977604287 -0.025604373724716797 0 -0.0007368733904492467 -0.025396852725720957 0 -0.00094644514885806365 -0.025653219154267878 0 -0.00045234558009784058 -0.024611170267700641 0 -0.00014352006182365203 -0.023917151941009233 0 -0.0010947444977604287 -0.025604373724716797 0 -0.001039177146233598 -0.025221803862511119 0 -0.00082454353194583001 -0.024869336119838985 0 -0.0010947444977604287 -0.025604373724716797 0 -0.001039177146233598 -0.025221803862511119 0 -0.00094644514885806365 -0.025653219154267878 0 -0.001039177146233598 -0.025221803862511119 0 -0.00094644514885806365 -0.025653219154267878 0 -0.00086672038029115758 -0.025871886687836899 0 -0.00031102704593495551 -0.023801494248144955 0 0.00024522353965825627 -0.023725230713282149 0 -0.00056868276477224546 -0.024446075506187041 0 -0.0010947444977604287 -0.025604373724716797 0 -0.00082454353194583001 -0.024869336119838985 0 -0.00056868276477224546 -0.024446075506187041 0 -0.00045234558009784058 -0.024611170267700641 0 -0.00054308862872666887 -0.02450301575410677 0 -0.00031102704593495551 -0.023801494248144955 0 -0.0005220693548644963 -0.024083999417923919 0 -0.00056868276477224546 -0.024446075506187041 0 -0.0005220693548644963 -0.024083999417923919 0 -0.0003743474016355296 -0.024117619614399795 0 -0.00049737512326514493 -0.023894302418275986 0 -0.00077661999219642429 -0.023523061221898237 0 -0.0005220693548644963 -0.024083999417923919 0 -0.0003743474016355296 -0.024117619614399795 0 -0.0005220693548644963 -0.024083999417923919 0 -0.00049737512326514493 -0.023894302418275986 0 -0.00056868276477224546 -0.024446075506187041 0 -0.0003923510544585009 -0.021253873138057395 0 -0.00021768767069683121 -0.021090488941660462 0 5.2547509289992938e-06 -0.021573534298268485 0 -0.00045446494193060981 -0.022312065752765047 0 -0.00021213535720774666 -0.022824608881039023 0 -0.0003923510544585009 -0.021253873138057395 0 -0.00033772007138647986 -0.021017032401509199 0 -0.00021768767069683121 -0.021090488941660462 0 -0.00077661999219642429 -0.023523061221898237 0 -0.00031102704593495551 -0.023801494248144955 0 -0.0005220693548644963 -0.024083999417923919 0 0.002543744325989316 -0.025247971631650122 0 0.0015260940970088348 -0.025122464180550287 0 0.0021800407781855488 -0.024491229562089503 0 0.0015260940970088348 -0.025122464180550287 0 0.0021800407781855488 -0.024491229562089503 0 0.0014474685834101023 -0.024288967294641344 0 0.0021800407781855488 -0.024491229562089503 0 0.0018385423727150835 -0.023978111051005457 0 0.0014474685834101023 -0.024288967294641344 0 0.0033363060698577752 -0.023573479559013885 0 0.0024690491385458454 -0.023943433155115643 0 0.0017550977394654172 -0.023329427843948185 0 0.0021800407781855488 -0.024491229562089503 0 0.0024690491385458454 -0.023943433155115643 0 0.0018385423727150835 -0.023978111051005457 0 0.0024690491385458454 -0.023943433155115643 0 0.0017550977394654172 -0.023329427843948185 0 0.0018385423727150835 -0.023978111051005457 0 0.0017550977394654172 -0.023329427843948185 0 0.0018385423727150835 -0.023978111051005457 0 0.0013566953071288983 -0.023831917491301185 0 0.0018385423727150835 -0.023978111051005457 0 0.0013566953071288983 -0.023831917491301185 0 0.0014474685834101023 -0.024288967294641344 0 0.0017550977394654172 -0.023329427843948185 0 0.0013566953071288983 -0.023831917491301185 0 0.00073792477787929596 -0.023582173817033304 0 0.0017550977394654172 -0.023329427843948185 0 0.00073792477787929596 -0.023582173817033304 0 0.0002677457212740206 -0.023227729809246745 0 0.0013566953071288983 -0.023831917491301185 0 0.00073792477787929596 -0.023582173817033304 0 0.00091933288903997036 -0.024003105550253711 0 0.0017573183167905648 -0.025276083728698266 0 0.00075535213866625354 -0.024580224868123678 0 0.0013566953071288983 -0.023831917491301185 0 0.00091933288903997036 -0.024003105550253711 0 0.0014474685834101023 -0.024288967294641344 0 0.00091933288903997036 -0.024003105550253711 0 0.00072837213613483379 -0.024526477009644845 0 0.00054883248948620034 -0.023932266488382082 0 0.00073792477787929596 -0.023582173817033304 0 0.00091933288903997036 -0.024003105550253711 0 0.00054883248948620034 -0.023932266488382082 0 0.00091933288903997036 -0.024003105550253711 0 0.00072837213613483379 -0.024526477009644845 0 0.0014474685834101023 -0.024288967294641344 0 0.0015260940970088348 -0.025122464180550287 0 0.00072837213613483379 -0.024526477009644845 0 0.0014474685834101023 -0.024288967294641344 0 0.0015260940970088348 -0.025122464180550287 0 0.00072837213613483379 -0.024526477009644845 0 0.00074512331717732161 -0.025183539786643283 0 0.00072837213613483379 -0.024526477009644845 0 0.00012485797745625206 -0.024247097706450116 0 -2.6838508547229792e-05 -0.02523269133122364 0 0.00012485797745625206 -0.024247097706450116 0 -0.00076486904246605113 -0.024627132348694011 0 -2.6838508547229792e-05 -0.02523269133122364 0 0.00072837213613483379 -0.024526477009644845 0 -2.6838508547229792e-05 -0.02523269133122364 0 0.00074512331717732161 -0.025183539786643283 0 0.00072837213613483379 -0.024526477009644845 0 0.00012485797745625206 -0.024247097706450116 0 0.00054883248948620034 -0.023932266488382082 0 0.00012485797745625206 -0.024247097706450116 0 0.00022363797625765146 -0.023290714047133832 0 -0.00076486904246605113 -0.024627132348694011 0 0.00012485797745625206 -0.024247097706450116 0 0.00054883248948620034 -0.023932266488382082 0 0.00022363797625765146 -0.023290714047133832 0 0.00020883015951361279 -0.02332807910775778 0 -0.00014352006182365203 -0.023917151941009233 0 0.00073792477787929596 -0.023582173817033304 0 0.00022363797625765146 -0.023290714047133832 0 0.0002677457212740206 -0.023227729809246745 0 0.00073792477787929596 -0.023582173817033304 0 0.00054883248948620034 -0.023932266488382082 0 0.00022363797625765146 -0.023290714047133832 0 0.00022363797625765146 -0.023290714047133832 0 0.00032676371565651657 -0.02321486249164308 0 0.00043344503602677046 -0.023194212939270473 0 0.0003404815302187585 -0.023026773019171026 0 0.00032676371565651657 -0.02321486249164308 0 0.00043344503602677046 -0.023194212939270473 0 0.0003404815302187585 -0.023026773019171026 0 0.00032676371565651657 -0.02321486249164308 0 0.00031344672482780666 -0.023498429196996504 0 -0.0010947444977604287 -0.025604373724716797 0 -0.00076486904246605113 -0.024627132348694011 0 -0.0007368733904492467 -0.025396852725720957 0 -0.00076486904246605113 -0.024627132348694011 0 -0.0007368733904492467 -0.025396852725720957 0 -2.6838508547229792e-05 -0.02523269133122364 0 -0.0007368733904492467 -0.025396852725720957 0 -0.00049928203195592313 -0.025799276357246048 0 -2.6838508547229792e-05 -0.02523269133122364 0 -0.0007368733904492467 -0.025396852725720957 0 -0.00094644514885806365 -0.025653219154267878 0 -0.00049928203195592313 -0.025799276357246048 0 -0.001039177146233598 -0.025221803862511119 0 -0.00086672038029115758 -0.025871886687836899 0 -0.00084183810652933844 -0.026253975949318616 0 -0.00094644514885806365 -0.025653219154267878 0 -0.00086672038029115758 -0.025871886687836899 0 -0.00049928203195592313 -0.025799276357246048 0 -0.00086672038029115758 -0.025871886687836899 0 -0.00054625594529762386 -0.02619330727999725 0 -0.00084183810652933844 -0.026253975949318616 0 -0.00086672038029115758 -0.025871886687836899 0 -0.00054625594529762386 -0.02619330727999725 0 -0.00049928203195592313 -0.025799276357246048 0 -0.00049928203195592313 -0.025799276357246048 0 -5.6862573559453904e-05 -0.026531411384913717 0 8.5188288206545392e-05 -0.025876857676503599 0 -0.00054625594529762386 -0.02619330727999725 0 -5.6862573559453904e-05 -0.026531411384913717 0 -0.00066394496223578636 -0.026973127833420076 0 -0.00054625594529762386 -0.02619330727999725 0 -0.00049928203195592313 -0.025799276357246048 0 -5.6862573559453904e-05 -0.026531411384913717 0 -5.6862573559453904e-05 -0.026531411384913717 0 0.00052907299233206071 -0.0262257099633613 0 0.00086930875348814466 -0.027172805317734441 0 -5.6862573559453904e-05 -0.026531411384913717 0 8.5188288206545392e-05 -0.025876857676503599 0 0.00052907299233206071 -0.0262257099633613 0 8.5188288206545392e-05 -0.025876857676503599 0 -2.6838508547229792e-05 -0.02523269133122364 0 0.0005230014441684319 -0.025656396328010589 0 8.5188288206545392e-05 -0.025876857676503599 0 0.0005230014441684319 -0.025656396328010589 0 0.00052907299233206071 -0.0262257099633613 0 -0.00049928203195592313 -0.025799276357246048 0 8.5188288206545392e-05 -0.025876857676503599 0 -2.6838508547229792e-05 -0.02523269133122364 0 -2.6838508547229792e-05 -0.02523269133122364 0 0.00074512331717732161 -0.025183539786643283 0 0.0005230014441684319 -0.025656396328010589 0 0.00074512331717732161 -0.025183539786643283 0 0.0010550905279193494 -0.025556827193214508 0 0.0005230014441684319 -0.025656396328010589 0 0.0015260940970088348 -0.025122464180550287 0 0.0010550905279193494 -0.025556827193214508 0 0.0015060206334753345 -0.025957313039435412 0 0.0015260940970088348 -0.025122464180550287 0 0.00074512331717732161 -0.025183539786643283 0 0.0010550905279193494 -0.025556827193214508 0 0.0010550905279193494 -0.025556827193214508 0 0.00096124435383781082 -0.025989732898961546 0 0.0015060206334753345 -0.025957313039435412 0 0.0010550905279193494 -0.025556827193214508 0 0.0005230014441684319 -0.025656396328010589 0 0.00096124435383781082 -0.025989732898961546 0 0.0005230014441684319 -0.025656396328010589 0 0.00096124435383781082 -0.025989732898961546 0 0.00052907299233206071 -0.0262257099633613 0 0.00096124435383781082 -0.025989732898961546 0 0.00052907299233206071 -0.0262257099633613 0 0.0012326289823129924 -0.026570856350861212 0 0.00052907299233206071 -0.0262257099633613 0 0.0012326289823129924 -0.026570856350861212 0 0.00086930875348814466 -0.027172805317734441 0 0.0012326289823129924 -0.026570856350861212 0 0.0017143678722963546 -0.027469991655493037 0 0.00086930875348814466 -0.027172805317734441 0 0.00096124435383781082 -0.025989732898961546 0 0.0012326289823129924 -0.026570856350861212 0 0.0015060206334753345 -0.025957313039435412 0 0.0012326289823129924 -0.026570856350861212 0 0.0021285844437457491 -0.026680403078044802 0 0.0015060206334753345 -0.025957313039435412 0 0.0012326289823129924 -0.026570856350861212 0 0.0021285844437457491 -0.026680403078044802 0 0.0017143678722963546 -0.027469991655493037 0 0.0029976793391983812 -0.026163115334210459 0 0.0021285844437457491 -0.026680403078044802 0 0.0021355991538360391 -0.025805597698395799 0 0.0021285844437457491 -0.026680403078044802 0 0.0021355991538360391 -0.025805597698395799 0 0.0015060206334753345 -0.025957313039435412 0 0.0015260940970088348 -0.025122464180550287 0 0.0021355991538360391 -0.025805597698395799 0 0.0015060206334753345 -0.025957313039435412 0 0.002543744325989316 -0.025247971631650122 0 0.0015260940970088348 -0.025122464180550287 0 0.0021355991538360391 -0.025805597698395799 0 0.0026901771778828831 -0.029074085800247999 0 0.0018439118206084746 -0.02859591186157634 0 0.0019587735866671337 -0.029362825826817041 0 0.0020588404465148803 -0.028385240952705997 0 0.0014210462531628141 -0.028114096329546576 0 0.0019587735866671337 -0.029362825826817041 0 0.0025257021081979275 -0.028845251217077372 0 0.0020588404465148803 -0.028385240952705997 0 0.0028129537441935969 -0.029349691895587979 0 0.0019587735866671337 -0.029362825826817041 0 0.0025257021081979275 -0.028845251217077372 0 0.0027233209379908634 -0.027924801826493935 0 0.0025257021081979275 -0.028845251217077372 0 0.0020588404465148803 -0.028385240952705997 0 0.0027233209379908634 -0.027924801826493935 0 0.0021285844437457491 -0.026680403078044802 0 0.0017143678722963546 -0.027469991655493037 0 0.0027233209379908634 -0.027924801826493935 0 0.0020588404465148803 -0.028385240952705997 0 0.0017143678722963546 -0.027469991655493037 0 0.0020588404465148803 -0.028385240952705997 0 0.0017143678722963546 -0.027469991655493037 0 0.0014210462531628141 -0.028114096329546576 0 0.0017143678722963546 -0.027469991655493037 0 0.0014210462531628141 -0.028114096329546576 0 0.00086930875348814466 -0.027172805317734441 0 0.0014210462531628141 -0.028114096329546576 0 0.00086930875348814466 -0.027172805317734441 0 0.00052696058091422008 -0.028207172524806423 0 0.0018439118206084746 -0.02859591186157634 0 -0.00031002311198231197 -0.02615757183408584 0 0.0018439118206084746 -0.02859591186157634 0 0.00037082329749279889 -0.027415464591709959 0 0.0015285262616742846 -0.027247511269065824 0 0.00013855432614363845 -0.026585225647231227 0 -1.079078137409202e-05 -0.027582720073011782 0 0.0019587735866671337 -0.029362825826817041 0 0.0014210462531628141 -0.028114096329546576 0 0.00052696058091422008 -0.028207172524806423 0 -0.001677842752678101 -0.024575693537647075 0 -0.0014179105649677354 -0.024188670743651563 0 -0.0018626913111539408 -0.024315939515013891 0 -0.001264069281532481 -0.025506628269242427 0 -0.00031002311198231197 -0.02615757183408584 0 0.00013855432614363845 -0.026585225647231227 0 -0.00062673298738623177 -0.026756588183800157 0 -1.079078137409202e-05 -0.027582720073011782 0 0.00013855432614363845 -0.026585225647231227 0 -0.00062673298738623177 -0.026756588183800157 0 -0.0012420630664903302 -0.025935802710709364 0 0.00037082329749279889 -0.027415464591709959 0 -0.0010077388333359181 -0.026059875988817535 0 -5.6862573559453904e-05 -0.026531411384913717 0 0.00052696058091422008 -0.028207172524806423 0 -0.00066394496223578636 -0.026973127833420076 0 -5.6862573559453904e-05 -0.026531411384913717 0 0.00086930875348814466 -0.027172805317734441 0 0.00052696058091422008 -0.028207172524806423 0 -0.001264069281532481 -0.025506628269242427 0 -0.0010077388333359181 -0.026059875988817535 0 -0.001677842752678101 -0.024575693537647075 0 -0.0015087872032224796 -0.024855845621728708 0 -0.0013715213360407032 -0.024537652966297126 0 -0.001039177146233598 -0.025221803862511119 0 -0.00080011271601963428 -0.026739154890964598 0 -0.00084183810652933844 -0.026253975949318616 0 -0.0010644409336283112 -0.025306038958277041 0 -0.0010077388333359181 -0.026059875988817535 0 -0.0015087872032224796 -0.024855845621728708 0 -0.0013715213360407032 -0.024537652966297126 0 -0.0011463971361095869 -0.024726016761923948 0 -0.00054625594529762386 -0.02619330727999725 0 -0.00066394496223578636 -0.026973127833420076 0 -0.00084183810652933844 -0.026253975949318616 0 -0.0010077388333359181 -0.026059875988817535 0 -0.0007843024532330757 -0.02641427993603666 0 -0.0013715213360407032 -0.024537652966297126 0 -0.0014179105649677354 -0.024188670743651563 0 -0.0010706824762545359 -0.024394734144211023 0 -0.001677842752678101 -0.024575693537647075 0 -0.0013715213360407032 -0.024537652966297126 0 -0.0014179105649677354 -0.024188670743651563 0 -0.00025770911132168761 -0.023991877368157086 0 -0.00026038045525102188 -0.024051645488293083 0 -0.00033694271924264446 -0.023993017420571743 0 -0.00025770911132168761 -0.023991877368157086 0 -0.00026038045525102188 -0.024051645488293083 0 -0.00019870913901897931 -0.024044430294478353 0 -0.00026038045525102188 -0.024051645488293083 0 -0.00019870913901897931 -0.024044430294478353 0 -0.00019928156399993475 -0.024099785456492166 0 -0.00025770911132168761 -0.023991877368157086 0 -0.00019870913901897931 -0.024044430294478353 0 -0.0001762087377895286 -0.023994408562118888 0 -0.0009201071174996518 -0.023953367131121749 0 -0.00031002311198231197 -0.02615757183408584 0 0.00084866972198634227 -0.028506482124479964 0 0.0010572100235430016 -0.028783026023955032 0 0.0012147671902955888 -0.028641311424749658 0 -0.00019870913901897931 -0.024044430294478353 0 -0.0001762087377895286 -0.023994408562118888 0 -0.00013373505560189937 -0.024044445605857469 0 0.0013333204439128462 -0.028432539240897389 0 0.00084866972198634227 -0.028506482124479964 0 0.0012147671902955888 -0.028641311424749658 0 -0.00031002311198231197 -0.02615757183408584 0 0.00089157726781467729 -0.026499993172806172 0 0.0010572100235430016 -0.028783026023955032 0 0.0012382820930742495 -0.028855552578483188 0 0.0012147671902955888 -0.028641311424749658 0 0.0017085509574805327 -0.026360954231877877 0 0.0010608543846025468 -0.02536964953746387 0 -0.00019870913901897931 -0.024044430294478353 0 -0.00011257318193362091 -0.024072735332421585 0 -0.00019928156399993475 -0.024099785456492166 0 -0.00019870913901897931 -0.024044430294478353 0 -0.00013373505560189937 -0.024044445605857469 0 -0.00011257318193362091 -0.024072735332421585 0 0.00089157726781467729 -0.026499993172806172 0 0.0015514662331808759 -0.02779973085308415 0 0.00099931030249374793 -0.026785433756719046 0 0.0014210678981372417 -0.027348716666823817 0 0.0017311640796268126 -0.027092399378050747 0 0.00089157726781467729 -0.026499993172806172 0 0.0017085509574805327 -0.026360954231877877 0 0.0022971755159070422 -0.02701544878478971 0 0.0022763619009047225 -0.027034160635723684 0 0.0022166444394986573 -0.026889466824187403 0 0.0017085509574805327 -0.026360954231877877 0 0.0015514662331808759 -0.02779973085308415 0 0.0015641947963138537 -0.028627068905091327 0 0.0013333204439128462 -0.028432539240897389 0 0.0012147671902955888 -0.028641311424749658 0 0.0013263886848035931 -0.028938650627036228 0 0.0015514662331808759 -0.02779973085308415 0 0.0015641947963138537 -0.028627068905091327 0 0.0012382820930742495 -0.028855552578483188 0 0.0012147671902955888 -0.028641311424749658 0 -0.00064988929494040691 -0.023273636743825203 0 -9.584959969370314e-05 -0.022783023232132753 0 -0.00049737512326514493 -0.023894302418275986 0 -0.00054070212111120603 -0.023911836417112687 0 -0.0002610340394802254 -0.023423262273841245 0 -0.00064988929494040691 -0.023273636743825203 0 -9.584959969370314e-05 -0.022783023232132753 0 -0.00017008336453580306 -0.022738672991373835 0 -0.00021213535720774666 -0.022824608881039023 0 -0.00010256316095880856 -0.022805303359949611 0 -0.0003743474016355296 -0.024117619614399795 0 -9.584959969370314e-05 -0.022783023232132753 0 -0.00049737512326514493 -0.023894302418275986 0 -0.00046349814196971871 -0.021937920793273388 0 5.2547509289992938e-06 -0.021573534298268485 0 -9.584959969370314e-05 -0.022783023232132753 0 -0.00064988929494040691 -0.023273636743825203 0 -0.00049737512326514493 -0.023894302418275986 0 -0.00056868276477224546 -0.024446075506187041 0 -0.00082454353194583001 -0.024869336119838985 0 -0.00064988929494040691 -0.023273636743825203 0 -0.00056868276477224546 -0.024446075506187041 0 -0.00082454353194583001 -0.024869336119838985 0 -0.00048726573864888871 -0.024505985416694208 0 -0.00082681680301231915 -0.024738874305891907 0 -0.00082231597931445885 -0.024753064038901335 0 -0.00054070212111120603 -0.023911836417112687 0 -0.001039177146233598 -0.025221803862511119 0 -0.0015087872032224796 -0.024855845621728708 0 -0.0011463971361095869 -0.024726016761923948 0 -0.001039177146233598 -0.025221803862511119 0 -0.00082681680301231915 -0.024738874305891907 0 -0.0011463971361095869 -0.024726016761923948 0 -0.001039177146233598 -0.025221803862511119 0 -0.00082454353194583001 -0.024869336119838985 0 -0.00082681680301231915 -0.024738874305891907 0 -0.00082681680301231915 -0.024738874305891907 0 -0.0011463971361095869 -0.024726016761923948 0 -0.00084782100562234364 -0.024547392234111617 0 -0.0013715213360407032 -0.024537652966297126 0 -0.0011463971361095869 -0.024726016761923948 0 -0.0010706824762545359 -0.024394734144211023 0 -0.0011463971361095869 -0.024726016761923948 0 -0.0010706824762545359 -0.024394734144211023 0 -0.00084782100562234364 -0.024547392234111617 0 -0.0010706824762545359 -0.024394734144211023 0 -0.00084782100562234364 -0.024547392234111617 0 -0.00072493079271513002 -0.024312466970828183 0 -0.00048726573864888871 -0.024505985416694208 0 -0.00082681680301231915 -0.024738874305891907 0 -0.00084782100562234364 -0.024547392234111617 0 -0.00048726573864888871 -0.024505985416694208 0 -0.00084782100562234364 -0.024547392234111617 0 -0.00072493079271513002 -0.024312466970828183 0 -0.00062269930445080224 -0.024048757350678868 0 -0.00047863647884698371 -0.024018805131049564 0 -0.00048726573864888871 -0.024505985416694208 0 -0.00072493079271513002 -0.024312466970828183 0 -0.00045641457228280246 -0.024022812146387039 0 -0.00072493079271513002 -0.024312466970828183 0 -0.0009350329843164115 -0.024078020441316551 0 -0.00045641457228280246 -0.024022812146387039 0 -0.0009201071174996518 -0.023953367131121749 0 -0.00062269930445080224 -0.024048757350678868 0 -0.0014179105649677354 -0.024188670743651563 0 -0.0010706824762545359 -0.024394734144211023 0 -0.0009350329843164115 -0.024078020441316551 0 -0.0010706824762545359 -0.024394734144211023 0 -0.00072493079271513002 -0.024312466970828183 0 -0.0009350329843164115 -0.024078020441316551 0 -0.00026038045525102188 -0.024051645488293083 0 -0.00033694271924264446 -0.023993017420571743 0 -0.00031834991216489104 -0.024061394516128591 0 -0.00033694271924264446 -0.023993017420571743 0 -0.00038440213395064837 -0.024038393785448028 0 -0.00045641457228280246 -0.024022812146387039 0 -0.00033694271924264446 -0.023993017420571743 0 -0.00038440213395064837 -0.024038393785448028 0 -0.00031834991216489104 -0.024061394516128591 0 -0.00045641457228280246 -0.024022812146387039 0 -0.00031516807861463293 -0.024059944584494123 0 -0.00038515746441547945 -0.024001231083552503 0 -0.00038440213395064837 -0.024038393785448028 0 -0.00045641457228280246 -0.024022812146387039 0 -0.00038515746441547945 -0.024001231083552503 0 -0.00048726573864888871 -0.024505985416694208 0 -0.00045641457228280246 -0.024022812146387039 0 -0.00031516807861463293 -0.024059944584494123 0 -0.00036398549271020114 -0.022784608294492553 0 -9.584959969370314e-05 -0.022783023232132753 0 -0.00017008336453580306 -0.022738672991373835 0 -0.00031516807861463293 -0.024059944584494123 0 -0.00038515746441547945 -0.024001231083552503 0 -0.00041571485080101257 -0.023957832545781606 0 -0.0002610340394802254 -0.023423262273841245 0 -0.00039301487473943466 -0.023624922958153348 0 -0.00038751249852970462 -0.024036300259152328 0 -0.00038515746441547945 -0.024001231083552503 0 -0.00041571485080101257 -0.023957832545781606 0 -0.00038751249852970462 -0.024036300259152328 0 -0.00036062231314930944 -0.024047180830558002 0 -0.00033601749741839752 -0.024085374047337182 0 -0.00038751249852970462 -0.024036300259152328 0 -0.00038515746441547945 -0.024001231083552503 0 -0.00036062231314930944 -0.024047180830558002 0 -0.00038440213395064837 -0.024038393785448028 0 -0.00038515746441547945 -0.024001231083552503 0 -0.00036062231314930944 -0.024047180830558002 0 -0.00036062231314930944 -0.024047180830558002 0 -0.00031834991216489104 -0.024061394516128591 0 -0.00031071330095291147 -0.024088177208055003 0 -0.00038440213395064837 -0.024038393785448028 0 -0.00036062231314930944 -0.024047180830558002 0 -0.00031834991216489104 -0.024061394516128591 0 -0.00031071330095291147 -0.024088177208055003 0 -0.0002964053050418773 -0.024121271805234042 0 -0.00026709593458017195 -0.024114200180675355 0 -0.00031834991216489104 -0.024061394516128591 0 -0.00031071330095291147 -0.024088177208055003 0 -0.00026709593458017195 -0.024114200180675355 0 -0.00036062231314930944 -0.024047180830558002 0 -0.00031071330095291147 -0.024088177208055003 0 -0.00033601749741839752 -0.024085374047337182 0 0.0025654079601527234 -0.025793986270160812 0 0.0015358376765002341 -0.024682994178665801 0 -0.00033601749741839752 -0.024085374047337182 0 -0.0002964053050418773 -0.024121271805234042 0 -0.000342845796770242 -0.024119063890522652 0 -0.00031071330095291147 -0.024088177208055003 0 -0.00033601749741839752 -0.024085374047337182 0 -0.0002964053050418773 -0.024121271805234042 0 0.0042659036010608735 -0.025097438191710682 0 0.0041876680583234011 -0.025120645643026122 0 0.0040474199669256515 -0.025056624364487072 0 0.0042659036010608735 -0.025097438191710682 0 0.0042141090098477057 -0.025123013521062918 0 0.0041876680583234011 -0.025120645643026122 0 0.0025654079601527234 -0.025793986270160812 0 0.0041494450210640072 -0.025561182344963105 0 0.0041494450210640072 -0.025561182344963105 0 0.0041773379405564944 -0.025515716474928365 0 0.0042033066133185812 -0.026633535898832369 0 0.0042154158834342148 -0.026610667109691601 0 0.0041622983815686925 -0.026663910891225964 0 0.0041494450210640072 -0.025561182344963105 0 0.0042362000342795764 -0.026105488639487185 0 0.0042033066133185812 -0.026633535898832369 0 0.0041347784414847754 -0.026703257475746818 0 0.0041622983815686925 -0.026663910891225964 0 0.0025654079601527234 -0.025793986270160812 0 0.0008770417316734426 -0.025471119499642883 0 0.0042373910648113395 -0.025216201076789457 0 0.0042669839003780779 -0.025295693110608228 0 0.0043163318843826241 -0.025457457599455387 0 0.0025654079601527234 -0.025793986270160812 0 0.0034682300299677706 -0.026827253760120955 0 0.0025949535867650225 -0.02668360080218812 0 0.0024836778065060292 -0.026791440913644715 0 0.0024494319692002515 -0.026727048840259195 0 0.0042899706873802922 -0.025359346276974316 0 0.0042669839003780779 -0.025295693110608228 0 0.0043163318843826241 -0.025457457599455387 0 0.0042899706873802922 -0.025359346276974316 0 0.0043163318843826241 -0.025457457599455387 0 0.0043025308813112806 -0.025412537141025648 0 0.0042899706873802922 -0.025359346276974316 0 0.0042669839003780779 -0.025295693110608228 0 0.0042780710854823205 -0.025318022344310947 0 0.0042669839003780779 -0.025295693110608228 0 0.0042780710854823205 -0.025318022344310947 0 0.00425016008581085 -0.025265414826922909 0 0.0042780710854823205 -0.025318022344310947 0 0.0042954441184086751 -0.025358762302487171 0 0.0042754580780364751 -0.025313308681011646 0 0.0042780710854823205 -0.025318022344310947 0 0.00425016008581085 -0.025265414826922909 0 0.0042754580780364751 -0.025313308681011646 0 0.0042899706873802922 -0.025359346276974316 0 0.0042780710854823205 -0.025318022344310947 0 0.0042954441184086751 -0.025358762302487171 0 0.0042899706873802922 -0.025359346276974316 0 0.0042954441184086751 -0.025358762302487171 0 0.0043025308813112806 -0.025412537141025648 0 0.0041759078611215625 -0.025163839281575232 0 0.0042258338786515344 -0.025220792513063504 0 0.0041959175806979944 -0.025223763283339765 0 0.0042373910648113395 -0.025216201076789457 0 0.0041759078611215625 -0.025163839281575232 0 0.0042258338786515344 -0.025220792513063504 0 0.0041494450210640072 -0.025561182344963105 0 0.0042589121769434878 -0.025342594516600526 0 0.0042157090377928676 -0.025115928907454229 0 0.0041759078611215625 -0.025163839281575232 0 0.0041876680583234011 -0.025120645643026122 0 0.0042373910648113395 -0.025216201076789457 0 0.0042669839003780779 -0.025295693110608228 0 0.0042452371351022408 -0.025248115807904384 0 0.0042373910648113395 -0.025216201076789457 0 0.0042452371351022408 -0.025248115807904384 0 0.0042258338786515344 -0.025220792513063504 0 0.0042669839003780779 -0.025295693110608228 0 0.0042452371351022408 -0.025248115807904384 0 0.00425016008581085 -0.025265414826922909 0 0.0042452371351022408 -0.025248115807904384 0 0.0042258338786515344 -0.025220792513063504 0 0.00425016008581085 -0.025265414826922909 0 0.00425016008581085 -0.025265414826922909 0 0.0042338894900574098 -0.025270301085107878 0 0.0042754580780364751 -0.025313308681011646 0 0.0042258338786515344 -0.025220792513063504 0 0.00425016008581085 -0.025265414826922909 0 0.0041959175806979944 -0.025223763283339765 0 0.00425016008581085 -0.025265414826922909 0 0.0041959175806979944 -0.025223763283339765 0 0.0042338894900574098 -0.025270301085107878 0 0.0041759078611215625 -0.025163839281575232 0 0.0041959175806979944 -0.025223763283339765 0 0.0040853151253148279 -0.025135263125531149 0 0.0041959175806979944 -0.025223763283339765 0 0.0040853151253148279 -0.025135263125531149 0 0.0041558480332828983 -0.025236451596337726 0 0.0040853151253148279 -0.025135263125531149 0 0.0039881674869134401 -0.025086176703202651 0 0.0041558480332828983 -0.025236451596337726 0 0.0040853151253148279 -0.025135263125531149 0 0.0039881674869134401 -0.025086176703202651 0 0.0040474199669256515 -0.025056624364487072 0 0.0041759078611215625 -0.025163839281575232 0 0.0040853151253148279 -0.025135263125531149 0 0.0040474199669256515 -0.025056624364487072 0 0.0041759078611215625 -0.025163839281575232 0 0.0041876680583234011 -0.025120645643026122 0 0.0040474199669256515 -0.025056624364487072 0 0.0039881674869134401 -0.025086176703202651 0 0.0040474199669256515 -0.025056624364487072 0 0.0039064282408946827 -0.025017325582773309 0 0.0039881674869134401 -0.025086176703202651 0 0.0036026396682439545 -0.025211475262008509 0 0.003712980245344858 -0.02472032191404756 0 0.0045676368638688323 -0.025655614067800519 0 0.0026545500868560656 -0.022655475930066643 0 -0.00038751249852970462 -0.024036300259152328 0 -0.000342845796770242 -0.024119063890522652 0 -0.00042340627619651296 -0.024133757664707357 0 -0.00038751249852970462 -0.024036300259152328 0 -0.00042340627619651296 -0.024133757664707357 0 -0.00047113872312753665 -0.024021947102766342 0 0.0015358376765002341 -0.024682994178665801 0 0.0026545500868560656 -0.022655475930066643 0 -0.00038751249852970462 -0.024036300259152328 0 -0.00033601749741839752 -0.024085374047337182 0 -0.000342845796770242 -0.024119063890522652 0 0.0021854615070776989 -0.026801208109609603 0 0.0022166444394986573 -0.026889466824187403 0 0.0023196320252162812 -0.02676752060291044 0 0.0022166444394986573 -0.026889466824187403 0 0.0023028753869536516 -0.026881463331731952 0 0.0023196320252162812 -0.02676752060291044 0 0.0022846318745086756 -0.026958986182917272 0 0.0022166444394986573 -0.026889466824187403 0 0.0023028753869536516 -0.026881463331731952 0 0.0017085509574805327 -0.026360954231877877 0 0.0024565944297629478 -0.027171528130873597 0 0.0022846318745086756 -0.026958986182917272 0 0.0023028753869536516 -0.026881463331731952 0 0.0023779822950727625 -0.026884148436304166 0 0.0023028753869536516 -0.026881463331731952 0 0.0023981303370243395 -0.026805617923755104 0 0.0023196320252162812 -0.02676752060291044 0 0.0023981303370243395 -0.026805617923755104 0 0.0023779822950727625 -0.026884148436304166 0 0.0024836778065060292 -0.026791440913644715 0 0.0023028753869536516 -0.026881463331731952 0 0.0023981303370243395 -0.026805617923755104 0 0.0023779822950727625 -0.026884148436304166 0 -0.00026038045525102188 -0.024051645488293083 0 -0.00019928156399993475 -0.024099785456492166 0 -0.00026709593458017195 -0.024114200180675355 0 -0.00026038045525102188 -0.024051645488293083 0 -0.00031834991216489104 -0.024061394516128591 0 -0.00026709593458017195 -0.024114200180675355 0 0.0023981303370243395 -0.026805617923755104 0 0.0024836778065060292 -0.026791440913644715 0 0.0024494319692002515 -0.026727048840259195 0 0.0010608543846025468 -0.02536964953746387 0 0.0008770417316734426 -0.025471119499642883 0 0.0041347784414847754 -0.026703257475746818 0 0.0041622983815686925 -0.026663910891225964 0 0.0040407648070068299 -0.026725080535517132 0 0.0043163318843826241 -0.025457457599455387 0 0.0043025308813112806 -0.025412537141025648 0 0.0042962471974238529 -0.025474682850448023 0 0.0042954441184086751 -0.025358762302487171 0 0.0043025308813112806 -0.025412537141025648 0 0.0042979974720288479 -0.02540695611570682 0 0.0043025308813112806 -0.025412537141025648 0 0.0042979974720288479 -0.02540695611570682 0 0.0042962471974238529 -0.025474682850448023 0 0.0042979974720288479 -0.02540695611570682 0 0.0042962471974238529 -0.025474682850448023 0 0.0042544895720202005 -0.025441329374370675 0 0.0042962471974238529 -0.025474682850448023 0 0.0042666874304490053 -0.025565222035384454 0 0.0042544895720202005 -0.025441329374370675 0 0.0043163318843826241 -0.025457457599455387 0 0.0042962471974238529 -0.025474682850448023 0 0.0042666874304490053 -0.025565222035384454 0 0.0041861706156920784 -0.025620019915890205 0 0.004120768803399788 -0.025469109692803523 0 0.0042544895720202005 -0.025441329374370675 0 0.0042666874304490053 -0.025565222035384454 0 0.0041861706156920784 -0.025620019915890205 0 0.0042544895720202005 -0.025441329374370675 0 0.0042666874304490053 -0.025565222035384454 0 0.0041861706156920784 -0.025620019915890205 0 0.0042147456735589948 -0.025778859096825923 0 0.0023981303370243395 -0.026805617923755104 0 0.0024494319692002515 -0.026727048840259195 0 0.0023196320252162812 -0.02676752060291044 0 0.0041347784414847754 -0.026703257475746818 0 0.0040407648070068299 -0.026725080535517132 0 0.0039408932078660508 -0.026815166286959721 0 0.0043163318843826241 -0.025457457599455387 0 0.0042666874304490053 -0.025565222035384454 0 0.0042147456735589948 -0.025778859096825923 0 0.0034682300299677706 -0.026827253760120955 0 0.0030847413089229092 -0.026776803001568872 0 0.0042362000342795764 -0.026105488639487185 0 0.004111704172275174 -0.026252334783757943 0 0.0042147456735589948 -0.025778859096825923 0 0.0040586935889973478 -0.025825230441049899 0 0.0039008048842168281 -0.026249943107746036 0 0.004111704172275174 -0.026252334783757943 0 0.0037595413744746474 -0.026539379550843546 0 0.0040407648070068299 -0.026725080535517132 0 0.0039408932078660508 -0.026815166286959721 0 0.0037128715564935222 -0.026794892161886755 0 0.0041861706156920784 -0.025620019915890205 0 0.0042147456735589948 -0.025778859096825923 0 0.0040586935889973478 -0.025825230441049899 0 0.0041861706156920784 -0.025620019915890205 0 0.0040305531809480648 -0.025642596672999646 0 0.004120768803399788 -0.025469109692803523 0 0.0041861706156920784 -0.025620019915890205 0 0.0040305531809480648 -0.025642596672999646 0 0.0040586935889973478 -0.025825230441049899 0 0.0040305531809480648 -0.025642596672999646 0 0.0040586935889973478 -0.025825230441049899 0 0.0038554006739775081 -0.025851858512086785 0 0.0040305531809480648 -0.025642596672999646 0 0.0038554006739775081 -0.025851858512086785 0 0.0038386321658130506 -0.025566533816516853 0 0.0036349759923581079 -0.025680911915422371 0 0.0038554006739775081 -0.025851858512086785 0 0.0038386321658130506 -0.025566533816516853 0 0.0027920669993787835 -0.026932367245837991 0 0.0030847413089229092 -0.026776803001568872 0 0.0034561739990608665 -0.026050101317627028 0 0.0038554006739775081 -0.025851858512086785 0 0.0039008048842168281 -0.026249943107746036 0 0.0033977394206372419 -0.027012248500111743 0 0.0039408932078660508 -0.026815166286959721 0 0.0037128715564935222 -0.026794892161886755 0 0.0040586935889973478 -0.025825230441049899 0 0.0038554006739775081 -0.025851858512086785 0 0.0039008048842168281 -0.026249943107746036 0 0.0036555397009827417 -0.024531817388313091 0 0.0031006909160935878 -0.020455013203123804 0 0.0038564000396385683 -0.025094621592037705 0 0.0038249026444651226 -0.025353079220027632 0 0.004031427793486619 -0.025305240332792078 0 0.0036555397009827417 -0.024531817388313091 0 0.0041534666843216217 -0.025321949916058475 0 0.0034029303661178892 -0.025382054829413525 0 0.0038564000396385683 -0.025094621592037705 0 0.0038249026444651226 -0.025353079220027632 0 0.0036349759923581079 -0.025680911915422371 0 0.0036815815595626325 -0.025494801493846274 0 0.0038386321658130506 -0.025566533816516853 0 0.0036815815595626325 -0.025494801493846274 0 0.0038386321658130506 -0.025566533816516853 0 0.0038249026444651226 -0.025353079220027632 0 0.0038386321658130506 -0.025566533816516853 0 0.0038249026444651226 -0.025353079220027632 0 0.0039822946075093709 -0.025463174056195192 0 0.0040305531809480648 -0.025642596672999646 0 0.0038386321658130506 -0.025566533816516853 0 0.0039822946075093709 -0.025463174056195192 0 0.0038249026444651226 -0.025353079220027632 0 0.0039822946075093709 -0.025463174056195192 0 0.004031427793486619 -0.025305240332792078 0 0.0039822946075093709 -0.025463174056195192 0 0.004120768803399788 -0.025469109692803523 0 0.004031427793486619 -0.025305240332792078 0 0.0040305531809480648 -0.025642596672999646 0 0.0039822946075093709 -0.025463174056195192 0 0.004120768803399788 -0.025469109692803523 0 0.004120768803399788 -0.025469109692803523 0 0.004031427793486619 -0.025305240332792078 0 0.0041649176096401185 -0.025313789007161847 0 0.0039300427049682061 -0.025211005337346038 0 0.004031427793486619 -0.025305240332792078 0 0.0040253007749897337 -0.025124061334974915 0 0.004031427793486619 -0.025305240332792078 0 0.0041649176096401185 -0.025313789007161847 0 0.0040253007749897337 -0.025124061334974915 0 0.0041649176096401185 -0.025313789007161847 0 0.0042646800883125932 -0.025241415104806039 0 0.0040253007749897337 -0.025124061334974915 0 0.0041649176096401185 -0.025313789007161847 0 0.0042544895720202005 -0.025441329374370675 0 0.0042646800883125932 -0.025241415104806039 0 0.00350191772154455 -0.021439561147464585 0 0.0031006909160935878 -0.020455013203123804 0 0.004120768803399788 -0.025469109692803523 0 0.0041649176096401185 -0.025313789007161847 0 0.0042544895720202005 -0.025441329374370675 0 0.0042979974720288479 -0.02540695611570682 0 0.0042544895720202005 -0.025441329374370675 0 0.004304657211837315 -0.025345614565371689 0 0.0042544895720202005 -0.025441329374370675 0 0.0042646800883125932 -0.025241415104806039 0 0.004304657211837315 -0.025345614565371689 0 0.0042646800883125932 -0.025241415104806039 0 0.004304657211837315 -0.025345614565371689 0 0.0042896881079023076 -0.025332895734851854 0 0.00350191772154455 -0.021439561147464585 0 0.00366656603648171 -0.021389223872061703 0 0.0026932317796375086 -0.017411777105367749 0 0.0026836276004221136 -0.017221739029893483 0 0.002910501294474279 -0.017128960238458606 0 0.0026071940225214489 -0.017073637569789343 0 0.0026836276004221136 -0.017221739029893483 0 0.002910501294474279 -0.017128960238458606 0 0.0023479182129130991 -0.016622141799354801 0 0.0020198473812782338 -0.016685227846081618 0 0.0025572681072516612 -0.016883216927526722 0 0.002538570999857377 -0.017308082238492641 0 0.0026866409731683008 -0.016942208168257252 0 0.0023479182129130991 -0.016622141799354801 0 0.0026197826044863488 -0.016622902164280015 0 0.0024448167635205973 -0.016419243650214601 0 0.0023479182129130991 -0.016622141799354801 0 0.0024448167635205973 -0.016419243650214601 0 0.0022726899212786836 -0.016502566223260164 0 0.0023479182129130991 -0.016622141799354801 0 0.0021352019902139904 -0.016577036532639183 0 0.0022726899212786836 -0.016502566223260164 0 0.0023479182129130991 -0.016622141799354801 0 0.0020198473812782338 -0.016685227846081618 0 0.0021352019902139904 -0.016577036532639183 0 0.0020344773428773335 -0.016666005146698266 0 0.0016750259398259258 -0.016520399281773752 0 0.0019443317086304103 -0.016425153015736316 0 0.0020344773428773335 -0.016666005146698266 0 0.0021352019902139904 -0.016577036532639183 0 0.0019443317086304103 -0.016425153015736316 0 0.002538570999857377 -0.017308082238492641 0 0.002429161746693565 -0.016991408341889034 0 0.0026071940225214489 -0.017073637569789343 0 0.0025799633937600721 -0.017268365426104774 0 0.002338054449309809 -0.017371706802040077 0 0.0026932317796375086 -0.017411777105367749 0 0.0025799633937600721 -0.017268365426104774 0 0.002338054449309809 -0.017371706802040077 0 0.0026071940225214489 -0.017073637569789343 0 0.0025799633937600721 -0.017268365426104774 0 0.0026836276004221136 -0.017221739029893483 0 0.0026932317796375086 -0.017411777105367749 0 0.0025799633937600721 -0.017268365426104774 0 0.0026836276004221136 -0.017221739029893483 0 0.002538570999857377 -0.017308082238492641 0 0.0031006909160935878 -0.020455013203123804 0 0.0031780459072428533 -0.018995205962469657 0 0.0027240373402994426 -0.019452639704952677 0 0.0027563494735678277 -0.018853816605052073 0 0.002538570999857377 -0.017308082238492641 0 0.0022470955432639188 -0.017735076447261411 0 0.0027563494735678277 -0.018853816605052073 0 0.0024466425717827394 -0.019075055216175391 0 0.0023316081394514666 -0.018705523328905942 0 0.0022300748319981347 -0.019074647142678411 0 0.0024466425717827394 -0.019075055216175391 0 0.0023316081394514666 -0.018705523328905942 0 0.0027240373402994426 -0.019452639704952677 0 0.0027563494735678277 -0.018853816605052073 0 0.0024466425717827394 -0.019075055216175391 0 0.0021861898837133935 -0.019357832230602556 0 0.0027240373402994426 -0.019452639704952677 0 0.0024466425717827394 -0.019075055216175391 0 0.0027496272090370638 -0.021823330903114106 0 0.0032580830571152485 -0.022267116995018817 0 0.0035556594790447167 -0.021977649520511726 0 0.0027724759750212165 -0.021666503590990246 0 0.0036555397009827417 -0.024531817388313091 0 0.0027724759750212165 -0.021666503590990246 0 0.0031006909160935878 -0.020455013203123804 0 0.0036942464605771905 -0.017618702185480534 0 0.0032970455758345586 -0.017120367798090071 0 0.003738113672049861 -0.017148699573826778 0 0.0036942464605771905 -0.017618702185480534 0 0.003738113672049861 -0.017148699573826778 0 0.0042512431608079286 -0.017050188663289553 0 0.0036942464605771905 -0.017618702185480534 0 0.0042512431608079286 -0.017050188663289553 0 0.004556502602755249 -0.017807368996907855 0 0.0038877465455411271 -0.021405046101026878 0 0.0040580255735114387 -0.022006201498918861 0 0.0039881674869134401 -0.025086176703202651 0 0.0040801352084297686 -0.025334926448500099 0 0.0036026396682439545 -0.025211475262008509 0 0.0039881674869134401 -0.025086176703202651 0 0.0040801352084297686 -0.025334926448500099 0 0.0041558480332828983 -0.025236451596337726 0 0.0040801352084297686 -0.025334926448500099 0 0.0041558480332828983 -0.025236451596337726 0 0.0042477928035843816 -0.025298874987099516 0 0.0041959175806979944 -0.025223763283339765 0 0.0041558480332828983 -0.025236451596337726 0 0.0042338894900574098 -0.025270301085107878 0 0.0041558480332828983 -0.025236451596337726 0 0.0042338894900574098 -0.025270301085107878 0 0.0042477928035843816 -0.025298874987099516 0 0.0042338894900574098 -0.025270301085107878 0 0.0042477928035843816 -0.025298874987099516 0 0.0042754580780364751 -0.025313308681011646 0 0.0042477928035843816 -0.025298874987099516 0 0.004304657211837315 -0.025345614565371689 0 0.0042896881079023076 -0.025332895734851854 0 0.0042477928035843816 -0.025298874987099516 0 0.0042754580780364751 -0.025313308681011646 0 0.004304657211837315 -0.025345614565371689 0 0.0042954441184086751 -0.025358762302487171 0 0.0042979974720288479 -0.02540695611570682 0 0.004304657211837315 -0.025345614565371689 0 0.0042954441184086751 -0.025358762302487171 0 0.0042754580780364751 -0.025313308681011646 0 0.004304657211837315 -0.025345614565371689 0 0.0040801352084297686 -0.025334926448500099 0 0.0042477928035843816 -0.025298874987099516 0 0.0042896881079023076 -0.025332895734851854 0 0.0038877465455411271 -0.021405046101026878 0 0.00366656603648171 -0.021389223872061703 0 0.0036942464605771905 -0.017618702185480534 0 0.0030613608717323503 -0.017457663463350575 0 0.0032970455758345586 -0.017120367798090071 0 0.0032970455758345586 -0.017120367798090071 0 0.0025572681072516612 -0.016883216927526722 0 0.0030514808429237873 -0.016707695457062636 0 0.0030613608717323503 -0.017457663463350575 0 0.0032970455758345586 -0.017120367798090071 0 0.002910501294474279 -0.017128960238458606 0 0.0032932143663668479 -0.017145159654076571 0 0.0026866409731683008 -0.016942208168257252 0 0.0026932317796375086 -0.017411777105367749 0 0.0030613608717323503 -0.017457663463350575 0 0.002910501294474279 -0.017128960238458606 0 0.0025572681072516612 -0.016883216927526722 0 0.0026197826044863488 -0.016622902164280015 0 0.0030514808429237873 -0.016707695457062636 0 0.0023479182129130991 -0.016622141799354801 0 0.0025572681072516612 -0.016883216927526722 0 0.0026197826044863488 -0.016622902164280015 0 0.0025969360893529836 -0.016639586513218486 0 0.0033843425998066647 -0.016246740859401799 0 0.0026197826044863488 -0.016622902164280015 0 0.0030514808429237873 -0.016707695457062636 0 0.0033080003711477009 -0.016240596223747662 0 0.0032970455758345586 -0.017120367798090071 0 0.0030514808429237873 -0.016707695457062636 0 0.0034974697649404777 -0.016662164582547538 0 0.0030514808429237873 -0.016707695457062636 0 0.0034974697649404777 -0.016662164582547538 0 0.0033080003711477009 -0.016240596223747662 0 0.0034974697649404777 -0.016662164582547538 0 0.0039346807469702065 -0.016670677070758502 0 0.0039646252699901581 -0.015934484580058875 0 0.0032970455758345586 -0.017120367798090071 0 0.0034974697649404777 -0.016662164582547538 0 0.003738113672049861 -0.017148699573826778 0 0.0034974697649404777 -0.016662164582547538 0 0.003738113672049861 -0.017148699573826778 0 0.0039346807469702065 -0.016670677070758502 0 0.003738113672049861 -0.017148699573826778 0 0.0042512431608079286 -0.017050188663289553 0 0.0039346807469702065 -0.016670677070758502 0 0.0042512431608079286 -0.017050188663289553 0 0.0039346807469702065 -0.016670677070758502 0 0.0042930540440417053 -0.016424885319422055 0 0.0039346807469702065 -0.016670677070758502 0 0.0042930540440417053 -0.016424885319422055 0 0.0039646252699901581 -0.015934484580058875 0 0.0042930540440417053 -0.016424885319422055 0 0.0045934421745888786 -0.016325840461481948 0 0.0043949532040433864 -0.016151854386508211 0 0.0046839290983205894 -0.016504512192107346 0 0.0045934421745888786 -0.016325840461481948 0 0.0046323567107908895 -0.01637414926857142 0 0.0042930540440417053 -0.016424885319422055 0 0.0046839290983205894 -0.016504512192107346 0 0.0045934421745888786 -0.016325840461481948 0 0.0045934421745888786 -0.016325840461481948 0 0.0046323567107908895 -0.01637414926857142 0 0.0047252776469344521 -0.016305860797810663 0 0.0050487025831486097 0.0010867836204558727 0 0.0085371586259446706 -0.0017342677883542168 0 0.0066797600716631466 -0.0011080522104007699 0 0.0046865175346257511 -0.0073532582050935347 0 0.0060678856643878913 -0.0084258919540310083 0 0.0062271089926006487 -0.0087114332667223449 0 0.0046617256422867718 -0.011651119346411743 0 0.0061735316315839738 -0.011139753195667099 0 0.0048779058547386636 -0.0026838297365954895 0 0.0061394479476195212 -0.0084991209546806685 0 0.0046323567107908895 -0.01637414926857142 0 0.0043290323445802428 -0.016307675933000552 0 0.0047252776469344521 -0.016305860797810663 0 0.0046323567107908895 -0.01637414926857142 0 0.0045696926332206679 -0.01630756341384676 0 0.0043290323445802428 -0.016307675933000552 0 0.0046839290983205894 -0.016504512192107346 0 0.0046323567107908895 -0.01637414926857142 0 0.0045696926332206679 -0.01630756341384676 0 0.0047546943239551486 -0.016595077078289049 0 0.0047764347090412818 -0.016143058315407209 0 0.0046839290983205894 -0.016504512192107346 0 0.0045696926332206679 -0.01630756341384676 0 0.004632445989818712 -0.015667346339429237 0 0.0045696926332206679 -0.01630756341384676 0 0.0043290323445802428 -0.016307675933000552 0 0.004632445989818712 -0.015667346339429237 0 0.0042512431608079286 -0.017050188663289553 0 0.0042930540440417053 -0.016424885319422055 0 0.0046839290983205894 -0.016504512192107346 0 0.0042512431608079286 -0.017050188663289553 0 0.0046839290983205894 -0.016504512192107346 0 0.0050989433413431116 -0.017286027381585568 0 0.00095048168592831142 0.0016620146571301984 0 0.0050473819048272436 5.7680435628226861e-05 0 0.0025495230066647683 -0.00044153846279247898 0 0.0022559470083066335 0.001042801374047728 0 0.0050487025831486097 0.0010867836204558727 0 0.0027461789955391114 0.0029397637662550626 0 0.0017403708981473583 0.0012042348898599106 0 0.0047459063769063631 0.00021873578688844959 0 0.00095048168592831142 0.0016620146571301984 0 0.00033171938830029764 -0.00040822344290733828 0 0.0025495230066647683 -0.00044153846279247898 0 0.0046865175346257511 -0.0073532582050935347 0 0.0050676390654634945 -0.0066576365926192677 0 0.0060678856643878913 -0.0084258919540310083 0 0.0022559470083066335 0.001042801374047728 0 0.0050473819048272436 5.7680435628226861e-05 0 0.0050487025831486097 0.0010867836204558727 0 0.0050473819048272436 5.7680435628226861e-05 0 0.0050487025831486097 0.0010867836204558727 0 0.0066797600716631466 -0.0011080522104007699 0 0.0046865175346257511 -0.0073532582050935347 0 0.0050676390654634945 -0.0066576365926192677 0 0.0032180539889012398 -0.0059968974184474323 0 0.0050676390654634945 -0.0066576365926192677 0 0.0032180539889012398 -0.0059968974184474323 0 0.0040895394079194748 -0.0049175412528459275 0 0.0043290323445802428 -0.016307675933000552 0 0.0037202983929118154 -0.015412073291022163 0 0.004632445989818712 -0.015667346339429237 0 0.0046617256422867718 -0.011651119346411743 0 0.0039192647150438267 -0.010069901275874451 0 0.0022559470083066335 0.001042801374047728 0 0.0027461789955391114 0.0029397637662550626 0 0.0014639839894443642 0.0022063744808476318 0 0.0048779058547386636 -0.0026838297365954895 0 0.0031491888330467863 -0.0019253165941852913 0 0.0027081131348780894 -0.0048282931101260524 0 0.0040895394079194748 -0.0049175412528459275 0 0.0028778564483521131 -0.0040540199780095482 0 0.0032180539889012398 -0.0059968974184474323 0 0.0027081131348780894 -0.0048282931101260524 0 0.0040895394079194748 -0.0049175412528459275 0 0.0037202983929118154 -0.015412073291022163 0 0.0041170090653746307 -0.014566753012580948 0 0.004632445989818712 -0.015667346339429237 0 0.0037202983929118154 -0.015412073291022163 0 0.0041170090653746307 -0.014566753012580948 0 0.0031025183835526383 -0.014311137705684401 0 0.0039192647150438267 -0.010069901275874451 0 0.0028256253093465111 -0.0092363145421541851 0 0.0045954972662553446 -0.017979959864301377 0 0.0028256253093465111 -0.0092363145421541851 0 0.0040895394079194748 -0.0049175412528459275 0 0.0031460971315411361 -0.0033049319702263139 0 0.0028778564483521131 -0.0040540199780095482 0 0.0031460971315411361 -0.0033049319702263139 0 0.0028778564483521131 -0.0040540199780095482 0 0.002341730721104262 -0.0031461117865110117 0 0.0028256253093465111 -0.0092363145421541851 0 0.0027881682692939952 -0.0026916617485221225 0 0.0042512431608079286 -0.017050188663289553 0 0.0050989433413431116 -0.017286027381585568 0 0.004556502602755249 -0.017807368996907855 0 0.0045954972662553446 -0.017979959864301377 0 0.0047764347090412818 -0.016143058315407209 0 0.0054756550373663013 -0.0179865324376101 0 0.0050989433413431116 -0.017286027381585568 0 0.004556502602755249 -0.017807368996907855 0 0.0045954972662553446 -0.017979959864301377 0 0.0040580255735114387 -0.022006201498918861 0 0.0029786683290605274 -0.024996161452849771 0 0.0036026396682439545 -0.025211475262008509 0 0.0032781215793321089 -0.024681048062442864 0 0.0036026396682439545 -0.025211475262008509 0 0.003712980245344858 -0.02472032191404756 0 0.0032781215793321089 -0.024681048062442864 0 0.0026545500868560656 -0.022655475930066643 0 0.0029890441399916126 -0.021747862748199013 0 0.0026545500868560656 -0.022655475930066643 0 0.00083805973131484629 -0.020477200993386516 0 0.0037282672768966722 -0.018254163199229415 0 0.0027730396362896682 -0.017377237783725945 0 0.0024521585103965573 -0.018382731486018222 0 -0.00042340627619651296 -0.024133757664707357 0 -0.00056243511768311631 -0.024083910702337084 0 -0.00047113872312753665 -0.024021947102766342 0 0.0027730396362896682 -0.017377237783725945 0 0.0024521585103965573 -0.018382731486018222 0 0.0016112792190443902 -0.017449946841051001 0 0.0024521585103965573 -0.018382731486018222 0 0.0011706040436884628 -0.018519909941188656 0 0.0016112792190443902 -0.017449946841051001 0 0.0047022821570125136 -0.014459152492441727 0 0.0021613736821926633 -0.013919949611185445 0 0.003676812584230171 -0.012628392060786725 0 0.0029890441399916126 -0.021747862748199013 0 0.0021167134161003201 -0.017324121970062396 0 0.0029786683290605274 -0.024996161452849771 0 0.0032781215793321089 -0.024681048062442864 0 0.0027965440730745778 -0.024656182706096496 0 0.0045954972662553446 -0.017979959864301377 0 0.0021167134161003201 -0.017324121970062396 0 0.0022859422399711207 -0.011376763448651715 0 0.0018328409899033868 -0.011405114795029621 0 0.0017511375434780094 -0.011255626547516641 0 0.0021613736821926633 -0.013919949611185445 0 0.003676812584230171 -0.012628392060786725 0 0.0015917264693376774 -0.012879231085075637 0 0.0021167134161003201 -0.017324121970062396 0 0.0024755369013369937 -0.007918148277068434 0 0.0033551643993032535 -0.0062576117145383891 0 0.002972768297198016 -0.00555749663813793 0 0.0024308632484223887 -0.0060606090652923668 0 0.0028256253093465111 -0.0092363145421541851 0 0.0024755369013369937 -0.007918148277068434 0 0.0021167134161003201 -0.017324121970062396 0 0.001460119917040063 -0.010982072238479046 0 0.0011706040436884628 -0.018519909941188656 0 0.0016112792190443902 -0.017449946841051001 0 0.00039954932592358415 -0.017114793924065393 0 0.001460119917040063 -0.010982072238479046 0 0.00236311282789126 -0.0050551812598962536 0 0.0022859422399711207 -0.011376763448651715 0 0.0019158329032602059 -0.010706387097470368 0 0.0017511375434780094 -0.011255626547516641 0 0.0016112792190443902 -0.017449946841051001 0 0.0011407039559510972 -0.016702000197517417 0 0.0018122635307260299 -0.016508070971818636 0 0.0011407039559510972 -0.016702000197517417 0 0.0018122635307260299 -0.016508070971818636 0 0.0013643762019111948 -0.016099548488291898 0 0.0011407039559510972 -0.016702000197517417 0 0.00070411536798979928 -0.016133720640997995 0 0.0013643762019111948 -0.016099548488291898 0 0.00061766216351821855 -0.020055494996222299 0 0.00012524248425412168 -0.018553541348924254 0 -0.0010027104208079455 -0.023752809440784433 0 -0.0011936172150736524 -0.023532833496329314 0 -0.0012851064320784759 -0.023520816830932687 0 0.0016112792190443902 -0.017449946841051001 0 0.0011407039559510972 -0.016702000197517417 0 0.00039954932592358415 -0.017114793924065393 0 0.0014751967246705803 -0.010704500969967608 0 0.001652797876794614 -0.010120305595456718 0 0.0011552820767618912 -0.010130509870244921 0 0.001460119917040063 -0.010982072238479046 0 0.0014452883017174658 -0.012951807015645149 0 0.0011407039559510972 -0.016702000197517417 0 0.00039954932592358415 -0.017114793924065393 0 0.00070411536798979928 -0.016133720640997995 0 0.0025598038407735114 -0.0071298622517755742 0 0.0017434469242801883 -0.0071173109789814419 0 0.0019843590997649513 -0.0069246342278450994 0 0.002162394524597148 -0.0067576576941665942 0 0.0025598038407735114 -0.0071298622517755742 0 0.0019843590997649513 -0.0069246342278450994 0 0.0014452883017174658 -0.012951807015645149 0 0.0011193440793674625 -0.0070696544306259419 0 0.002162394524597148 -0.0067576576941665942 0 0.0024695265608816151 -0.0068092574580246165 0 0.0025598038407735114 -0.0071298622517755742 0 0.0014452883017174658 -0.012951807015645149 0 -0.00084378637806314819 -0.018664582773409624 0 0.0001054196674565564 -0.016696713256980314 0 1.7927163794801506e-05 -0.016978080247248017 0 -0.00025275021601668711 -0.016738059085860776 0 0.0024695265608816151 -0.0068092574580246165 0 0.0025598038407735114 -0.0071298622517755742 0 0.002708897500327441 -0.0066516441410914562 0 0.0014452883017174658 -0.012951807015645149 0 0.00012524248425412168 -0.018553541348924254 0 -0.0014396060130085397 -0.023141277232168533 0 -0.0014887243655675659 -0.023324173946834486 0 -0.0012687403132042837 -0.023299185576468984 0 -0.0014396060130085397 -0.023141277232168533 0 -0.0015043048374790413 -0.023304824085083949 0 -0.001567172793708764 -0.023266792934986801 0 -0.0017330600046014592 -0.022578014045634334 0 -0.00084378637806314819 -0.018664582773409624 0 0.0024695265608816151 -0.0068092574580246165 0 0.002708897500327441 -0.0066516441410914562 0 0.0025741964654648693 -0.0065431631921362109 0 -0.00084378637806314819 -0.018664582773409624 0 -0.0006501198459836397 -0.018364844327438339 0 0.002162394524597148 -0.0067576576941665942 0 0.0025741964654648693 -0.0065431631921362109 0 0.0017390170736215139 -0.0063391848045910981 0 -0.00053616591775972435 -0.022232720042037819 0 -0.0006501198459836397 -0.018364844327438339 0 0.002162394524597148 -0.0067576576941665942 0 0.0024695265608816151 -0.0068092574580246165 0 0.0025741964654648693 -0.0065431631921362109 0 -0.0011936172150736524 -0.023532833496329314 0 -0.0012687403132042837 -0.023299185576468984 0 -0.0010279695943600216 -0.023351084158703579 0 -0.0010027104208079455 -0.023752809440784433 0 -0.0011936172150736524 -0.023532833496329314 0 -0.0010279695943600216 -0.023351084158703579 0 -0.0014887243655675659 -0.023324173946834486 0 -0.0011936172150736524 -0.023532833496329314 0 -0.0012687403132042837 -0.023299185576468984 0 -0.0016776002788472695 -0.022968045660695158 0 -0.0011936172150736524 -0.023532833496329314 0 -0.0012851064320784759 -0.023520816830932687 0 -0.00084378637806314819 -0.018664582773409624 0 0.00012524248425412168 -0.018553541348924254 0 -0.00084378637806314819 -0.018664582773409624 0 -0.00042224921740144518 -0.023042962882056203 0 -0.0012231012087172278 -0.023136898875454382 0 -0.0014396060130085397 -0.023141277232168533 0 -0.0012687403132042837 -0.023299185576468984 0 -0.0012231012087172278 -0.023136898875454382 0 -0.0012687403132042837 -0.023299185576468984 0 -0.0010279695943600216 -0.023351084158703579 0 -0.00075144770905270395 -0.023505720683580436 0 -0.00033682921900925352 -0.02326897457192521 0 -0.00067136563360953479 -0.023929105504302117 0 -0.0010279695943600216 -0.023351084158703579 0 -0.00078212613176159812 -0.023208475762579329 0 -0.00075144770905270395 -0.023505720683580436 0 -0.00078212613176159812 -0.023208475762579329 0 -0.00075144770905270395 -0.023505720683580436 0 -0.00033682921900925352 -0.02326897457192521 0 -0.0010027104208079455 -0.023752809440784433 0 -0.0010279695943600216 -0.023351084158703579 0 -0.00075144770905270395 -0.023505720683580436 0 -0.00039301487473943466 -0.023624922958153348 0 -0.00065904166212917697 -0.023930381141119377 0 -0.00041571485080101257 -0.023957832545781606 0 -0.00047113872312753665 -0.024021947102766342 0 -0.00067136563360953479 -0.023929105504302117 0 -0.00038751249852970462 -0.024036300259152328 0 -0.00041571485080101257 -0.023957832545781606 0 -0.00047113872312753665 -0.024021947102766342 0 -0.00056243511768311631 -0.024083910702337084 0 -0.00047113872312753665 -0.024021947102766342 0 -0.00067136563360953479 -0.023929105504302117 0 0.0027730396362896682 -0.017377237783725945 0 0.0016112792190443902 -0.017449946841051001 0 0.0018122635307260299 -0.016508070971818636 0 0.00083805973131484629 -0.020477200993386516 0 0.00061766216351821855 -0.020055494996222299 0 -0.00056243511768311631 -0.024083910702337084 0 -0.0010027104208079455 -0.023752809440784433 0 -0.00067136563360953479 -0.023929105504302117 0 -0.0010027104208079455 -0.023752809440784433 0 -0.00075144770905270395 -0.023505720683580436 0 -0.00067136563360953479 -0.023929105504302117 0 0.0020831110082545545 0.0091935204850115276 0 0.0023425943598116123 0.0066972581056932096 0 0.00012332676142881122 0.0043601786207337432 0 0.0024647066270587648 0.0044217750333919578 0 0.0013808440232536022 0.0025812955742654919 0 0.0020831110082545545 0.0091935204850115276 0 0.0025196170061292083 0.0017969053609951618 0 0.002869894110878173 0.011248564570722295 0 0.0031838479941596722 0.010794610842765093 0 0.0027742077278391322 0.01086732470748813 0 0.0026842351719398548 0.011099674097738148 0 0.0027742077278391322 0.01086732470748813 0 0.0024552584171266519 0.011017691222230419 0 0.0026842351719398548 0.011099674097738148 0 0.002869894110878173 0.011248564570722295 0 0.0027742077278391322 0.01086732470748813 0 0.0020831110082545545 0.0091935204850115276 0 0.0027695937603700038 0.011170543239559412 0 0.0026842351719398548 0.011099674097738148 0 0.002869894110878173 0.011248564570722295 0 0.0025822172499646318 0.01124815079297622 0 0.0028484411976445814 0.011336080887532338 0 0.0027714958682876147 0.011524251894940149 0 0.0031288377425969204 0.011348813045035662 0 0.0029561129622521598 0.011105632292208166 0 0.0028484411976445814 0.011336080887532338 0 0.0031288377425969204 0.011348813045035662 0 0.0020831110082545545 0.0091935204850115276 0 0.0021795063038273299 0.010843296106310877 0 0.0028484411976445814 0.011336080887532338 0 0.0026859084517123029 0.011412092532598785 0 0.0026804027678376404 0.011235893349426481 0 0.0029293800585971242 0.011213601444109052 0 0.0028484411976445814 0.011336080887532338 0 0.0026804027678376404 0.011235893349426481 0 0.0028484411976445814 0.011336080887532338 0 0.0027714958682876147 0.011524251894940149 0 0.0026859084517123029 0.011412092532598785 0 0.0033187673160071283 0.011550245748395277 0 0.0031288377425969204 0.011348813045035662 0 0.0035913153059392495 0.01101451105616858 0 0.0029561129622521598 0.011105632292208166 0 0.0031288377425969204 0.011348813045035662 0 0.0035913153059392495 0.01101451105616858 0 0.0016184952624865156 0.0028915398282713975 0 0.0025196170061292083 0.0017969053609951618 0 6.3609199679667543e-05 -0.0058240700686351529 0 0.0012627389296305919 -0.0064243295497552174 0 0.00077010220826416182 -0.0070976015646869294 0 0.0016583922744609655 -0.0069528247233733966 0 0.0017433892343480543 -0.0071027534480361922 0 0.00077010220826416182 -0.0070976015646869294 0 0.0011193440793674625 -0.0070696544306259419 0 0.0025196170061292083 0.0017969053609951618 0 0.0017933914975758706 -0.0066616047119959446 0 0.0017390170736215139 -0.0063391848045910981 0 0.0012627389296305919 -0.0064243295497552174 0 0.002162394524597148 -0.0067576576941665942 0 0.0017933914975758706 -0.0066616047119959446 0 0.0017390170736215139 -0.0063391848045910981 0 0.0012627389296305919 -0.0064243295497552174 0 0.0016583922744609655 -0.0069528247233733966 0 0.00077010220826416182 -0.0070976015646869294 0 0.0017933914975758706 -0.0066616047119959446 0 0.0012627389296305919 -0.0064243295497552174 0 0.0016583922744609655 -0.0069528247233733966 0 0.0011895062464177826 -0.0071043758398751655 0 0.0011193440793674625 -0.0070696544306259419 0 0.0016583922744609655 -0.0069528247233733966 0 0.0017434469242801883 -0.0071173109789814419 0 0.0019843590997649513 -0.0069246342278450994 0 0.0017933914975758706 -0.0066616047119959446 0 0.0016583922744609655 -0.0069528247233733966 0 0.0019843590997649513 -0.0069246342278450994 0 0.002162394524597148 -0.0067576576941665942 0 0.0017933914975758706 -0.0066616047119959446 0 0.0019843590997649513 -0.0069246342278450994 0 0.0027506864087622233 -0.0046238779685864335 0 0.0021725746552949325 -0.0035679150445746773 0 0.0017301133451636873 -0.0047528727928999454 0 0.0021725746552949325 -0.0035679150445746773 0 0.0010990783068871972 -0.0035835002204115769 0 0.0017301133451636873 -0.0047528727928999454 0 0.001460119917040063 -0.010982072238479046 0 0.0011193440793674625 -0.0070696544306259419 0 0.0025196170061292083 0.0017969053609951618 0 0.002423414199995358 -0.00069314893020124165 0 0.0024647066270587648 0.0044217750333919578 0 0.0032683060503188987 0.002931480206833874 0 0.0013808440232536022 0.0025812955742654919 0 0.0032683060503188987 0.002931480206833874 0 0.0031000042148855511 0.0016547121390514665 0 0.0013808440232536022 0.0025812955742654919 0 0.002423414199995358 -0.00069314893020124165 0 0.00236311282789126 -0.0050551812598962536 0 0.0032683060503188987 0.002931480206833874 0 0.004073850431000137 0.0014277628576873282 0 0.0031000042148855511 0.0016547121390514665 0 0.0027506864087622233 -0.0046238779685864335 0 0.0017301133451636873 -0.0047528727928999454 0 0.0023591319767934642 -0.0058926333541835614 0 0.004073850431000137 0.0014277628576873282 0 0.0031000042148855511 0.0016547121390514665 0 0.0039225429258014461 0.00094223646208215059 0 0.0024755369013369937 -0.007918148277068434 0 0.00236311282789126 -0.0050551812598962536 0 0.00236311282789126 -0.0050551812598962536 0 0.0030187207446404438 -0.0034918874363557666 0 0.0027678197298139089 -0.0003741894305716496 0 0.0028431040152050182 -0.00013269851518920537 0 0.0021308125667108585 -0.00019151756051734233 0 0.0031000042148855511 0.0016547121390514665 0 0.0039225429258014461 0.00094223646208215059 0 0.0026455556693841722 0.00079968532867882055 0 0.0030187207446404438 -0.0034918874363557666 0 0.002027061752794252 0.0039508900464402539 0 0.0027881682692939952 -0.0026916617485221225 0 0.002027061752794252 0.0039508900464402539 0 0.0027881682692939952 -0.0026916617485221225 0 0.0030187207446404438 -0.0034918874363557666 0 0.002972768297198016 -0.00555749663813793 0 0.0024308632484223887 -0.0060606090652923668 0 0.0025705546917381573 -0.0056071455029449886 0 0.0021197236434444531 -0.0057791797638518114 0 0.0020135552838587813 -0.0055873286624322314 0 0.0019515893106935832 -0.0057980932358552058 0 0.0024755369013369937 -0.007918148277068434 0 0.0030187207446404438 -0.0034918874363557666 0 0.002027061752794252 0.0039508900464402539 0 0.0023425943598116123 0.0066972581056932096 0 0.0031000042148855511 0.0016547121390514665 0 0.0026455556693841722 0.00079968532867882055 0 0.0013808440232536022 0.0025812955742654919 0 0.0035190427060954837 0.010254025865290938 0 0.0032241151081345756 0.010481796561903373 0 0.0031838479941596722 0.010794610842765093 0 0.0007271811545240932 0.0044827678502054446 0 0.00051896305679526749 0.0044556719145033554 0 2.5211357181232152e-05 0.0040390461742037522 0 0.002027061752794252 0.0039508900464402539 0 0.0014681987371292645 0.0052342552554718444 0 0.0035190427060954837 0.010254025865290938 0 0.0034826918230240248 0.010252133437072122 0 0.0032241151081345756 0.010481796561903373 0 0.0014681987371292645 0.0052342552554718444 0 -0.0013102279778774723 0.0059144220070667074 0 0.00051896305679526749 0.0044556719145033554 0 -0.0014243128195770146 0.0042024748624905784 0 2.5211357181232152e-05 0.0040390461742037522 0 0.0034826918230240248 0.010252133437072122 0 0.0029678331547764694 0.010440418792344438 0 0.0032241151081345756 0.010481796561903373 0 0.0014681987371292645 0.0052342552554718444 0 0.0010316194947290849 0.0093499437928997054 0 -1.4669000218001054e-05 0.0074303508132869079 0 -0.00056498132487208452 0.0073556687489693988 0 -0.00088260124743752034 0.0075801090975481473 0 -0.00056498132487208452 0.0073556687489693988 0 -0.00088260124743752034 0.0075801090975481473 0 -0.00085998245573936033 0.0073595312115272817 0 -0.0013102279778774723 0.0059144220070667074 0 -0.0011905851459767095 0.0069504080843478463 0 0.0029678331547764694 0.010440418792344438 0 0.0032241151081345756 0.010481796561903373 0 0.0029782202295834718 0.010662582135103378 0 0.0029678331547764694 0.010440418792344438 0 0.0029782202295834718 0.010662582135103378 0 0.0028089976481547691 0.010657318004312737 0 0.0032241151081345756 0.010481796561903373 0 0.0029782202295834718 0.010662582135103378 0 0.0031838479941596722 0.010794610842765093 0 0.0029782202295834718 0.010662582135103378 0 0.0031838479941596722 0.010794610842765093 0 0.0027742077278391322 0.01086732470748813 0 0.0029782202295834718 0.010662582135103378 0 0.0027742077278391322 0.01086732470748813 0 0.0028089976481547691 0.010657318004312737 0 0.0027742077278391322 0.01086732470748813 0 0.0028089976481547691 0.010657318004312737 0 0.0025254068550545402 0.010628080069405492 0 0.0029678331547764694 0.010440418792344438 0 0.0028089976481547691 0.010657318004312737 0 0.0025254068550545402 0.010628080069405492 0 -0.0011072591271670804 0.0074797143157770253 0 -0.00085998245573936033 0.0073595312115272817 0 -0.0013321677042238305 0.0074199081692446186 0 0.0010316194947290849 0.0093499437928997054 0 0.00065231582955435229 0.0090647027190614432 0 -0.00088260124743752034 0.0075801090975481473 0 -0.0011072591271670804 0.0074797143157770253 0 -0.0012927858252991828 0.0075600209590686238 0 -0.00088260124743752034 0.0075801090975481473 0 -0.0011072591271670804 0.0074797143157770253 0 -0.00085998245573936033 0.0073595312115272817 0 -0.0011905851459767095 0.0069504080843478463 0 -0.0013388300363544631 0.0074363519078773452 0 -0.0014933991960488324 0.0073359489634604183 0 -0.0016202921052038504 0.0071692887689945436 0 -0.0013321677042238305 0.0074199081692446186 0 -0.0014933991960488324 0.0073359489634604183 0 -0.0015942310333779092 0.0072666928424940311 0 -0.0016010332640430185 0.0073955153006207541 0 -0.0014933991960488324 0.0073359489634604183 0 -0.0016202921052038504 0.0071692887689945436 0 -0.0015942310333779092 0.0072666928424940311 0 -0.0016382227637619258 0.0071759470712127 0 -0.0016010332640430185 0.0073955153006207541 0 -0.0015944391961416463 0.0067234208205497591 0 -0.0016202921052038504 0.0071692887689945436 0 -0.0016382227637619258 0.0071759470712127 0 -0.0015942310333779092 0.0072666928424940311 0 -0.0016421988032209686 0.0071338253145318432 0 -0.0016202921052038504 0.0071692887689945436 0 -0.0016382227637619258 0.0071759470712127 0 -0.0016421988032209686 0.0071338253145318432 0 -0.0016382227637619258 0.0071759470712127 0 -0.0016715516408574477 0.0069719189585280067 0 -0.0016382227637619258 0.0071759470712127 0 -0.0015942310333779092 0.0072666928424940311 0 -0.0016010332640430185 0.0073955153006207541 0 -0.0023146897367370442 0.0066913692343001287 0 -0.0015891668163165325 0.0067405744565902032 0 -0.0024904415173451042 0.0058959472872488067 0 -0.0031738152605075409 0.0059970586228497965 0 -0.0020178155651173774 0.0061395975980437587 0 -0.0024904415173451042 0.0058959472872488067 0 -0.002749536580965693 0.0057855737669208936 0 -0.0023879519102671183 0.0056163897966720255 0 -0.0024904415173451042 0.0058959472872488067 0 -0.002749536580965693 0.0057855737669208936 0 -0.0031738152605075409 0.0059970586228497965 0 -0.0023146897367370442 0.0066913692343001287 0 -0.0020486138575708064 0.0067026317260072427 0 -0.0031738152605075409 0.0059970586228497965 0 -0.0032368379830620421 0.005683889250455999 0 -0.0030129558309388627 0.0058930313282278953 0 -0.0014933991960488324 0.0073359489634604183 0 -0.0016010332640430185 0.0073955153006207541 0 -0.0012729815122680937 0.0076420223546039183 0 -0.002749536580965693 0.0057855737669208936 0 -0.0031738152605075409 0.0059970586228497965 0 -0.0032368379830620421 0.005683889250455999 0 0.0027081131348780894 -0.0048282931101260524 0 0.0028778564483521131 -0.0040540199780095482 0 0.0020922333778087034 -0.0039545777564222043 0 0.0027881682692939952 -0.0026916617485221225 0 0.0020262239371730386 -0.0013052415386880659 0 0.0028778564483521131 -0.0040540199780095482 0 0.002341730721104262 -0.0031461117865110117 0 0.0020922333778087034 -0.0039545777564222043 0 0.0031920668717810696 0.00044941817480782971 0 0.0013246315942332895 0.00090246543299670118 0 0.0027361221162089827 -0.0010385927800294821 0 0.0007271811545240932 0.0044827678502054446 0 0.0020935630801640326 0.0026046310619177132 0 0.0010556371233884604 0.0028991055486483307 0 0.002027061752794252 0.0039508900464402539 0 0.0020262239371730386 -0.0013052415386880659 0 0.0020935630801640326 0.0026046310619177132 0 0.0010556371233884604 0.0028991055486483307 0 0.0017044373700446525 0.0013434848081210835 0 0.0020262239371730386 -0.0013052415386880659 0 0.0011429286338792922 0.0023248001281357062 0 -0.0016382227637619258 0.0071759470712127 0 -0.0015944391961416463 0.0067234208205497591 0 -0.0016715516408574477 0.0069719189585280067 0 -0.00096664563815187729 0.0050276070689271452 0 0.0011429286338792922 0.0023248001281357062 0 0.00014207297829500957 0.002752998724912263 0 0.0010556371233884604 0.0028991055486483307 0 0.0017044373700446525 0.0013434848081210835 0 -0.0015944391961416463 0.0067234208205497591 0 -0.0016715516408574477 0.0069719189585280067 0 -0.0013536845959773872 0.006356886488734898 0 0.0007271811545240932 0.0044827678502054446 0 0.0010556371233884604 0.0028991055486483307 0 0.00040498766551390206 0.0035323527679465621 0 0.0007271811545240932 0.0044827678502054446 0 0.00040498766551390206 0.0035323527679465621 0 2.5211357181232152e-05 0.0040390461742037522 0 0.00014207297829500957 0.002752998724912263 0 0.0010556371233884604 0.0028991055486483307 0 0.00040498766551390206 0.0035323527679465621 0 0.00014207297829500957 0.002752998724912263 0 0.00040498766551390206 0.0035323527679465621 0 -0.00016474710968062434 0.0036370525759477162 0 -0.0013102279778774723 0.0059144220070667074 0 -0.00096664563815187729 0.0050276070689271452 0 -0.0014243128195770146 0.0042024748624905784 0 0.00014207297829500957 0.002752998724912263 0 -0.00016474710968062434 0.0036370525759477162 0 -0.0014243128195770146 0.0042024748624905784 0 2.5211357181232152e-05 0.0040390461742037522 0 -0.00016474710968062434 0.0036370525759477162 0 0.00040498766551390206 0.0035323527679465621 0 2.5211357181232152e-05 0.0040390461742037522 0 -0.00016474710968062434 0.0036370525759477162 0 -0.0031738152605075409 0.0059970586228497965 0 -0.0015944391961416463 0.0067234208205497591 0 -0.0020178155651173774 0.0061395975980437587 0 -0.0024904415173451042 0.0058959472872488067 0 -0.0020178155651173774 0.0061395975980437587 0 -0.0020871478097710559 0.0058462444665819575 0 -0.0020871478097710559 0.0058462444665819575 0 -0.0018109005672115239 0.0060655629594581892 0 -0.0019605830211510814 0.0055288265993223146 0 -0.0024904415173451042 0.0058959472872488067 0 -0.0020871478097710559 0.0058462444665819575 0 -0.0023879519102671183 0.0056163897966720255 0 -0.0020178155651173774 0.0061395975980437587 0 -0.0020871478097710559 0.0058462444665819575 0 -0.0018109005672115239 0.0060655629594581892 0 -0.0018109005672115239 0.0060655629594581892 0 -0.0013536845959773872 0.006356886488734898 0 -0.0019605830211510814 0.0055288265993223146 0 -0.0015944391961416463 0.0067234208205497591 0 -0.0018109005672115239 0.0060655629594581892 0 -0.0013536845959773872 0.006356886488734898 0 -0.0015944391961416463 0.0067234208205497591 0 -0.0020178155651173774 0.0061395975980437587 0 -0.0018109005672115239 0.0060655629594581892 0 0.0032180539889012398 -0.0059968974184474323 0 0.0027081131348780894 -0.0048282931101260524 0 0.0017264205534104754 -0.0046190045820284787 0 0.0027461789955391114 0.0029397637662550626 0 0.0006644016921751989 0.0047365158375474292 0 0.0011170076788215608 0.0029947017249485645 0 0.0031491888330467863 -0.0019253165941852913 0 0.0011429286338792922 0.0023248001281357062 0 0.0030962963748397839 -0.0050140270313105305 0 0.0020262239371730386 -0.0013052415386880659 0 0.0027081131348780894 -0.0048282931101260524 0 0.0019762546491586762 -0.003762671332086482 0 0.0017264205534104754 -0.0046190045820284787 0 0.0022559470083066335 0.001042801374047728 0 0.0014639839894443642 0.0022063744808476318 0 -0.00023622501094397417 0.0018640995604718054 0 0.0006644016921751989 0.0047365158375474292 0 0.0011170076788215608 0.0029947017249485645 0 -0.00023622501094397417 0.0018640995604718054 0 0.0011429286338792922 0.0023248001281357062 0 -0.0015215023241712312 0.0037797321471219184 0 0.0027461789955391114 0.0029397637662550626 0 0.0014639839894443642 0.0022063744808476318 0 0.0011170076788215608 0.0029947017249485645 0 0.0014639839894443642 0.0022063744808476318 0 0.0011170076788215608 0.0029947017249485645 0 -0.00023622501094397417 0.0018640995604718054 0 -0.0013536845959773872 0.006356886488734898 0 -0.0016884728739607014 0.0049498750994183801 0 -0.0019605830211510814 0.0055288265993223146 0 -0.002133433540548089 0.0041675839599332803 0 -0.0045419162366458496 0.0049575145876854581 0 -0.0044689256832862682 0.0053746366886372639 0 -0.0016884728739607014 0.0049498750994183801 0 -0.0021636583931082479 0.0053501841940282943 0 -0.0026043761669334795 0.0052837777950687122 0 -0.0015215023241712312 0.0037797321471219184 0 -0.0035573028800846263 0.005373525118780015 0 -0.0020871478097710559 0.0058462444665819575 0 -0.0019605830211510814 0.0055288265993223146 0 -0.0023879519102671183 0.0056163897966720255 0 -0.0019605830211510814 0.0055288265993223146 0 -0.0021636583931082479 0.0053501841940282943 0 -0.0023879519102671183 0.0056163897966720255 0 -0.0016884728739607014 0.0049498750994183801 0 -0.0019605830211510814 0.0055288265993223146 0 -0.0021636583931082479 0.0053501841940282943 0 -0.0044775100686352837 0.0046094305100588123 0 -0.0037462460775393399 0.002554302445327439 0 -0.002684871160954738 0.0020425729876949071 0 -0.0045419162366458496 0.0049575145876854581 0 -0.002839726694610432 -6.3513717771438029e-05 0 -0.0045419162366458496 0.0049575145876854581 0 -0.0038028791691770291 -0.0020329849371255228 0 -0.002839726694610432 -6.3513717771438029e-05 0 -0.002133433540548089 0.0041675839599332803 0 -0.002684871160954738 0.0020425729876949071 0 -0.0045419162366458496 0.0049575145876854581 0 -0.0019990693450223388 0.0011415420895394247 0 -0.002839726694610432 -6.3513717771438029e-05 0 -0.001610380532067702 -0.00044351228035067526 0 -0.0019990693450223388 0.0011415420895394247 0 -0.002684871160954738 0.0020425729876949071 0 -0.002839726694610432 -6.3513717771438029e-05 0 -0.0015215023241712312 0.0037797321471219184 0 -0.0023075649779503802 0.0024159258565029009 0 -0.0024468966898123128 0.0031059568514562028 0 -0.0019990693450223388 0.0011415420895394247 0 -0.002684871160954738 0.0020425729876949071 0 0.00095048168592831142 0.0016620146571301984 0 -0.0024468966898123128 0.0031059568514562028 0 -0.0008886977734387006 0.0011178917435508019 0 0.0017403708981473583 0.0012042348898599106 0 -0.0015215023241712312 0.0037797321471219184 0 -0.0024468966898123128 0.0031059568514562028 0 -0.0019990693450223388 0.0011415420895394247 0 -0.0008886977734387006 0.0011178917435508019 0 -0.0019990693450223388 0.0011415420895394247 0 -0.0008886977734387006 0.0011178917435508019 0 -0.001610380532067702 -0.00044351228035067526 0 -0.0008886977734387006 0.0011178917435508019 0 -0.001610380532067702 -0.00044351228035067526 0 0.00033171938830029764 -0.00040822344290733828 0 0.00095048168592831142 0.0016620146571301984 0 -0.0008886977734387006 0.0011178917435508019 0 0.00033171938830029764 -0.00040822344290733828 0 -0.0032368379830620421 0.005683889250455999 0 -0.0033367698473873698 0.006001926795549054 0 -0.0030129558309388627 0.0058930313282278953 0 -0.0032368379830620421 0.005683889250455999 0 -0.0038964767714914513 0.0055762027475153696 0 -0.0033367698473873698 0.006001926795549054 0 -0.0032368379830620421 0.005683889250455999 0 -0.0027198195668455623 0.0055835447428849976 0 -0.0026043761669334795 0.0052837777950687122 0 -0.0032368379830620421 0.005683889250455999 0 -0.0044689256832862682 0.0053746366886372639 0 -0.0038964767714914513 0.0055762027475153696 0 -0.002749536580965693 0.0057855737669208936 0 -0.0032368379830620421 0.005683889250455999 0 -0.0027198195668455623 0.0055835447428849976 0 -0.0033269167194816627 0.005568137382488938 0 -0.0035573028800846263 0.005373525118780015 0 -0.0021636583931082479 0.0053501841940282943 0 -0.0023879519102671183 0.0056163897966720255 0 -0.0026043761669334795 0.0052837777950687122 0 -0.002749536580965693 0.0057855737669208936 0 -0.0027198195668455623 0.0055835447428849976 0 -0.0023879519102671183 0.0056163897966720255 0 -0.0027198195668455623 0.0055835447428849976 0 -0.0023879519102671183 0.0056163897966720255 0 -0.0026043761669334795 0.0052837777950687122 0 -0.0045419162366458496 0.0049575145876854581 0 -0.0044689256832862682 0.0053746366886372639 0 -0.0038964767714914513 0.0055762027475153696 0 -0.0045419162366458496 0.0049575145876854581 0 -0.0039292244753511467 0.0063069330068768088 0 -0.0038922176050450175 0.0071138048353644361 0 -0.0045419162366458496 0.0049575145876854581 0 -0.0038964767714914513 0.0055762027475153696 0 -0.0037320938934580503 0.0060047662448521012 0 -0.0045419162366458496 0.0049575145876854581 0 -0.0037320938934580503 0.0060047662448521012 0 -0.0039292244753511467 0.0063069330068768088 0 -0.0037320938934580503 0.0060047662448521012 0 -0.0033579678500277386 0.0065413439638751158 0 -0.0036615879584323487 0.0065754954389707927 0 -0.0037320938934580503 0.0060047662448521012 0 -0.0039292244753511467 0.0063069330068768088 0 -0.0036615879584323487 0.0065754954389707927 0 -0.0038964767714914513 0.0055762027475153696 0 -0.0037320938934580503 0.0060047662448521012 0 -0.0033367698473873698 0.006001926795549054 0 -0.0037320938934580503 0.0060047662448521012 0 -0.0033579678500277386 0.0065413439638751158 0 -0.0033367698473873698 0.006001926795549054 0 -0.0033579678500277386 0.0065413439638751158 0 -0.0033367698473873698 0.006001926795549054 0 -0.0030341584533188051 0.0065129391689543971 0 -0.0033579678500277386 0.0065413439638751158 0 -0.0031519047477415935 0.0070672852345090775 0 -0.0030341584533188051 0.0065129391689543971 0 -0.0033579678500277386 0.0065413439638751158 0 -0.0034102500325504524 0.0069554234972246127 0 -0.0036615879584323487 0.0065754954389707927 0 -0.0033579678500277386 0.0065413439638751158 0 -0.0034102500325504524 0.0069554234972246127 0 -0.0031519047477415935 0.0070672852345090775 0 -0.0034102500325504524 0.0069554234972246127 0 -0.0031519047477415935 0.0070672852345090775 0 -0.0033242688884021106 0.0072540589647587476 0 -0.0039292244753511467 0.0063069330068768088 0 -0.0037920049657821546 0.0068165650875802635 0 -0.0038922176050450175 0.0071138048353644361 0 -0.0039292244753511467 0.0063069330068768088 0 -0.0037920049657821546 0.0068165650875802635 0 -0.0036615879584323487 0.0065754954389707927 0 -0.0037920049657821546 0.0068165650875802635 0 -0.0036615879584323487 0.0065754954389707927 0 -0.0035695369578608981 0.0070897810211768076 0 -0.0034102500325504524 0.0069554234972246127 0 -0.0036615879584323487 0.0065754954389707927 0 -0.0035695369578608981 0.0070897810211768076 0 -0.0034102500325504524 0.0069554234972246127 0 -0.0035695369578608981 0.0070897810211768076 0 -0.0033242688884021106 0.0072540589647587476 0 -0.0037920049657821546 0.0068165650875802635 0 -0.0035695369578608981 0.0070897810211768076 0 -0.0036077252391971343 0.0071485700483341899 0 -0.0033753858977414587 0.0072086131142711238 0 -0.0033242688884021106 0.0072540589647587476 0 -0.0033010540609521525 0.0072076929266015645 0 -0.0035695369578608981 0.0070897810211768076 0 -0.0033753858977414587 0.0072086131142711238 0 -0.0036077252391971343 0.0071485700483341899 0 -0.0035695369578608981 0.0070897810211768076 0 -0.0033753858977414587 0.0072086131142711238 0 -0.0033242688884021106 0.0072540589647587476 0 -0.0033242688884021106 0.0072540589647587476 0 -0.0033010540609521525 0.0072076929266015645 0 -0.0030359615413101302 0.0075083160724609219 0 -0.0031519047477415935 0.0070672852345090775 0 -0.0033242688884021106 0.0072540589647587476 0 -0.0030359615413101302 0.0075083160724609219 0 -0.0032233867317410666 0.0072750670089463069 0 -0.0029309245187806787 0.0075880607598449489 0 -0.0033010540609521525 0.0072076929266015645 0 -0.0031967316591800222 0.006859464017398194 0 -0.0030686184616635455 0.0070069062404720201 0 -0.0033753858977414587 0.0072086131142711238 0 -0.0033010540609521525 0.0072076929266015645 0 -0.0031243210758601959 0.0070514164835524615 0 -0.0033010540609521525 0.0072076929266015645 0 -0.0029536855629210147 0.0066345912553939547 0 -0.0031243210758601959 0.0070514164835524615 0 -0.0033010540609521525 0.0072076929266015645 0 -0.0029536855629210147 0.0066345912553939547 0 -0.0031393732719419433 0.0063085090394977587 0 -0.0033010540609521525 0.0072076929266015645 0 -0.0031967316591800222 0.006859464017398194 0 -0.0031393732719419433 0.0063085090394977587 0 -0.0018013722346519676 -0.0046347066332223241 0 -0.0022384457778367711 -0.0040337761389835202 0 -0.0013861986050435694 -0.0049630957625587035 0 -0.0016983789265780074 -0.0062451119597796171 0 -0.00041458314799840829 -0.0081062881062492313 0 -0.0019891941256740225 0.0064357894028227898 0 -0.002710038159994817 0.0067370849731898715 0 -0.0027146566164502456 0.0061689221466838381 0 -0.0029536855629210147 0.0066345912553939547 0 -0.002710038159994817 0.0067370849731898715 0 -0.0027146566164502456 0.0061689221466838381 0 -0.0029536855629210147 0.0066345912553939547 0 -0.0031393732719419433 0.0063085090394977587 0 -0.0027146566164502456 0.0061689221466838381 0 -0.0029536855629210147 0.0066345912553939547 0 -0.002710038159994817 0.0067370849731898715 0 -0.0031243210758601959 0.0070514164835524615 0 -0.002710038159994817 0.0067370849731898715 0 -0.0031243210758601959 0.0070514164835524615 0 -0.0028511725682829445 0.0071595478021755062 0 -0.0031243210758601959 0.0070514164835524615 0 -0.0028511725682829445 0.0071595478021755062 0 -0.003366843743502579 0.0071760482627618426 0 -0.0019891941256740225 0.0064357894028227898 0 -0.002710038159994817 0.0067370849731898715 0 -0.0028511725682829445 0.0071595478021755062 0 -0.0011899143628502026 -0.0085800744255621134 0 -6.8056974388862741e-05 -0.0062788271112368052 0 0.0011082230069303933 -0.0082010046756050732 0 -0.0018013722346519676 -0.0046347066332223241 0 -0.0022384457778367711 -0.0040337761389835202 0 -0.0026849196070979978 -0.0036629808543228912 0 -0.0019030707920837844 0.00089460415936561794 0 -0.0027885630113399138 0.0017228918209107199 0 -0.0011899143628502026 -0.0085800744255621134 0 -6.8056974388862741e-05 -0.0062788271112368052 0 -0.0012510083313966517 -0.0047075536249830668 0 -0.0022384457778367711 -0.0040337761389835202 0 -0.0026849196070979978 -0.0036629808543228912 0 -0.0032653551115254158 -0.0025700810114678363 0 -0.0016983789265780074 -0.0062451119597796171 0 -0.0031845434732649192 -0.0027967189466575238 0 -0.0011899143628502026 -0.0085800744255621134 0 -0.0012510083313966517 -0.0047075536249830668 0 -0.0032653551115254158 -0.0025700810114678363 0 -0.0012510083313966517 -0.0047075536249830668 0 -0.0032653551115254158 -0.0025700810114678363 0 -0.0017410749590585828 -0.0025028893386696985 0 -0.0012510083313966517 -0.0047075536249830668 0 6.1375182146076114e-07 -0.0036090438027481147 0 -0.0017410749590585828 -0.0025028893386696985 0 -6.8056974388862741e-05 -0.0062788271112368052 0 -0.0012510083313966517 -0.0047075536249830668 0 6.1375182146076114e-07 -0.0036090438027481147 0 -0.0027885630113399138 0.0017228918209107199 0 -0.0037462460775393399 0.002554302445327439 0 -0.003366843743502579 0.0071760482627618426 0 -0.0036077252391971343 0.0071485700483341899 0 -0.0038922176050450175 0.0071138048353644361 0 -0.0028511725682829445 0.0071595478021755062 0 -0.003366843743502579 0.0071760482627618426 0 -0.0038922176050450175 0.0071138048353644361 0 -0.0026849196070979978 -0.0036629808543228912 0 -0.0038028791691770291 -0.0020329849371255228 0 -0.0032653551115254158 -0.0025700810114678363 0 -0.0033753858977414587 0.0072086131142711238 0 -0.0031243210758601959 0.0070514164835524615 0 -0.003366843743502579 0.0071760482627618426 0 -0.0033753858977414587 0.0072086131142711238 0 -0.003366843743502579 0.0071760482627618426 0 -0.0036077252391971343 0.0071485700483341899 0 -0.0037920049657821546 0.0068165650875802635 0 -0.0036077252391971343 0.0071485700483341899 0 -0.0038922176050450175 0.0071138048353644361 0 -0.0038028791691770291 -0.0020329849371255228 0 -0.0032653551115254158 -0.0025700810114678363 0 -0.0026695258085064426 -0.0015691068567854711 0 -0.0032653551115254158 -0.0025700810114678363 0 -0.0026695258085064426 -0.0015691068567854711 0 -0.0017410749590585828 -0.0025028893386696985 0 -0.0026695258085064426 -0.0015691068567854711 0 -0.002839726694610432 -6.3513717771438029e-05 0 -0.001610380532067702 -0.00044351228035067526 0 -0.0038028791691770291 -0.0020329849371255228 0 -0.0026695258085064426 -0.0015691068567854711 0 -0.002839726694610432 -6.3513717771438029e-05 0 6.1375182146076114e-07 -0.0036090438027481147 0 -0.0017410749590585828 -0.0025028893386696985 0 0.00033171938830029764 -0.00040822344290733828 0 -0.0026695258085064426 -0.0015691068567854711 0 -0.0017410749590585828 -0.0025028893386696985 0 -0.001610380532067702 -0.00044351228035067526 0 -0.0017410749590585828 -0.0025028893386696985 0 -0.001610380532067702 -0.00044351228035067526 0 0.00033171938830029764 -0.00040822344290733828 0 0.00033171938830029764 -0.00040822344290733828 0 0.0025495230066647683 -0.00044153846279247898 0 0.002058894364362854 -0.0018526526861840312 0 6.1375182146076114e-07 -0.0036090438027481147 0 0.00033171938830029764 -0.00040822344290733828 0 0.002058894364362854 -0.0018526526861840312 0 0.0025495230066647683 -0.00044153846279247898 0 0.002058894364362854 -0.0018526526861840312 0 0.0044667479337512535 -0.0016489252649366615 0 0.0050473819048272436 5.7680435628226861e-05 0 0.0025495230066647683 -0.00044153846279247898 0 0.0044667479337512535 -0.0016489252649366615 0 0.0050473819048272436 5.7680435628226861e-05 0 0.0063526519581712593 -0.0015241013088314998 0 0.0066797600716631466 -0.0011080522104007699 0 0.0050473819048272436 5.7680435628226861e-05 0 0.0053626817475647022 -0.0012540734216509044 0 0.0063526519581712593 -0.0015241013088314998 0 0.0050473819048272436 5.7680435628226861e-05 0 0.0044667479337512535 -0.0016489252649366615 0 0.0053626817475647022 -0.0012540734216509044 0 0.0044667479337512535 -0.0016489252649366615 0 0.0053626817475647022 -0.0012540734216509044 0 0.0055699556319283123 -0.002036597041486234 0 0.0053626817475647022 -0.0012540734216509044 0 0.0055699556319283123 -0.002036597041486234 0 0.0063526519581712593 -0.0015241013088314998 0 0.0055699556319283123 -0.002036597041486234 0 0.0063526519581712593 -0.0015241013088314998 0 0.0063220956772253025 -0.0025168788004167357 0 0.0055699556319283123 -0.002036597041486234 0 0.0063220956772253025 -0.0025168788004167357 0 0.005335021937655381 -0.0032644161897225211 0 0.0044667479337512535 -0.0016489252649366615 0 0.0055699556319283123 -0.002036597041486234 0 0.005335021937655381 -0.0032644161897225211 0 0.0063220956772253025 -0.0025168788004167357 0 0.005335021937655381 -0.0032644161897225211 0 0.0066192905772100609 -0.0034957252279252029 0 0.0044667479337512535 -0.0016489252649366615 0 0.005335021937655381 -0.0032644161897225211 0 0.0035807552101304227 -0.0034895580418018617 0 0.002058894364362854 -0.0018526526861840312 0 0.0044667479337512535 -0.0016489252649366615 0 0.0035807552101304227 -0.0034895580418018617 0 0.0045997855608694944 -0.0049410581415823725 0 0.0016905238386697656 -0.0062750599061860667 0 0.0069198489825573282 -0.006724324613744238 0 0.0035807552101304227 -0.0034895580418018617 0 0.0045997855608694944 -0.0049410581415823725 0 0.0016905238386697656 -0.0062750599061860667 0 0.005335021937655381 -0.0032644161897225211 0 0.0035807552101304227 -0.0034895580418018617 0 0.0045997855608694944 -0.0049410581415823725 0 0.0016449883956156013 -0.0065313000104743613 0 0.0051394416629804039 -0.0071643007233164017 0 0.005335021937655381 -0.0032644161897225211 0 0.0045997855608694944 -0.0049410581415823725 0 0.0063801633378879046 -0.004758589151943925 0 0.005335021937655381 -0.0032644161897225211 0 0.0063801633378879046 -0.004758589151943925 0 0.0066192905772100609 -0.0034957252279252029 0 0.0045997855608694944 -0.0049410581415823725 0 0.0063801633378879046 -0.004758589151943925 0 0.0069198489825573282 -0.006724324613744238 0 0.002058894364362854 -0.0018526526861840312 0 0.0035807552101304227 -0.0034895580418018617 0 0.0016905238386697656 -0.0062750599061860667 0 6.1375182146076114e-07 -0.0036090438027481147 0 0.002058894364362854 -0.0018526526861840312 0 0.0016905238386697656 -0.0062750599061860667 0 -6.8056974388862741e-05 -0.0062788271112368052 0 6.1375182146076114e-07 -0.0036090438027481147 0 0.0016905238386697656 -0.0062750599061860667 0 0.0044203321252871417 -0.01595969340156474 0 0.0045909312582477907 -0.016128674444374526 0 0.0045618603085639739 -0.015673506064411064 0 0.0045909312582477907 -0.016128674444374526 0 0.004724465286566901 -0.016177762579317394 0 0.0045618603085639739 -0.015673506064411064 0 0.0061394479476195212 -0.0084991209546806685 0 0.0067171184200944378 -0.011279708007933759 0 0.0044203321252871417 -0.01595969340156474 0 0.0043949532040433864 -0.016151854386508211 0 0.0045909312582477907 -0.016128674444374526 0 0.0045934421745888786 -0.016325840461481948 0 0.0043949532040433864 -0.016151854386508211 0 0.0045909312582477907 -0.016128674444374526 0 0.0084948654981637228 -0.0032277847658861956 0 0.0085371586259446706 -0.0017342677883542168 0 0.010574827507245128 -0.0054006597800984003 0 0.0084948654981637228 -0.0032277847658861956 0 0.0085371586259446706 -0.0017342677883542168 0 0.0077257928561468838 -0.0021598633703966063 0 0.0045934421745888786 -0.016325840461481948 0 0.0045909312582477907 -0.016128674444374526 0 0.0047252776469344521 -0.016305860797810663 0 0.0045909312582477907 -0.016128674444374526 0 0.0047252776469344521 -0.016305860797810663 0 0.004724465286566901 -0.016177762579317394 0 0.0061735316315839738 -0.011139753195667099 0 0.0061394479476195212 -0.0084991209546806685 0 0.0085371586259446706 -0.0017342677883542168 0 0.0066797600716631466 -0.0011080522104007699 0 0.0077257928561468838 -0.0021598633703966063 0 0.0066797600716631466 -0.0011080522104007699 0 0.0077257928561468838 -0.0021598633703966063 0 0.0072616918002837661 -0.0025911018139724348 0 0.0063526519581712593 -0.0015241013088314998 0 0.0066797600716631466 -0.0011080522104007699 0 0.0072616918002837661 -0.0025911018139724348 0 0.0063220956772253025 -0.0025168788004167357 0 0.0072616918002837661 -0.0025911018139724348 0 0.0066192905772100609 -0.0034957252279252029 0 0.0063526519581712593 -0.0015241013088314998 0 0.0063220956772253025 -0.0025168788004167357 0 0.0072616918002837661 -0.0025911018139724348 0 0.0084948654981637228 -0.0032277847658861956 0 0.0077257928561468838 -0.0021598633703966063 0 0.0072616918002837661 -0.0025911018139724348 0 0.0084948654981637228 -0.0032277847658861956 0 0.0072616918002837661 -0.0025911018139724348 0 0.0076930670397172005 -0.0040197727933910686 0 0.0072616918002837661 -0.0025911018139724348 0 0.0066192905772100609 -0.0034957252279252029 0 0.0076930670397172005 -0.0040197727933910686 0 0.0069198489825573282 -0.006724324613744238 0 0.0082543017179825748 -0.0063648567609437519 0 0.011123280967411343 -0.0073068279427387335 0 0.0063801633378879046 -0.004758589151943925 0 0.0066192905772100609 -0.0034957252279252029 0 0.0076930670397172005 -0.0040197727933910686 0 0.0063801633378879046 -0.004758589151943925 0 0.0076930670397172005 -0.0040197727933910686 0 0.0075443747491649067 -0.0053625684525534061 0 0.0076930670397172005 -0.0040197727933910686 0 0.0075443747491649067 -0.0053625684525534061 0 0.0084930313363839067 -0.0048716035049788716 0 0.0063801633378879046 -0.004758589151943925 0 0.0069198489825573282 -0.006724324613744238 0 0.0075443747491649067 -0.0053625684525534061 0 0.0069198489825573282 -0.006724324613744238 0 0.0075443747491649067 -0.0053625684525534061 0 0.0082543017179825748 -0.0063648567609437519 0 0.0082543017179825748 -0.0063648567609437519 0 0.0084930313363839067 -0.0048716035049788716 0 0.010574827507245128 -0.0054006597800984003 0 0.0075443747491649067 -0.0053625684525534061 0 0.0082543017179825748 -0.0063648567609437519 0 0.0084930313363839067 -0.0048716035049788716 0 0.010096654857343205 -0.0066692149317790729 0 0.0067171184200944378 -0.011279708007933759 0 0.0084948654981637228 -0.0032277847658861956 0 0.0076930670397172005 -0.0040197727933910686 0 0.0084930313363839067 -0.0048716035049788716 0 0.0084948654981637228 -0.0032277847658861956 0 0.0084930313363839067 -0.0048716035049788716 0 0.010574827507245128 -0.0054006597800984003 0 0.0044711292403527194 -0.015890788957351725 0 0.0042990472997146839 -0.015604464808547625 0 0.0037802877906464101 -0.016211596527029987 0 0.0082543017179825748 -0.0063648567609437519 0 0.010152465961232272 -0.0055721054254865331 0 0.011123280967411343 -0.0073068279427387335 0 0.0044203321252871417 -0.01595969340156474 0 0.0045618603085639739 -0.015673506064411064 0 0.0039646252699901581 -0.015934484580058875 0 0.0067171184200944378 -0.011279708007933759 0 0.0059813073618069975 -0.011651097427505606 0 0.0038674172850166129 -0.01013007989089231 0 0.0041496474040235596 -0.0092018830505780289 0 0.0044455264627380111 -0.011093566948903108 0 0.0041496474040235596 -0.0092018830505780289 0 0.0036960465534638534 -0.0095984311298698676 0 0.0033567441430778669 -0.0091592993728056345 0 0.0038674172850166129 -0.01013007989089231 0 0.0041496474040235596 -0.0092018830505780289 0 0.0036960465534638534 -0.0095984311298698676 0 0.0038674172850166129 -0.01013007989089231 0 0.0036960465534638534 -0.0095984311298698676 0 0.0034047801407982347 -0.0098942455618962442 0 0.0029925710929053855 -0.0084401297285237389 0 0.0041496474040235596 -0.0092018830505780289 0 0.0033567441430778669 -0.0091592993728056345 0 0.0051394416629804039 -0.0071643007233164017 0 0.0059813073618069975 -0.011651097427505606 0 0.0034047801407982347 -0.0098942455618962442 0 0.0033567441430778669 -0.0091592993728056345 0 0.0028662606684639398 -0.0091780156566107808 0 0.0036960465534638534 -0.0095984311298698676 0 0.0034047801407982347 -0.0098942455618962442 0 0.0033567441430778669 -0.0091592993728056345 0 0.0029925710929053855 -0.0084401297285237389 0 0.0033567441430778669 -0.0091592993728056345 0 0.0028662606684639398 -0.0091780156566107808 0 0.0034047801407982347 -0.0098942455618962442 0 0.0028764361070801048 -0.010263282134599809 0 0.0035879033831146996 -0.011002771137946373 0 0.0028764361070801048 -0.010263282134599809 0 0.0035879033831146996 -0.011002771137946373 0 0.0029055689754338911 -0.011296139843832558 0 0.0034047801407982347 -0.0098942455618962442 0 0.0028662606684639398 -0.0091780156566107808 0 0.0028764361070801048 -0.010263282134599809 0 0.0038674172850166129 -0.01013007989089231 0 0.0035879033831146996 -0.011002771137946373 0 0.0044455264627380111 -0.011093566948903108 0 0.0038674172850166129 -0.01013007989089231 0 0.0034047801407982347 -0.0098942455618962442 0 0.0035879033831146996 -0.011002771137946373 0 -0.0011899143628502026 -0.0085800744255621134 0 0.0011082230069303933 -0.0082010046756050732 0 0.00089468674033958446 -0.0097873000541128519 0 0.0011082230069303933 -0.0082010046756050732 0 0.002024931433930433 -0.0094250909051207307 0 0.00089468674033958446 -0.0097873000541128519 0 0.0011082230069303933 -0.0082010046756050732 0 0.0022137385384614168 -0.0082611558447580804 0 0.002024931433930433 -0.0094250909051207307 0 -6.8056974388862741e-05 -0.0062788271112368052 0 0.0016905238386697656 -0.0062750599061860667 0 0.0011082230069303933 -0.0082010046756050732 0 0.0016905238386697656 -0.0062750599061860667 0 0.0011082230069303933 -0.0082010046756050732 0 0.0022137385384614168 -0.0082611558447580804 0 0.0016905238386697656 -0.0062750599061860667 0 0.0029925710929053855 -0.0084401297285237389 0 0.0022137385384614168 -0.0082611558447580804 0 0.0029925710929053855 -0.0084401297285237389 0 0.0028662606684639398 -0.0091780156566107808 0 0.0022137385384614168 -0.0082611558447580804 0 0.0028662606684639398 -0.0091780156566107808 0 0.0022137385384614168 -0.0082611558447580804 0 0.002024931433930433 -0.0094250909051207307 0 0.0028764361070801048 -0.010263282134599809 0 0.0019842391625993845 -0.010890131152738586 0 0.0029055689754338911 -0.011296139843832558 0 0.0028662606684639398 -0.0091780156566107808 0 0.0028764361070801048 -0.010263282134599809 0 0.002024931433930433 -0.0094250909051207307 0 0.0028764361070801048 -0.010263282134599809 0 0.002024931433930433 -0.0094250909051207307 0 0.0019842391625993845 -0.010890131152738586 0 0.00089468674033958446 -0.0097873000541128519 0 0.00060784167045007721 -0.01141628907145781 0 0.0019842391625993845 -0.010890131152738586 0 -0.0011899143628502026 -0.0085800744255621134 0 0.00089468674033958446 -0.0097873000541128519 0 0.00060784167045007721 -0.01141628907145781 0 0.002024931433930433 -0.0094250909051207307 0 0.00089468674033958446 -0.0097873000541128519 0 0.0019842391625993845 -0.010890131152738586 0 -0.0018013722346519676 -0.0046347066332223241 0 -0.0013861986050435694 -0.0049630957625587035 0 -0.0010549163697426353 -0.0053788345737325102 0 -0.0019030707920837844 0.00089460415936561794 0 -0.0011051535380729707 -0.0001620841427262254 0 0.00060784167045007721 -0.01141628907145781 0 0.0019842391625993845 -0.010890131152738586 0 0.0016390965204523878 -0.012018620736352299 0 0.0019842391625993845 -0.010890131152738586 0 0.0022684857577839421 -0.011698131264968483 0 0.0029055689754338911 -0.011296139843832558 0 0.0019842391625993845 -0.010890131152738586 0 0.0022684857577839421 -0.011698131264968483 0 0.0016390965204523878 -0.012018620736352299 0 0.0022684857577839421 -0.011698131264968483 0 0.0021264742618693528 -0.012365031477873116 0 0.0016390965204523878 -0.012018620736352299 0 0.0021264742618693528 -0.012365031477873116 0 0.0016390965204523878 -0.012018620736352299 0 0.0018064691503698626 -0.012912053088724994 0 0.0022684857577839421 -0.011698131264968483 0 0.0021264742618693528 -0.012365031477873116 0 0.0025840763687812627 -0.012309943133225424 0 0.0021264742618693528 -0.012365031477873116 0 0.0023654129471793405 -0.012738330176825319 0 0.0025840763687812627 -0.012309943133225424 0 0.0021264742618693528 -0.012365031477873116 0 0.0023654129471793405 -0.012738330176825319 0 0.0018064691503698626 -0.012912053088724994 0 -0.00041458314799840829 -0.0081062881062492313 0 0.00059964028497518519 -0.0096685528020033062 0 -0.0013861986050435694 -0.0049630957625587035 0 -0.0010549163697426353 -0.0053788345737325102 0 -0.00064128092059699494 -0.0057221532580716186 0 -0.0011341601111983124 0.0050230722150959939 0 -0.0014845917270141162 0.003542814609012864 0 -0.001990827200618276 0.0045114617939268561 0 0.00060784167045007721 -0.01141628907145781 0 0.0016390965204523878 -0.012018620736352299 0 0.0018064691503698626 -0.012912053088724994 0 0.0035879033831146996 -0.011002771137946373 0 0.0036246725059215796 -0.012304622787240808 0 0.0029055689754338911 -0.011296139843832558 0 0.0035879033831146996 -0.011002771137946373 0 0.0036246725059215796 -0.012304622787240808 0 0.0044455264627380111 -0.011093566948903108 0 0.0036246725059215796 -0.012304622787240808 0 0.0029055689754338911 -0.011296139843832558 0 0.0031361523445852103 -0.012407485406491553 0 0.0022684857577839421 -0.011698131264968483 0 0.0029055689754338911 -0.011296139843832558 0 0.0025840763687812627 -0.012309943133225424 0 0.0029055689754338911 -0.011296139843832558 0 0.0025840763687812627 -0.012309943133225424 0 0.0031361523445852103 -0.012407485406491553 0 0.0025840763687812627 -0.012309943133225424 0 0.002868839336778747 -0.012818611458251302 0 0.0031361523445852103 -0.012407485406491553 0 0.0023654129471793405 -0.012738330176825319 0 0.0025840763687812627 -0.012309943133225424 0 0.002868839336778747 -0.012818611458251302 0 0.002868839336778747 -0.012818611458251302 0 0.0031361523445852103 -0.012407485406491553 0 0.0033456487007983834 -0.012999477973476177 0 0.0036246725059215796 -0.012304622787240808 0 0.0033456487007983834 -0.012999477973476177 0 0.0036878221805314365 -0.013174635273276775 0 0.0036246725059215796 -0.012304622787240808 0 0.0031361523445852103 -0.012407485406491553 0 0.0033456487007983834 -0.012999477973476177 0 0.0033456487007983834 -0.012999477973476177 0 0.0030394735894548426 -0.013187554972762179 0 0.003444913970136488 -0.013357157350988217 0 0.0033456487007983834 -0.012999477973476177 0 0.003444913970136488 -0.013357157350988217 0 0.0036878221805314365 -0.013174635273276775 0 0.002868839336778747 -0.012818611458251302 0 0.0033456487007983834 -0.012999477973476177 0 0.0030394735894548426 -0.013187554972762179 0 0.002868839336778747 -0.012818611458251302 0 0.0030394735894548426 -0.013187554972762179 0 0.002580177902137497 -0.013060339230502704 0 0.0023654129471793405 -0.012738330176825319 0 0.002868839336778747 -0.012818611458251302 0 0.002580177902137497 -0.013060339230502704 0 0.0030394735894548426 -0.013187554972762179 0 0.0026734102244739618 -0.013333490216233824 0 0.002580177902137497 -0.013060339230502704 0 0.0026734102244739618 -0.013333490216233824 0 0.0030353473243420626 -0.013398374356813434 0 0.0025564244421704832 -0.01359241375229801 0 0.0030353473243420626 -0.013398374356813434 0 0.0025564244421704832 -0.01359241375229801 0 0.003219642966247058 -0.013495690574136519 0 0.0030394735894548426 -0.013187554972762179 0 0.0026734102244739618 -0.013333490216233824 0 0.0030353473243420626 -0.013398374356813434 0 0.0030394735894548426 -0.013187554972762179 0 0.0030353473243420626 -0.013398374356813434 0 0.003444913970136488 -0.013357157350988217 0 0.0030353473243420626 -0.013398374356813434 0 0.003444913970136488 -0.013357157350988217 0 0.003219642966247058 -0.013495690574136519 0 -0.0011341601111983124 0.0050230722150959939 0 -0.0014845917270141162 0.003542814609012864 0 -0.00027253459348499948 0.0025876045393990093 0 -0.0011051535380729707 -0.0001620841427262254 0 -0.00042620032719712335 -0.0017996844917520893 0 -0.0010549163697426353 -0.0053788345737325102 0 -0.00064128092059699494 -0.0057221532580716186 0 -0.00038691382702054348 -0.0060458586301385033 0 -0.0014845917270141162 0.003542814609012864 0 -0.00027253459348499948 0.0025876045393990093 0 -0.0015523768084924072 0.0021889522468161457 0 -0.0014845917270141162 0.003542814609012864 0 -0.0015523768084924072 0.0021889522468161457 0 -0.0022468014160864978 0.0031491334216260962 0 -0.00064128092059699494 -0.0057221532580716186 0 -0.00038691382702054348 -0.0060458586301385033 0 4.2122553322878748e-05 -0.0064314049674221935 0 0.00059964028497518519 -0.0096685528020033062 0 0.0014776078507104829 -0.0083077990078672236 0 0.0026734102244739618 -0.013333490216233824 0 0.0018064691503698626 -0.012912053088724994 0 0.002580177902137497 -0.013060339230502704 0 0.0023654129471793405 -0.012738330176825319 0 0.0018064691503698626 -0.012912053088724994 0 0.002580177902137497 -0.013060339230502704 0 -0.00027253459348499948 0.0025876045393990093 0 -0.00089494888621428491 -0.0008625700913208284 0 -0.0013784288741569659 0.00077932958025844117 0 -0.00027253459348499948 0.0025876045393990093 0 -0.00089494888621428491 -0.0008625700913208284 0 -0.00026404537851694524 -0.0032303183092395396 0 -0.00042620032719712335 -0.0017996844917520893 0 4.8665746205738843e-06 -0.0044787903791477651 0 -0.00038691382702054348 -0.0060458586301385033 0 4.2122553322878748e-05 -0.0064314049674221935 0 0.00024315583808363393 -0.0066918611853169904 0 0.0026734102244739618 -0.013333490216233824 0 0.0018064691503698626 -0.012912053088724994 0 0.0025564244421704832 -0.01359241375229801 0 -0.00089494888621428491 -0.0008625700913208284 0 -0.0013784288741569659 0.00077932958025844117 0 -0.0016687246111915057 -0.00035630760237595477 0 -0.00027253459348499948 0.0025876045393990093 0 -0.0013784288741569659 0.00077932958025844117 0 -0.0015523768084924072 0.0021889522468161457 0 -0.0013784288741569659 0.00077932958025844117 0 -0.0015523768084924072 0.0021889522468161457 0 -0.0019560988036376255 0.00098181506923932351 0 -0.0013784288741569659 0.00077932958025844117 0 -0.0019560988036376255 0.00098181506923932351 0 -0.0016687246111915057 -0.00035630760237595477 0 -0.0015523768084924072 0.0021889522468161457 0 -0.0019560988036376255 0.00098181506923932351 0 -0.0022468014160864978 0.0031491334216260962 0 -0.0019560988036376255 0.00098181506923932351 0 -0.0022468014160864978 0.0031491334216260962 0 -0.0025420763313349169 0.0016449617957398747 0 -0.0014845917270141162 0.003542814609012864 0 -0.0022468014160864978 0.0031491334216260962 0 -0.001990827200618276 0.0045114617939268561 0 -0.0022468014160864978 0.0031491334216260962 0 -0.0026213010434735185 0.0044998037869938695 0 -0.001990827200618276 0.0045114617939268561 0 -0.0022468014160864978 0.0031491334216260962 0 -0.0026213010434735185 0.0044998037869938695 0 -0.0030392930622368084 0.0043082719705690824 0 -0.0030392930622368084 0.0043082719705690824 0 -0.003606740903357321 0.0018786767150526912 0 -0.0025420763313349169 0.0016449617957398747 0 -0.0022468014160864978 0.0031491334216260962 0 -0.0030392930622368084 0.0043082719705690824 0 -0.0025420763313349169 0.0016449617957398747 0 -0.0034054374653717627 0.0051193867175622137 0 -0.0030392930622368084 0.0043082719705690824 0 -0.003606740903357321 0.0018786767150526912 0 -0.00334264718291304 0.0047212895537113832 0 -0.0033842079148736449 0.0044191955741221091 0 -0.0034054374653717627 0.0051193867175622137 0 -0.0028483266256733959 0.0060509418837502802 0 -0.0031544287091080639 0.0060939103639050885 0 -0.0034054374653717627 0.0051193867175622137 0 -0.0032297988324341571 0.0056230815992484506 0 -0.0030682426860342369 0.0060039020105822202 0 -0.0034054374653717627 0.0051193867175622137 0 -0.0030392930622368084 0.0043082719705690824 0 -0.0032297988324341571 0.0056230815992484506 0 -0.0030392930622368084 0.0043082719705690824 0 -0.0032297988324341571 0.0056230815992484506 0 -0.0028857393811425034 0.0054086982085156379 0 -0.0032297988324341571 0.0056230815992484506 0 -0.0031393732719419433 0.0063085090394977587 0 -0.0028857393811425034 0.0054086982085156379 0 -0.0032297988324341571 0.0056230815992484506 0 -0.0031302326507620225 0.0064555463637480399 0 -0.0030682426860342369 0.0060039020105822202 0 -0.0032297988324341571 0.0056230815992484506 0 -0.0031393732719419433 0.0063085090394977587 0 -0.0031302326507620225 0.0064555463637480399 0 -0.0031967316591800222 0.006859464017398194 0 -0.0031393732719419433 0.0063085090394977587 0 -0.0031302326507620225 0.0064555463637480399 0 -0.0027146566164502456 0.0061689221466838381 0 -0.0022463257503657231 0.0054613092635522912 0 -0.0028857393811425034 0.0054086982085156379 0 -0.0031393732719419433 0.0063085090394977587 0 -0.0027146566164502456 0.0061689221466838381 0 -0.0028857393811425034 0.0054086982085156379 0 -0.0019891941256740225 0.0064357894028227898 0 -0.0027146566164502456 0.0061689221466838381 0 -0.0022463257503657231 0.0054613092635522912 0 -0.0019891941256740225 0.0064357894028227898 0 -0.0011341601111983124 0.0050230722150959939 0 -0.0022463257503657231 0.0054613092635522912 0 -0.0026213010434735185 0.0044998037869938695 0 -0.0022463257503657231 0.0054613092635522912 0 -0.001990827200618276 0.0045114617939268561 0 -0.0011341601111983124 0.0050230722150959939 0 -0.0022463257503657231 0.0054613092635522912 0 -0.001990827200618276 0.0045114617939268561 0 -0.0026213010434735185 0.0044998037869938695 0 -0.0030392930622368084 0.0043082719705690824 0 -0.0028857393811425034 0.0054086982085156379 0 -0.0026213010434735185 0.0044998037869938695 0 -0.0022463257503657231 0.0054613092635522912 0 -0.0028857393811425034 0.0054086982085156379 0 0.0013629309136365189 -0.015664749260701976 0 0.0015869624517543556 -0.015508280683078208 0 0.0014883127982076878 -0.016034451474298769 0 0.0015869624517543556 -0.015508280683078208 0 0.0018821792224403987 -0.015455957793189387 0 0.0017305767850238467 -0.014971184049909993 0 0.0015869624517543556 -0.015508280683078208 0 0.00170230804879816 -0.015791634249218315 0 0.0018821792224403987 -0.015455957793189387 0 0.0015869624517543556 -0.015508280683078208 0 0.00170230804879816 -0.015791634249218315 0 0.0014883127982076878 -0.016034451474298769 0 0.00170230804879816 -0.015791634249218315 0 0.0014883127982076878 -0.016034451474298769 0 0.0016778351918034463 -0.016057124213508338 0 0.00170230804879816 -0.015791634249218315 0 0.0016778351918034463 -0.016057124213508338 0 0.0019124959764119146 -0.015881353466205627 0 0.0013559680901186295 -0.016310392696290584 0 0.0014883127982076878 -0.016034451474298769 0 0.0014054185593235645 -0.016368900916522853 0 0.0014883127982076878 -0.016034451474298769 0 0.0014054185593235645 -0.016368900916522853 0 0.0015249389154649369 -0.016391340020505209 0 0.0014883127982076878 -0.016034451474298769 0 0.0015249389154649369 -0.016391340020505209 0 0.0016778351918034463 -0.016057124213508338 0 0.0014054185593235645 -0.016368900916522853 0 0.0015249389154649369 -0.016391340020505209 0 0.0013841696024112823 -0.016503289802875697 0 0.0015980782525692532 -0.016254162448507751 0 0.0018781042880970551 -0.017514982723127719 0 0.0016750259398259258 -0.016520399281773752 0 0.0015286055572232382 -0.016212549940279087 0 0.0013663670433666688 -0.016409266822812022 0 0.0022470955432639188 -0.017735076447261411 0 0.0018781042880970551 -0.017514982723127719 0 0.0016750259398259258 -0.016520399281773752 0 0.0017343701663852017 -0.016258123698290165 0 0.0019443317086304103 -0.016425153015736316 0 0.0016750259398259258 -0.016520399281773752 0 0.0015286055572232382 -0.016212549940279087 0 0.0017343701663852017 -0.016258123698290165 0 0.0017343701663852017 -0.016258123698290165 0 0.0018149307513215785 -0.016101306128181603 0 0.0019747176308423115 -0.016193873994984707 0 0.0017343701663852017 -0.016258123698290165 0 0.0016778351918034463 -0.016057124213508338 0 0.0018149307513215785 -0.016101306128181603 0 0.0015286055572232382 -0.016212549940279087 0 0.0017343701663852017 -0.016258123698290165 0 0.0016778351918034463 -0.016057124213508338 0 0.0015980782525692532 -0.016254162448507751 0 0.0016435016543365454 -0.016125403411663793 0 0.0016778351918034463 -0.016057124213508338 0 0.0018149307513215785 -0.016101306128181603 0 0.0019124959764119146 -0.015881353466205627 0 0.0019747176308423115 -0.016193873994984707 0 0.0021482617214927859 -0.016344339843896959 0 0.0021412801899001652 -0.01601585181224225 0 0.0018149307513215785 -0.016101306128181603 0 0.0019747176308423115 -0.016193873994984707 0 0.0019124959764119146 -0.015881353466205627 0 0.0019747176308423115 -0.016193873994984707 0 0.0021412801899001652 -0.01601585181224225 0 0.0019124959764119146 -0.015881353466205627 0 0.0017343701663852017 -0.016258123698290165 0 0.0019747176308423115 -0.016193873994984707 0 0.0019443317086304103 -0.016425153015736316 0 0.0019747176308423115 -0.016193873994984707 0 0.0021482617214927859 -0.016344339843896959 0 0.0019443317086304103 -0.016425153015736316 0 0.0021352019902139904 -0.016577036532639183 0 0.0021482617214927859 -0.016344339843896959 0 0.0019443317086304103 -0.016425153015736316 0 0.0021482617214927859 -0.016344339843896959 0 0.0024448167635205973 -0.016419243650214601 0 0.0024895663544470567 -0.016062308093189651 0 0.0021352019902139904 -0.016577036532639183 0 0.0021482617214927859 -0.016344339843896959 0 0.0022726899212786836 -0.016502566223260164 0 0.0021482617214927859 -0.016344339843896959 0 0.0024448167635205973 -0.016419243650214601 0 0.0022726899212786836 -0.016502566223260164 0 0.0021412801899001652 -0.01601585181224225 0 0.0022190802088928861 -0.015552063076424956 0 0.0024895663544470567 -0.016062308093189651 0 0.0021482617214927859 -0.016344339843896959 0 0.0021412801899001652 -0.01601585181224225 0 0.0024895663544470567 -0.016062308093189651 0 0.0022190802088928861 -0.015552063076424956 0 0.0019124959764119146 -0.015881353466205627 0 0.0018821792224403987 -0.015455957793189387 0 0.00170230804879816 -0.015791634249218315 0 0.0019124959764119146 -0.015881353466205627 0 0.0018821792224403987 -0.015455957793189387 0 0.0021412801899001652 -0.01601585181224225 0 0.0022190802088928861 -0.015552063076424956 0 0.0019124959764119146 -0.015881353466205627 0 0.0022190802088928861 -0.015552063076424956 0 0.0018821792224403987 -0.015455957793189387 0 0.0021878816714764114 -0.015007721106230183 0 0.0022190802088928861 -0.015552063076424956 0 0.0026157129227241368 -0.015066114947561132 0 0.0021878816714764114 -0.015007721106230183 0 0.0022190802088928861 -0.015552063076424956 0 0.0026157129227241368 -0.015066114947561132 0 0.0028868817433188722 -0.015561402459148355 0 0.0026157129227241368 -0.015066114947561132 0 0.0033242054221518003 -0.014700103790106991 0 0.0028868817433188722 -0.015561402459148355 0 0.0029159915099013349 -0.015518814430735344 0 0.0035834516393437529 -0.01611173569317657 0 0.0028640697540578252 -0.015567113095876786 0 0.0030928533638542623 -0.015994839027621967 0 0.003540059417099309 -0.015574201235081893 0 0.0033242054221518003 -0.014700103790106991 0 0.0028868817433188722 -0.015561402459148355 0 0.0040206828836718235 -0.015732691908618986 0 0.0022190802088928861 -0.015552063076424956 0 0.0028640697540578252 -0.015567113095876786 0 0.0024895663544470567 -0.016062308093189651 0 0.002238559167680859 -0.015552445820662066 0 0.0029159915099013349 -0.015518814430735344 0 0.0028640697540578252 -0.015567113095876786 0 0.0024895663544470567 -0.016062308093189651 0 0.0030928533638542623 -0.015994839027621967 0 0.0024895663544470567 -0.016062308093189651 0 0.0027672768176369919 -0.016323033429186624 0 0.0030928533638542623 -0.015994839027621967 0 0.0024448167635205973 -0.016419243650214601 0 0.0024895663544470567 -0.016062308093189651 0 0.0027672768176369919 -0.016323033429186624 0 0.0026197826044863488 -0.016622902164280015 0 0.0027672768176369919 -0.016323033429186624 0 0.0031509128807467239 -0.016463298949390037 0 0.0026197826044863488 -0.016622902164280015 0 0.0024448167635205973 -0.016419243650214601 0 0.0027672768176369919 -0.016323033429186624 0 0.0027672768176369919 -0.016323033429186624 0 0.0031509128807467239 -0.016463298949390037 0 0.0030928533638542623 -0.015994839027621967 0 0.0030928533638542623 -0.015994839027621967 0 0.0037802877906464101 -0.016211596527029987 0 0.003540059417099309 -0.015574201235081893 0 0.0033843425998066647 -0.016246740859401799 0 0.0032491755736613402 -0.016711314988646059 0 0.0031509128807467239 -0.016463298949390037 0 0.0030928533638542623 -0.015994839027621967 0 0.0037802877906464101 -0.016211596527029987 0 0.0034974697649404777 -0.016662164582547538 0 0.0033080003711477009 -0.016240596223747662 0 0.0039646252699901581 -0.015934484580058875 0 0.0044203321252871417 -0.01595969340156474 0 0.0043949532040433864 -0.016151854386508211 0 0.0039646252699901581 -0.015934484580058875 0 0.0042930540440417053 -0.016424885319422055 0 0.0043949532040433864 -0.016151854386508211 0 0.0039646252699901581 -0.015934484580058875 0 0.0067171184200944378 -0.011279708007933759 0 0.0032491755736613402 -0.016711314988646059 0 0.0042990472997146839 -0.015604464808547625 0 0.0037802877906464101 -0.016211596527029987 0 0.003540059417099309 -0.015574201235081893 0 0.0059813073618069975 -0.011651097427505606 0 0.0035834516393437529 -0.01611173569317657 0 0.0052853667457991227 -0.015851358533737963 0 0.0040206828836718235 -0.015732691908618986 0 0.0047106458990698735 -0.014812900826639304 0 0.0059813073618069975 -0.011651097427505606 0 0.0043707515966009405 -0.013035743407855316 0 0.0033242054221518003 -0.014700103790106991 0 0.0040206828836718235 -0.015732691908618986 0 0.0047106458990698735 -0.014812900826639304 0 0.0043707515966009405 -0.013035743407855316 0 0.0041368076816078571 -0.013218589515670617 0 0.0036246725059215796 -0.012304622787240808 0 0.0044455264627380111 -0.011093566948903108 0 0.0040310766675886482 -0.013395611407263145 0 0.0033242054221518003 -0.014700103790106991 0 0.0047106458990698735 -0.014812900826639304 0 0.0040310766675886482 -0.013395611407263145 0 0.0033242054221518003 -0.014700103790106991 0 0.0040310766675886482 -0.013395611407263145 0 0.0032416620644729888 -0.013871262704717398 0 0.0040310766675886482 -0.013395611407263145 0 0.0036878221805314365 -0.013174635273276775 0 0.003499494335343559 -0.013462109979029562 0 0.0040310766675886482 -0.013395611407263145 0 0.003499494335343559 -0.013462109979029562 0 0.0032416620644729888 -0.013871262704717398 0 0.0036246725059215796 -0.012304622787240808 0 0.0040310766675886482 -0.013395611407263145 0 0.0036878221805314365 -0.013174635273276775 0 0.003444913970136488 -0.013357157350988217 0 0.0036878221805314365 -0.013174635273276775 0 0.003499494335343559 -0.013462109979029562 0 0.003444913970136488 -0.013357157350988217 0 0.0033130463636912673 -0.013359288016892047 0 0.003499494335343559 -0.013462109979029562 0 0.0033130463636912673 -0.013359288016892047 0 0.003499494335343559 -0.013462109979029562 0 0.0029978503860703847 -0.013527686852528968 0 0.003499494335343559 -0.013462109979029562 0 0.0029978503860703847 -0.013527686852528968 0 0.0027628795653007088 -0.013886182522912006 0 0.0033130463636912673 -0.013359288016892047 0 0.0029978503860703847 -0.013527686852528968 0 0.0024399779615818392 -0.013227851039791901 0 0.0029978503860703847 -0.013527686852528968 0 0.0022601090187846151 -0.01368130461146887 0 0.0024399779615818392 -0.013227851039791901 0 0.0027628795653007088 -0.013886182522912006 0 0.0021617371342680324 -0.014451331644499058 0 0.0021022234783865507 -0.014037223276737553 0 0.0022601090187846151 -0.01368130461146887 0 0.0027628795653007088 -0.013886182522912006 0 0.0021022234783865507 -0.014037223276737553 0 0.0029978503860703847 -0.013527686852528968 0 0.0022601090187846151 -0.01368130461146887 0 0.0027628795653007088 -0.013886182522912006 0 0.0027628795653007088 -0.013886182522912006 0 0.0026475683920646528 -0.014460550149020654 0 0.0021617371342680324 -0.014451331644499058 0 0.0027628795653007088 -0.013886182522912006 0 0.0032416620644729888 -0.013871262704717398 0 0.0026475683920646528 -0.014460550149020654 0 0.003499494335343559 -0.013462109979029562 0 0.0027628795653007088 -0.013886182522912006 0 0.0032416620644729888 -0.013871262704717398 0 0.0033242054221518003 -0.014700103790106991 0 0.0032416620644729888 -0.013871262704717398 0 0.0026475683920646528 -0.014460550149020654 0 0.0026157129227241368 -0.015066114947561132 0 0.0033242054221518003 -0.014700103790106991 0 0.0026475683920646528 -0.014460550149020654 0 0.0026157129227241368 -0.015066114947561132 0 0.0026475683920646528 -0.014460550149020654 0 0.0021878816714764114 -0.015007721106230183 0 0.0026475683920646528 -0.014460550149020654 0 0.0021878816714764114 -0.015007721106230183 0 0.0021617371342680324 -0.014451331644499058 0 0.0021878816714764114 -0.015007721106230183 0 0.0017305767850238467 -0.014971184049909993 0 0.0021617371342680324 -0.014451331644499058 0 0.0018821792224403987 -0.015455957793189387 0 0.0021878816714764114 -0.015007721106230183 0 0.0017305767850238467 -0.014971184049909993 0 0.0017305767850238467 -0.014971184049909993 0 0.0021617371342680324 -0.014451331644499058 0 0.0017181331422409152 -0.014338270732939836 0 0.0021617371342680324 -0.014451331644499058 0 0.0021022234783865507 -0.014037223276737553 0 0.0017181331422409152 -0.014338270732939836 0 0.0022601090187846151 -0.01368130461146887 0 0.0021022234783865507 -0.014037223276737553 0 0.001599735768267118 -0.013847817771625361 0 0.0022601090187846151 -0.01368130461146887 0 0.001599735768267118 -0.013847817771625361 0 0.0016976466963527996 -0.013437646604386266 0 0.001599735768267118 -0.013847817771625361 0 0.0017181331422409152 -0.014338270732939836 0 0.0013684080073456419 -0.014192431815567376 0 0.0021022234783865507 -0.014037223276737553 0 0.001599735768267118 -0.013847817771625361 0 0.0017181331422409152 -0.014338270732939836 0 0.0017181331422409152 -0.014338270732939836 0 0.0013962308806651019 -0.014618359831836325 0 0.0013684080073456419 -0.014192431815567376 0 0.0013962308806651019 -0.014618359831836325 0 0.0013684080073456419 -0.014192431815567376 0 0.0010890312598594843 -0.014351002640557371 0 0.001599735768267118 -0.013847817771625361 0 0.0013684080073456419 -0.014192431815567376 0 0.00097016755047279286 -0.013824718287676245 0 0.0013684080073456419 -0.014192431815567376 0 0.0010890312598594843 -0.014351002640557371 0 0.00097016755047279286 -0.013824718287676245 0 0.0011310176723063803 -0.014769907077376273 0 0.0013962308806651019 -0.014618359831836325 0 0.0010890312598594843 -0.014351002640557371 0 0.0011310176723063803 -0.014769907077376273 0 0.0013962308806651019 -0.014618359831836325 0 0.0013943534520055396 -0.015148278689963277 0 0.0011538490797054293 -0.015201822327759374 0 0.0011310176723063803 -0.014769907077376273 0 0.0013943534520055396 -0.015148278689963277 0 0.0017305767850238467 -0.014971184049909993 0 0.0017181331422409152 -0.014338270732939836 0 0.0013962308806651019 -0.014618359831836325 0 0.0017305767850238467 -0.014971184049909993 0 0.0013962308806651019 -0.014618359831836325 0 0.0013943534520055396 -0.015148278689963277 0 0.0015869624517543556 -0.015508280683078208 0 0.0017305767850238467 -0.014971184049909993 0 0.0013943534520055396 -0.015148278689963277 0 0.0013629309136365189 -0.015664749260701976 0 0.0015869624517543556 -0.015508280683078208 0 0.0013943534520055396 -0.015148278689963277 0 0.0011538490797054293 -0.015201822327759374 0 0.0013629309136365189 -0.015664749260701976 0 0.0013943534520055396 -0.015148278689963277 0 0.00048558744915242234 -0.013988490000585276 0 0.00061242086137295129 -0.014071686445919673 0 0.00034130877561458831 -0.0146166622913092 0 0.00048558744915242234 -0.013988490000585276 0 0.00077328609269711754 -0.013656597122030751 0 0.00058810827486602453 -0.01340206642725144 0 0.00048558744915242234 -0.013988490000585276 0 0.00077328609269711754 -0.013656597122030751 0 0.00061242086137295129 -0.014071686445919673 0 0.00077328609269711754 -0.013656597122030751 0 0.00061242086137295129 -0.014071686445919673 0 0.00097016755047279286 -0.013824718287676245 0 0.00071502490354066165 -0.014196501879661519 0 0.00061242086137295129 -0.014071686445919673 0 0.00097016755047279286 -0.013824718287676245 0 0.00084823434395810615 -0.014287649637358693 0 0.0010890312598594843 -0.014351002640557371 0 0.00097016755047279286 -0.013824718287676245 0 0.00084823434395810615 -0.014287649637358693 0 0.00071502490354066165 -0.014196501879661519 0 0.00097016755047279286 -0.013824718287676245 0 0.00077328609269711754 -0.013656597122030751 0 0.00097016755047279286 -0.013824718287676245 0 0.001179298119948559 -0.013418776143302088 0 0.001179298119948559 -0.013418776143302088 0 0.001446023040880299 -0.012866172835958378 0 0.00098249259396953909 -0.013175440448413534 0 0.001599735768267118 -0.013847817771625361 0 0.001179298119948559 -0.013418776143302088 0 0.0016976466963527996 -0.013437646604386266 0 0.001599735768267118 -0.013847817771625361 0 0.00097016755047279286 -0.013824718287676245 0 0.001179298119948559 -0.013418776143302088 0 0.001179298119948559 -0.013418776143302088 0 0.0016976466963527996 -0.013437646604386266 0 0.001446023040880299 -0.012866172835958378 0 0.001446023040880299 -0.012866172835958378 0 0.0011572062856766673 -0.012646934608431783 0 0.0018264916676704681 -0.012165009470618519 0 0.001446023040880299 -0.012866172835958378 0 0.00098249259396953909 -0.013175440448413534 0 0.0011572062856766673 -0.012646934608431783 0 0.00077328609269711754 -0.013656597122030751 0 0.001179298119948559 -0.013418776143302088 0 0.00098249259396953909 -0.013175440448413534 0 0.00077328609269711754 -0.013656597122030751 0 0.00098249259396953909 -0.013175440448413534 0 0.00058810827486602453 -0.01340206642725144 0 0.00098249259396953909 -0.013175440448413534 0 0.0011572062856766673 -0.012646934608431783 0 0.00058810827486602453 -0.01340206642725144 0 0.0011572062856766673 -0.012646934608431783 0 0.00082898953428556189 -0.012735267204139733 0 0.00058810827486602453 -0.01340206642725144 0 0.0011572062856766673 -0.012646934608431783 0 0.0012991109972337834 -0.012002030275175275 0 0.00082898953428556189 -0.012735267204139733 0 0.0012991109972337834 -0.012002030275175275 0 0.0015562082570084021 -0.010952653125065328 0 0.0012073425382624519 -0.011474370709433602 0 0.0018264916676704681 -0.012165009470618519 0 0.0018359260167771761 -0.0099545982721015776 0 0.0015562082570084021 -0.010952653125065328 0 0.0012991109972337834 -0.012002030275175275 0 0.0018264916676704681 -0.012165009470618519 0 0.0015562082570084021 -0.010952653125065328 0 0.0011572062856766673 -0.012646934608431783 0 0.0012991109972337834 -0.012002030275175275 0 0.0018264916676704681 -0.012165009470618519 0 0.001446023040880299 -0.012866172835958378 0 0.0018264916676704681 -0.012165009470618519 0 0.0024399779615818392 -0.013227851039791901 0 0.0016976466963527996 -0.013437646604386266 0 0.001446023040880299 -0.012866172835958378 0 0.0024399779615818392 -0.013227851039791901 0 0.0022601090187846151 -0.01368130461146887 0 0.0016976466963527996 -0.013437646604386266 0 0.0024399779615818392 -0.013227851039791901 0 0.0033130463636912673 -0.013359288016892047 0 0.0024399779615818392 -0.013227851039791901 0 0.0029988023663886725 -0.01274115045978264 0 0.0018264916676704681 -0.012165009470618519 0 0.0024399779615818392 -0.013227851039791901 0 0.0029988023663886725 -0.01274115045978264 0 0.0018219907302529962 -0.011943478240531923 0 0.0022804956357276398 -0.011327660993710872 0 0.0018359260167771761 -0.0099545982721015776 0 0.001551744698772145 -0.0076670183032485576 0 0.0012899000979582672 -0.0093214314393390476 0 0.0022804956357276398 -0.011327660993710872 0 0.0023741950369544438 -0.010379645117951714 0 0.0033130463636912673 -0.013359288016892047 0 0.0029988023663886725 -0.01274115045978264 0 0.0034105608256434273 -0.013203067325661254 0 0.003444913970136488 -0.013357157350988217 0 0.0033130463636912673 -0.013359288016892047 0 0.0034105608256434273 -0.013203067325661254 0 0.001551744698772145 -0.0076670183032485576 0 0.0012899000979582672 -0.0093214314393390476 0 0.00063205026187665274 -0.0072557816269207334 0 0.0012899000979582672 -0.0093214314393390476 0 0.0011898399307592473 -0.01048171291470556 0 0.00070554510339765797 -0.010025781675148152 0 0.0018359260167771761 -0.0099545982721015776 0 0.0012899000979582672 -0.0093214314393390476 0 0.0015562082570084021 -0.010952653125065328 0 0.0012899000979582672 -0.0093214314393390476 0 0.0015562082570084021 -0.010952653125065328 0 0.0011898399307592473 -0.01048171291470556 0 0.0015562082570084021 -0.010952653125065328 0 0.0011898399307592473 -0.01048171291470556 0 0.0012073425382624519 -0.011474370709433602 0 0.0011898399307592473 -0.01048171291470556 0 0.0009168033400079325 -0.010999667791015867 0 0.0012073425382624519 -0.011474370709433602 0 0.0011898399307592473 -0.01048171291470556 0 0.0009168033400079325 -0.010999667791015867 0 0.00070554510339765797 -0.010025781675148152 0 0.00095709094335112081 -0.011688924472056134 0 0.0009168033400079325 -0.010999667791015867 0 0.0012073425382624519 -0.011474370709433602 0 0.00095709094335112081 -0.011688924472056134 0 0.0009168033400079325 -0.010999667791015867 0 0.00063003313025635757 -0.011358001602070969 0 0.0012073425382624519 -0.011474370709433602 0 0.00098199112805746501 -0.011918070703305344 0 0.00096197331004321959 -0.012057631876580134 0 0.00095709094335112081 -0.011688924472056134 0 0.0012073425382624519 -0.011474370709433602 0 0.00098199112805746501 -0.011918070703305344 0 0.00058685603138623819 -0.011843039227239865 0 0.00052174401230097305 -0.011911187377815893 0 0.00098199112805746501 -0.011918070703305344 0 0.0010242697194444298 -0.012040917680025378 0 0.00052978499249600351 -0.012021143482550319 0 0.00095709094335112081 -0.011688924472056134 0 0.0010242697194444298 -0.012040917680025378 0 0.00073346190777804081 -0.011856913337181127 0 0.00095709094335112081 -0.011688924472056134 0 0.00098199112805746501 -0.011918070703305344 0 0.0010242697194444298 -0.012040917680025378 0 0.00095709094335112081 -0.011688924472056134 0 0.00073346190777804081 -0.011856913337181127 0 0.00063003313025635757 -0.011358001602070969 0 0.00020522499859749953 -0.010565367439788309 0 0.0001062203112550119 -0.01097193732142532 0 0.00033364975021411277 -0.01122577680562247 0 0.00038755154954041592 -0.011171751508494879 0 0.00020698850842467686 -0.011149917345890372 0 -6.1652735164560249e-05 -0.0098327840658085416 0 -2.8951048775451666e-05 -0.0096110844088987072 0 0.00020698850842467686 -0.011149917345890372 0 -5.6509760502217002e-07 -0.0095404435910870344 0 -2.8951048775451666e-05 -0.0096110844088987072 0 1.8490257975472094e-06 -0.0077279204756615962 0 -5.6509760502217002e-07 -0.0095404435910870344 0 -2.8951048775451666e-05 -0.0096110844088987072 0 0.00020698850842467686 -0.011149917345890372 0 -5.6509760502217002e-07 -0.0095404435910870344 0 0.00020698850842467686 -0.011149917345890372 0 3.4852549968191985e-07 -0.011355689906322403 0 0.00033364975021411277 -0.01122577680562247 0 0.00020698850842467686 -0.011149917345890372 0 0.00052978499249600351 -0.012021143482550319 0 0.00020698850842467686 -0.011149917345890372 0 0.00015486952058238124 -0.012074532174134817 0 0.00052978499249600351 -0.012021143482550319 0 0.00020698850842467686 -0.011149917345890372 0 0.00015486952058238124 -0.012074532174134817 0 3.4852549968191985e-07 -0.011355689906322403 0 0.00015486952058238124 -0.012074532174134817 0 0.00023967561412226556 -0.012886521084676018 0 1.9190240782452415e-08 -0.013170412594042379 0 0.00015486952058238124 -0.012074532174134817 0 3.4852549968191985e-07 -0.011355689906322403 0 1.9190240782452415e-08 -0.013170412594042379 0 0.00015486952058238124 -0.012074532174134817 0 0.00023967561412226556 -0.012886521084676018 0 0.00052978499249600351 -0.012021143482550319 0 0.00023967561412226556 -0.012886521084676018 0 0.00068589778974452952 -0.012510805377350291 0 0.00039995335785480301 -0.013228698013515183 0 0.00023967561412226556 -0.012886521084676018 0 0.00068589778974452952 -0.012510805377350291 0 0.00052978499249600351 -0.012021143482550319 0 0.00068589778974452952 -0.012510805377350291 0 0.00052978499249600351 -0.012021143482550319 0 0.00096197331004321959 -0.012057631876580134 0 0.00098199112805746501 -0.011918070703305344 0 0.00052978499249600351 -0.012021143482550319 0 0.00096197331004321959 -0.012057631876580134 0 0.0012991109972337834 -0.012002030275175275 0 0.0012073425382624519 -0.011474370709433602 0 0.00096197331004321959 -0.012057631876580134 0 0.0012991109972337834 -0.012002030275175275 0 0.00068589778974452952 -0.012510805377350291 0 0.00096197331004321959 -0.012057631876580134 0 0.0012991109972337834 -0.012002030275175275 0 0.00068589778974452952 -0.012510805377350291 0 0.00082898953428556189 -0.012735267204139733 0 0.00068589778974452952 -0.012510805377350291 0 0.00082898953428556189 -0.012735267204139733 0 0.00039995335785480301 -0.013228698013515183 0 0.00082898953428556189 -0.012735267204139733 0 0.00058810827486602453 -0.01340206642725144 0 0.00039995335785480301 -0.013228698013515183 0 0.00058810827486602453 -0.01340206642725144 0 0.00018638496843069601 -0.014015745557180541 0 0.00039995335785480301 -0.013228698013515183 0 0.00058810827486602453 -0.01340206642725144 0 0.00018638496843069601 -0.014015745557180541 0 0.00022742323079867526 -0.014363145755276228 0 0.00023967561412226556 -0.012886521084676018 0 0.00039995335785480301 -0.013228698013515183 0 7.2824335553614116e-05 -0.013904171561611247 0 0.00023967561412226556 -0.012886521084676018 0 1.9190240782452415e-08 -0.013170412594042379 0 7.2824335553614116e-05 -0.013904171561611247 0 1.9190240782452415e-08 -0.013170412594042379 0 -5.7851873961757072e-08 -0.014985405781381644 0 7.2824335553614116e-05 -0.013904171561611247 0 -5.7851873961757072e-08 -0.014985405781381644 0 7.2824335553614116e-05 -0.013904171561611247 0 7.7051402886931785e-06 -0.01508608219634623 0 0.00018638496843069601 -0.014015745557180541 0 0.00039995335785480301 -0.013228698013515183 0 7.2824335553614116e-05 -0.013904171561611247 0 0.00018638496843069601 -0.014015745557180541 0 7.2824335553614116e-05 -0.013904171561611247 0 7.7051402886931785e-06 -0.01508608219634623 0 7.7051402886931785e-06 -0.01508608219634623 0 7.0318465117200085e-05 -0.015404707865931464 0 0.00022742323079867526 -0.014363145755276228 0 -5.7851873961757072e-08 -0.014985405781381644 0 7.7051402886931785e-06 -0.01508608219634623 0 5.7427229751107067e-08 -0.016799889688546198 0 3.999088822282497e-05 -0.016757799560227101 0 5.7427229751107067e-08 -0.016799889688546198 0 7.0318465117200085e-05 -0.015404707865931464 0 7.7051402886931785e-06 -0.01508608219634623 0 5.7427229751107067e-08 -0.016799889688546198 0 7.0318465117200085e-05 -0.015404707865931464 0 7.0318465117200085e-05 -0.015404707865931464 0 0.00022742323079867526 -0.014363145755276228 0 0.00034130877561458831 -0.0146166622913092 0 0.00018638496843069601 -0.014015745557180541 0 7.7051402886931785e-06 -0.01508608219634623 0 0.00022742323079867526 -0.014363145755276228 0 0.00048558744915242234 -0.013988490000585276 0 0.00058810827486602453 -0.01340206642725144 0 0.00022742323079867526 -0.014363145755276228 0 0.00048558744915242234 -0.013988490000585276 0 0.00022742323079867526 -0.014363145755276228 0 0.00034130877561458831 -0.0146166622913092 0 -0.00032637292459486298 0.0041619010781867331 0 -0.0010318504932341252 0.0037807702183525306 0 -0.00046635824491538029 0.0052469609664403446 0 -0.0027157085050286424 -0.0028023271698362218 0 -0.0032232960345560447 0.0009862742978762524 0 -0.00032637292459486298 0.0041619010781867331 0 0.0005295804499649237 0.0037516605688723255 0 -0.00046635824491538029 0.0052469609664403446 0 -0.0059046782090153094 -0.0073446854335765714 0 -0.00588896247426031 -0.0089679387897267024 0 -0.0074538192176910427 -0.0066662958240748743 0 -0.0059046782090153094 -0.0073446854335765714 0 -0.0046314458698375549 -0.0076094258874425729 0 -0.0043044582055878034 -0.006506210866258951 0 -0.0046314458698375549 -0.0076094258874425729 0 -0.0052179729277138445 -0.0089064949716947447 0 -0.0038639144339673893 -0.0083505702492203647 0 -0.0059046782090153094 -0.0073446854335765714 0 -0.0046314458698375549 -0.0076094258874425729 0 -0.0052179729277138445 -0.0089064949716947447 0 -0.0059046782090153094 -0.0073446854335765714 0 -0.00588896247426031 -0.0089679387897267024 0 -0.0052179729277138445 -0.0089064949716947447 0 -0.00588896247426031 -0.0089679387897267024 0 -0.0052179729277138445 -0.0089064949716947447 0 -0.0048464848568225694 -0.010054043765361389 0 0.0005295804499649237 0.0037516605688723255 0 0.00046515772327712445 0.0024241475745080338 0 0.0014789998932945574 0.0014462772061254695 0 -0.0027157085050286424 -0.0028023271698362218 0 -0.0017563905351847709 -0.0045198779915245893 0 0.0005295804499649237 0.0037516605688723255 0 -0.00018995043283986525 0.0032095532685268171 0 0.00046515772327712445 0.0024241475745080338 0 -0.00018995043283986525 0.0032095532685268171 0 -0.00056265731961170672 0.0026397318084210959 0 -1.9614586143293711e-06 0.0021841024457888445 0 -0.00018995043283986525 0.0032095532685268171 0 -1.9614586143293711e-06 0.0021841024457888445 0 0.00046515772327712445 0.0024241475745080338 0 -0.00032637292459486298 0.0041619010781867331 0 0.0005295804499649237 0.0037516605688723255 0 -0.00018995043283986525 0.0032095532685268171 0 -0.00032637292459486298 0.0041619010781867331 0 -0.00018995043283986525 0.0032095532685268171 0 -0.0010318504932341252 0.0037807702183525306 0 -0.00018995043283986525 0.0032095532685268171 0 -0.0010318504932341252 0.0037807702183525306 0 -0.00056265731961170672 0.0026397318084210959 0 -0.0017758659969879067 0.0037783180318385974 0 -0.0010318504932341252 0.0037807702183525306 0 -0.0011721092967067095 0.0025558298478291696 0 -0.0017758659969879067 0.0037783180318385974 0 -0.0010318504932341252 0.0037807702183525306 0 -0.0021106256048098373 0.0044116871092950601 0 -0.0010318504932341252 0.0037807702183525306 0 -0.00056265731961170672 0.0026397318084210959 0 -0.0011721092967067095 0.0025558298478291696 0 -0.0017758659969879067 0.0037783180318385974 0 -0.0021106256048098373 0.0044116871092950601 0 -0.0024829228878345089 0.0041612388295286188 0 -0.0021106256048098373 0.0044116871092950601 0 -0.0024829228878345089 0.0041612388295286188 0 -0.002459214779353435 0.0056361519386727782 0 -0.0026184479273737341 0.0063732294589811857 0 -0.0026963959779702246 0.0063017188793909008 0 -0.0024679940783783202 0.0063526092249253556 0 -0.0026184479273737341 0.0063732294589811857 0 -0.0028855499719859304 0.006281042832207883 0 -0.0030892513248337483 0.0063000280056716377 0 -0.0018873739564717567 0.0062536965475120127 0 -0.0032232960345560447 0.0009862742978762524 0 -0.0010318504932341252 0.0037807702183525306 0 -0.0021106256048098373 0.0044116871092950601 0 -0.00046635824491538029 0.0052469609664403446 0 -0.0028855499719859304 0.006281042832207883 0 -0.0031544287091080639 0.0060939103639050885 0 -0.0030892513248337483 0.0063000280056716377 0 -0.0033842079148736449 0.0044191955741221091 0 -0.0032232960345560447 0.0009862742978762524 0 -0.0026184479273737341 0.0063732294589811857 0 -0.0028855499719859304 0.006281042832207883 0 -0.0026963959779702246 0.0063017188793909008 0 -0.0028855499719859304 0.006281042832207883 0 -0.0026963959779702246 0.0063017188793909008 0 -0.0031544287091080639 0.0060939103639050885 0 -0.0026963959779702246 0.0063017188793909008 0 -0.0028483266256733959 0.0060509418837502802 0 -0.0031544287091080639 0.0060939103639050885 0 -0.003606740903357321 0.0018786767150526912 0 -0.0025420763313349169 0.0016449617957398747 0 -0.0029716609072652808 0.00014824353199694676 0 -0.0059046782090153094 -0.0073446854335765714 0 -0.0051834671913165379 -0.0050441580300290183 0 -0.0043044582055878034 -0.006506210866258951 0 -0.0032232960345560447 0.0009862742978762524 0 -0.0040393854204886477 -0.003026040416762302 0 -0.0059046782090153094 -0.0073446854335765714 0 -0.0074538192176910427 -0.0066662958240748743 0 -0.0051834671913165379 -0.0050441580300290183 0 -0.0025420763313349169 0.0016449617957398747 0 -0.0029716609072652808 0.00014824353199694676 0 -0.0019776981547259594 0.00038863512762478251 0 -0.0019560988036376255 0.00098181506923932351 0 -0.0025420763313349169 0.0016449617957398747 0 -0.0019776981547259594 0.00038863512762478251 0 -0.0019776981547259594 0.00038863512762478251 0 -0.0016687246111915057 -0.00035630760237595477 0 -0.001390496204682463 -0.0019169714457265192 0 -0.0051834671913165379 -0.0050441580300290183 0 -0.001390496204682463 -0.0019169714457265192 0 -0.0026038525473133759 -0.0056564931547544084 0 -0.0040393854204886477 -0.003026040416762302 0 -0.0011337372981178194 -0.001525219642009727 0 -0.0019560988036376255 0.00098181506923932351 0 -0.0019776981547259594 0.00038863512762478251 0 -0.0016687246111915057 -0.00035630760237595477 0 -0.00089494888621428491 -0.0008625700913208284 0 -0.0016687246111915057 -0.00035630760237595477 0 -0.001390496204682463 -0.0019169714457265192 0 -0.001390496204682463 -0.0019169714457265192 0 -0.0012606079099843593 -0.0042702863185759459 0 -0.0026038525473133759 -0.0056564931547544084 0 -0.00089494888621428491 -0.0008625700913208284 0 -0.001390496204682463 -0.0019169714457265192 0 -0.00077567685838286229 -0.0023471413278291524 0 -0.001390496204682463 -0.0019169714457265192 0 -0.00077567685838286229 -0.0023471413278291524 0 -0.00068320645705495292 -0.0034275548534464036 0 0.0014776078507104829 -0.0083077990078672236 0 4.8665746205738843e-06 -0.0044787903791477651 0 -0.00089494888621428491 -0.0008625700913208284 0 -0.00077567685838286229 -0.0023471413278291524 0 -0.00026404537851694524 -0.0032303183092395396 0 -0.0004748409099766842 -0.0028028387234430448 0 -0.00026404537851694524 -0.0032303183092395396 0 2.568121898709738e-05 -0.0043511685930788351 0 -0.00077567685838286229 -0.0023471413278291524 0 -0.00026404537851694524 -0.0032303183092395396 0 -0.00068320645705495292 -0.0034275548534464036 0 -0.00027766369137633768 -0.0038737920830229709 0 -0.00068320645705495292 -0.0034275548534464036 0 -0.00069377266551801185 -0.004422247120844513 0 -0.00026404537851694524 -0.0032303183092395396 0 -0.00027766369137633768 -0.0038737920830229709 0 -0.00068320645705495292 -0.0034275548534464036 0 -0.00068320645705495292 -0.0034275548534464036 0 -0.00069377266551801185 -0.004422247120844513 0 -0.0012606079099843593 -0.0042702863185759459 0 -0.00027766369137633768 -0.0038737920830229709 0 -0.00069377266551801185 -0.004422247120844513 0 -0.00029626531218503724 -0.0050073658662407447 0 -0.001390496204682463 -0.0019169714457265192 0 -0.00068320645705495292 -0.0034275548534464036 0 -0.0012606079099843593 -0.0042702863185759459 0 -0.0012606079099843593 -0.0042702863185759459 0 -0.0010819097946245977 -0.0055144109482098136 0 -0.0026038525473133759 -0.0056564931547544084 0 -0.00069377266551801185 -0.004422247120844513 0 -0.0010819097946245977 -0.0055144109482098136 0 -0.00029626531218503724 -0.0050073658662407447 0 -0.00069377266551801185 -0.004422247120844513 0 -0.0012606079099843593 -0.0042702863185759459 0 -0.0010819097946245977 -0.0055144109482098136 0 -0.0010819097946245977 -0.0055144109482098136 0 -0.00024356287319815632 -0.0065088736756525097 0 -0.00162524593459266 -0.0072313479020623215 0 -0.0010819097946245977 -0.0055144109482098136 0 -0.0026038525473133759 -0.0056564931547544084 0 -0.00162524593459266 -0.0072313479020623215 0 -0.0043044582055878034 -0.006506210866258951 0 -0.0026038525473133759 -0.0056564931547544084 0 -0.0034670034034474362 -0.0074270608130097464 0 -0.0026038525473133759 -0.0056564931547544084 0 -0.0034670034034474362 -0.0074270608130097464 0 -0.00162524593459266 -0.0072313479020623215 0 -0.0051834671913165379 -0.0050441580300290183 0 -0.0043044582055878034 -0.006506210866258951 0 -0.0026038525473133759 -0.0056564931547544084 0 0.0023741950369544438 -0.010379645117951714 0 0.0016805074448553296 -0.0091639605333930351 0 0.003444913970136488 -0.013357157350988217 0 0.0034105608256434273 -0.013203067325661254 0 0.003219642966247058 -0.013495690574136519 0 0.001551744698772145 -0.0076670183032485576 0 0.00060392155955100568 -0.0049371201647681537 0 0.00063205026187665274 -0.0072557816269207334 0 0.0014776078507104829 -0.0083077990078672236 0 0.0016805074448553296 -0.0091639605333930351 0 -0.0004748409099766842 -0.0028028387234430448 0 0.00060392155955100568 -0.0049371201647681537 0 2.568121898709738e-05 -0.0043511685930788351 0 0.00060392155955100568 -0.0049371201647681537 0 2.568121898709738e-05 -0.0043511685930788351 0 0.00017912239419691094 -0.0056475629988541123 0 -0.00027766369137633768 -0.0038737920830229709 0 2.568121898709738e-05 -0.0043511685930788351 0 -0.00029626531218503724 -0.0050073658662407447 0 2.568121898709738e-05 -0.0043511685930788351 0 -0.00029626531218503724 -0.0050073658662407447 0 0.00017912239419691094 -0.0056475629988541123 0 -0.00026404537851694524 -0.0032303183092395396 0 -0.00027766369137633768 -0.0038737920830229709 0 2.568121898709738e-05 -0.0043511685930788351 0 -0.00029626531218503724 -0.0050073658662407447 0 -0.00024356287319815632 -0.0065088736756525097 0 0.00017912239419691094 -0.0056475629988541123 0 -0.0010819097946245977 -0.0055144109482098136 0 -0.00029626531218503724 -0.0050073658662407447 0 -0.00024356287319815632 -0.0065088736756525097 0 -0.00024356287319815632 -0.0065088736756525097 0 0.00063205026187665274 -0.0072557816269207334 0 -0.00031385881760113629 -0.0080104827483264973 0 -0.00024356287319815632 -0.0065088736756525097 0 0.00017912239419691094 -0.0056475629988541123 0 0.00063205026187665274 -0.0072557816269207334 0 0.00060392155955100568 -0.0049371201647681537 0 0.00017912239419691094 -0.0056475629988541123 0 0.00063205026187665274 -0.0072557816269207334 0 0.0012899000979582672 -0.0093214314393390476 0 0.0004753908513490097 -0.0088792626112908068 0 0.00070554510339765797 -0.010025781675148152 0 0.0012899000979582672 -0.0093214314393390476 0 0.00063205026187665274 -0.0072557816269207334 0 0.0004753908513490097 -0.0088792626112908068 0 0.00063205026187665274 -0.0072557816269207334 0 0.0004753908513490097 -0.0088792626112908068 0 -0.00031385881760113629 -0.0080104827483264973 0 -0.00031385881760113629 -0.0080104827483264973 0 -0.0003882309730220736 -0.0097138138759419092 0 -0.0013184618616688766 -0.0083892739732314477 0 0.0004753908513490097 -0.0088792626112908068 0 -0.00031385881760113629 -0.0080104827483264973 0 -0.0003882309730220736 -0.0097138138759419092 0 -0.00024356287319815632 -0.0065088736756525097 0 -0.00031385881760113629 -0.0080104827483264973 0 -0.00162524593459266 -0.0072313479020623215 0 -0.0011375688751040873 -0.010307794255405411 0 -0.0003882309730220736 -0.0097138138759419092 0 -0.0017078616320848246 -0.0094444872366468684 0 -0.0011375688751040873 -0.010307794255405411 0 -0.0003882309730220736 -0.0097138138759419092 0 -0.0004867868601864858 -0.010709416109555099 0 -0.0003882309730220736 -0.0097138138759419092 0 0.00024901992995013877 -0.010763862586999587 0 -0.0004867868601864858 -0.010709416109555099 0 0.0004753908513490097 -0.0088792626112908068 0 -0.0003882309730220736 -0.0097138138759419092 0 0.00070554510339765797 -0.010025781675148152 0 -0.0003882309730220736 -0.0097138138759419092 0 0.00070554510339765797 -0.010025781675148152 0 0.00024901992995013877 -0.010763862586999587 0 0.0009168033400079325 -0.010999667791015867 0 0.00070554510339765797 -0.010025781675148152 0 0.00024901992995013877 -0.010763862586999587 0 -0.0038639144339673893 -0.0083505702492203647 0 -0.0025277756538595593 -0.0084011390588777362 0 -0.0031023257965282825 -0.0093822167550781238 0 -0.0038639144339673893 -0.0083505702492203647 0 -0.0034670034034474362 -0.0074270608130097464 0 -0.0025277756538595593 -0.0084011390588777362 0 -0.0046314458698375549 -0.0076094258874425729 0 -0.0038639144339673893 -0.0083505702492203647 0 -0.0034670034034474362 -0.0074270608130097464 0 -0.0046314458698375549 -0.0076094258874425729 0 -0.0043044582055878034 -0.006506210866258951 0 -0.0034670034034474362 -0.0074270608130097464 0 -0.0034670034034474362 -0.0074270608130097464 0 -0.00162524593459266 -0.0072313479020623215 0 -0.0025277756538595593 -0.0084011390588777362 0 -0.00031385881760113629 -0.0080104827483264973 0 -0.00162524593459266 -0.0072313479020623215 0 -0.0013184618616688766 -0.0083892739732314477 0 -0.00162524593459266 -0.0072313479020623215 0 -0.0013184618616688766 -0.0083892739732314477 0 -0.0025277756538595593 -0.0084011390588777362 0 -0.0013184618616688766 -0.0083892739732314477 0 -0.0025277756538595593 -0.0084011390588777362 0 -0.0017078616320848246 -0.0094444872366468684 0 -0.0025277756538595593 -0.0084011390588777362 0 -0.0017078616320848246 -0.0094444872366468684 0 -0.0031023257965282825 -0.0093822167550781238 0 -0.0003882309730220736 -0.0097138138759419092 0 -0.0013184618616688766 -0.0083892739732314477 0 -0.0017078616320848246 -0.0094444872366468684 0 -0.0011375688751040873 -0.010307794255405411 0 -0.0017078616320848246 -0.0094444872366468684 0 -0.0020623944227853189 -0.010360976993282917 0 -0.0017078616320848246 -0.0094444872366468684 0 -0.0020623944227853189 -0.010360976993282917 0 -0.0031023257965282825 -0.0093822167550781238 0 -0.0020623944227853189 -0.010360976993282917 0 -0.0030726418341221143 -0.01022806465804209 0 -0.0031023257965282825 -0.0093822167550781238 0 -0.0052179729277138445 -0.0089064949716947447 0 -0.0030726418341221143 -0.01022806465804209 0 -0.0031333903288761149 -0.011238209568397316 0 -0.0051245679284114675 -0.0088569234039206982 0 -0.0037741806958523881 -0.01098086950622002 0 -0.0052179729277138445 -0.0089064949716947447 0 -0.0038639144339673893 -0.0083505702492203647 0 -0.0031023257965282825 -0.0093822167550781238 0 -0.0052179729277138445 -0.0089064949716947447 0 -0.0030726418341221143 -0.01022806465804209 0 -0.0031023257965282825 -0.0093822167550781238 0 -0.0042212381759892184 -0.010081430401873362 0 -0.0041528682723698121 -0.010982232083905277 0 -0.0048464848568225694 -0.010054043765361389 0 -0.0052179729277138445 -0.0089064949716947447 0 -0.0042212381759892184 -0.010081430401873362 0 -0.0048464848568225694 -0.010054043765361389 0 -0.0030726418341221143 -0.01022806465804209 0 -0.0031333903288761149 -0.011238209568397316 0 -0.002220491083669552 -0.011082423801086575 0 -0.0020623944227853189 -0.010360976993282917 0 -0.0030726418341221143 -0.01022806465804209 0 -0.002220491083669552 -0.011082423801086575 0 -0.0020623944227853189 -0.010360976993282917 0 -0.0012105649940887301 -0.01117532023481951 0 -0.002220491083669552 -0.011082423801086575 0 -0.0011375688751040873 -0.010307794255405411 0 -0.0020623944227853189 -0.010360976993282917 0 -0.0012105649940887301 -0.01117532023481951 0 -0.0012105649940887301 -0.01117532023481951 0 -0.002220491083669552 -0.011082423801086575 0 -0.0017915904583427483 -0.011763301808676614 0 -0.0031333903288761149 -0.011238209568397316 0 -0.002220491083669552 -0.011082423801086575 0 -0.0017915904583427483 -0.011763301808676614 0 -0.0031333903288761149 -0.011238209568397316 0 -0.0017915904583427483 -0.011763301808676614 0 -0.0016207756033000686 -0.01266103426047867 0 -0.0037741806958523881 -0.01098086950622002 0 -0.0014585427921773432 -0.009730880512872301 0 -0.0012105649940887301 -0.01117532023481951 0 -0.0017915904583427483 -0.011763301808676614 0 -0.00085400906099027877 -0.012007826745375112 0 -0.0017915904583427483 -0.011763301808676614 0 -0.0016207756033000686 -0.01266103426047867 0 -0.00085400906099027877 -0.012007826745375112 0 -0.0014585427921773432 -0.009730880512872301 0 -8.7556088601495149e-06 -0.004439282901933155 0 0.000516064397129288 -0.0036788158712891821 0 0.00083739657943810385 -0.0034556001054595691 0 0.00073844217335754117 -0.0032827065366305757 0 -8.7556088601495149e-06 -0.004439282901933155 0 -0.0017563905351847709 -0.0045198779915245893 0 -0.0042212381759892184 -0.010081430401873362 0 -0.0034010471498232457 -0.011099802944244988 0 -0.0041528682723698121 -0.010982232083905277 0 0.0023724383287323852 -0.0016400620508937812 0 0.0010125138941768832 -6.2353928496592645e-05 0 0.0014789998932945574 0.0014462772061254695 0 -8.7556088601495149e-06 -0.004439282901933155 0 0.00097904918270704682 -0.002992268344491619 0 0.0009973843246343084 -0.0023320835302564746 0 0.0011495171144418651 -0.0014470910910588664 0 0.00073954533764662863 -0.0026657752213040987 0 0.0023724383287323852 -0.0016400620508937812 0 0.0011495171144418651 -0.0014470910910588664 0 0.0010125138941768832 -6.2353928496592645e-05 0 0.00063003313025635757 -0.011358001602070969 0 0.00024901992995013877 -0.010763862586999587 0 -0.00019771827179418402 -0.011410981541034383 0 0.00063003313025635757 -0.011358001602070969 0 -0.00019771827179418402 -0.011410981541034383 0 0.00028274585156439641 -0.011824691858976 0 0.0009168033400079325 -0.010999667791015867 0 0.00063003313025635757 -0.011358001602070969 0 0.00024901992995013877 -0.010763862586999587 0 -0.0012105649940887301 -0.01117532023481951 0 -0.00019771827179418402 -0.011410981541034383 0 -0.0004867868601864858 -0.010709416109555099 0 0.00024901992995013877 -0.010763862586999587 0 -0.00019771827179418402 -0.011410981541034383 0 -0.0004867868601864858 -0.010709416109555099 0 -0.0011375688751040873 -0.010307794255405411 0 -0.0012105649940887301 -0.01117532023481951 0 -0.0004867868601864858 -0.010709416109555099 0 -0.0012105649940887301 -0.01117532023481951 0 -0.00019771827179418402 -0.011410981541034383 0 -0.00085400906099027877 -0.012007826745375112 0 -0.0016207756033000686 -0.01266103426047867 0 -0.00085400906099027877 -0.012007826745375112 0 -0.00032403969939084096 -0.012652479779533881 0 -0.00085400906099027877 -0.012007826745375112 0 -0.0002616313385099486 -0.011978691644293717 0 -0.00032403969939084096 -0.012652479779533881 0 -0.00019771827179418402 -0.011410981541034383 0 -0.00085400906099027877 -0.012007826745375112 0 -0.0002616313385099486 -0.011978691644293717 0 0.0010242697194444298 -0.012040917680025378 0 0.00073346190777804081 -0.011856913337181127 0 -0.00032403969939084096 -0.012652479779533881 0 0.00073346190777804081 -0.011856913337181127 0 0.00028274585156439641 -0.011824691858976 0 -0.00032403969939084096 -0.012652479779533881 0 -0.00019771827179418402 -0.011410981541034383 0 -0.0002616313385099486 -0.011978691644293717 0 0.00028274585156439641 -0.011824691858976 0 -0.0002616313385099486 -0.011978691644293717 0 0.00028274585156439641 -0.011824691858976 0 -0.00032403969939084096 -0.012652479779533881 0 0.00073346190777804081 -0.011856913337181127 0 0.00063003313025635757 -0.011358001602070969 0 0.00028274585156439641 -0.011824691858976 0 0.00058685603138623819 -0.011843039227239865 0 0.00024793871666840161 -0.010894360977791262 0 0.00020522499859749953 -0.010565367439788309 0 0.00024793871666840161 -0.010894360977791262 0 -6.1652735164560249e-05 -0.0098327840658085416 0 0.00020035876260094049 -0.0093355302735564014 0 0.00066428364314310376 -0.0099182859686392372 0 0.00033364975021411277 -0.01122577680562247 0 0.00038755154954041592 -0.011171751508494879 0 0.00053485363382218089 -0.01118933492666818 0 -6.1652735164560249e-05 -0.0098327840658085416 0 -2.8951048775451666e-05 -0.0096110844088987072 0 0.00020035876260094049 -0.0093355302735564014 0 -0.0011021049719838949 -0.0096253727415210079 0 0.00030412447999523851 -0.0098853813241289029 0 -0.00083927316822460208 -0.0099931748279628776 0 -0.0014585427921773432 -0.009730880512872301 0 0.00024793871666840161 -0.010894360977791262 0 0.00020035876260094049 -0.0093355302735564014 0 0.00066428364314310376 -0.0099182859686392372 0 0.0010289730178577243 -0.0090942543844492879 0 0.00024793871666840161 -0.010894360977791262 0 -2.429792000233307e-06 -0.0075105767263883858 0 0.00066428364314310376 -0.0099182859686392372 0 0.0010289730178577243 -0.0090942543844492879 0 0.0014989350813352756 -0.0098220837194617876 0 0.00064696606737813574 -0.0072343406180794198 0 -2.429792000233307e-06 -0.0075105767263883858 0 0.00020035876260094049 -0.0093355302735564014 0 0.0010289730178577243 -0.0090942543844492879 0 1.8490257975472094e-06 -0.0077279204756615962 0 0.00056042269106843423 -0.0054964032927059606 0 2.2212760599827944e-06 -0.007722475205855301 0 2.5835056495428422e-07 -0.0057134236979731919 0 0.00064696606737813574 -0.0072343406180794198 0 2.7415027981320262e-07 -0.0077244956586764507 0 -2.8951048775451666e-05 -0.0096110844088987072 0 0.00020035876260094049 -0.0093355302735564014 0 1.8490257975472094e-06 -0.0077279204756615962 0 0.0004752261636278067 -0.0038835373280980542 0 0.00073954533764662863 -0.0026657752213040987 0 0.0003184339821497596 -0.0031626458091085314 0 0.0004752261636278067 -0.0038835373280980542 0 0.00073954533764662863 -0.0026657752213040987 0 0.00073844217335754117 -0.0032827065366305757 0 0.0009973843246343084 -0.0023320835302564746 0 0.00073954533764662863 -0.0026657752213040987 0 0.00073844217335754117 -0.0032827065366305757 0 -8.7556088601495149e-06 -0.004439282901933155 0 0.00011085117130585855 -0.003492901707596347 0 0.0004752261636278067 -0.0038835373280980542 0 0.00073844217335754117 -0.0032827065366305757 0 0.00057819282906377016 -0.0036867883714706675 0 0.000516064397129288 -0.0036788158712891821 0 0.00073844217335754117 -0.0032827065366305757 0 0.00057819282906377016 -0.0036867883714706675 0 -0.0014585427921773432 -0.009730880512872301 0 -2.429792000233307e-06 -0.0075105767263883858 0 0.000516064397129288 -0.0036788158712891821 0 0.00057819282906377016 -0.0036867883714706675 0 0.00052666937341402551 -0.0036851381914464747 0 0.00062721253025163203 -0.0061772341173438857 0 -2.429792000233307e-06 -0.0075105767263883858 0 0.00057819282906377016 -0.0036867883714706675 0 0.00075628547871545409 -0.003907981345510899 0 0.00045771772555342659 -0.0046885323643611415 0 0.00056042269106843423 -0.0054964032927059606 0 0.00075628547871545409 -0.003907981345510899 0 0.00045771772555342659 -0.0046885323643611415 0 0.0004752261636278067 -0.0038835373280980542 0 0.00057819282906377016 -0.0036867883714706675 0 0.00045771772555342659 -0.0046885323643611415 0 0.00056042269106843423 -0.0054964032927059606 0 0.00045771772555342659 -0.0046885323643611415 0 2.5835056495428422e-07 -0.0057134236979731919 0 0.0004752261636278067 -0.0038835373280980542 0 0.00045771772555342659 -0.0046885323643611415 0 2.5835056495428422e-07 -0.0057134236979731919 0 2.5835056495428422e-07 -0.0057134236979731919 0 4.9881325349254606e-07 -0.0037030040984448176 0 0.0003184339821497596 -0.0031626458091085314 0 0.0004752261636278067 -0.0038835373280980542 0 2.5835056495428422e-07 -0.0057134236979731919 0 0.0003184339821497596 -0.0031626458091085314 0 4.9881325349254606e-07 -0.0037030040984448176 0 -6.6226251680004066e-05 -0.0019364767945113394 0 0.0003184339821497596 -0.0031626458091085314 0 4.9881325349254606e-07 -0.0037030040984448176 0 -0.00024087011521751697 -0.0018756601306479917 0 -1.762946260382523e-06 -0.0016933457228540188 0 4.9881325349254606e-07 -0.0037030040984448176 0 -0.00024087011521751697 -0.0018756601306479917 0 -6.6226251680004066e-05 -0.0019364767945113394 0 -6.6226251680004066e-05 -0.0019364767945113394 0 -0.00011715800690123899 -0.00045312765832329063 0 -0.00081638487778968422 -0.0005525359194278888 0 -6.6226251680004066e-05 -0.0019364767945113394 0 0.0003378145505494304 -0.0017221660377046972 0 -0.00011715800690123899 -0.00045312765832329063 0 -0.00024087011521751697 -0.0018756601306479917 0 -6.6226251680004066e-05 -0.0019364767945113394 0 -0.00081638487778968422 -0.0005525359194278888 0 -6.6226251680004066e-05 -0.0019364767945113394 0 0.0003184339821497596 -0.0031626458091085314 0 0.0003378145505494304 -0.0017221660377046972 0 0.00073954533764662863 -0.0026657752213040987 0 0.0003184339821497596 -0.0031626458091085314 0 0.0003378145505494304 -0.0017221660377046972 0 0.0011495171144418651 -0.0014470910910588664 0 0.00073954533764662863 -0.0026657752213040987 0 0.0003378145505494304 -0.0017221660377046972 0 0.0011495171144418651 -0.0014470910910588664 0 0.0003378145505494304 -0.0017221660377046972 0 0.00064016744655786629 -0.00080218364287287401 0 0.00064016744655786629 -0.00080218364287287401 0 0.0010125138941768832 -6.2353928496592645e-05 0 0.00035401984603224417 0.00021289149820681127 0 0.0011495171144418651 -0.0014470910910588664 0 0.00064016744655786629 -0.00080218364287287401 0 0.0010125138941768832 -6.2353928496592645e-05 0 0.0010125138941768832 -6.2353928496592645e-05 0 0.00035401984603224417 0.00021289149820681127 0 0.00052097750052252116 0.0013382648088556333 0 0.00064016744655786629 -0.00080218364287287401 0 0.00035401984603224417 0.00021289149820681127 0 -0.00011715800690123899 -0.00045312765832329063 0 0.0003378145505494304 -0.0017221660377046972 0 0.00064016744655786629 -0.00080218364287287401 0 -0.00011715800690123899 -0.00045312765832329063 0 -0.00011715800690123899 -0.00045312765832329063 0 -0.00073191069877757259 0.00075805845992250518 0 -0.00081638487778968422 -0.0005525359194278888 0 -0.00011715800690123899 -0.00045312765832329063 0 -0.00027602288942414182 0.0013188980543977278 0 -0.00073191069877757259 0.00075805845992250518 0 0.00035401984603224417 0.00021289149820681127 0 -0.00011715800690123899 -0.00045312765832329063 0 -0.00027602288942414182 0.0013188980543977278 0 0.00035401984603224417 0.00021289149820681127 0 -0.00027602288942414182 0.0013188980543977278 0 0.00052097750052252116 0.0013382648088556333 0 -0.00027602288942414182 0.0013188980543977278 0 -1.9614586143293711e-06 0.0021841024457888445 0 0.00052097750052252116 0.0013382648088556333 0 -0.00027602288942414182 0.0013188980543977278 0 -0.0011721092967067095 0.0025558298478291696 0 -0.00073191069877757259 0.00075805845992250518 0 -0.00027602288942414182 0.0013188980543977278 0 -0.00056265731961170672 0.0026397318084210959 0 -0.0011721092967067095 0.0025558298478291696 0 -0.00027602288942414182 0.0013188980543977278 0 -0.00056265731961170672 0.0026397318084210959 0 -1.9614586143293711e-06 0.0021841024457888445 0 0.00046515772327712445 0.0024241475745080338 0 0.0014789998932945574 0.0014462772061254695 0 0.00052097750052252116 0.0013382648088556333 0 -1.9614586143293711e-06 0.0021841024457888445 0 0.00046515772327712445 0.0024241475745080338 0 0.00052097750052252116 0.0013382648088556333 0 0.0010125138941768832 -6.2353928496592645e-05 0 0.0014789998932945574 0.0014462772061254695 0 0.00052097750052252116 0.0013382648088556333 0 -0.0024829228878345089 0.0041612388295286188 0 -0.0011721092967067095 0.0025558298478291696 0 -0.0014027183745679195 0.0014883421600669607 0 -0.0017758659969879067 0.0037783180318385974 0 -0.0024829228878345089 0.0041612388295286188 0 -0.0011721092967067095 0.0025558298478291696 0 -0.0011721092967067095 0.0025558298478291696 0 -0.0014027183745679195 0.0014883421600669607 0 -0.00073191069877757259 0.00075805845992250518 0 -0.0014027183745679195 0.0014883421600669607 0 -0.0022851367237073797 0.00074651648437349977 0 -0.00081638487778968422 -0.0005525359194278888 0 -0.0014027183745679195 0.0014883421600669607 0 -0.00073191069877757259 0.00075805845992250518 0 -0.00081638487778968422 -0.0005525359194278888 0 -0.0024829228878345089 0.0041612388295286188 0 -0.0014027183745679195 0.0014883421600669607 0 -0.0022851367237073797 0.00074651648437349977 0 -0.0016923266265250576 -0.00047137831178387492 0 -0.00055566999995865696 -0.001231172669693749 0 -0.0038684822371498197 -0.0010761844716337759 0 -0.0022851367237073797 0.00074651648437349977 0 -0.0016923266265250576 -0.00047137831178387492 0 -0.0038684822371498197 -0.0010761844716337759 0 -0.0022851367237073797 0.00074651648437349977 0 -0.0016923266265250576 -0.00047137831178387492 0 -0.00081638487778968422 -0.0005525359194278888 0 -0.0016923266265250576 -0.00047137831178387492 0 -0.00081638487778968422 -0.0005525359194278888 0 -0.00055566999995865696 -0.001231172669693749 0 -0.00024087011521751697 -0.0018756601306479917 0 -0.00081638487778968422 -0.0005525359194278888 0 -0.00055566999995865696 -0.001231172669693749 0 -0.00024087011521751697 -0.0018756601306479917 0 -0.00055566999995865696 -0.001231172669693749 0 -1.762946260382523e-06 -0.0016933457228540188 0 -0.00055566999995865696 -0.001231172669693749 0 -1.762946260382523e-06 -0.0016933457228540188 0 -7.4647541458744942e-08 0.00031765028152775537 0 -0.00055566999995865696 -0.001231172669693749 0 -7.4647541458744942e-08 0.00031765028152775537 0 -7.407510425032205e-05 0.0007541618420952819 0 -0.00065443297166516341 -0.00098243729028836611 0 -0.0023578700964764642 -0.00048243557293015549 0 -7.4647541458744942e-08 0.00031765028152775537 0 -8.2211038981882097e-05 0.001474765357386891 0 -7.407510425032205e-05 0.0007541618420952819 0 -7.4647541458744942e-08 0.00031765028152775537 0 -8.2211038981882097e-05 0.001474765357386891 0 -5.0834957383320419e-07 0.0023277610488609394 0 -8.2211038981882097e-05 0.001474765357386891 0 -7.407510425032205e-05 0.0007541618420952819 0 -2.5211791590749214e-05 0.0016994886929828433 0 -0.0023578700964764642 -0.00048243557293015549 0 -0.0015436641112284706 0.0037439467951394831 0 -0.0038684822371498197 -0.0010761844716337759 0 -0.0066710551163604234 -0.0002614985287372669 0 -0.0046611775167087078 0.001601574793978046 0 1.0529782546075348e-06 0.00433681337040081 0 9.9716055880887759e-05 0.0025198173504871789 0 -5.0834957383320419e-07 0.0023277610488609394 0 2.5956333167421604e-06 0.0043425001698896093 0 0.0015867536969407666 0.005858382085996921 0 2.8441955420875899e-06 0.0064602753950352837 0 -2.1210540375690717e-07 0.0043380237713886976 0 0.0010984359053023622 0.0044408096002074484 0 -8.2211038981882097e-05 0.001474765357386891 0 9.9716055880887759e-05 0.0025198173504871789 0 -5.0834957383320419e-07 0.0023277610488609394 0 -0.0015436641112284706 0.0037439467951394831 0 0.00013674341402486516 0.0076035601067806031 0 0.0015867536969407666 0.005858382085996921 0 0.002743213962892118 0.0069151914941269002 0 0.0011213968059926209 0.0073971026826126175 0 -8.2211038981882097e-05 0.001474765357386891 0 9.9716055880887759e-05 0.0025198173504871789 0 -2.5211791590749214e-05 0.0016994886929828433 0 0.0010984359053023622 0.0044408096002074484 0 -0.0015436641112284706 0.0037439467951394831 0 0.0015867536969407666 0.005858382085996921 0 0.0011213968059926209 0.0073971026826126175 0 2.8441955420875899e-06 0.0064602753950352837 0 -0.0013314934272486384 0.0076567845476906175 0 -0.0012039944071047357 0.0073746247586253984 0 -0.00054082019871001677 0.0077315112136694389 0 0.00013674341402486516 0.0076035601067806031 0 -0.00055077347344651762 0.0076989960147928974 0 -0.0013314934272486384 0.0076567845476906175 0 -0.0012039944071047357 0.0073746247586253984 0 -0.0017222343647933364 0.0070165425625139275 0 -0.0018907317489566884 0.0075355596518860875 0 -0.0013314934272486384 0.0076567845476906175 0 -0.0017222343647933364 0.0070165425625139275 0 -0.0017222343647933364 0.0070165425625139275 0 -0.0019879540712833795 0.0064806094741516277 0 -0.0015497981218946964 0.0070462931060548822 0 -0.0012039944071047357 0.0073746247586253984 0 -0.0015497981218946964 0.0070462931060548822 0 -0.00094979641884388485 0.0076886762896575212 0 -0.0012039944071047357 0.0073746247586253984 0 -0.0017222343647933364 0.0070165425625139275 0 -0.0015497981218946964 0.0070462931060548822 0 -0.0022851367237073797 0.00074651648437349977 0 -0.0038684822371498197 -0.0010761844716337759 0 -0.0046611775167087078 0.001601574793978046 0 -0.0024829228878345089 0.0041612388295286188 0 -0.0022851367237073797 0.00074651648437349977 0 -0.0046611775167087078 0.001601574793978046 0 -0.0015436641112284706 0.0037439467951394831 0 -0.0039329427753842247 0.0038776681346543635 0 -0.0018907317489566884 0.0075355596518860875 0 -0.0017222343647933364 0.0070165425625139275 0 -0.0024042900070004314 0.0064761530234854689 0 -0.0017222343647933364 0.0070165425625139275 0 -0.0024042900070004314 0.0064761530234854689 0 -0.0019879540712833795 0.0064806094741516277 0 -0.0024042900070004314 0.0064761530234854689 0 -0.002459214779353435 0.0056361519386727782 0 -0.0019879540712833795 0.0064806094741516277 0 -0.0024829228878345089 0.0041612388295286188 0 -0.0024042900070004314 0.0064761530234854689 0 -0.002459214779353435 0.0056361519386727782 0 -0.0023276563524851418 0.0044031270531280069 0 -0.0039329427753842247 0.0038776681346543635 0 -0.0018873739564717567 0.0062536965475120127 0 -0.0027970871938837408 0.0052411705416773877 0 -0.0026184479273737341 0.0063732294589811857 0 -0.002459214779353435 0.0056361519386727782 0 -0.0024679940783783202 0.0063526092249253556 0 -0.002459214779353435 0.0056361519386727782 0 -0.0024679940783783202 0.0063526092249253556 0 -0.002196135646236956 0.0065997816044240775 0 -0.002459214779353435 0.0056361519386727782 0 -0.002196135646236956 0.0065997816044240775 0 -0.0019879540712833795 0.0064806094741516277 0 -0.002196135646236956 0.0065997816044240775 0 -0.0019879540712833795 0.0064806094741516277 0 -0.001750187747792365 0.0070333722828924529 0 -0.0019879540712833795 0.0064806094741516277 0 -0.0015497981218946964 0.0070462931060548822 0 -0.001750187747792365 0.0070333722828924529 0 -0.0015497981218946964 0.0070462931060548822 0 -0.001750187747792365 0.0070333722828924529 0 -0.0012760364839726733 0.0074789922194702062 0 -0.002196135646236956 0.0065997816044240775 0 -0.001750187747792365 0.0070333722828924529 0 -0.0020070319111765516 0.0068828723034708578 0 -0.002196135646236956 0.0065997816044240775 0 -0.0020070319111765516 0.0068828723034708578 0 -0.0023711526293906985 0.0064764088046484715 0 -0.0020070319111765516 0.0068828723034708578 0 -0.0021655288173994102 0.00666586893402135 0 -0.0012606070931549913 0.0075602358099954694 0 -0.001750187747792365 0.0070333722828924529 0 -0.0020070319111765516 0.0068828723034708578 0 -0.0012606070931549913 0.0075602358099954694 0 -0.0020070319111765516 0.0068828723034708578 0 -0.0021655288173994102 0.00666586893402135 0 -0.0023711526293906985 0.0064764088046484715 0 -0.0021655288173994102 0.00666586893402135 0 -0.0023711526293906985 0.0064764088046484715 0 -0.0023158328059434052 0.0067144888066464955 0 -0.0026963959779702246 0.0063017188793909008 0 -0.0028483266256733959 0.0060509418837502802 0 -0.0023711526293906985 0.0064764088046484715 0 -0.0028483266256733959 0.0060509418837502802 0 -0.0023711526293906985 0.0064764088046484715 0 -0.0026090258105130265 0.0061976746687286387 0 -0.0026963959779702246 0.0063017188793909008 0 -0.0024679940783783202 0.0063526092249253556 0 -0.0023711526293906985 0.0064764088046484715 0 -0.0024679940783783202 0.0063526092249253556 0 -0.002196135646236956 0.0065997816044240775 0 -0.0023711526293906985 0.0064764088046484715 0 -0.0014679692060788761 0.0086140627943465074 0 -0.0012119153552269629 0.0079369254108620207 0 -0.0013561910051388512 0.0083844578221094531 0 -0.0016330914484649094 0.0087277386972615355 0 -0.0014679692060788761 0.0086140627943465074 0 -0.0013561910051388512 0.0083844578221094531 0 -0.0016330914484649094 0.0087277386972615355 0 -0.0014679692060788761 0.0086140627943465074 0 -0.0019726839081301299 0.0094611901095360343 0 -0.0014679692060788761 0.0086140627943465074 0 -0.00082917973286017585 0.0091753548607884892 0 -0.0012606070931549913 0.0075602358099954694 0 -0.0014679692060788761 0.0086140627943465074 0 -0.00082917973286017585 0.0091753548607884892 0 -0.001291928220128959 0.0097958391800256166 0 -0.0014303197970640185 0.0080215497895239646 0 -0.0012763725884769751 0.0076388810981351061 0 -0.0021655288173994102 0.00666586893402135 0 -0.0019594238592269982 0.0068022187420419622 0 -0.0012606070931549913 0.0075602358099954694 0 -0.0014679692060788761 0.0086140627943465074 0 -0.0012606070931549913 0.0075602358099954694 0 -0.0012119153552269629 0.0079369254108620207 0 -0.0012606070931549913 0.0075602358099954694 0 -0.0012119153552269629 0.0079369254108620207 0 -0.0012760364839726733 0.0074789922194702062 0 -0.001750187747792365 0.0070333722828924529 0 -0.0012606070931549913 0.0075602358099954694 0 -0.0012760364839726733 0.0074789922194702062 0 -0.0015497981218946964 0.0070462931060548822 0 -0.0012760364839726733 0.0074789922194702062 0 -0.00094979641884388485 0.0076886762896575212 0 -0.0012760364839726733 0.0074789922194702062 0 -0.0010578175761755944 0.0078797965861869927 0 -0.00094979641884388485 0.0076886762896575212 0 -0.0012119153552269629 0.0079369254108620207 0 -0.0012760364839726733 0.0074789922194702062 0 -0.0010578175761755944 0.0078797965861869927 0 -0.0012119153552269629 0.0079369254108620207 0 -0.0010578175761755944 0.0078797965861869927 0 -0.001059506874350753 0.0082931007028392411 0 -0.0012119153552269629 0.0079369254108620207 0 -0.001059506874350753 0.0082931007028392411 0 -0.0013561910051388512 0.0083844578221094531 0 -0.001059506874350753 0.0082931007028392411 0 -0.0013561910051388512 0.0083844578221094531 0 -0.0011239865557496535 0.0084812791615426347 0 -0.001059506874350753 0.0082931007028392411 0 -0.0011239865557496535 0.0084812791615426347 0 -0.000622137232107085 0.0090123669592694251 0 -0.001059506874350753 0.0082931007028392411 0 -0.000622137232107085 0.0090123669592694251 0 -0.00075248638194746825 0.0082679997523304963 0 -0.0010578175761755944 0.0078797965861869927 0 -0.001059506874350753 0.0082931007028392411 0 -0.00075248638194746825 0.0082679997523304963 0 -0.00075248638194746825 0.0082679997523304963 0 -0.0004776584004770441 0.0089682296538411352 0 -0.00046644729392610637 0.0081358318032465453 0 -0.000622137232107085 0.0090123669592694251 0 -0.0004776584004770441 0.0089682296538411352 0 -0.00026114514549859549 0.010247099254471368 0 -0.000622137232107085 0.0090123669592694251 0 -0.00075248638194746825 0.0082679997523304963 0 -0.0004776584004770441 0.0089682296538411352 0 -0.0010578175761755944 0.0078797965861869927 0 -0.00075248638194746825 0.0082679997523304963 0 -0.00094979641884388485 0.0076886762896575212 0 -0.00075248638194746825 0.0082679997523304963 0 -0.00094979641884388485 0.0076886762896575212 0 -0.00054082019871001677 0.0077315112136694389 0 -0.00075248638194746825 0.0082679997523304963 0 -0.00054082019871001677 0.0077315112136694389 0 -0.00041009079891078757 0.0074155288728005525 0 -0.0012039944071047357 0.0073746247586253984 0 -0.00094979641884388485 0.0076886762896575212 0 -0.00054082019871001677 0.0077315112136694389 0 -0.00054082019871001677 0.0077315112136694389 0 2.8441955420875899e-06 0.0064602753950352837 0 -0.00041009079891078757 0.0074155288728005525 0 0.0011213968059926209 0.0073971026826126175 0 -0.00054082019871001677 0.0077315112136694389 0 2.8441955420875899e-06 0.0064602753950352837 0 -0.00075248638194746825 0.0082679997523304963 0 -0.00041009079891078757 0.0074155288728005525 0 -0.00046644729392610637 0.0081358318032465453 0 -0.00041009079891078757 0.0074155288728005525 0 -1.5413296189797103e-06 0.0059216304649935235 0 -0.0002905114919352353 0.0074583927768302055 0 2.5956333167421604e-06 0.0043425001698896093 0 2.8441955420875899e-06 0.0064602753950352837 0 -1.5413296189797103e-06 0.0059216304649935235 0 2.8441955420875899e-06 0.0064602753950352837 0 -0.00041009079891078757 0.0074155288728005525 0 -1.5413296189797103e-06 0.0059216304649935235 0 -0.0004776584004770441 0.0089682296538411352 0 -0.00028812966869123794 0.0084703640208542708 0 -0.00046644729392610637 0.0081358318032465453 0 -0.0004776584004770441 0.0089682296538411352 0 -0.00028812966869123794 0.0084703640208542708 0 -0.00026688182748736266 0.0095083410414169688 0 -0.00028812966869123794 0.0084703640208542708 0 -0.00046644729392610637 0.0081358318032465453 0 -0.0002905114919352353 0.0074583927768302055 0 -0.00041009079891078757 0.0074155288728005525 0 -0.00046644729392610637 0.0081358318032465453 0 -0.0002905114919352353 0.0074583927768302055 0 -1.5413296189797103e-06 0.0059216304649935235 0 -1.1436398448233092e-07 0.0075062368994541287 0 -0.0002905114919352353 0.0074583927768302055 0 -0.00028812966869123794 0.0084703640208542708 0 -1.1436398448233092e-07 0.0075062368994541287 0 -0.0002905114919352353 0.0074583927768302055 0 -0.00028812966869123794 0.0084703640208542708 0 -1.1436398448233092e-07 0.0075062368994541287 0 -1.1006362077926024e-06 0.0090868303978385544 0 -0.00028812966869123794 0.0084703640208542708 0 -1.1006362077926024e-06 0.0090868303978385544 0 -0.00026688182748736266 0.0095083410414169688 0 -0.00026688182748736266 0.0095083410414169688 0 -0.00030485940694219271 0.010335046000519816 0 -0.00026114514549859549 0.010247099254471368 0 -1.1006362077926024e-06 0.0090868303978385544 0 -0.00026688182748736266 0.0095083410414169688 0 -0.00030485940694219271 0.010335046000519816 0 -0.00030485940694219271 0.010335046000519816 0 -0.0004539291206421517 0.010291403229767114 0 -0.00045330798505302972 0.011407865781903323 0 -0.00030485940694219271 0.010335046000519816 0 -0.00045330798505302972 0.011407865781903323 0 -0.00039997945018948976 0.011323465052817151 0 4.4381241989920588e-07 0.0090891182393161418 0 5.4050845103342713e-05 0.011215262612846473 0 -1.9452471474294305e-07 0.011032421728130954 0 -1.4543466032575872e-07 0.0090889022967403851 0 -0.00020972125034188734 0.010794173168886836 0 -1.1006362077926024e-06 0.0090868303978385544 0 -0.00030485940694219271 0.010335046000519816 0 -0.0004539291206421517 0.010291403229767114 0 5.4050845103342713e-05 0.011215262612846473 0 -1.9452471474294305e-07 0.011032421728130954 0 -0.00035525838203385801 0.012428700246534245 0 -0.00020972125034188734 0.010794173168886836 0 -0.00034729034673265224 0.012129246441336906 0 -6.1556220409525943e-07 0.012975110243217137 0 -0.00035525838203385801 0.012428700246534245 0 -0.00023389726107176661 0.013644961491807736 0 -1.9452471474294305e-07 0.011032421728130954 0 -6.1556220409525943e-07 0.012975110243217137 0 -0.00035525838203385801 0.012428700246534245 0 -0.00035525838203385801 0.012428700246534245 0 -0.00047149295732272685 0.012293278881351934 0 -0.00041807970498458294 0.013173244924365118 0 -0.00035525838203385801 0.012428700246534245 0 -0.00045330798505302972 0.011407865781903323 0 -0.00047149295732272685 0.012293278881351934 0 -0.0004539291206421517 0.010291403229767114 0 -0.00035525838203385801 0.012428700246534245 0 -0.00045330798505302972 0.011407865781903323 0 -0.00045330798505302972 0.011407865781903323 0 -0.00039997945018948976 0.011323465052817151 0 -0.00047149295732272685 0.012293278881351934 0 -0.00039997945018948976 0.011323465052817151 0 -0.00047149295732272685 0.012293278881351934 0 -0.00043891374864470296 0.012229043195713506 0 -0.00047149295732272685 0.012293278881351934 0 -0.00041807970498458294 0.013173244924365118 0 -0.00049718737417442057 0.013096131962150769 0 -0.00047149295732272685 0.012293278881351934 0 -0.00046997756012840037 0.012725039241509467 0 -0.00049718737417442057 0.013096131962150769 0 -0.00046997756012840037 0.012725039241509467 0 -0.00049718737417442057 0.013096131962150769 0 -0.0004650293050521263 0.013090410589838029 0 -0.00047149295732272685 0.012293278881351934 0 -0.00046997756012840037 0.012725039241509467 0 -0.00043891374864470296 0.012229043195713506 0 -0.00046997756012840037 0.012725039241509467 0 -0.00043891374864470296 0.012229043195713506 0 -0.0004400728395256047 0.01284875050176482 0 -0.00039997945018948976 0.011323465052817151 0 -0.00043891374864470296 0.012229043195713506 0 -0.00033305997578369589 0.011478484771384939 0 -0.00043891374864470296 0.012229043195713506 0 -0.00033305997578369589 0.011478484771384939 0 -0.00029316329535989809 0.012410434894615964 0 -0.00033305997578369589 0.011478484771384939 0 -0.00026114514549859549 0.010247099254471368 0 -0.00017356027536528896 0.011017768093721748 0 -0.00071483266340992106 0.0092243087436086179 0 -0.00077442378100537777 0.0098139481875879619 0 -0.000622137232107085 0.0090123669592694251 0 -0.00026114514549859549 0.010247099254471368 0 -0.00017356027536528896 0.011017768093721748 0 -0.0004776584004770441 0.0089682296538411352 0 -0.00026688182748736266 0.0095083410414169688 0 -0.00026114514549859549 0.010247099254471368 0 -0.00039997945018948976 0.011323465052817151 0 -0.00033305997578369589 0.011478484771384939 0 -0.00026114514549859549 0.010247099254471368 0 -0.00030485940694219271 0.010335046000519816 0 -0.00039997945018948976 0.011323465052817151 0 -0.00026114514549859549 0.010247099254471368 0 -0.00027541919569289375 0.015487000342452643 0 -0.00035355729551812413 0.015555745624300203 0 -9.3692406884913075e-05 0.016998680623412452 0 -6.0163506726381871e-07 0.016861984866010194 0 -0.00027541919569289375 0.015487000342452643 0 -9.3692406884913075e-05 0.016998680623412452 0 -6.0163506726381871e-07 0.016861984866010194 0 -0.00027541919569289375 0.015487000342452643 0 -4.4156479187289986e-07 0.014918658119502742 0 -0.00027541919569289375 0.015487000342452643 0 -0.00039149979207409876 0.014152359123094741 0 -0.00046377144313194924 0.014634479354053357 0 -0.00027541919569289375 0.015487000342452643 0 -0.00046377144313194924 0.014634479354053357 0 -0.00035355729551812413 0.015555745624300203 0 -0.00039149979207409876 0.014152359123094741 0 -4.4156479187289986e-07 0.014918658119502742 0 -0.00023389726107176661 0.013644961491807736 0 -0.00027541919569289375 0.015487000342452643 0 -0.00039149979207409876 0.014152359123094741 0 -4.4156479187289986e-07 0.014918658119502742 0 -6.1556220409525943e-07 0.012975110243217137 0 -4.4156479187289986e-07 0.014918658119502742 0 -0.00023389726107176661 0.013644961491807736 0 -0.00039149979207409876 0.014152359123094741 0 -0.00023389726107176661 0.013644961491807736 0 -0.00041807970498458294 0.013173244924365118 0 -0.00035525838203385801 0.012428700246534245 0 -0.00023389726107176661 0.013644961491807736 0 -0.00041807970498458294 0.013173244924365118 0 -0.00039149979207409876 0.014152359123094741 0 -0.00041807970498458294 0.013173244924365118 0 -0.00048034481612418999 0.01359775997937721 0 -0.00041807970498458294 0.013173244924365118 0 -0.00049718737417442057 0.013096131962150769 0 -0.00048034481612418999 0.01359775997937721 0 -0.00049718737417442057 0.013096131962150769 0 -0.00049440058916703242 0.013350579987751696 0 -0.0004650293050521263 0.013090410589838029 0 -0.00049440058916703242 0.013350579987751696 0 -0.00051410108822178805 0.013639087217422021 0 -0.00047248053870770112 0.013575098305193444 0 -0.00049718737417442057 0.013096131962150769 0 -0.00049440058916703242 0.013350579987751696 0 -0.00051410108822178805 0.013639087217422021 0 -0.00049718737417442057 0.013096131962150769 0 -0.00051410108822178805 0.013639087217422021 0 -0.00048034481612418999 0.01359775997937721 0 -0.00051410108822178805 0.013639087217422021 0 -0.00050097834815674921 0.013865159548662239 0 -0.00047248053870770112 0.013575098305193444 0 -0.00051410108822178805 0.013639087217422021 0 -0.00052154865105286856 0.014104595154054206 0 -0.00050097834815674921 0.013865159548662239 0 -0.00051410108822178805 0.013639087217422021 0 -0.00049465162108429741 0.014041299954771481 0 -0.00052154865105286856 0.014104595154054206 0 -0.00039149979207409876 0.014152359123094741 0 -0.00049465162108429741 0.014041299954771481 0 -0.00046377144313194924 0.014634479354053357 0 -0.00039149979207409876 0.014152359123094741 0 -0.00049465162108429741 0.014041299954771481 0 -0.00048034481612418999 0.01359775997937721 0 -0.00051410108822178805 0.013639087217422021 0 -0.00049465162108429741 0.014041299954771481 0 -0.00048034481612418999 0.01359775997937721 0 -0.00046377144313194924 0.014634479354053357 0 -0.00052154865105286856 0.014104595154054206 0 -0.00049688580903534747 0.01459485380730057 0 -0.00049465162108429741 0.014041299954771481 0 -0.00046377144313194924 0.014634479354053357 0 -0.00052154865105286856 0.014104595154054206 0 -0.00052154865105286856 0.014104595154054206 0 -0.00049688580903534747 0.01459485380730057 0 -0.00050652152217839689 0.014129074341271947 0 -0.00052154865105286856 0.014104595154054206 0 -0.00050652152217839689 0.014129074341271947 0 -0.00050097834815674921 0.013865159548662239 0 -0.00049688580903534747 0.01459485380730057 0 -0.00044800606422674673 0.014507159890158541 0 -0.00019006559320128719 0.015253095721830231 0 -0.00049688580903534747 0.01459485380730057 0 -0.00044800606422674673 0.014507159890158541 0 -0.00050652152217839689 0.014129074341271947 0 -0.00046377144313194924 0.014634479354053357 0 -0.00049688580903534747 0.01459485380730057 0 -0.00035355729551812413 0.015555745624300203 0 -0.00049688580903534747 0.01459485380730057 0 -0.00035355729551812413 0.015555745624300203 0 -0.00019006559320128719 0.015253095721830231 0 -0.00053474669099233475 0.014409570732027945 0 -0.000485710182013995 0.014209076851744605 0 -0.00074135134555774345 0.014389021524655588 0 -0.00053474669099233475 0.014409570732027945 0 -0.00043733424226306876 0.01414026319831412 0 -0.00034786571422278128 0.014468567954983969 0 -0.00053474669099233475 0.014409570732027945 0 -0.000485710182013995 0.014209076851744605 0 -0.00043733424226306876 0.01414026319831412 0 -0.000485710182013995 0.014209076851744605 0 -0.00049008957402854581 0.014238835452362803 0 -0.00048005455004626336 0.014212027570605473 0 -0.000485710182013995 0.014209076851744605 0 -0.00050652152217839689 0.014129074341271947 0 -0.00043733424226306876 0.01414026319831412 0 -0.00044800606422674673 0.014507159890158541 0 -0.00049008957402854581 0.014238835452362803 0 -0.00048005455004626336 0.014212027570605473 0 -0.00044800606422674673 0.014507159890158541 0 -0.00049008957402854581 0.014238835452362803 0 -0.00050652152217839689 0.014129074341271947 0 -0.000485710182013995 0.014209076851744605 0 -0.00049008957402854581 0.014238835452362803 0 -0.00050652152217839689 0.014129074341271947 0 -0.00050652152217839689 0.014129074341271947 0 -0.00046768999863651932 0.013997376159608848 0 -0.00043733424226306876 0.01414026319831412 0 -0.00050652152217839689 0.014129074341271947 0 -0.00046768999863651932 0.013997376159608848 0 -0.00050097834815674921 0.013865159548662239 0 -0.00046768999863651932 0.013997376159608848 0 -0.00043733424226306876 0.01414026319831412 0 -0.00036620708735293962 0.014113708155105936 0 -0.00043733424226306876 0.01414026319831412 0 -0.00036620708735293962 0.014113708155105936 0 -0.00034786571422278128 0.014468567954983969 0 -0.00036620708735293962 0.014113708155105936 0 -0.00038467644056545014 0.013818054857240455 0 -0.00017467816163335573 0.014400315380510282 0 -0.00038467644056545014 0.013818054857240455 0 -0.00032823079687982514 0.013867790376819369 0 -0.00017467816163335573 0.014400315380510282 0 -0.00036620708735293962 0.014113708155105936 0 -0.00038467644056545014 0.013818054857240455 0 -0.00045403202858720974 0.013819098421054299 0 -0.00046768999863651932 0.013997376159608848 0 -0.00036620708735293962 0.014113708155105936 0 -0.00045403202858720974 0.013819098421054299 0 -0.00046768999863651932 0.013997376159608848 0 -0.00045403202858720974 0.013819098421054299 0 -0.00050097834815674921 0.013865159548662239 0 -0.00045403202858720974 0.013819098421054299 0 -0.00050097834815674921 0.013865159548662239 0 -0.00047248053870770112 0.013575098305193444 0 -0.00038467644056545014 0.013818054857240455 0 -0.00045403202858720974 0.013819098421054299 0 -0.00047248053870770112 0.013575098305193444 0 -0.00038467644056545014 0.013818054857240455 0 -0.00047248053870770112 0.013575098305193444 0 -0.0004301707379048883 0.01346106848970836 0 -0.00047248053870770112 0.013575098305193444 0 -0.00046899072039673778 0.013355045105364612 0 -0.0004301707379048883 0.01346106848970836 0 -0.00049440058916703242 0.013350579987751696 0 -0.00047248053870770112 0.013575098305193444 0 -0.00046899072039673778 0.013355045105364612 0 -0.00046899072039673778 0.013355045105364612 0 -0.0004650293050521263 0.013090410589838029 0 -0.00042553382140052482 0.013200761278257022 0 -0.00049440058916703242 0.013350579987751696 0 -0.00046899072039673778 0.013355045105364612 0 -0.0004650293050521263 0.013090410589838029 0 -0.00046899072039673778 0.013355045105364612 0 -0.0004301707379048883 0.01346106848970836 0 -0.00042553382140052482 0.013200761278257022 0 -0.0004301707379048883 0.01346106848970836 0 -0.00039766459199606067 0.013393669469997069 0 -0.00042553382140052482 0.013200761278257022 0 -0.00033078037070926832 0.014259832044717497 0 -0.00056861049198571778 0.011920220389273704 0 -0.00037210069396987391 0.013597844611823813 0 -0.00032823079687982514 0.013867790376819369 0 -0.00028764843972228218 0.013393805449400798 0 -0.0004301707379048883 0.01346106848970836 0 -0.00037210069396987391 0.013597844611823813 0 -0.00039766459199606067 0.013393669469997069 0 -0.00037210069396987391 0.013597844611823813 0 -0.00039766459199606067 0.013393669469997069 0 -0.00035442056277721799 0.013314804600394897 0 -0.00038467644056545014 0.013818054857240455 0 -0.0004301707379048883 0.01346106848970836 0 -0.00037210069396987391 0.013597844611823813 0 -0.00038467644056545014 0.013818054857240455 0 -0.00037210069396987391 0.013597844611823813 0 -0.00032823079687982514 0.013867790376819369 0 -0.00010470935144130704 0.014386189588948826 0 -6.3671580227680892e-05 0.014441144863022224 0 -0.00015843633078853965 0.014351518179044792 0 -0.00010470935144130704 0.014386189588948826 0 -6.3671580227680892e-05 0.014441144863022224 0 -0.00017467816163335573 0.014400315380510282 0 -0.00010438111161006611 0.014689295644092505 0 -0.00017467816163335573 0.014400315380510282 0 -0.00011040706385747191 0.015029157121925393 0 -6.3671580227680892e-05 0.014441144863022224 0 -0.00010438111161006611 0.014689295644092505 0 -0.00017467816163335573 0.014400315380510282 0 -0.00033078037070926832 0.014259832044717497 0 -0.00019878549687625592 0.014321048378856512 0 -0.00036620708735293962 0.014113708155105936 0 -0.00017467816163335573 0.014400315380510282 0 -0.00034786571422278128 0.014468567954983969 0 -0.00017467816163335573 0.014400315380510282 0 -0.00034786571422278128 0.014468567954983969 0 -0.00011040706385747191 0.015029157121925393 0 -0.00011040706385747191 0.015029157121925393 0 -0.00047553872733282338 0.015799527774645373 0 -0.00061311141898760281 0.014898155178310628 0 -0.00034786571422278128 0.014468567954983969 0 -0.00011040706385747191 0.015029157121925393 0 -0.00061311141898760281 0.014898155178310628 0 -0.00053474669099233475 0.014409570732027945 0 -0.00034786571422278128 0.014468567954983969 0 -0.00061311141898760281 0.014898155178310628 0 -0.0014369040653497184 0.0086283425695754049 0 -0.0015115901115458352 0.008655294565604604 0 -0.0015471241019457647 0.0087266681938940657 0 -0.0014369040653497184 0.0086283425695754049 0 -0.0014791770327522208 0.0085957625924697294 0 -0.0015115901115458352 0.008655294565604604 0 -0.0013561910051388512 0.0083844578221094531 0 -0.0011239865557496535 0.0084812791615426347 0 -0.0014369040653497184 0.0086283425695754049 0 -0.0011239865557496535 0.0084812791615426347 0 -0.000622137232107085 0.0090123669592694251 0 -0.0011667452296015097 0.0085328572792934126 0 -0.0011239865557496535 0.0084812791615426347 0 -0.0014369040653497184 0.0086283425695754049 0 -0.0011667452296015097 0.0085328572792934126 0 -0.0014369040653497184 0.0086283425695754049 0 -0.0011667452296015097 0.0085328572792934126 0 -0.0014791770327522208 0.0085957625924697294 0 -0.00077442378100537777 0.0098139481875879619 0 -0.00095900212776993789 0.010419854576147212 0 -0.00033305997578369589 0.011478484771384939 0 -0.00017356027536528896 0.011017768093721748 0 -0.00029316329535989809 0.012410434894615964 0 -0.00043891374864470296 0.012229043195713506 0 -0.00029316329535989809 0.012410434894615964 0 -0.0003831331524172286 0.012790738914155183 0 -0.00029316329535989809 0.012410434894615964 0 -0.0003831331524172286 0.012790738914155183 0 -0.00036717845581667722 0.013263368774287618 0 -0.00046997756012840037 0.012725039241509467 0 -0.0004650293050521263 0.013090410589838029 0 -0.0004400728395256047 0.01284875050176482 0 -0.0004650293050521263 0.013090410589838029 0 -0.0004400728395256047 0.01284875050176482 0 -0.00042553382140052482 0.013200761278257022 0 -0.00043891374864470296 0.012229043195713506 0 -0.0004400728395256047 0.01284875050176482 0 -0.0003831331524172286 0.012790738914155183 0 -0.0003831331524172286 0.012790738914155183 0 -0.00039210526806218244 0.013086901171638583 0 -0.00036717845581667722 0.013263368774287618 0 -0.0004400728395256047 0.01284875050176482 0 -0.0003831331524172286 0.012790738914155183 0 -0.00039210526806218244 0.013086901171638583 0 -0.00039210526806218244 0.013086901171638583 0 -0.00042553382140052482 0.013200761278257022 0 -0.00035442056277721799 0.013314804600394897 0 -0.0004400728395256047 0.01284875050176482 0 -0.00039210526806218244 0.013086901171638583 0 -0.00042553382140052482 0.013200761278257022 0 -0.00039766459199606067 0.013393669469997069 0 -0.00042553382140052482 0.013200761278257022 0 -0.00035442056277721799 0.013314804600394897 0 -0.00037210069396987391 0.013597844611823813 0 -0.00035442056277721799 0.013314804600394897 0 -0.00028764843972228218 0.013393805449400798 0 -0.00039210526806218244 0.013086901171638583 0 -0.00035442056277721799 0.013314804600394897 0 -0.00036717845581667722 0.013263368774287618 0 -0.00019866573285776807 0.012513279357360083 0 -0.00056861049198571778 0.011920220389273704 0 -0.00056861049198571778 0.011920220389273704 0 -0.0010503306477712699 0.011452968936554271 0 -0.00095900212776993789 0.010419854576147212 0 -0.00056861049198571778 0.011920220389273704 0 -0.0015765955497157229 0.0086704500518867845 0 -0.0015115901115458352 0.008655294565604604 0 -0.0015471241019457647 0.0087266681938940657 0 -0.0014791770327522208 0.0085957625924697294 0 -0.0015765955497157229 0.0086704500518867845 0 -0.0015115901115458352 0.008655294565604604 0 -0.00017203103694872853 0.014463220341430215 0 -0.00040662484532484979 0.014328635199471144 0 -0.00015843633078853965 0.014351518179044792 0 -0.00010470935144130704 0.014386189588948826 0 -0.00017203103694872853 0.014463220341430215 0 -0.00015843633078853965 0.014351518179044792 0 -6.3671580227680892e-05 0.014441144863022224 0 -0.00015843633078853965 0.014351518179044792 0 -0.00030093070665651497 0.013950633125714545 0 -0.00040662484532484979 0.014328635199471144 0 -0.00015843633078853965 0.014351518179044792 0 -0.00030093070665651497 0.013950633125714545 0 -0.00040662484532484979 0.014328635199471144 0 -0.00080076802920830536 0.013833360471328151 0 -0.00030093070665651497 0.013950633125714545 0 -0.0010503306477712699 0.011452968936554271 0 -0.0012293815796619255 0.011383373186362761 0 -0.0014369040653497184 0.0086283425695754049 0 -0.0015471241019457647 0.0087266681938940657 0 -0.0017199557200565211 0.0088505115614260464 0 -0.0016330914484649094 0.0087277386972615355 0 -0.0013561910051388512 0.0083844578221094531 0 -0.0014369040653497184 0.0086283425695754049 0 -0.0016330914484649094 0.0087277386972615355 0 -0.0014369040653497184 0.0086283425695754049 0 -0.0017199557200565211 0.0088505115614260464 0 -0.0016330914484649094 0.0087277386972615355 0 -0.0017199557200565211 0.0088505115614260464 0 -0.0019726839081301299 0.0094611901095360343 0 -0.00080076802920830536 0.013833360471328151 0 -0.00073161953942201799 0.013001354729187653 0 -0.0012972098573621415 0.012838075539118083 0 -0.0012293815796619255 0.011383373186362761 0 -0.0015477884926725868 0.011166573132862226 0 -0.00073161953942201799 0.013001354729187653 0 -0.0012972098573621415 0.012838075539118083 0 -0.0012043591497390507 0.011680710271702838 0 -0.00073161953942201799 0.013001354729187653 0 -0.00078100858920633815 0.012389148208165539 0 -0.0012043591497390507 0.011680710271702838 0 -0.00073161953942201799 0.013001354729187653 0 -0.00043936097136205169 0.013264162501000321 0 -0.00078100858920633815 0.012389148208165539 0 -0.00080076802920830536 0.013833360471328151 0 -0.00073161953942201799 0.013001354729187653 0 -0.00030093070665651497 0.013950633125714545 0 -6.3671580227680892e-05 0.014441144863022224 0 -0.00030093070665651497 0.013950633125714545 0 -0.0002083682020969504 0.014042632670885175 0 -0.0002083682020969504 0.014042632670885175 0 -0.00033182538994405708 0.013493934339995172 0 -0.00022377570286656769 0.014149458379392526 0 -0.0002083682020969504 0.014042632670885175 0 -0.00043936097136205169 0.013264162501000321 0 -0.00033182538994405708 0.013493934339995172 0 -0.00030093070665651497 0.013950633125714545 0 -0.0002083682020969504 0.014042632670885175 0 -0.00043936097136205169 0.013264162501000321 0 -0.00073161953942201799 0.013001354729187653 0 -0.00030093070665651497 0.013950633125714545 0 -0.00043936097136205169 0.013264162501000321 0 -0.00043936097136205169 0.013264162501000321 0 -0.00033182538994405708 0.013493934339995172 0 -0.00053882031631758613 0.012859776037856398 0 -0.00033182538994405708 0.013493934339995172 0 -0.00022377570286656769 0.014149458379392526 0 -0.000277664112004145 0.01390567486854697 0 -0.00033182538994405708 0.013493934339995172 0 -0.00032421023492183536 0.013430751340975077 0 -0.000277664112004145 0.01390567486854697 0 -0.00032421023492183536 0.013430751340975077 0 -0.000277664112004145 0.01390567486854697 0 -0.00025714733045294577 0.013839607505292006 0 -0.00033182538994405708 0.013493934339995172 0 -0.00046536582072588474 0.012944457327052451 0 -0.00053882031631758613 0.012859776037856398 0 -0.00033182538994405708 0.013493934339995172 0 -0.00032421023492183536 0.013430751340975077 0 -0.00046536582072588474 0.012944457327052451 0 -0.00046536582072588474 0.012944457327052451 0 -0.00074485038644372991 0.012249011700256477 0 -0.00065693985563420427 0.012341888768863048 0 -0.00074485038644372991 0.012249011700256477 0 -0.00078100858920633815 0.012389148208165539 0 -0.00053882031631758613 0.012859776037856398 0 -0.00046536582072588474 0.012944457327052451 0 -0.00074485038644372991 0.012249011700256477 0 -0.00053882031631758613 0.012859776037856398 0 -0.00074485038644372991 0.012249011700256477 0 -0.00099360832759381101 0.011520285520305302 0 -0.0010909102593004017 0.011510911528793398 0 -0.00074485038644372991 0.012249011700256477 0 -0.00078100858920633815 0.012389148208165539 0 -0.0010909102593004017 0.011510911528793398 0 -0.00078100858920633815 0.012389148208165539 0 -0.0012043591497390507 0.011680710271702838 0 -0.0010909102593004017 0.011510911528793398 0 -0.00043936097136205169 0.013264162501000321 0 -0.00078100858920633815 0.012389148208165539 0 -0.00053882031631758613 0.012859776037856398 0 -0.00047553872733282338 0.015799527774645373 0 0.00018803801622781425 0.015860625861241241 0 -0.00070654250436274081 0.017320025546923724 0 -0.00011040706385747191 0.015029157121925393 0 -0.00047553872733282338 0.015799527774645373 0 0.00018803801622781425 0.015860625861241241 0 -0.00011040706385747191 0.015029157121925393 0 0.00018803801622781425 0.015860625861241241 0 -6.8332515295302558e-05 0.014780491099901311 0 -6.8332515295302558e-05 0.014780491099901311 0 -0.00022377570286656769 0.014149458379392526 0 -0.00026142996116231682 0.014540381762198041 0 0.00018803801622781425 0.015860625861241241 0 -6.8332515295302558e-05 0.014780491099901311 0 -0.00026142996116231682 0.014540381762198041 0 -6.3671580227680892e-05 0.014441144863022224 0 -0.00010438111161006611 0.014689295644092505 0 -6.8332515295302558e-05 0.014780491099901311 0 -0.00010438111161006611 0.014689295644092505 0 -0.00011040706385747191 0.015029157121925393 0 -6.8332515295302558e-05 0.014780491099901311 0 -6.3671580227680892e-05 0.014441144863022224 0 -0.0002083682020969504 0.014042632670885175 0 -6.8332515295302558e-05 0.014780491099901311 0 -0.0002083682020969504 0.014042632670885175 0 -6.8332515295302558e-05 0.014780491099901311 0 -0.00022377570286656769 0.014149458379392526 0 -0.00022377570286656769 0.014149458379392526 0 -0.000277664112004145 0.01390567486854697 0 -0.00026142996116231682 0.014540381762198041 0 -0.000277664112004145 0.01390567486854697 0 -0.00028892638965797386 0.014211453020936926 0 -0.00025714733045294577 0.013839607505292006 0 -0.000277664112004145 0.01390567486854697 0 -0.00028892638965797386 0.014211453020936926 0 -0.00026142996116231682 0.014540381762198041 0 0.00018803801622781425 0.015860625861241241 0 -0.00026142996116231682 0.014540381762198041 0 -0.00039304520573921474 0.014346781038315637 0 -0.00028892638965797386 0.014211453020936926 0 -0.00026142996116231682 0.014540381762198041 0 -0.00039304520573921474 0.014346781038315637 0 -0.00028892638965797386 0.014211453020936926 0 -0.00039304520573921474 0.014346781038315637 0 -0.00057187100572434174 0.01485916908649044 0 0.00014406732283405533 0.016021867223042649 0 -0.00038569072248201481 0.017086609900034602 0 0.00018803801622781425 0.015860625861241241 0 -0.00019814653465310351 0.019825505080596422 0 -0.00070654250436274081 0.017320025546923724 0 -0.0012876906671830846 0.016379752228472665 0 -0.0015938714338358218 0.014987824648765405 0 -0.0023874509867901519 0.018468841233262527 0 -0.0012876906671830846 0.016379752228472665 0 -0.0015938714338358218 0.014987824648765405 0 -0.00057187100572434174 0.01485916908649044 0 -0.00038569072248201481 0.017086609900034602 0 -0.0016360947420334775 0.017962661429532085 0 -0.00039304520573921474 0.014346781038315637 0 -0.0015938714338358218 0.014987824648765405 0 -0.00057187100572434174 0.01485916908649044 0 -0.00057187100572434174 0.01485916908649044 0 -0.00039300454026391674 0.015014835598320312 0 -0.00083120187321384655 0.015949165489305681 0 -0.0012876906671830846 0.016379752228472665 0 -0.00057187100572434174 0.01485916908649044 0 -0.00083120187321384655 0.015949165489305681 0 -0.00057187100572434174 0.01485916908649044 0 -0.00039300454026391674 0.015014835598320312 0 -0.00028606971929010606 0.014321367371958627 0 -0.00039300454026391674 0.015014835598320312 0 -0.00028606971929010606 0.014321367371958627 0 -0.00024746711519300278 0.014411004450829497 0 -0.00028892638965797386 0.014211453020936926 0 -0.00057187100572434174 0.01485916908649044 0 -0.00028606971929010606 0.014321367371958627 0 -0.00028606971929010606 0.014321367371958627 0 -0.00025714733045294577 0.013839607505292006 0 -0.00024020327373800416 0.013898938634903543 0 -0.00028892638965797386 0.014211453020936926 0 -0.00028606971929010606 0.014321367371958627 0 -0.00025714733045294577 0.013839607505292006 0 -0.00028606971929010606 0.014321367371958627 0 -0.00024020327373800416 0.013898938634903543 0 -0.00024746711519300278 0.014411004450829497 0 -0.00024020327373800416 0.013898938634903543 0 -0.00024746711519300278 0.014411004450829497 0 -0.00023628940679316891 0.013938742716979664 0 -0.00024746711519300278 0.014411004450829497 0 -0.00023511542638372866 0.01449121626360572 0 -0.00023628940679316891 0.013938742716979664 0 -0.00024746711519300278 0.014411004450829497 0 -0.00023511542638372866 0.01449121626360572 0 -0.00030593630164631663 0.014944048264760323 0 -0.00023511542638372866 0.01449121626360572 0 -0.00027141383649980901 0.015112692463001514 0 -0.00030593630164631663 0.014944048264760323 0 -0.00023511542638372866 0.01449121626360572 0 -0.00023881411295276835 0.014295064231546459 0 -0.00023905351389052448 0.013994963792294108 0 -0.00023511542638372866 0.01449121626360572 0 -0.00023881411295276835 0.014295064231546459 0 -0.00027141383649980901 0.015112692463001514 0 -0.00023511542638372866 0.01449121626360572 0 -0.00023628940679316891 0.013938742716979664 0 -0.00023905351389052448 0.013994963792294108 0 -1.2682425666057188e-06 0.014552195156427644 0 0.00044909120476525162 0.013705391626642003 0 -1.2682425666057188e-06 0.014552195156427644 0 0.00016518959962565278 0.010441017018023619 0 -0.00023881411295276835 0.014295064231546459 0 -0.00026058484052055746 0.015194793583022446 0 -0.00025792359827802783 0.013487771886433984 0 -0.00023881411295276835 0.014295064231546459 0 -0.00026058484052055746 0.015194793583022446 0 -0.00027141383649980901 0.015112692463001514 0 0.00012295167394447214 0.015603700645967408 0 -0.00047719978755706214 0.016147371327193308 0 -0.0012658629593315996 0.017287251441364476 0 -1.2682425666057188e-06 0.014552195156427644 0 -0.0010653501362408123 0.0190080801298559 0 -1.2682425666057188e-06 0.014552195156427644 0 -0.00037337448068696803 0.015585558264661167 0 -0.00026058484052055746 0.015194793583022446 0 -0.00027141383649980901 0.015112692463001514 0 -0.00047719978755706214 0.016147371327193308 0 -0.00047719978755706214 0.016147371327193308 0 -0.00051140592849775778 0.015650325383823889 0 -0.00093869677344290395 0.016495768285604923 0 -0.00027141383649980901 0.015112692463001514 0 -0.00047719978755706214 0.016147371327193308 0 -0.00051140592849775778 0.015650325383823889 0 -0.00027141383649980901 0.015112692463001514 0 -0.00051140592849775778 0.015650325383823889 0 -0.00030593630164631663 0.014944048264760323 0 -0.00039300454026391674 0.015014835598320312 0 -0.00024746711519300278 0.014411004450829497 0 -0.00030593630164631663 0.014944048264760323 0 -0.00039300454026391674 0.015014835598320312 0 -0.00051140592849775778 0.015650325383823889 0 -0.00083120187321384655 0.015949165489305681 0 -0.00039300454026391674 0.015014835598320312 0 -0.00051140592849775778 0.015650325383823889 0 -0.00030593630164631663 0.014944048264760323 0 -0.00083120187321384655 0.015949165489305681 0 -0.00093869677344290395 0.016495768285604923 0 -0.0016901394666402178 0.017458617710229454 0 -0.00051140592849775778 0.015650325383823889 0 -0.00083120187321384655 0.015949165489305681 0 -0.00093869677344290395 0.016495768285604923 0 -0.00047719978755706214 0.016147371327193308 0 -0.0012658629593315996 0.017287251441364476 0 -0.00093869677344290395 0.016495768285604923 0 -0.0012658629593315996 0.017287251441364476 0 -0.00093869677344290395 0.016495768285604923 0 -0.0016901394666402178 0.017458617710229454 0 -0.0012658629593315996 0.017287251441364476 0 -0.0016901394666402178 0.017458617710229454 0 -0.0023109091693187668 0.018381058959839582 0 -0.0010653501362408123 0.0190080801298559 0 -0.001729110206925775 0.018368074246767091 0 -0.0012876906671830846 0.016379752228472665 0 -0.00083120187321384655 0.015949165489305681 0 -0.0016901394666402178 0.017458617710229454 0 -0.0012876906671830846 0.016379752228472665 0 -0.0016901394666402178 0.017458617710229454 0 -0.0023874509867901519 0.018468841233262527 0 -0.00061877249323772255 0.012361634590233633 0 -0.00065693985563420427 0.012341888768863048 0 -0.00042311373142529622 0.012969360692070102 0 -0.00061877249323772255 0.012361634590233633 0 -0.00083953297539514447 0.011823834126948232 0 -0.00065693985563420427 0.012341888768863048 0 -0.00061877249323772255 0.012361634590233633 0 -0.00044257606584325546 0.0128800670805157 0 -0.00050764196750759647 0.01264439393673171 0 -0.00061877249323772255 0.012361634590233633 0 -0.00083953297539514447 0.011823834126948232 0 -0.0008604127853851385 0.011692114375434288 0 -0.00083953297539514447 0.011823834126948232 0 -0.0008604127853851385 0.011692114375434288 0 -0.0010775645301948783 0.011198868842130481 0 -0.00083953297539514447 0.011823834126948232 0 -0.00099360832759381101 0.011520285520305302 0 -0.0010775645301948783 0.011198868842130481 0 -0.00074485038644372991 0.012249011700256477 0 -0.00099360832759381101 0.011520285520305302 0 -0.00065693985563420427 0.012341888768863048 0 -0.00083953297539514447 0.011823834126948232 0 -0.00099360832759381101 0.011520285520305302 0 -0.00065693985563420427 0.012341888768863048 0 -0.00046536582072588474 0.012944457327052451 0 -0.00065693985563420427 0.012341888768863048 0 -0.00042311373142529622 0.012969360692070102 0 -0.00032421023492183536 0.013430751340975077 0 -0.00046536582072588474 0.012944457327052451 0 -0.00042311373142529622 0.012969360692070102 0 -0.00025714733045294577 0.013839607505292006 0 -0.00024020327373800416 0.013898938634903543 0 -0.00029661739952594021 0.013480293605920082 0 -0.00032421023492183536 0.013430751340975077 0 -0.00025714733045294577 0.013839607505292006 0 -0.00029661739952594021 0.013480293605920082 0 -0.00032421023492183536 0.013430751340975077 0 -0.00042311373142529622 0.012969360692070102 0 -0.00029661739952594021 0.013480293605920082 0 -0.00024020327373800416 0.013898938634903543 0 -0.00029661739952594021 0.013480293605920082 0 -0.00030701395454201219 0.013385679881024565 0 -0.00024020327373800416 0.013898938634903543 0 -0.00030701395454201219 0.013385679881024565 0 -0.00023628940679316891 0.013938742716979664 0 -0.00061877249323772255 0.012361634590233633 0 -0.00042311373142529622 0.012969360692070102 0 -0.00044257606584325546 0.0128800670805157 0 -0.00042311373142529622 0.012969360692070102 0 -0.00030701395454201219 0.013385679881024565 0 -0.00044257606584325546 0.0128800670805157 0 -0.00042311373142529622 0.012969360692070102 0 -0.00029661739952594021 0.013480293605920082 0 -0.00030701395454201219 0.013385679881024565 0 -0.00030701395454201219 0.013385679881024565 0 -0.00044257606584325546 0.0128800670805157 0 -0.00038467350152101746 0.013057738952878477 0 -0.00044257606584325546 0.0128800670805157 0 -0.00038467350152101746 0.013057738952878477 0 -0.00050764196750759647 0.01264439393673171 0 -0.00038467350152101746 0.013057738952878477 0 -0.00048622293647948643 0.012674001117089089 0 -0.00050764196750759647 0.01264439393673171 0 -0.00030701395454201219 0.013385679881024565 0 -0.00038467350152101746 0.013057738952878477 0 -0.0002778267147250174 0.013582894428217957 0 -0.00038467350152101746 0.013057738952878477 0 -0.0002778267147250174 0.013582894428217957 0 -0.0003605444564779838 0.01313189513685797 0 -0.00038467350152101746 0.013057738952878477 0 -0.0003605444564779838 0.01313189513685797 0 -0.00048622293647948643 0.012674001117089089 0 -0.00030701395454201219 0.013385679881024565 0 -0.00023628940679316891 0.013938742716979664 0 -0.0002778267147250174 0.013582894428217957 0 -0.0002778267147250174 0.013582894428217957 0 -0.00025354464301380564 0.013722735621313615 0 -0.0003605444564779838 0.01313189513685797 0 -0.0002778267147250174 0.013582894428217957 0 -0.00023905351389052448 0.013994963792294108 0 -0.00025354464301380564 0.013722735621313615 0 -0.00023628940679316891 0.013938742716979664 0 -0.0002778267147250174 0.013582894428217957 0 -0.00023905351389052448 0.013994963792294108 0 0.00060529180170355726 0.008417310122527992 0 0.00062870378894607859 0.0081202083531199398 0 0.00062934850142347377 0.008165415452575658 0 -0.00023881411295276835 0.014295064231546459 0 -0.00025354464301380564 0.013722735621313615 0 -0.00025792359827802783 0.013487771886433984 0 -0.00023881411295276835 0.014295064231546459 0 -0.00023905351389052448 0.013994963792294108 0 -0.00025354464301380564 0.013722735621313615 0 -0.00025354464301380564 0.013722735621313615 0 -0.00025792359827802783 0.013487771886433984 0 -0.0003605444564779838 0.01313189513685797 0 0.00062870378894607859 0.0081202083531199398 0 0.00058219354913659367 0.0079139336594186097 0 0.00062934850142347377 0.008165415452575658 0 0.00062870378894607859 0.0081202083531199398 0 0.00053265672335472839 0.0078904341690958328 0 0.00058219354913659367 0.0079139336594186097 0 -0.00025792359827802783 0.013487771886433984 0 -0.0003605444564779838 0.01313189513685797 0 -0.00063644464408914975 0.012083601486459143 0 0.00016518959962565278 0.010441017018023619 0 -0.00011300133247200752 0.010053315922348205 0 -0.0003605444564779838 0.01313189513685797 0 -0.00063644464408914975 0.012083601486459143 0 -0.00048622293647948643 0.012674001117089089 0 -0.00061877249323772255 0.012361634590233633 0 -0.00064788453743119226 0.012212125396131743 0 -0.0008604127853851385 0.011692114375434288 0 -0.00048622293647948643 0.012674001117089089 0 -0.00064788453743119226 0.012212125396131743 0 -0.00050764196750759647 0.01264439393673171 0 -0.00063644464408914975 0.012083601486459143 0 -0.00048622293647948643 0.012674001117089089 0 -0.00064788453743119226 0.012212125396131743 0 -0.00061877249323772255 0.012361634590233633 0 -0.00064788453743119226 0.012212125396131743 0 -0.00050764196750759647 0.01264439393673171 0 -0.0008604127853851385 0.011692114375434288 0 -0.0008569292007814431 0.011628285938997458 0 -0.0010450029398030461 0.011194361394021255 0 -0.00064788453743119226 0.012212125396131743 0 -0.0008604127853851385 0.011692114375434288 0 -0.0008569292007814431 0.011628285938997458 0 -0.00063644464408914975 0.012083601486459143 0 -0.0008569292007814431 0.011628285938997458 0 -0.0011011221733968513 0.010944016575706176 0 -0.00011300133247200752 0.010053315922348205 0 -0.00050838254331584006 0.0093561576732644099 0 0.00053265672335472839 0.0078904341690958328 0 0.00035229216280245802 0.0077069854718564727 0 0.00016171788846916935 0.0077644881597829602 0 -0.00063644464408914975 0.012083601486459143 0 -0.00064788453743119226 0.012212125396131743 0 -0.0008569292007814431 0.011628285938997458 0 0.00053265672335472839 0.0078904341690958328 0 0.00035229216280245802 0.0077069854718564727 0 0.00038016756910093711 0.0076227596269883829 0 0.00035229216280245802 0.0077069854718564727 0 0.00023654562685321515 0.0076599903343242343 0 0.00016171788846916935 0.0077644881597829602 0 0.00023654562685321515 0.0076599903343242343 0 0.00016171788846916935 0.0077644881597829602 0 0.00010837943438779829 0.007524455282675614 0 0.00016171788846916935 0.0077644881597829602 0 -0.00019703674105739694 0.0073792669951424873 0 0.00010837943438779829 0.007524455282675614 0 0.00016171788846916935 0.0077644881597829602 0 -0.00052624934421730972 0.0076974077761942268 0 -0.00019703674105739694 0.0073792669951424873 0 -0.00050838254331584006 0.0093561576732644099 0 -0.00098647383193174623 0.0088345741855942357 0 -0.0011011221733968513 0.010944016575706176 0 -0.0013104684737389228 0.010489082764071459 0 -0.001373971895661272 0.0099642507765497351 0 -0.0013104684737389228 0.010489082764071459 0 -0.0010450029398030461 0.011194361394021255 0 -0.0010775645301948783 0.011198868842130481 0 -0.0011011221733968513 0.010944016575706176 0 -0.0013104684737389228 0.010489082764071459 0 -0.0010450029398030461 0.011194361394021255 0 -0.0008569292007814431 0.011628285938997458 0 -0.0011011221733968513 0.010944016575706176 0 -0.0010450029398030461 0.011194361394021255 0 -0.0008604127853851385 0.011692114375434288 0 -0.0010450029398030461 0.011194361394021255 0 -0.0010775645301948783 0.011198868842130481 0 -0.0013104684737389228 0.010489082764071459 0 -0.0010775645301948783 0.011198868842130481 0 -0.0012942634725859568 0.010687214135487564 0 -0.0013104684737389228 0.010489082764071459 0 -0.0012942634725859568 0.010687214135487564 0 -0.0015093388144739256 0.0098570157483602785 0 -0.00099360832759381101 0.011520285520305302 0 -0.0012942634725859568 0.010687214135487564 0 -0.0010909102593004017 0.011510911528793398 0 -0.00099360832759381101 0.011520285520305302 0 -0.0010775645301948783 0.011198868842130481 0 -0.0012942634725859568 0.010687214135487564 0 -0.0015093388144739256 0.0098570157483602785 0 -0.0022048854019750611 0.008481796201209247 0 -0.0016305421954599254 0.0098079657080114967 0 -0.0022048854019750611 0.008481796201209247 0 -0.0016305421954599254 0.0098079657080114967 0 -0.0022331544838835125 0.0090261759135742744 0 -0.0012942634725859568 0.010687214135487564 0 -0.0015093388144739256 0.0098570157483602785 0 -0.0016305421954599254 0.0098079657080114967 0 -0.0013104684737389228 0.010489082764071459 0 -0.0015093388144739256 0.0098570157483602785 0 -0.0014714782367789808 0.0095923082846991088 0 -0.0015093388144739256 0.0098570157483602785 0 -0.0014714782367789808 0.0095923082846991088 0 -0.0015671851998370595 0.009403340568438865 0 -0.0015729941038059537 0.0096748714264711932 0 -0.0019173581233211303 0.0089743157761904783 0 -0.0014714782367789808 0.0095923082846991088 0 -0.001373971895661272 0.0099642507765497351 0 -0.0016100612021416661 0.0089300361493610848 0 -0.0013104684737389228 0.010489082764071459 0 -0.0014714782367789808 0.0095923082846991088 0 -0.001373971895661272 0.0099642507765497351 0 -0.00052624934421730972 0.0076974077761942268 0 -0.0013225393366735132 0.0076707616465024166 0 -0.00080078780110720961 0.0071068059344273965 0 -0.00098647383193174623 0.0088345741855942357 0 -0.0015300533605216197 0.0082888416945891275 0 -0.0013225393366735132 0.0076707616465024166 0 -0.0022491736394637616 0.0077544366529856516 0 -0.0018800345130413993 0.006815243190322679 0 -0.0015300533605216197 0.0082888416945891275 0 -0.0022606538211317187 0.0078507415924402128 0 -0.0017605500351433507 0.0088601209241049011 0 -0.0022491736394637616 0.0077544366529856516 0 -0.0020780120525220247 0.0088516207624095827 0 -0.0016100612021416661 0.0089300361493610848 0 -0.0017605500351433507 0.0088601209241049011 0 -0.0022491736394637616 0.0077544366529856516 0 -0.0014714782367789808 0.0095923082846991088 0 -0.0016100612021416661 0.0089300361493610848 0 -0.0017605500351433507 0.0088601209241049011 0 -0.0031519047477415935 0.0070672852345090775 0 -0.0027536662817485521 0.0071412313842633109 0 -0.0030359615413101302 0.0075083160724609219 0 -0.0031519047477415935 0.0070672852345090775 0 -0.0027536662817485521 0.0071412313842633109 0 -0.0030341584533188051 0.0065129391689543971 0 -0.0027536662817485521 0.0071412313842633109 0 -0.0022491736394637616 0.0077544366529856516 0 -0.0030359615413101302 0.0075083160724609219 0 -0.0027536662817485521 0.0071412313842633109 0 -0.0022491736394637616 0.0077544366529856516 0 -0.0018800345130413993 0.006815243190322679 0 -0.0022491736394637616 0.0077544366529856516 0 -0.0030359615413101302 0.0075083160724609219 0 -0.0028721447167681636 0.0081348950485504376 0 -0.0033010540609521525 0.0072076929266015645 0 -0.0030359615413101302 0.0075083160724609219 0 -0.0028721447167681636 0.0081348950485504376 0 -0.0029309245187806787 0.0075880607598449489 0 -0.0023640921911348305 0.0081943078939931569 0 -0.0022491736394637616 0.0077544366529856516 0 -0.0028721447167681636 0.0081348950485504376 0 -0.0020780120525220247 0.0088516207624095827 0 -0.0030686184616635455 0.0070069062404720201 0 -0.0028958483976785467 0.0071741876925999221 0 -0.0026198917938283672 0.0075200397994326616 0 -0.0031967316591800222 0.006859464017398194 0 -0.0030686184616635455 0.0070069062404720201 0 -0.0028958483976785467 0.0071741876925999221 0 -0.0017605500351433507 0.0088601209241049011 0 -0.0015671851998370595 0.009403340568438865 0 -0.0020780120525220247 0.0088516207624095827 0 -0.0014714782367789808 0.0095923082846991088 0 -0.0017605500351433507 0.0088601209241049011 0 -0.0015671851998370595 0.009403340568438865 0 -0.0019173581233211303 0.0089743157761904783 0 -0.0023640921911348305 0.0081943078939931569 0 -0.0022048854019750611 0.008481796201209247 0 -0.0026198917938283672 0.0075200397994326616 0 -0.0024866460117473027 0.0078679690416853347 0 -0.0028958483976785467 0.0071741876925999221 0 -0.0026198917938283672 0.0075200397994326616 0 -0.0024866460117473027 0.0078679690416853347 0 -0.0022048854019750611 0.008481796201209247 0 -0.0024866460117473027 0.0078679690416853347 0 -0.0022331544838835125 0.0090261759135742744 0 -0.0024866460117473027 0.0078679690416853347 0 -0.0022832487621548682 0.0075588558562720877 0 -0.0022331544838835125 0.0090261759135742744 0 -0.0022832487621548682 0.0075588558562720877 0 -0.0026466648137720805 0.0069040420533323403 0 -0.0023158328059434052 0.0067144888066464955 0 -0.0024866460117473027 0.0078679690416853347 0 -0.0022832487621548682 0.0075588558562720877 0 -0.0026466648137720805 0.0069040420533323403 0 -0.0022832487621548682 0.0075588558562720877 0 -0.0025240283107472168 0.0071064883962200067 0 -0.0022331544838835125 0.0090261759135742744 0 -0.0031967316591800222 0.006859464017398194 0 -0.0028958483976785467 0.0071741876925999221 0 -0.0031302326507620225 0.0064555463637480399 0 -0.0028958483976785467 0.0071741876925999221 0 -0.0031302326507620225 0.0064555463637480399 0 -0.0026466648137720805 0.0069040420533323403 0 -0.0028958483976785467 0.0071741876925999221 0 -0.0024866460117473027 0.0078679690416853347 0 -0.0026466648137720805 0.0069040420533323403 0 -0.0031302326507620225 0.0064555463637480399 0 -0.0026466648137720805 0.0069040420533323403 0 -0.0030682426860342369 0.0060039020105822202 0 -0.0034054374653717627 0.0051193867175622137 0 -0.0030682426860342369 0.0060039020105822202 0 -0.0026090258105130265 0.0061976746687286387 0 -0.0026466648137720805 0.0069040420533323403 0 -0.0030682426860342369 0.0060039020105822202 0 -0.0026090258105130265 0.0061976746687286387 0 -0.0026466648137720805 0.0069040420533323403 0 -0.0026090258105130265 0.0061976746687286387 0 -0.0023158328059434052 0.0067144888066464955 0 -0.0023711526293906985 0.0064764088046484715 0 -0.0026090258105130265 0.0061976746687286387 0 -0.0023158328059434052 0.0067144888066464955 0 -0.0034054374653717627 0.0051193867175622137 0 -0.0028483266256733959 0.0060509418837502802 0 -0.0026090258105130265 0.0061976746687286387 0 -0.0022832487621548682 0.0075588558562720877 0 -0.0023158328059434052 0.0067144888066464955 0 -0.0025240283107472168 0.0071064883962200067 0 -0.0021655288173994102 0.00666586893402135 0 -0.0023158328059434052 0.0067144888066464955 0 -0.0025240283107472168 0.0071064883962200067 0 -0.00082917973286017585 0.0091753548607884892 0 -0.0013351685666249486 0.01018950570187953 0 -0.001291928220128959 0.0097958391800256166 0 -0.0021655288173994102 0.00666586893402135 0 -0.0019594238592269982 0.0068022187420419622 0 -0.0025240283107472168 0.0071064883962200067 0 -0.0014303197970640185 0.0080215497895239646 0 -0.0019107641168005386 0.0086150417159874589 0 -0.001291928220128959 0.0097958391800256166 0 -0.0015793151726475802 0.010802896543243989 0 -0.0014316014802726871 0.010337308596949646 0 -0.0013351685666249486 0.01018950570187953 0 -0.001291928220128959 0.0097958391800256166 0 -0.0014316014802726871 0.010337308596949646 0 -0.001291928220128959 0.0097958391800256166 0 -0.0019726839081301299 0.0094611901095360343 0 -0.0015793151726475802 0.010802896543243989 0 -0.0014679692060788761 0.0086140627943465074 0 -0.001291928220128959 0.0097958391800256166 0 -0.0019726839081301299 0.0094611901095360343 0 -0.0012972098573621415 0.012838075539118083 0 -0.0015793151726475802 0.010802896543243989 0 -0.0012043591497390507 0.011680710271702838 0 -0.0015477884926725868 0.011166573132862226 0 -0.0015304402483999767 0.010929661408659854 0 -0.0015793151726475802 0.010802896543243989 0 -0.0012043591497390507 0.011680710271702838 0 -0.0013653254157967628 0.010770612798836496 0 -0.0015793151726475802 0.010802896543243989 0 -0.0013653254157967628 0.010770612798836496 0 -0.0014316014802726871 0.010337308596949646 0 -0.0012043591497390507 0.011680710271702838 0 -0.0010909102593004017 0.011510911528793398 0 -0.0013653254157967628 0.010770612798836496 0 -0.0012942634725859568 0.010687214135487564 0 -0.0010909102593004017 0.011510911528793398 0 -0.0013653254157967628 0.010770612798836496 0 -0.0012942634725859568 0.010687214135487564 0 -0.0013653254157967628 0.010770612798836496 0 -0.0016305421954599254 0.0098079657080114967 0 -0.0013653254157967628 0.010770612798836496 0 -0.0016305421954599254 0.0098079657080114967 0 -0.0014316014802726871 0.010337308596949646 0 -0.0016305421954599254 0.0098079657080114967 0 -0.0022331544838835125 0.0090261759135742744 0 -0.0014316014802726871 0.010337308596949646 0 -0.0019107641168005386 0.0086150417159874589 0 -0.002183021630291754 0.0089479153153417829 0 -0.0013351685666249486 0.01018950570187953 0 -0.0022331544838835125 0.0090261759135742744 0 -0.0014316014802726871 0.010337308596949646 0 -0.00047696950164162618 0.034197392162052614 0 9.4825048512858632e-07 0.034996351233516972 0 -0.00049810261124900339 0.034328251761327935 0 -2.4313664599566823e-08 0.034999503428425241 0 -0.0001265395437540064 0.033813486788923472 0 -1.3975889987654845e-07 0.035000132388523827 0 6.4076218272749824e-05 0.034812830735566035 0 3.4715614212077946e-07 0.034999230481286871 0 -0.00047696950164162618 0.034197392162052614 0 9.4825048512858632e-07 0.034996351233516972 0 -0.00012100610528296179 0.03291627003426309 0 -0.00012100610528296179 0.03291627003426309 0 -0.00083785068454643951 0.033564739839588402 0 -0.0013449193641692028 0.031371982004760227 0 -0.00047696950164162618 0.034197392162052614 0 -0.00012100610528296179 0.03291627003426309 0 -0.00083785068454643951 0.033564739839588402 0 -0.00083785068454643951 0.033564739839588402 0 -0.0013277540110173526 0.033634892107233368 0 -0.00086744619078696111 0.034061476611474135 0 -0.00083109994722696057 0.026870642630980601 0 -0.00073779107618424935 0.028862936903661828 0 -0.0013449193641692028 0.031371982004760227 0 -0.00093971319393700589 0.03025257379805581 0 -0.00122699106164778 0.03104634379780899 0 -0.00083785068454643951 0.033564739839588402 0 -0.0013277540110173526 0.033634892107233368 0 -0.0013449193641692028 0.031371982004760227 0 -0.0002589467976520157 0.026850602557727105 0 -0.00083109994722696057 0.026870642630980601 0 -5.9619433120514083e-05 0.025770966259798637 0 -0.0002589467976520157 0.026850602557727105 0 -0.00073779107618424935 0.028862936903661828 0 -0.00025861446280596142 0.027570951307202596 0 -0.0002589467976520157 0.026850602557727105 0 -9.2330981674765327e-05 0.0270204588381492 0 -0.00025861446280596142 0.027570951307202596 0 -0.0002589467976520157 0.026850602557727105 0 -0.00083109994722696057 0.026870642630980601 0 -0.00073779107618424935 0.028862936903661828 0 -0.00086744619078696111 0.034061476611474135 0 -0.00068618351816293068 0.033987923788217349 0 -0.00066717801092625267 0.034076980491340517 0 -0.00093971319393700589 0.03025257379805581 0 -0.00034065989056809506 0.029839419236174513 0 -0.0013277540110173526 0.033634892107233368 0 -0.00086744619078696111 0.034061476611474135 0 -0.00066717801092625267 0.034076980491340517 0 -0.00047696950164162618 0.034197392162052614 0 -0.00086744619078696111 0.034061476611474135 0 -0.00049810261124900339 0.034328251761327935 0 -0.00047696950164162618 0.034197392162052614 0 -0.00083785068454643951 0.033564739839588402 0 -0.00086744619078696111 0.034061476611474135 0 -0.00086744619078696111 0.034061476611474135 0 -0.00068618351816293068 0.033987923788217349 0 -0.00049810261124900339 0.034328251761327935 0 -0.00068618351816293068 0.033987923788217349 0 -0.0003786553968146252 0.033687223679044968 0 -0.00066717801092625267 0.034076980491340517 0 -0.00068618351816293068 0.033987923788217349 0 -0.00052858879134938053 0.033693949834237492 0 -0.0003786553968146252 0.033687223679044968 0 -0.00068618351816293068 0.033987923788217349 0 -0.00052858879134938053 0.033693949834237492 0 -0.00049810261124900339 0.034328251761327935 0 -0.00052858879134938053 0.033693949834237492 0 -0.00049810261124900339 0.034328251761327935 0 -0.00043311324932693854 0.033876485750606082 0 9.4825048512858632e-07 0.034996351233516972 0 -0.00049810261124900339 0.034328251761327935 0 -1.0662084193385046e-06 0.034998647081758108 0 -0.00049810261124900339 0.034328251761327935 0 -1.0662084193385046e-06 0.034998647081758108 0 -0.00043311324932693854 0.033876485750606082 0 -1.0662084193385046e-06 0.034998647081758108 0 -0.00036170819036402053 0.033279484852501713 0 -0.00043311324932693854 0.033876485750606082 0 -1.0662084193385046e-06 0.034998647081758108 0 -5.2705338014877647e-08 0.034998072828930166 0 -0.00036170819036402053 0.033279484852501713 0 -5.2705338014877647e-08 0.034998072828930166 0 -8.1539875890004599e-07 0.031361104617172453 0 -0.00036170819036402053 0.033279484852501713 0 -8.1539875890004599e-07 0.031361104617172453 0 -0.00036170819036402053 0.033279484852501713 0 -0.00018809292871407767 0.031450328778362437 0 -0.00036170819036402053 0.033279484852501713 0 -0.00038637842054682631 0.032933775765862774 0 -0.00018809292871407767 0.031450328778362437 0 -0.00036170819036402053 0.033279484852501713 0 -0.00038637842054682631 0.032933775765862774 0 -0.00043311324932693854 0.033876485750606082 0 -0.00052858879134938053 0.033693949834237492 0 -0.00038637842054682631 0.032933775765862774 0 -0.00043311324932693854 0.033876485750606082 0 -0.00052858879134938053 0.033693949834237492 0 -0.00038637842054682631 0.032933775765862774 0 -0.00026537290214590295 0.033143900778836922 0 -0.00026537290214590295 0.033143900778836922 0 0.0001302193284533266 0.033039869266229038 0 4.9416565574905522e-05 0.032170313492313578 0 -0.00038637842054682631 0.032933775765862774 0 -0.00026537290214590295 0.033143900778836922 0 4.9416565574905522e-05 0.032170313492313578 0 0.0001302193284533266 0.033039869266229038 0 0.00052091753229315061 0.032267488587691524 0 4.9416565574905522e-05 0.032170313492313578 0 0.0001302193284533266 0.033039869266229038 0 0.00052091753229315061 0.032267488587691524 0 0.00089187615942989875 0.032993606400037803 0 4.9416565574905522e-05 0.032170313492313578 0 0.00029870157083433337 0.030582253375635235 0 0.00052798336727949468 0.031399523648738846 0 0.00052091753229315061 0.032267488587691524 0 4.9416565574905522e-05 0.032170313492313578 0 0.00052798336727949468 0.031399523648738846 0 -0.00038637842054682631 0.032933775765862774 0 4.9416565574905522e-05 0.032170313492313578 0 -0.00018809292871407767 0.031450328778362437 0 -8.1539875890004599e-07 0.031361104617172453 0 -0.00018809292871407767 0.031450328778362437 0 -7.0072310493460776e-07 0.028628745662381064 0 4.9416565574905522e-05 0.032170313492313578 0 -0.00018809292871407767 0.031450328778362437 0 0.00029870157083433337 0.030582253375635235 0 -0.00018809292871407767 0.031450328778362437 0 0.00029870157083433337 0.030582253375635235 0 -7.0072310493460776e-07 0.028628745662381064 0 1.3984337371748154e-06 0.026576748294562014 0 0.00040349712657214643 0.024860387067834507 0 -0.00011423308408190503 0.025075860108470543 0 2.3622739230767107e-07 0.026580812242263028 0 0.00058901927304486751 0.027246663923307782 0 -7.0072310493460776e-07 0.028628745662381064 0 3.7311504503637846e-06 0.026584249011175596 0 0.00094807946026813535 0.029480566137947885 0 0.00029870157083433337 0.030582253375635235 0 -7.0072310493460776e-07 0.028628745662381064 0 0.00094807946026813535 0.029480566137947885 0 0.00029870157083433337 0.030582253375635235 0 0.00094807946026813535 0.029480566137947885 0 0.00052798336727949468 0.031399523648738846 0 0.00040349712657214643 0.024860387067834507 0 -9.2466435003249342e-05 0.024441197496872031 0 -0.00011423308408190503 0.025075860108470543 0 0.00058901927304486751 0.027246663923307782 0 0.00074942720413855935 0.028209642890344427 0 0.00040349712657214643 0.024860387067834507 0 -9.2466435003249342e-05 0.024441197496872031 0 0.00036600126269846066 0.024347491331314634 0 -9.2466435003249342e-05 0.024441197496872031 0 0.00036600126269846066 0.024347491331314634 0 0.00026985199454022376 0.024238131895465063 0 -0.00016427526167459835 0.024562994061648882 0 0.00016855945505198273 0.024280193539215802 0 -9.2466435003249342e-05 0.024441197496872031 0 -0.00023057428887230603 0.024769357992304487 0 -0.00041903079892091448 0.024863620792971851 0 0.00094807946026813535 0.029480566137947885 0 0.00052798336727949468 0.031399523648738846 0 0.0012199142807543628 0.031636101045211557 0 0.00052091753229315061 0.032267488587691524 0 0.00052798336727949468 0.031399523648738846 0 0.0012199142807543628 0.031636101045211557 0 0.00074942720413855935 0.028209642890344427 0 -3.1607395477919649e-05 0.027292686615467059 0 0.00052091753229315061 0.032267488587691524 0 0.0012199142807543628 0.031636101045211557 0 0.00089187615942989875 0.032993606400037803 0 0.00036600126269846066 0.024347491331314634 0 0.00038045828980040641 0.024137228587756795 0 0.00026985199454022376 0.024238131895465063 0 -3.1607395477919649e-05 0.027292686615467059 0 0.00016855945505198273 0.024280193539215802 0 -0.0003935080079744825 0.025143037067208149 0 -0.00041903079892091448 0.024863620792971851 0 -0.00033179680918916129 0.02509438902188834 0 -0.00032169928442152501 0.024964578214615698 0 -0.00023057428887230603 0.024769357992304487 0 -0.00041903079892091448 0.024863620792971851 0 -0.00032169928442152501 0.024964578214615698 0 -0.00023057428887230603 0.024769357992304487 0 -0.00026494288634584058 0.025000940694860019 0 -0.00032169928442152501 0.024964578214615698 0 -0.00041903079892091448 0.024863620792971851 0 -0.00033179680918916129 0.02509438902188834 0 -0.00032169928442152501 0.024964578214615698 0 -0.00033179680918916129 0.02509438902188834 0 -0.00027836907692511904 0.025159159643275971 0 -0.00032169928442152501 0.024964578214615698 0 -0.00027836907692511904 0.025159159643275971 0 -0.00026494288634584058 0.025000940694860019 0 -0.00033179680918916129 0.02509438902188834 0 -0.00027836907692511904 0.025159159643275971 0 -0.00025459742186940493 0.02526605203655883 0 -0.00027836907692511904 0.025159159643275971 0 -0.00025459742186940493 0.02526605203655883 0 -0.00023366124501465505 0.025286166143217766 0 -0.00027836907692511904 0.025159159643275971 0 -0.00023366124501465505 0.025286166143217766 0 -0.00028068789775282754 0.025220441360025547 0 -0.00023366124501465505 0.025286166143217766 0 -0.00026715810743564819 0.025269534223914512 0 -0.00028068789775282754 0.025220441360025547 0 -0.00023366124501465505 0.025286166143217766 0 -0.00016196403479462574 0.025369433871324856 0 -0.00026715810743564819 0.025269534223914512 0 -0.00025459742186940493 0.02526605203655883 0 -0.00023366124501465505 0.025286166143217766 0 -0.00016196403479462574 0.025369433871324856 0 -0.00016196403479462574 0.025369433871324856 0 -0.00019662198648167788 0.025285586319670515 0 -0.00026715810743564819 0.025269534223914512 0 -0.00025459742186940493 0.02526605203655883 0 -0.00013960829323010409 0.025451862434547858 0 -0.00027007580630483116 0.025340643331805957 0 -0.00013960829323010409 0.025451862434547858 0 -0.00027007580630483116 0.025340643331805957 0 -5.2926046666287325e-05 0.025642050435920133 0 -0.00013960829323010409 0.025451862434547858 0 -5.2926046666287325e-05 0.025642050435920133 0 -6.9617048424335784e-05 0.025457108848812419 0 -0.00025459742186940493 0.02526605203655883 0 -0.00016196403479462574 0.025369433871324856 0 -0.00013960829323010409 0.025451862434547858 0 -0.00016196403479462574 0.025369433871324856 0 -0.00013960829323010409 0.025451862434547858 0 -6.9617048424335784e-05 0.025457108848812419 0 -3.1607395477919649e-05 0.027292686615467059 0 -0.00010890298330534395 0.025323525895833622 0 -0.0003935080079744825 0.025143037067208149 0 -0.00025459742186940493 0.02526605203655883 0 -0.00027007580630483116 0.025340643331805957 0 -0.0003935080079744825 0.025143037067208149 0 -0.00033179680918916129 0.02509438902188834 0 -0.00025459742186940493 0.02526605203655883 0 0.0001302193284533266 0.033039869266229038 0 0.00089187615942989875 0.032993606400037803 0 8.3401042233204357e-05 0.033780611301430577 0 -0.00023143173292657161 0.026077971013176268 0 -0.00016948436149526086 0.025806997655980553 0 -3.3463910709977532e-05 0.025762579434060989 0 -3.1607395477919649e-05 0.027292686615467059 0 -4.7125865243435358e-05 0.030105416185114094 0 0.0001302193284533266 0.033039869266229038 0 -0.0003786553968146252 0.033687223679044968 0 8.3401042233204357e-05 0.033780611301430577 0 -0.00052858879134938053 0.033693949834237492 0 -0.00026537290214590295 0.033143900778836922 0 -0.0003786553968146252 0.033687223679044968 0 -0.00026537290214590295 0.033143900778836922 0 0.0001302193284533266 0.033039869266229038 0 -0.0003786553968146252 0.033687223679044968 0 -4.7125865243435358e-05 0.030105416185114094 0 -0.00034065989056809506 0.029839419236174513 0 -0.0003786553968146252 0.033687223679044968 0 8.3401042233204357e-05 0.033780611301430577 0 -0.00066717801092625267 0.034076980491340517 0 -0.00016948436149526086 0.025806997655980553 0 -3.3463910709977532e-05 0.025762579434060989 0 -5.2926046666287325e-05 0.025642050435920133 0 -0.00010890298330534395 0.025323525895833622 0 -0.00013168616638242807 0.025682223032449315 0 -3.3463910709977532e-05 0.025762579434060989 0 -5.2926046666287325e-05 0.025642050435920133 0 -5.9619433120514083e-05 0.025770966259798637 0 -5.2926046666287325e-05 0.025642050435920133 0 4.7061604791844808e-05 0.025790896053440291 0 -5.9619433120514083e-05 0.025770966259798637 0 -5.2926046666287325e-05 0.025642050435920133 0 4.7061604791844808e-05 0.025790896053440291 0 2.4791831995899544e-05 0.025626157212778361 0 4.7061604791844808e-05 0.025790896053440291 0 7.5887384445237391e-05 0.025775694522278313 0 2.4791831995899544e-05 0.025626157212778361 0 -5.9619433120514083e-05 0.025770966259798637 0 -1.1049777568865948e-05 0.026499461049787214 0 6.092780093753653e-05 0.026061145590965999 0 4.7061604791844808e-05 0.025790896053440291 0 -5.9619433120514083e-05 0.025770966259798637 0 6.092780093753653e-05 0.026061145590965999 0 -0.0002589467976520157 0.026850602557727105 0 -5.9619433120514083e-05 0.025770966259798637 0 -1.1049777568865948e-05 0.026499461049787214 0 -1.1049777568865948e-05 0.026499461049787214 0 6.092780093753653e-05 0.026061145590965999 0 7.3502590807183682e-05 0.026274278907956278 0 7.3502590807183682e-05 0.026274278907956278 0 9.7775650111130841e-05 0.026099037739149705 0 7.4988676100417304e-05 0.026382180150957397 0 7.3502590807183682e-05 0.026274278907956278 0 4.9241743394007456e-05 0.026519640854806369 0 7.4988676100417304e-05 0.026382180150957397 0 4.9241743394007456e-05 0.026519640854806369 0 4.4803098692206762e-05 0.026596122650223677 0 7.4988676100417304e-05 0.026382180150957397 0 4.9241743394007456e-05 0.026519640854806369 0 -1.7954282239191159e-06 0.02679788291633952 0 4.4803098692206762e-05 0.026596122650223677 0 -1.1049777568865948e-05 0.026499461049787214 0 7.3502590807183682e-05 0.026274278907956278 0 4.9241743394007456e-05 0.026519640854806369 0 -1.1049777568865948e-05 0.026499461049787214 0 4.9241743394007456e-05 0.026519640854806369 0 -1.7954282239191159e-06 0.02679788291633952 0 -1.1049777568865948e-05 0.026499461049787214 0 -1.7954282239191159e-06 0.02679788291633952 0 -9.2330981674765327e-05 0.0270204588381492 0 -0.0002589467976520157 0.026850602557727105 0 -1.1049777568865948e-05 0.026499461049787214 0 -9.2330981674765327e-05 0.0270204588381492 0 -1.7954282239191159e-06 0.02679788291633952 0 -9.2330981674765327e-05 0.0270204588381492 0 -3.9990968554404859e-05 0.027012472320816407 0 7.5887384445237391e-05 0.025775694522278313 0 9.8591978003119548e-05 0.025845434712974531 0 6.7647342729876351e-05 0.025596055576096219 0 4.7061604791844808e-05 0.025790896053440291 0 7.5887384445237391e-05 0.025775694522278313 0 9.1311697764923959e-05 0.025988601464738404 0 7.5887384445237391e-05 0.025775694522278313 0 9.1311697764923959e-05 0.025988601464738404 0 9.8591978003119548e-05 0.025845434712974531 0 6.092780093753653e-05 0.026061145590965999 0 7.3502590807183682e-05 0.026274278907956278 0 9.1311697764923959e-05 0.025988601464738404 0 4.7061604791844808e-05 0.025790896053440291 0 6.092780093753653e-05 0.026061145590965999 0 9.1311697764923959e-05 0.025988601464738404 0 9.1311697764923959e-05 0.025988601464738404 0 9.7775650111130841e-05 0.026099037739149705 0 9.8591978003119548e-05 0.025845434712974531 0 7.3502590807183682e-05 0.026274278907956278 0 9.1311697764923959e-05 0.025988601464738404 0 9.7775650111130841e-05 0.026099037739149705 0 9.7775650111130841e-05 0.026099037739149705 0 9.8591978003119548e-05 0.025845434712974531 0 0.00010381507930821949 0.025896924705634403 0 9.8591978003119548e-05 0.025845434712974531 0 9.4993626382149345e-05 0.025689556574329017 0 0.00010381507930821949 0.025896924705634403 0 6.7647342729876351e-05 0.025596055576096219 0 7.5961411398079489e-05 0.025403874461118376 0 9.4993626382149345e-05 0.025689556574329017 0 9.8591978003119548e-05 0.025845434712974531 0 6.7647342729876351e-05 0.025596055576096219 0 9.4993626382149345e-05 0.025689556574329017 0 7.5887384445237391e-05 0.025775694522278313 0 6.7647342729876351e-05 0.025596055576096219 0 2.4791831995899544e-05 0.025626157212778361 0 6.7647342729876351e-05 0.025596055576096219 0 -1.2946632564506822e-05 0.025424376413054103 0 2.4791831995899544e-05 0.025626157212778361 0 6.7647342729876351e-05 0.025596055576096219 0 -1.2946632564506822e-05 0.025424376413054103 0 1.4404874830628413e-05 0.025284392633511371 0 6.7647342729876351e-05 0.025596055576096219 0 1.4404874830628413e-05 0.025284392633511371 0 7.5961411398079489e-05 0.025403874461118376 0 1.4404874830628413e-05 0.025284392633511371 0 -0.00010023434260987461 0.025133736734508715 0 -9.0335073190628385e-05 0.024919641773584956 0 -0.00010023434260987461 0.025133736734508715 0 -0.0002677652428187053 0.024763136358676077 0 -9.0335073190628385e-05 0.024919641773584956 0 -0.00010023434260987461 0.025133736734508715 0 -0.00011313156010520387 0.02529285534288676 0 -0.00023971754996778951 0.025041588083547287 0 -1.2946632564506822e-05 0.025424376413054103 0 1.4404874830628413e-05 0.025284392633511371 0 -0.00010023434260987461 0.025133736734508715 0 -1.2946632564506822e-05 0.025424376413054103 0 -0.00010023434260987461 0.025133736734508715 0 -0.00011313156010520387 0.02529285534288676 0 -1.2946632564506822e-05 0.025424376413054103 0 -0.00011313156010520387 0.02529285534288676 0 -6.9617048424335784e-05 0.025457108848812419 0 -0.00011313156010520387 0.02529285534288676 0 -0.00019662198648167788 0.025285586319670515 0 -0.00031552406467647687 0.025143733431027607 0 -0.00016196403479462574 0.025369433871324856 0 -0.00019662198648167788 0.025285586319670515 0 -6.9617048424335784e-05 0.025457108848812419 0 -0.00011313156010520387 0.02529285534288676 0 -0.00019662198648167788 0.025285586319670515 0 -6.9617048424335784e-05 0.025457108848812419 0 -5.2926046666287325e-05 0.025642050435920133 0 -6.9617048424335784e-05 0.025457108848812419 0 2.4791831995899544e-05 0.025626157212778361 0 -1.2946632564506822e-05 0.025424376413054103 0 -6.9617048424335784e-05 0.025457108848812419 0 2.4791831995899544e-05 0.025626157212778361 0 -0.0006356135343053293 0.024942623964511444 0 -0.00074085300160906366 0.025065617923845217 0 -0.00039813391136616293 0.025185981170601699 0 -0.0006356135343053293 0.024942623964511444 0 -0.00074085300160906366 0.025065617923845217 0 -0.00099840321177152558 0.024774705951698197 0 -0.0006356135343053293 0.024942623964511444 0 -0.00031552406467647687 0.025143733431027607 0 -0.00039813391136616293 0.025185981170601699 0 -0.00019662198648167788 0.025285586319670515 0 -0.00031552406467647687 0.025143733431027607 0 -0.00026715810743564819 0.025269534223914512 0 -0.00011313156010520387 0.02529285534288676 0 -0.00031552406467647687 0.025143733431027607 0 -0.00023971754996778951 0.025041588083547287 0 -0.0006356135343053293 0.024942623964511444 0 -0.00031552406467647687 0.025143733431027607 0 -0.00049621936763894706 0.024798384311789705 0 -0.00031552406467647687 0.025143733431027607 0 -0.00049621936763894706 0.024798384311789705 0 -0.00023971754996778951 0.025041588083547287 0 -0.00010023434260987461 0.025133736734508715 0 -0.00023971754996778951 0.025041588083547287 0 -0.0002677652428187053 0.024763136358676077 0 -0.00049621936763894706 0.024798384311789705 0 -0.0002677652428187053 0.024763136358676077 0 -0.00060660469140241401 0.024275730500911918 0 -0.00049621936763894706 0.024798384311789705 0 -0.00023971754996778951 0.025041588083547287 0 -0.0002677652428187053 0.024763136358676077 0 -0.00049621936763894706 0.024798384311789705 0 -0.00095234224778170792 0.02447824394124555 0 -0.00060660469140241401 0.024275730500911918 0 -0.0006356135343053293 0.024942623964511444 0 -0.00049621936763894706 0.024798384311789705 0 -0.00095234224778170792 0.02447824394124555 0 -0.0006356135343053293 0.024942623964511444 0 -0.00095234224778170792 0.02447824394124555 0 -0.00099840321177152558 0.024774705951698197 0 -0.00095234224778170792 0.02447824394124555 0 -0.0014567433043491762 0.024540366536590669 0 -0.0016504780828959717 0.023969007387601427 0 -0.00095234224778170792 0.02447824394124555 0 -0.0014567433043491762 0.024540366536590669 0 -0.00099840321177152558 0.024774705951698197 0 -0.0014567433043491762 0.024540366536590669 0 -0.0020085552437031349 0.024518187119387851 0 -0.0022083045839668722 0.023997175097630264 0 -0.0014567433043491762 0.024540366536590669 0 -0.0016504780828959717 0.023969007387601427 0 -0.0022083045839668722 0.023997175097630264 0 -0.0014567433043491762 0.024540366536590669 0 -0.0020085552437031349 0.024518187119387851 0 -0.0015765931686380398 0.024787495334383298 0 -0.00054543397974205485 0.020800608023687227 0 -0.00047087681579690568 0.020043196455132341 0 -0.0015765931686380398 0.024787495334383298 0 -0.0011477026567131754 0.024962218695515487 0 -0.0012976718130908312 0.025202244022460917 0 -0.0014567433043491762 0.024540366536590669 0 -0.0015765931686380398 0.024787495334383298 0 -0.0011477026567131754 0.024962218695515487 0 -0.0015765931686380398 0.024787495334383298 0 -0.0012976718130908312 0.025202244022460917 0 -0.0019539790596348507 0.024740613480318616 0 -0.0020085552437031349 0.024518187119387851 0 -0.0015765931686380398 0.024787495334383298 0 -0.0019539790596348507 0.024740613480318616 0 -0.0014567433043491762 0.024540366536590669 0 -0.00099840321177152558 0.024774705951698197 0 -0.0011477026567131754 0.024962218695515487 0 -0.00074085300160906366 0.025065617923845217 0 -0.00099840321177152558 0.024774705951698197 0 -0.0011477026567131754 0.024962218695515487 0 -0.00074085300160906366 0.025065617923845217 0 -0.0011477026567131754 0.024962218695515487 0 -0.00076514560162364658 0.025200712174888437 0 -0.0011477026567131754 0.024962218695515487 0 -0.00076514560162364658 0.025200712174888437 0 -0.0012976718130908312 0.025202244022460917 0 -0.00054543397974205485 0.020800608023687227 0 -2.0522704917182217e-05 0.021198827566098713 0 0.00034851883341105889 0.016356441376720928 0 0.00070672363500955419 0.015565512627306672 0 -3.4245541060443514e-05 0.015385891105407386 0 0.00034851883341105889 0.016356441376720928 0 0.00070672363500955419 0.015565512627306672 0 0.0009629373222079234 0.015956910196995536 0 -0.00076514560162364658 0.025200712174888437 0 -0.0012976718130908312 0.025202244022460917 0 -0.0008258993361692804 0.025497598439061832 0 -0.00076514560162364658 0.025200712174888437 0 -0.00049894729600373847 0.025304387876363882 0 -0.0008258993361692804 0.025497598439061832 0 -0.00076514560162364658 0.025200712174888437 0 -0.00049894729600373847 0.025304387876363882 0 -0.00048431938534406361 0.025240638128238305 0 -0.00049894729600373847 0.025304387876363882 0 -0.00048431938534406361 0.025240638128238305 0 -0.0003555239804406049 0.025151016882695592 0 -0.00048431938534406361 0.025240638128238305 0 -0.00036411591586500708 0.025230225254801737 0 -0.0003555239804406049 0.025151016882695592 0 -0.00048431938534406361 0.025240638128238305 0 -0.00051638410150034984 0.025189286584158116 0 -0.00036411591586500708 0.025230225254801737 0 -0.00074085300160906366 0.025065617923845217 0 -0.00051638410150034984 0.025189286584158116 0 -0.00039813391136616293 0.025185981170601699 0 -0.00051638410150034984 0.025189286584158116 0 -0.00039813391136616293 0.025185981170601699 0 -0.00036411591586500708 0.025230225254801737 0 -0.00076514560162364658 0.025200712174888437 0 -0.00048431938534406361 0.025240638128238305 0 -0.00051638410150034984 0.025189286584158116 0 -0.00074085300160906366 0.025065617923845217 0 -0.00076514560162364658 0.025200712174888437 0 -0.00051638410150034984 0.025189286584158116 0 -0.00026715810743564819 0.025269534223914512 0 -0.00039813391136616293 0.025185981170601699 0 -0.00036411591586500708 0.025230225254801737 0 -0.00031552406467647687 0.025143733431027607 0 -0.00026715810743564819 0.025269534223914512 0 -0.00039813391136616293 0.025185981170601699 0 -0.00026715810743564819 0.025269534223914512 0 -0.00028068789775282754 0.025220441360025547 0 -0.00036411591586500708 0.025230225254801737 0 -0.00028068789775282754 0.025220441360025547 0 -0.00036411591586500708 0.025230225254801737 0 -0.00028036111424877642 0.025135716108980757 0 -0.00036411591586500708 0.025230225254801737 0 -0.00028036111424877642 0.025135716108980757 0 -0.0003555239804406049 0.025151016882695592 0 -0.00027836907692511904 0.025159159643275971 0 -0.00028068789775282754 0.025220441360025547 0 -0.00028036111424877642 0.025135716108980757 0 -0.00027836907692511904 0.025159159643275971 0 -0.00028036111424877642 0.025135716108980757 0 -0.00026494288634584058 0.025000940694860019 0 -0.00028036111424877642 0.025135716108980757 0 -0.00026494288634584058 0.025000940694860019 0 -0.00024051676923226965 0.024944696255981492 0 -0.00028036111424877642 0.025135716108980757 0 -0.00024051676923226965 0.024944696255981492 0 -0.0003555239804406049 0.025151016882695592 0 -0.00024051676923226965 0.024944696255981492 0 -0.00028510860385369893 0.024958679880056359 0 -0.00018858432027477696 0.024591219695740657 0 -0.00023057428887230603 0.024769357992304487 0 -0.00024051676923226965 0.024944696255981492 0 -0.00018858432027477696 0.024591219695740657 0 -0.00023057428887230603 0.024769357992304487 0 -0.00026494288634584058 0.025000940694860019 0 -0.00024051676923226965 0.024944696255981492 0 -0.00024051676923226965 0.024944696255981492 0 -0.0003555239804406049 0.025151016882695592 0 -0.00028510860385369893 0.024958679880056359 0 -0.0003555239804406049 0.025151016882695592 0 -0.00028510860385369893 0.024958679880056359 0 -0.00035727809610241925 0.025095284741825825 0 -0.00049894729600373847 0.025304387876363882 0 -0.0003555239804406049 0.025151016882695592 0 -0.00035727809610241925 0.025095284741825825 0 -0.00013928267556763979 0.02424149197017228 0 -0.00015911846451144177 0.024156216071177208 0 -0.00018858432027477696 0.024591219695740657 0 -0.00019476499085896898 0.024532310761480262 0 -0.00026989084943841827 0.02457748545101144 0 -0.00013928267556763979 0.02424149197017228 0 -0.00015911846451144177 0.024156216071177208 0 1.4076924252752529e-05 0.023493484748177272 0 -9.2466435003249342e-05 0.024441197496872031 0 -0.00015911846451144177 0.024156216071177208 0 -0.00018858432027477696 0.024591219695740657 0 -9.2466435003249342e-05 0.024441197496872031 0 -0.00023057428887230603 0.024769357992304487 0 -0.00018858432027477696 0.024591219695740657 0 -9.2466435003249342e-05 0.024441197496872031 0 -0.00015911846451144177 0.024156216071177208 0 -0.00015848643693052998 0.02435489287707944 0 -9.2466435003249342e-05 0.024441197496872031 0 -0.00015848643693052998 0.02435489287707944 0 -0.00011423308408190503 0.025075860108470543 0 -0.00015911846451144177 0.024156216071177208 0 -0.00015848643693052998 0.02435489287707944 0 -7.3964886187170858e-05 0.023843804588135342 0 -0.00015911846451144177 0.024156216071177208 0 -7.3964886187170858e-05 0.023843804588135342 0 1.4076924252752529e-05 0.023493484748177272 0 -0.00015848643693052998 0.02435489287707944 0 -7.3964886187170858e-05 0.023843804588135342 0 -8.6332344561349144e-07 0.024636868767721691 0 -7.3964886187170858e-05 0.023843804588135342 0 -8.6332344561349144e-07 0.024636868767721691 0 -0.00011619374116947587 0.023166031498244297 0 1.3984337371748154e-06 0.026576748294562014 0 -8.6332344561349144e-07 0.024636868767721691 0 -0.00011423308408190503 0.025075860108470543 0 -0.00015848643693052998 0.02435489287707944 0 -8.6332344561349144e-07 0.024636868767721691 0 -0.00011423308408190503 0.025075860108470543 0 -1.4675681590337698e-07 0.022692892486431082 0 -0.00011619374116947587 0.023166031498244297 0 -0.00019364449273971015 0.022259514307802267 0 -1.4675681590337698e-07 0.022692892486431082 0 -0.00019364449273971015 0.022259514307802267 0 -6.4195149774661482e-05 0.021304900021448754 0 -8.6332344561349144e-07 0.024636868767721691 0 -1.4675681590337698e-07 0.022692892486431082 0 -0.00011619374116947587 0.023166031498244297 0 -7.3964886187170858e-05 0.023843804588135342 0 -0.00011619374116947587 0.023166031498244297 0 1.4076924252752529e-05 0.023493484748177272 0 -0.00011619374116947587 0.023166031498244297 0 -0.00020176810843177502 0.022824320293084781 0 1.4076924252752529e-05 0.023493484748177272 0 -0.00011619374116947587 0.023166031498244297 0 -0.00019364449273971015 0.022259514307802267 0 -0.00020176810843177502 0.022824320293084781 0 -0.00019364449273971015 0.022259514307802267 0 -0.00020176810843177502 0.022824320293084781 0 -0.00019968427515787944 0.022609735408849963 0 -0.00020176810843177502 0.022824320293084781 0 -8.7386260887865435e-05 0.022645194727095596 0 -0.00019968427515787944 0.022609735408849963 0 -0.00020176810843177502 0.022824320293084781 0 1.4076924252752529e-05 0.023493484748177272 0 -8.7386260887865435e-05 0.022645194727095596 0 -0.00013928267556763979 0.02424149197017228 0 1.4076924252752529e-05 0.023493484748177272 0 0.00045919744150698527 0.024293569629806094 0 0.00010058317799950372 0.023563673681483939 0 0.00023170547466863571 0.023103068088152857 0 0.00022861932682637109 0.02080790527316223 0 0.00033941595058455912 0.021060490465966992 0 0.00064405029038001871 0.020854382991520926 0 -0.00019476499085896898 0.024532310761480262 0 0.00023170547466863571 0.023103068088152857 0 -0.00026355098113002427 0.025010376341554199 0 -0.00019503854636769975 0.025125638213211166 0 -0.00035727809610241925 0.025095284741825825 0 -0.00028510860385369893 0.024958679880056359 0 -0.00026355098113002427 0.025010376341554199 0 -0.00035727809610241925 0.025095284741825825 0 0.00023170547466863571 0.023103068088152857 0 -2.0522704917182217e-05 0.021198827566098713 0 -0.0013251031235247937 0.025331887947311133 0 -2.0522704917182217e-05 0.021198827566098713 0 -0.00049894729600373847 0.025304387876363882 0 -0.00019503854636769975 0.025125638213211166 0 -0.00035727809610241925 0.025095284741825825 0 0.00070672363500955419 0.015565512627306672 0 -3.4245541060443514e-05 0.015385891105407386 0 0.00044795946185908651 0.015064240220964932 0 0.00023170547466863571 0.023103068088152857 0 0.00098810449963987078 0.01860104438033525 0 -2.0522704917182217e-05 0.021198827566098713 0 0.00098810449963987078 0.01860104438033525 0 0.00070672363500955419 0.015565512627306672 0 0.00044795946185908651 0.015064240220964932 0 0.0010869991823575864 0.01514215759676776 0 0.00070672363500955419 0.015565512627306672 0 0.0010869991823575864 0.01514215759676776 0 0.001298988318832959 0.015529563867756755 0 0.00098810449963987078 0.01860104438033525 0 0.0018224407704825296 0.015440372878681613 0 0.0016648122811341005 0.015308729915081342 0 0.0016825112428225048 0.015269025269181051 0 0.00065587316096433047 0.015827836800764397 0 0.0025294117351658011 0.015475222757207065 0 0.0016648122811341005 0.015308729915081342 0 0.0021850586244484414 0.016355836471823267 0 0.0016648122811341005 0.015308729915081342 0 0.0016825112428225048 0.015269025269181051 0 0.001298988318832959 0.015529563867756755 0 0.0010869991823575864 0.01514215759676776 0 0.0016648122811341005 0.015308729915081342 0 0.001298988318832959 0.015529563867756755 0 0.0018224407704825296 0.015440372878681613 0 0.0016618721496327185 0.015309178896412593 0 0.0016648122811341005 0.015308729915081342 0 0.0021850586244484414 0.016355836471823267 0 0.00065587316096433047 0.015827836800764397 0 0.0031792397625801773 0.015591216938714096 0 0.0025294117351658011 0.015475222757207065 0 0.0021850586244484414 0.016355836471823267 0 0.00098810449963987078 0.01860104438033525 0 0.0011244894553813878 0.019043422024514606 0 -0.00019364449273971015 0.022259514307802267 0 -0.00019968427515787944 0.022609735408849963 0 0.00013664533455847496 0.021642236985538455 0 -0.00019364449273971015 0.022259514307802267 0 0.00013664533455847496 0.021642236985538455 0 -6.4195149774661482e-05 0.021304900021448754 0 0.0011244894553813878 0.019043422024514606 0 0.00032072541032998386 0.018469933780643825 0 0.00013664533455847496 0.021642236985538455 0 0.00020182301875674386 0.020118936669367291 0 -6.4195149774661482e-05 0.021304900021448754 0 0.00013664533455847496 0.021642236985538455 0 0.00020182301875674386 0.020118936669367291 0 0.00038061891798128787 0.018252274528810741 0 0.00020182301875674386 0.020118936669367291 0 -1.5294033742654032e-08 0.020749629107795174 0 9.2578841881336711e-07 0.018805651492931268 0 0.00020182301875674386 0.020118936669367291 0 -1.5294033742654032e-08 0.020749629107795174 0 -6.4195149774661482e-05 0.021304900021448754 0 -1.4675681590337698e-07 0.022692892486431082 0 -1.5294033742654032e-08 0.020749629107795174 0 -6.4195149774661482e-05 0.021304900021448754 0 -6.0163506726381871e-07 0.016861984866010194 0 9.2578841881336711e-07 0.018805651492931268 0 -9.3692406884913075e-05 0.016998680623412452 0 9.2578841881336711e-07 0.018805651492931268 0 0.00038061891798128787 0.018252274528810741 0 -9.3692406884913075e-05 0.016998680623412452 0 0.00020182301875674386 0.020118936669367291 0 9.2578841881336711e-07 0.018805651492931268 0 0.00038061891798128787 0.018252274528810741 0 0.0021850586244484414 0.016355836471823267 0 0.00038061891798128787 0.018252274528810741 0 0.00065587316096433047 0.015827836800764397 0 0.00038061891798128787 0.018252274528810741 0 -6.3438636689296444e-05 0.01639925883569749 0 0.00065587316096433047 0.015827836800764397 0 0.00038061891798128787 0.018252274528810741 0 -9.3692406884913075e-05 0.016998680623412452 0 -6.3438636689296444e-05 0.01639925883569749 0 -0.00035355729551812413 0.015555745624300203 0 -9.3692406884913075e-05 0.016998680623412452 0 -6.3438636689296444e-05 0.01639925883569749 0 -0.00035355729551812413 0.015555745624300203 0 -6.3438636689296444e-05 0.01639925883569749 0 -0.00019006559320128719 0.015253095721830231 0 -6.3438636689296444e-05 0.01639925883569749 0 -0.00019006559320128719 0.015253095721830231 0 0.00065587316096433047 0.015827836800764397 0 0.00099313592156141596 0.015162267544213874 0 0.00068506430384799536 0.015747448272109176 0 0.00055552440061534553 0.014530560343289992 0 0.00065587316096433047 0.015827836800764397 0 -1.8908675400520338e-05 0.01448623027801209 0 -0.00044800606422674673 0.014507159890158541 0 -0.00019006559320128719 0.015253095721830231 0 -1.8908675400520338e-05 0.01448623027801209 0 -0.00019006559320128719 0.015253095721830231 0 0.00065587316096433047 0.015827836800764397 0 -1.8908675400520338e-05 0.01448623027801209 0 -0.00044800606422674673 0.014507159890158541 0 -1.8908675400520338e-05 0.01448623027801209 0 -0.00048005455004626336 0.014212027570605473 0 -1.8908675400520338e-05 0.01448623027801209 0 -0.00061495112764226544 0.014215353702990657 0 -0.00048005455004626336 0.014212027570605473 0 -0.00061495112764226544 0.014215353702990657 0 -0.00048005455004626336 0.014212027570605473 0 -0.00074135134555774345 0.014389021524655588 0 -0.000485710182013995 0.014209076851744605 0 -0.00048005455004626336 0.014212027570605473 0 -0.00074135134555774345 0.014389021524655588 0 -0.00074135134555774345 0.014389021524655588 0 -0.0012144969756331787 0.0141147958794816 0 -0.0013542444241169181 0.014922412343469317 0 -0.00061495112764226544 0.014215353702990657 0 -0.00074135134555774345 0.014389021524655588 0 -0.0012144969756331787 0.0141147958794816 0 -1.8908675400520338e-05 0.01448623027801209 0 -0.00061495112764226544 0.014215353702990657 0 -0.0012144969756331787 0.0141147958794816 0 -0.00010947151416912708 0.014466342750437544 0 -0.00045419098020366177 0.014530194290214897 0 0.00055552440061534553 0.014530560343289992 0 -1.8908675400520338e-05 0.01448623027801209 0 0.00047573586228235768 0.014491335884464818 0 0.00055552440061534553 0.014530560343289992 0 0.00047573586228235768 0.014491335884464818 0 0.00019420310725306211 0.014560488486167936 0 0.00099313592156141596 0.015162267544213874 0 0.0010308200058493856 0.014754032443110156 0 0.0016825112428225048 0.015269025269181051 0 0.001298988318832959 0.015529563867756755 0 0.0013505850978953145 0.016403379472140919 0 0.001298988318832959 0.015529563867756755 0 0.0009629373222079234 0.015956910196995536 0 0.0013505850978953145 0.016403379472140919 0 0.00070672363500955419 0.015565512627306672 0 0.001298988318832959 0.015529563867756755 0 0.0009629373222079234 0.015956910196995536 0 0.00034851883341105889 0.016356441376720928 0 0.0009629373222079234 0.015956910196995536 0 0.0013505850978953145 0.016403379472140919 0 0.00034851883341105889 0.016356441376720928 0 0.0013505850978953145 0.016403379472140919 0 0.00078468092581667967 0.017467737076488795 0 -0.00045419098020366177 0.014530194290214897 0 -0.00088271439179403411 0.014394152332757797 0 0.00047573586228235768 0.014491335884464818 0 0.00019420310725306211 0.014560488486167936 0 0.00035564471287805516 0.015178562769814377 0 0.0010308200058493856 0.014754032443110156 0 -0.00047087681579690568 0.020043196455132341 0 0.00019420310725306211 0.014560488486167936 0 0.00035564471287805516 0.015178562769814377 0 -0.00033944449722346422 0.015309197625885765 0 -0.0020085552437031349 0.024518187119387851 0 -0.0022261080589244656 0.024900846175950033 0 -0.002736832862321883 0.024060161733224211 0 -0.00047087681579690568 0.020043196455132341 0 -0.0019703754071894609 0.019390213516389639 0 0.00035564471287805516 0.015178562769814377 0 -0.00033944449722346422 0.015309197625885765 0 -6.5375998726641891e-05 0.016054814312477649 0 -0.0025058172899947908 0.024675121470448747 0 -0.00047087681579690568 0.020043196455132341 0 -0.0020085552437031349 0.024518187119387851 0 -0.002736832862321883 0.024060161733224211 0 -0.0022083045839668722 0.023997175097630264 0 -0.00088271439179403411 0.014394152332757797 0 -0.0019703754071894609 0.019390213516389639 0 -0.002441474981125135 0.014769214283484712 0 -0.0036686902748626353 0.01605893130570623 0 -0.002149166690084468 0.016132770897325881 0 -0.002441474981125135 0.014769214283484712 0 -0.0013542444241169181 0.014922412343469317 0 -0.002149166690084468 0.016132770897325881 0 -0.0011398264620198458 0.015684689457015382 0 -0.0013542444241169181 0.014922412343469317 0 -0.002149166690084468 0.016132770897325881 0 -0.00047553872733282338 0.015799527774645373 0 -0.00061311141898760281 0.014898155178310628 0 -0.0011398264620198458 0.015684689457015382 0 -0.00061311141898760281 0.014898155178310628 0 -0.0011398264620198458 0.015684689457015382 0 -0.0013542444241169181 0.014922412343469317 0 -0.00053474669099233475 0.014409570732027945 0 -0.00074135134555774345 0.014389021524655588 0 -0.00061311141898760281 0.014898155178310628 0 -0.00074135134555774345 0.014389021524655588 0 -0.00061311141898760281 0.014898155178310628 0 -0.0013542444241169181 0.014922412343469317 0 -0.0012144969756331787 0.0141147958794816 0 -0.002441474981125135 0.014769214283484712 0 -0.0013542444241169181 0.014922412343469317 0 -0.0021038713263568229 0.017966451033125618 0 -0.0012379381145954066 0.016900433131399356 0 -0.0014979288586868195 0.019154130260854153 0 -0.00047553872733282338 0.015799527774645373 0 -0.00070654250436274081 0.017320025546923724 0 -0.0012379381145954066 0.016900433131399356 0 -0.00070654250436274081 0.017320025546923724 0 -0.0012379381145954066 0.016900433131399356 0 -0.0014979288586868195 0.019154130260854153 0 -0.00047553872733282338 0.015799527774645373 0 -0.0011398264620198458 0.015684689457015382 0 -0.0012379381145954066 0.016900433131399356 0 -0.0011398264620198458 0.015684689457015382 0 -0.0012379381145954066 0.016900433131399356 0 -0.002149166690084468 0.016132770897325881 0 -0.0021038713263568229 0.017966451033125618 0 -0.0012379381145954066 0.016900433131399356 0 -0.002149166690084468 0.016132770897325881 0 -0.0021038713263568229 0.017966451033125618 0 -0.002149166690084468 0.016132770897325881 0 -0.0034593109631091295 0.017561742474662353 0 -0.0036686902748626353 0.01605893130570623 0 -0.002149166690084468 0.016132770897325881 0 -0.0034593109631091295 0.017561742474662353 0 -0.0019703754071894609 0.019390213516389639 0 -0.0027209716963528703 0.022928725742735401 0 -0.002736832862321883 0.024060161733224211 0 -0.0025904517055232112 0.023316787880903932 0 -0.0022083045839668722 0.023997175097630264 0 -0.0024412637156338325 0.021651166826716622 0 -0.0023331408740977582 0.021497571195929245 0 -0.0025499106369404104 0.021418450819298218 0 -0.0019703754071894609 0.019390213516389639 0 -0.0030505445293960713 0.019376201280299724 0 -0.0023331408740977582 0.021497571195929245 0 -0.0025499106369404104 0.021418450819298218 0 -0.002385956415265701 0.021213568585375042 0 -0.0023331408740977582 0.021497571195929245 0 -0.002385956415265701 0.021213568585375042 0 -0.0023430294011627106 0.021999287060625112 0 -0.0025499106369404104 0.021418450819298218 0 -0.0026205740611002261 0.020197953439345332 0 -0.002385956415265701 0.021213568585375042 0 -0.0021038713263568229 0.017966451033125618 0 -0.0034593109631091295 0.017561742474662353 0 -0.0026205740611002261 0.020197953439345332 0 -0.0030505445293960713 0.019376201280299724 0 -0.0026246399527252544 0.020239110140089792 0 -0.0026205740611002261 0.020197953439345332 0 -0.002385956415265701 0.021213568585375042 0 -0.0023429238744931136 0.021243368689510607 0 -0.0026205740611002261 0.020197953439345332 0 -0.0023429238744931136 0.021243368689510607 0 -0.0020526736327633418 0.02053019950624542 0 -0.0024630847644443281 0.021664704030085555 0 -0.002385956415265701 0.021213568585375042 0 -0.0023429238744931136 0.021243368689510607 0 -0.0024630847644443281 0.021664704030085555 0 -0.002385956415265701 0.021213568585375042 0 -0.0023430294011627106 0.021999287060625112 0 -0.0025499563120040553 0.02240688295799808 0 -0.0023429238744931136 0.021243368689510607 0 -0.0019363662045779829 0.021920960494080138 0 -0.0024630847644443281 0.021664704030085555 0 -0.0025499563120040553 0.02240688295799808 0 -0.0023429238744931136 0.021243368689510607 0 -0.0023429238744931136 0.021243368689510607 0 -0.0020526736327633418 0.02053019950624542 0 -0.0018518319333475323 0.021177827074658685 0 -0.0020526736327633418 0.02053019950624542 0 -0.0014979288586868195 0.019154130260854153 0 -0.0015600909523673032 0.020707667957098403 0 -0.0020526736327633418 0.02053019950624542 0 -0.0015600909523673032 0.020707667957098403 0 -0.0018518319333475323 0.021177827074658685 0 -0.0021038713263568229 0.017966451033125618 0 -0.0026205740611002261 0.020197953439345332 0 -0.0014979288586868195 0.019154130260854153 0 -0.0026205740611002261 0.020197953439345332 0 -0.0020526736327633418 0.02053019950624542 0 -0.0014979288586868195 0.019154130260854153 0 -0.00019814653465310351 0.019825505080596422 0 -0.00070654250436274081 0.017320025546923724 0 -0.0014979288586868195 0.019154130260854153 0 -0.00019814653465310351 0.019825505080596422 0 -0.0017997303948087428 0.021016867320531131 0 -0.0015600909523673032 0.020707667957098403 0 -0.00019814653465310351 0.019825505080596422 0 -0.0014979288586868195 0.019154130260854153 0 -0.0015600909523673032 0.020707667957098403 0 -0.0017997303948087428 0.021016867320531131 0 -0.0015600909523673032 0.020707667957098403 0 -0.0016833692929336256 0.020862473866599271 0 -0.0015600909523673032 0.020707667957098403 0 -0.0018518319333475323 0.021177827074658685 0 -0.0016833692929336256 0.020862473866599271 0 -0.0017997303948087428 0.021016867320531131 0 -0.0016833692929336256 0.020862473866599271 0 -0.0023874509867901519 0.018468841233262527 0 -0.0016360947420334775 0.017962661429532085 0 -0.0022847029334022934 0.018386035300536323 0 -0.0016833692929336256 0.020862473866599271 0 -0.001832795786790056 0.019310528865148672 0 -0.0014052612716288573 0.021350872840886423 0 -0.0016833692929336256 0.020862473866599271 0 -0.0023874509867901519 0.018468841233262527 0 -0.001832795786790056 0.019310528865148672 0 -0.001832795786790056 0.019310528865148672 0 -0.001088224862716131 0.018539192707529024 0 -0.0023109091693187668 0.018381058959839582 0 -0.0016901394666402178 0.017458617710229454 0 -0.0023874509867901519 0.018468841233262527 0 -0.0023109091693187668 0.018381058959839582 0 -0.0023874509867901519 0.018468841233262527 0 -0.001832795786790056 0.019310528865148672 0 -0.0023109091693187668 0.018381058959839582 0 -0.00065635297790024973 0.019500391887166027 0 0.00063846596635207524 0.01880172732335101 0 -0.001088224862716131 0.018539192707529024 0 -0.00065635297790024973 0.019500391887166027 0 0.00063188944427226888 0.01992267717619205 0 0.00063846596635207524 0.01880172732335101 0 -0.001832795786790056 0.019310528865148672 0 -0.00065635297790024973 0.019500391887166027 0 -0.001088224862716131 0.018539192707529024 0 -0.001832795786790056 0.019310528865148672 0 -0.00065635297790024973 0.019500391887166027 0 -0.0014052612716288573 0.021350872840886423 0 -0.0015459213164644141 0.021664568431591608 0 -0.00070836668068306882 0.021402259199232571 0 -0.00065635297790024973 0.019500391887166027 0 -0.0014052612716288573 0.021350872840886423 0 0.00063188944427226888 0.01992267717619205 0 -0.0014052612716288573 0.021350872840886423 0 -0.0023333632210934844 0.02382738468689467 0 -0.0024519919443709523 0.023241235741245252 0 -0.0014052612716288573 0.021350872840886423 0 -0.0019363662045779829 0.021920960494080138 0 -0.0024519919443709523 0.023241235741245252 0 -0.0016833692929336256 0.020862473866599271 0 -0.0014052612716288573 0.021350872840886423 0 -0.0019363662045779829 0.021920960494080138 0 -0.0023429238744931136 0.021243368689510607 0 -0.0018518319333475323 0.021177827074658685 0 -0.0019363662045779829 0.021920960494080138 0 -0.0018518319333475323 0.021177827074658685 0 -0.0016833692929336256 0.020862473866599271 0 -0.0019363662045779829 0.021920960494080138 0 -0.0025499563120040553 0.02240688295799808 0 -0.0019363662045779829 0.021920960494080138 0 -0.0024519919443709523 0.023241235741245252 0 -0.0025499563120040553 0.02240688295799808 0 -0.0027139690207776523 0.024211403464823776 0 -0.0024519919443709523 0.023241235741245252 0 -0.0027139690207776523 0.024211403464823776 0 -0.0025721614180427314 0.024701350437004645 0 -0.0022790074195770046 0.026089097857304705 0 -0.0025721614180427314 0.024701350437004645 0 -0.0024519919443709523 0.023241235741245252 0 -0.0025741693111573116 0.024207208736519176 0 -0.0027139690207776523 0.024211403464823776 0 -0.0025721614180427314 0.024701350437004645 0 -0.0024519919443709523 0.023241235741245252 0 -0.0023333632210934844 0.02382738468689467 0 -0.0024519919443709523 0.023241235741245252 0 -0.0025741693111573116 0.024207208736519176 0 -0.0025741693111573116 0.024207208736519176 0 -0.0025564400165927524 0.024375510613864483 0 -0.0024185372652504671 0.024790612415822488 0 -0.0025721614180427314 0.024701350437004645 0 -0.0025741693111573116 0.024207208736519176 0 -0.0024185372652504671 0.024790612415822488 0 -0.00061858446833945851 0.024600476530902183 0 0.000275696790226667 0.022479204261178515 0 0.00063188944427226888 0.01992267717619205 0 0.0021267303395361196 0.019098571373111273 0 0.00063846596635207524 0.01880172732335101 0 -0.0023333632210934844 0.02382738468689467 0 -0.0025741693111573116 0.024207208736519176 0 -0.0025564400165927524 0.024375510613864483 0 -0.00070836668068306882 0.021402259199232571 0 -0.00061858446833945851 0.024600476530902183 0 -0.00095352279603243154 0.029164695541832278 0 -0.00087219709028386037 0.029094813656895618 0 -0.0010455984722910409 0.029117011609209747 0 -0.0022153582589751731 0.024587955951885863 0 -0.001827097082764957 0.025603719859910414 0 -0.0013948982808274341 0.025026992401080528 0 -0.0016588518420271609 0.0269886191129887 0 -0.0014175298696359488 0.026849564874252482 0 -0.00095352279603243154 0.029164695541832278 0 -0.0010455984722910409 0.029117011609209747 0 -0.0010081882800617231 0.029219601202787202 0 -0.00095352279603243154 0.029164695541832278 0 -0.00087219709028386037 0.029094813656895618 0 -0.0008804877467119438 0.029235832626786629 0 -0.0025564400165927524 0.024375510613864483 0 -0.0022153582589751731 0.024587955951885863 0 -0.0024185372652504671 0.024790612415822488 0 -0.00061858446833945851 0.024600476530902183 0 -0.0016588518420271609 0.0269886191129887 0 -0.00065261634766909649 0.029073021828943026 0 -0.00087219709028386037 0.029094813656895618 0 -0.00084994911194323107 0.02922938504317708 0 -0.0022153582589751731 0.024587955951885863 0 -0.0024185372652504671 0.024790612415822488 0 -0.001827097082764957 0.025603719859910414 0 -0.001827097082764957 0.025603719859910414 0 -0.0020567197483230691 0.025871828568387132 0 -0.0013409402414866994 0.026932538234589614 0 -0.0024185372652504671 0.024790612415822488 0 -0.001827097082764957 0.025603719859910414 0 -0.0020567197483230691 0.025871828568387132 0 -0.0025721614180427314 0.024701350437004645 0 -0.0024185372652504671 0.024790612415822488 0 -0.0020567197483230691 0.025871828568387132 0 -0.0020567197483230691 0.025871828568387132 0 -0.0022790074195770046 0.026089097857304705 0 -0.0014388961043182629 0.027685113684611306 0 -0.0025721614180427314 0.024701350437004645 0 -0.0020567197483230691 0.025871828568387132 0 -0.0022790074195770046 0.026089097857304705 0 -0.0020567197483230691 0.025871828568387132 0 -0.0014388961043182629 0.027685113684611306 0 -0.0013409402414866994 0.026932538234589614 0 -0.0014388961043182629 0.027685113684611306 0 -0.0020096905363183007 0.028319035540262497 0 -0.0010688621481876844 0.028978408913823424 0 -0.0022790074195770046 0.026089097857304705 0 -0.0014388961043182629 0.027685113684611306 0 -0.0020096905363183007 0.028319035540262497 0 -0.0011806193139117045 0.025323904940872645 0 8.8504359288448512e-05 0.026658691290265279 0 -0.0020096905363183007 0.028319035540262497 0 -0.00077522712143924773 0.030232757443763393 0 -0.0010688621481876844 0.028978408913823424 0 -0.0011806193139117045 0.025323904940872645 0 -0.0022331480855698957 0.023760674925332771 0 -0.00049352747809114285 0.022299060584365395 0 -0.0013399501412302782 0.022524724995487671 0 -0.00040518982816915475 0.023596426133646806 0 -0.00049352747809114285 0.022299060584365395 0 -0.0020014425754480308 0.021662084756974259 0 -0.0013399501412302782 0.022524724995487671 0 -0.0022790074195770046 0.026089097857304705 0 -0.0020096905363183007 0.028319035540262497 0 -0.0027966076741536973 0.025799215050606703 0 -0.0027139690207776523 0.024211403464823776 0 -0.0022790074195770046 0.026089097857304705 0 -0.0027966076741536973 0.025799215050606703 0 -0.0024630847644443281 0.021664704030085555 0 -0.0025499563120040553 0.02240688295799808 0 -0.0020014425754480308 0.021662084756974259 0 -0.0024128007056648491 0.022693438405701895 0 -0.0022331480855698957 0.023760674925332771 0 -0.0025499563120040553 0.02240688295799808 0 -0.0027139690207776523 0.024211403464823776 0 -0.0027966076741536973 0.025799215050606703 0 -0.0024630847644443281 0.021664704030085555 0 -0.0020014425754480308 0.021662084756974259 0 -0.0023430294011627106 0.021999287060625112 0 -0.0020014425754480308 0.021662084756974259 0 -0.0023430294011627106 0.021999287060625112 0 -0.0013399501412302782 0.022524724995487671 0 -0.0013399501412302782 0.022524724995487671 0 -0.0014743943932929624 0.023064529084308963 0 -0.0010033165528162467 0.023487782260078381 0 -0.0023430294011627106 0.021999287060625112 0 -0.0013399501412302782 0.022524724995487671 0 -0.0014743943932929624 0.023064529084308963 0 -0.0014743943932929624 0.023064529084308963 0 -0.001907455011468349 0.023361033601105897 0 -0.001222103942574274 0.023846289988755969 0 -0.0014743943932929624 0.023064529084308963 0 -0.001222103942574274 0.023846289988755969 0 -0.0010033165528162467 0.023487782260078381 0 -0.0023430294011627106 0.021999287060625112 0 -0.0014743943932929624 0.023064529084308963 0 -0.001907455011468349 0.023361033601105897 0 -0.0025904517055232112 0.023316787880903932 0 -0.0023430294011627106 0.021999287060625112 0 -0.001907455011468349 0.023361033601105897 0 -0.0027209716963528703 0.022928725742735401 0 -0.0022139815543283313 0.021818634570424381 0 -0.0025904517055232112 0.023316787880903932 0 -0.001907455011468349 0.023361033601105897 0 -0.0022083045839668722 0.023997175097630264 0 -0.001907455011468349 0.023361033601105897 0 -0.0016504780828959717 0.023969007387601427 0 -0.0022083045839668722 0.023997175097630264 0 -0.00095234224778170792 0.02447824394124555 0 -0.0016504780828959717 0.023969007387601427 0 -0.001222103942574274 0.023846289988755969 0 -0.001907455011468349 0.023361033601105897 0 -0.0016504780828959717 0.023969007387601427 0 -0.001222103942574274 0.023846289988755969 0 -0.00095234224778170792 0.02447824394124555 0 -0.001222103942574274 0.023846289988755969 0 -0.00060660469140241401 0.024275730500911918 0 -0.001222103942574274 0.023846289988755969 0 -0.00060660469140241401 0.024275730500911918 0 -0.0010033165528162467 0.023487782260078381 0 -0.00060660469140241401 0.024275730500911918 0 -0.00040518982816915475 0.023596426133646806 0 -0.0010033165528162467 0.023487782260078381 0 -0.0002677652428187053 0.024763136358676077 0 -0.00060660469140241401 0.024275730500911918 0 -0.00022250706472075435 0.024459243935197553 0 -0.0002677652428187053 0.024763136358676077 0 -0.00022250706472075435 0.024459243935197553 0 -9.0335073190628385e-05 0.024919641773584956 0 -0.00060660469140241401 0.024275730500911918 0 -0.00022250706472075435 0.024459243935197553 0 -0.00040518982816915475 0.023596426133646806 0 -0.00022250706472075435 0.024459243935197553 0 -0.00040518982816915475 0.023596426133646806 0 2.7654549540214298e-05 0.024704061166192649 0 -0.00040639602659517382 0.023700608299614064 0 0.00043567508282755314 0.024265680199930244 0 -0.00049352747809114285 0.022299060584365395 0 -0.00040518982816915475 0.023596426133646806 0 0.00093835830988711762 0.023147442169143256 0 -0.0013399501412302782 0.022524724995487671 0 -0.00040518982816915475 0.023596426133646806 0 -0.0010033165528162467 0.023487782260078381 0 8.8504359288448512e-05 0.026658691290265279 0 0.001329432019437735 0.027480014784012931 0 0.00098578085861493144 0.023839319232765829 0 0.0020668211606282468 0.024092701925906158 0 0.0020493170333566054 0.023821851308866358 0 0.00093835830988711762 0.023147442169143256 0 0.00098578085861493144 0.023839319232765829 0 0.0020493170333566054 0.023821851308866358 0 -0.00077522712143924773 0.030232757443763393 0 0.00036998656901016645 0.031154601985642044 0 -0.00011574107238174509 0.030451940626262653 0 0.0001946760713990246 0.030705189484121469 0 0.00036998656901016645 0.031154601985642044 0 -0.00011574107238174509 0.030451940626262653 0 -0.00040518982816915475 0.023596426133646806 0 0.00093835830988711762 0.023147442169143256 0 0.00098578085861493144 0.023839319232765829 0 2.7654549540214298e-05 0.024704061166192649 0 -9.0335073190628385e-05 0.024919641773584956 0 1.340821049814398e-05 0.025085983048915551 0 2.7654549540214298e-05 0.024704061166192649 0 1.340821049814398e-05 0.025085983048915551 0 7.5961411398079489e-05 0.025403874461118376 0 -0.00022250706472075435 0.024459243935197553 0 2.7654549540214298e-05 0.024704061166192649 0 -9.0335073190628385e-05 0.024919641773584956 0 1.4404874830628413e-05 0.025284392633511371 0 -9.0335073190628385e-05 0.024919641773584956 0 1.340821049814398e-05 0.025085983048915551 0 0.00043567508282755314 0.024265680199930244 0 0.0010792868120817973 0.024668193701014512 0 2.7654549540214298e-05 0.024704061166192649 0 7.5961411398079489e-05 0.025403874461118376 0 0.00011646674848357035 0.025635318593648211 0 1.4404874830628413e-05 0.025284392633511371 0 1.340821049814398e-05 0.025085983048915551 0 7.5961411398079489e-05 0.025403874461118376 0 7.5961411398079489e-05 0.025403874461118376 0 0.00010219386181508626 0.025688582080749579 0 0.00011646674848357035 0.025635318593648211 0 7.5961411398079489e-05 0.025403874461118376 0 9.4993626382149345e-05 0.025689556574329017 0 0.00010219386181508626 0.025688582080749579 0 9.4993626382149345e-05 0.025689556574329017 0 0.00010219386181508626 0.025688582080749579 0 0.00010381507930821949 0.025896924705634403 0 8.9696626961483357e-05 0.026206164067836338 0 0.00011646674848357035 0.025635318593648211 0 8.4053177358447308e-05 0.026651083750808619 0 0.00067190559725257735 0.030817266662989881 0 0.00056255625440287482 0.031017365096096781 0 0.00036998656901016645 0.031154601985642044 0 0.0020668211606282468 0.024092701925906158 0 0.0029200954061962209 0.024373744528205062 0 0.0020493170333566054 0.023821851308866358 0 0.0011301600528813515 0.027504035620653591 0 0.001329432019437735 0.027480014784012931 0 0.0010792868120817973 0.024668193701014512 0 0.0011301600528813515 0.027504035620653591 0 0.00010219386181508626 0.025688582080749579 0 0.00010502646487909474 0.025906132486481954 0 0.00010381507930821949 0.025896924705634403 0 0.00010502646487909474 0.025906132486481954 0 0.00010381507930821949 0.025896924705634403 0 9.3182339407752015e-05 0.026151259862700071 0 9.7775650111130841e-05 0.026099037739149705 0 0.00010381507930821949 0.025896924705634403 0 9.3182339407752015e-05 0.026151259862700071 0 9.7775650111130841e-05 0.026099037739149705 0 9.3182339407752015e-05 0.026151259862700071 0 7.4988676100417304e-05 0.026382180150957397 0 9.3182339407752015e-05 0.026151259862700071 0 8.9696626961483357e-05 0.026206164067836338 0 7.5466317240353438e-05 0.026384273485849496 0 0.00010502646487909474 0.025906132486481954 0 9.3182339407752015e-05 0.026151259862700071 0 8.9696626961483357e-05 0.026206164067836338 0 0.00010502646487909474 0.025906132486481954 0 8.9696626961483357e-05 0.026206164067836338 0 0.00011646674848357035 0.025635318593648211 0 0.00010219386181508626 0.025688582080749579 0 0.00010502646487909474 0.025906132486481954 0 0.00011646674848357035 0.025635318593648211 0 -3.9990968554404859e-05 0.027012472320816407 0 8.4053177358447308e-05 0.026651083750808619 0 -0.00025861446280596142 0.027570951307202596 0 -1.7954282239191159e-06 0.02679788291633952 0 2.6442443704386795e-05 0.026768581431642763 0 4.4803098692206762e-05 0.026596122650223677 0 -1.7954282239191159e-06 0.02679788291633952 0 -3.9990968554404859e-05 0.027012472320816407 0 2.6442443704386795e-05 0.026768581431642763 0 -3.9990968554404859e-05 0.027012472320816407 0 2.6442443704386795e-05 0.026768581431642763 0 8.4053177358447308e-05 0.026651083750808619 0 2.6442443704386795e-05 0.026768581431642763 0 6.6586008562615924e-05 0.026510712248449291 0 8.4053177358447308e-05 0.026651083750808619 0 2.6442443704386795e-05 0.026768581431642763 0 6.6586008562615924e-05 0.026510712248449291 0 5.8743055306514058e-05 0.026544057801746825 0 6.6586008562615924e-05 0.026510712248449291 0 5.8743055306514058e-05 0.026544057801746825 0 7.5466317240353438e-05 0.026384273485849496 0 5.8743055306514058e-05 0.026544057801746825 0 4.4803098692206762e-05 0.026596122650223677 0 7.4988676100417304e-05 0.026382180150957397 0 2.6442443704386795e-05 0.026768581431642763 0 5.8743055306514058e-05 0.026544057801746825 0 4.4803098692206762e-05 0.026596122650223677 0 9.3182339407752015e-05 0.026151259862700071 0 7.4988676100417304e-05 0.026382180150957397 0 7.5466317240353438e-05 0.026384273485849496 0 5.8743055306514058e-05 0.026544057801746825 0 7.4988676100417304e-05 0.026382180150957397 0 7.5466317240353438e-05 0.026384273485849496 0 8.9696626961483357e-05 0.026206164067836338 0 6.6586008562615924e-05 0.026510712248449291 0 7.5466317240353438e-05 0.026384273485849496 0 8.9696626961483357e-05 0.026206164067836338 0 6.6586008562615924e-05 0.026510712248449291 0 8.4053177358447308e-05 0.026651083750808619 0 0.00067190559725257735 0.030817266662989881 0 0.00059396032985578715 0.030973779932312841 0 0.00056255625440287482 0.031017365096096781 0 0.00067190559725257735 0.030817266662989881 0 0.00054370164764285661 0.030926730586930653 0 0.00059396032985578715 0.030973779932312841 0 0.00054370164764285661 0.030926730586930653 0 0.000663875582985993 0.030628429809157001 0 0.0002364547746204363 0.030881514444748719 0 0.00067190559725257735 0.030817266662989881 0 0.00054370164764285661 0.030926730586930653 0 0.000663875582985993 0.030628429809157001 0 0.0011301600528813515 0.027504035620653591 0 0.0011115963492971861 0.027791403139658392 0 0.00045351593860218581 0.031391190868381685 0 0.00053095186639602794 0.031214711110958533 0 0.00035856994940965386 0.03158006731004015 0 0.00054370164764285661 0.030926730586930653 0 0.00045351593860218581 0.031391190868381685 0 0.0002364547746204363 0.030881514444748719 0 0.00054370164764285661 0.030926730586930653 0 0.00045351593860218581 0.031391190868381685 0 0.00056556441554203715 0.031155827675494397 0 0.00054370164764285661 0.030926730586930653 0 0.00059396032985578715 0.030973779932312841 0 0.00056556441554203715 0.031155827675494397 0 0.00056556441554203715 0.031155827675494397 0 0.00056255625440287482 0.031017365096096781 0 0.00053095186639602794 0.031214711110958533 0 0.00059396032985578715 0.030973779932312841 0 0.00056556441554203715 0.031155827675494397 0 0.00056255625440287482 0.031017365096096781 0 0.00045351593860218581 0.031391190868381685 0 0.00056556441554203715 0.031155827675494397 0 0.00053095186639602794 0.031214711110958533 0 0.00056255625440287482 0.031017365096096781 0 0.00036998656901016645 0.031154601985642044 0 0.00049472972396601069 0.03103902349166773 0 0.00056255625440287482 0.031017365096096781 0 0.00053095186639602794 0.031214711110958533 0 0.00049472972396601069 0.03103902349166773 0 0.00053095186639602794 0.031214711110958533 0 0.00049472972396601069 0.03103902349166773 0 0.00041169835760205273 0.030825164855507237 0 0.00036998656901016645 0.031154601985642044 0 0.00049472972396601069 0.03103902349166773 0 0.00038362633250329815 0.030922312200705748 0 0.0001946760713990246 0.030705189484121469 0 0.00038362633250329815 0.030922312200705748 0 0.00041169835760205273 0.030825164855507237 0 0.0001946760713990246 0.030705189484121469 0 0.00036998656901016645 0.031154601985642044 0 0.00038362633250329815 0.030922312200705748 0 0.00049472972396601069 0.03103902349166773 0 0.00038362633250329815 0.030922312200705748 0 0.00041169835760205273 0.030825164855507237 0 0.00041169835760205273 0.030825164855507237 0 0.00025499607708844317 0.030444105901538052 0 3.5094038826516146e-05 0.030327493566015707 0 0.00053095186639602794 0.031214711110958533 0 0.00041169835760205273 0.030825164855507237 0 0.00042522196448884099 0.030861387690838394 0 0.00041169835760205273 0.030825164855507237 0 0.00042522196448884099 0.030861387690838394 0 0.00025499607708844317 0.030444105901538052 0 0.00042522196448884099 0.030861387690838394 0 0.00025499607708844317 0.030444105901538052 0 0.00018866810446983086 0.030037326354567018 0 0.00042522196448884099 0.030861387690838394 0 0.00035856994940965386 0.03158006731004015 0 0.00037276353255408023 0.031332761052346288 0 0.00053095186639602794 0.031214711110958533 0 0.00042522196448884099 0.030861387690838394 0 0.00035856994940965386 0.03158006731004015 0 0.00042522196448884099 0.030861387690838394 0 0.00037276353255408023 0.031332761052346288 0 0.00046297838473325964 0.03042246548763607 0 0.00042522196448884099 0.030861387690838394 0 0.00018866810446983086 0.030037326354567018 0 0.00046297838473325964 0.03042246548763607 0 0.00018866810446983086 0.030037326354567018 0 0.00046297838473325964 0.03042246548763607 0 0.00020675464911487523 0.029637927992001181 0 0.00018866810446983086 0.030037326354567018 0 -0.00020823316591116428 0.029224556788717056 0 0.00020675464911487523 0.029637927992001181 0 -0.00020823316591116428 0.029224556788717056 0 -0.00010414078022813338 0.029816806846503518 0 -0.00069098991062665485 0.028933612683098252 0 0.00018866810446983086 0.030037326354567018 0 -0.00020823316591116428 0.029224556788717056 0 -0.00010414078022813338 0.029816806846503518 0 0.00025499607708844317 0.030444105901538052 0 -0.00010414078022813338 0.029816806846503518 0 3.5094038826516146e-05 0.030327493566015707 0 0.00025499607708844317 0.030444105901538052 0 0.00018866810446983086 0.030037326354567018 0 -0.00010414078022813338 0.029816806846503518 0 -0.00010414078022813338 0.029816806846503518 0 3.5094038826516146e-05 0.030327493566015707 0 -0.00046247075509159882 0.029747113377702028 0 -0.00010414078022813338 0.029816806846503518 0 -0.00046247075509159882 0.029747113377702028 0 -0.00069098991062665485 0.028933612683098252 0 -0.00011574107238174509 0.030451940626262653 0 3.5094038826516146e-05 0.030327493566015707 0 -0.00046247075509159882 0.029747113377702028 0 0.0001946760713990246 0.030705189484121469 0 0.00041169835760205273 0.030825164855507237 0 3.5094038826516146e-05 0.030327493566015707 0 0.0001946760713990246 0.030705189484121469 0 -0.00011574107238174509 0.030451940626262653 0 3.5094038826516146e-05 0.030327493566015707 0 -0.00077522712143924773 0.030232757443763393 0 -0.00046247075509159882 0.029747113377702028 0 -0.0010688621481876844 0.028978408913823424 0 -0.00077522712143924773 0.030232757443763393 0 -0.00011574107238174509 0.030451940626262653 0 -0.00046247075509159882 0.029747113377702028 0 -0.00046247075509159882 0.029747113377702028 0 -0.0010688621481876844 0.028978408913823424 0 -0.00069098991062665485 0.028933612683098252 0 -0.0014388961043182629 0.027685113684611306 0 -0.0010688621481876844 0.028978408913823424 0 -0.00069098991062665485 0.028933612683098252 0 -0.00020823316591116428 0.029224556788717056 0 -0.00069098991062665485 0.028933612683098252 0 -0.00079441335129658459 0.028165698445030991 0 -0.0014388961043182629 0.027685113684611306 0 -0.00069098991062665485 0.028933612683098252 0 -0.00079441335129658459 0.028165698445030991 0 -0.0014388961043182629 0.027685113684611306 0 -0.00079441335129658459 0.028165698445030991 0 -0.0013409402414866994 0.026932538234589614 0 -0.00079441335129658459 0.028165698445030991 0 -0.0013409402414866994 0.026932538234589614 0 -0.00068636448465139938 0.027645778757474707 0 -0.00020823316591116428 0.029224556788717056 0 -0.00017999471934866343 0.028650169025642609 0 0.00020675464911487523 0.029637927992001181 0 -0.00020823316591116428 0.029224556788717056 0 -0.00079441335129658459 0.028165698445030991 0 -0.00017999471934866343 0.028650169025642609 0 -0.00079441335129658459 0.028165698445030991 0 -0.00017999471934866343 0.028650169025642609 0 -0.00068636448465139938 0.027645778757474707 0 -0.00017999471934866343 0.028650169025642609 0 -0.00016992020829967156 0.027775686057535495 0 0.00084433427742389177 0.029899472601537514 0 -0.00016992020829967156 0.027775686057535495 0 -0.00087060505326387887 0.026581467594560475 0 0.00055335897472147584 0.02696328290444901 0 -0.00017999471934866343 0.028650169025642609 0 -0.00016992020829967156 0.027775686057535495 0 -0.00068636448465139938 0.027645778757474707 0 -0.00016992020829967156 0.027775686057535495 0 -0.00068636448465139938 0.027645778757474707 0 -0.00087060505326387887 0.026581467594560475 0 -0.001827097082764957 0.025603719859910414 0 -0.0013409402414866994 0.026932538234589614 0 -0.00087060505326387887 0.026581467594560475 0 -0.0013409402414866994 0.026932538234589614 0 -0.00068636448465139938 0.027645778757474707 0 -0.00087060505326387887 0.026581467594560475 0 -0.001827097082764957 0.025603719859910414 0 -0.00087060505326387887 0.026581467594560475 0 -0.0013948982808274341 0.025026992401080528 0 -0.00087060505326387887 0.026581467594560475 0 -0.00011235682027583142 0.025497428287053037 0 -0.0013948982808274341 0.025026992401080528 0 -0.00087060505326387887 0.026581467594560475 0 -0.00011235682027583142 0.025497428287053037 0 0.00055335897472147584 0.02696328290444901 0 0.00015768768339298903 0.030326370078185526 0 0.00094563575554972295 0.029036754411415761 0 -7.655766080080743e-05 0.034062761044566632 0 -0.00024936935121157728 0.033868690478715019 0 -0.00016195325303972773 0.033835115540787067 0 -6.9632332667353273e-05 0.034066200845794835 0 -7.655766080080743e-05 0.034062761044566632 0 -0.00016195325303972773 0.033835115540787067 0 0.00015768768339298903 0.030326370078185526 0 -0.00071448124955976748 0.031518791737524351 0 -6.9632332667353273e-05 0.034066200845794835 0 6.1660346171211829e-05 0.034206039183058146 0 -1.6280330174469969e-05 0.03417153972802426 0 -6.9632332667353273e-05 0.034066200845794835 0 -5.176796631249988e-05 0.034143285818282285 0 -1.6280330174469969e-05 0.03417153972802426 0 -8.2629536685900173e-05 0.034031644605359894 0 -2.935263910907724e-06 0.034075691420983337 0 0.00015768768339298903 0.030326370078185526 0 -0.0014175298696359488 0.026849564874252482 0 -0.0011701588316658238 0.029123585603115131 0 -0.0010455984722910409 0.029117011609209747 0 -0.0011168565783977744 0.029223749749123746 0 -0.0010455984722910409 0.029117011609209747 0 -0.0011168565783977744 0.029223749749123746 0 -0.0010081882800617231 0.029219601202787202 0 -0.00013298025067351861 0.034127663931182856 0 -0.00014557458741962348 0.034050951755786381 0 -0.00024865702605246086 0.034143066173847873 0 -0.00013298025067351861 0.034127663931182856 0 -0.00024865702605246086 0.034143066173847873 0 -0.00017579217802375825 0.034218165286562997 0 0.00015768768339298903 0.030326370078185526 0 0.00042657907302180161 0.033364086853439626 0 -0.00013298025067351861 0.034127663931182856 0 -8.2188957201165329e-05 0.034141170824377121 0 -0.00010651211317084582 0.034201100108080362 0 -6.9632332667353273e-05 0.034066200845794835 0 -0.00013298025067351861 0.034127663931182856 0 -0.00014557458741962348 0.034050951755786381 0 -6.9632332667353273e-05 0.034066200845794835 0 -7.655766080080743e-05 0.034062761044566632 0 -0.00014557458741962348 0.034050951755786381 0 -6.9632332667353273e-05 0.034066200845794835 0 -0.00013298025067351861 0.034127663931182856 0 -8.2188957201165329e-05 0.034141170824377121 0 -6.9632332667353273e-05 0.034066200845794835 0 -5.176796631249988e-05 0.034143285818282285 0 -8.2188957201165329e-05 0.034141170824377121 0 0.0016150350554632201 0.031351574755538111 0 0.00054661675417071209 0.031969866578038242 0 0.0007290127089208101 0.031201548057756684 0 0.002193998189257515 0.032230069610335504 0 0.0016150350554632201 0.031351574755538111 0 0.00054661675417071209 0.031969866578038242 0 0.00054661675417071209 0.031969866578038242 0 0.00021788826399754684 0.031331587487443233 0 1.0982026269229732e-06 0.031750113273063089 0 0.00054661675417071209 0.031969866578038242 0 0.0007290127089208101 0.031201548057756684 0 0.00021788826399754684 0.031331587487443233 0 0.0007290127089208101 0.031201548057756684 0 0.00021788826399754684 0.031331587487443233 0 0.00084433427742389177 0.029899472601537514 0 0.00021788826399754684 0.031331587487443233 0 0.00084433427742389177 0.029899472601537514 0 0.00037885283208016448 0.031004422984216195 0 0.00021788826399754684 0.031331587487443233 0 0.00037885283208016448 0.031004422984216195 0 0.00011836122181000011 0.031645942743724176 0 -0.00016992020829967156 0.027775686057535495 0 0.00055335897472147584 0.02696328290444901 0 0.00084433427742389177 0.029899472601537514 0 0.00094563575554972295 0.029036754411415761 0 0.00092945782718466317 0.029685497582590176 0 0.0016150350554632201 0.031351574755538111 0 0.0007290127089208101 0.031201548057756684 0 0.00084433427742389177 0.029899472601537514 0 -0.00017999471934866343 0.028650169025642609 0 0.00084433427742389177 0.029899472601537514 0 0.00020675464911487523 0.029637927992001181 0 0.00046297838473325964 0.03042246548763607 0 0.00084433427742389177 0.029899472601537514 0 0.00020675464911487523 0.029637927992001181 0 0.00046297838473325964 0.03042246548763607 0 0.00084433427742389177 0.029899472601537514 0 0.00037885283208016448 0.031004422984216195 0 0.00037276353255408023 0.031332761052346288 0 0.00046297838473325964 0.03042246548763607 0 0.00037885283208016448 0.031004422984216195 0 0.00037276353255408023 0.031332761052346288 0 0.00037885283208016448 0.031004422984216195 0 0.00016939731996421534 0.031981284122005044 0 0.00037885283208016448 0.031004422984216195 0 0.00016939731996421534 0.031981284122005044 0 0.00011836122181000011 0.031645942743724176 0 0.00016939731996421534 0.031981284122005044 0 0.00022165890789440021 0.033080700245169077 0 0.00018299599766730546 0.032309322593073189 0 0.00016939731996421534 0.031981284122005044 0 0.00022165890789440021 0.033080700245169077 0 0.00013605594953366946 0.032784673508127346 0 0.00016939731996421534 0.031981284122005044 0 0.00013605594953366946 0.032784673508127346 0 3.0589967926047487e-05 0.03211774591371136 0 0.00013605594953366946 0.032784673508127346 0 6.824450745290258e-05 0.032062631582031251 0 0.00051283909406818701 0.031837399871908749 0 3.0589967926047487e-05 0.03211774591371136 0 -5.2649365052677361e-06 0.031951782610599562 0 6.824450745290258e-05 0.032062631582031251 0 0.00013605594953366946 0.032784673508127346 0 3.0589967926047487e-05 0.03211774591371136 0 6.824450745290258e-05 0.032062631582031251 0 0.00016939731996421534 0.031981284122005044 0 3.0589967926047487e-05 0.03211774591371136 0 0.00011836122181000011 0.031645942743724176 0 3.0589967926047487e-05 0.03211774591371136 0 0.00011836122181000011 0.031645942743724176 0 1.0982026269229732e-06 0.031750113273063089 0 3.0589967926047487e-05 0.03211774591371136 0 1.0982026269229732e-06 0.031750113273063089 0 -5.2649365052677361e-06 0.031951782610599562 0 0.00021788826399754684 0.031331587487443233 0 0.00011836122181000011 0.031645942743724176 0 1.0982026269229732e-06 0.031750113273063089 0 0.00042657907302180161 0.033364086853439626 0 -0.00020776964273656518 0.033113453061098211 0 0.00054661675417071209 0.031969866578038242 0 -0.00011352549624024972 0.031926742711711267 0 1.0982026269229732e-06 0.031750113273063089 0 -0.00020776964273656518 0.033113453061098211 0 -0.00020585454177276171 0.03284646612377394 0 -0.00011352549624024972 0.031926742711711267 0 -9.4894680900477768e-05 0.031878436222164727 0 1.0982026269229732e-06 0.031750113273063089 0 -9.4894680900477768e-05 0.031878436222164727 0 1.0982026269229732e-06 0.031750113273063089 0 -5.2649365052677361e-06 0.031951782610599562 0 -0.00020776964273656518 0.033113453061098211 0 0.00018375835972965818 0.0339673376701385 0 8.637646259907767e-05 0.033946467503957238 0 -0.00023590081715490731 0.034272706272810483 0 -0.00033600988387150579 0.033890684303179826 0 -9.4894680900477768e-05 0.031878436222164727 0 -5.2649365052677361e-06 0.031951782610599562 0 6.824450745290258e-05 0.032062631582031251 0 -0.00010660966694061434 0.031809487052852539 0 6.824450745290258e-05 0.032062631582031251 0 0.00051283909406818701 0.031837399871908749 0 -0.00010660966694061434 0.031809487052852539 0 -9.4894680900477768e-05 0.031878436222164727 0 6.824450745290258e-05 0.032062631582031251 0 8.637646259907767e-05 0.033946467503957238 0 -0.00023590081715490731 0.034272706272810483 0 9.470844235071754e-05 0.034285490688091148 0 -0.00023590081715490731 0.034272706272810483 0 9.470844235071754e-05 0.034285490688091148 0 -3.9455511938360906e-05 0.034458411013433624 0 -0.00014557458741962348 0.034050951755786381 0 -0.00036455279123699642 0.034010736536512577 0 -0.00024865702605246086 0.034143066173847873 0 -0.00036400532897617929 0.034139568748466576 0 -0.00024865702605246086 0.034143066173847873 0 -0.00030867156656057883 0.034201423640682002 0 -0.00036455279123699642 0.034010736536512577 0 -0.00036400532897617929 0.034139568748466576 0 -0.00024865702605246086 0.034143066173847873 0 -0.00020776964273656518 0.033113453061098211 0 -0.00013582863705030883 0.034321903219972381 0 -1.0236231177459466e-09 0.03499999622014445 0 -8.0938628309810837e-07 0.034996711854111268 0 -1.1158346406455671e-06 0.034997628322669769 0 -1.0236231177459466e-09 0.03499999622014445 0 -8.0938628309810837e-07 0.034996711854111268 0 -9.500635216544459e-10 0.034999993009687196 0 -0.00010990153305967147 0.034680730567097605 0 0.00018375835972965818 0.0339673376701385 0 -8.9142622453255163e-07 0.034994612987864458 0 -8.0938628309810837e-07 0.034996711854111268 0 -1.1158346406455671e-06 0.034997628322669769 0 -8.9142622453255163e-07 0.034994612987864458 0 -8.0938628309810837e-07 0.034996711854111268 0 -2.7217216428945111e-07 0.034991480485629597 0 -8.0938628309810837e-07 0.034996711854111268 0 -2.7217216428945111e-07 0.034991480485629597 0 -9.500635216544459e-10 0.034999993009687196 0 0.00018375835972965818 0.0339673376701385 0 5.5516215294563777e-07 0.035000591981441828 0 -5.5428248994794013e-07 0.035000283052244459 0 0.00041870698529307751 0.033810394422197271 0 4.6970183219076675e-07 0.034997827035153722 0 0.00018375835972965818 0.0339673376701385 0 0.00055272058418814494 0.033523038068703069 0 0.00013605594953366946 0.032784673508127346 0 0.00051283909406818701 0.031837399871908749 0 0.00041870698529307751 0.033810394422197271 0 0.0008245176607228423 0.034903583755076635 0 -5.5428248994794013e-07 0.035000283052244459 0 0.00041870698529307751 0.033810394422197271 0 0.00022165890789440021 0.033080700245169077 0 0.00013605594953366946 0.032784673508127346 0 0.00041870698529307751 0.033810394422197271 0 0.00022165890789440021 0.033080700245169077 0 0.00041870698529307751 0.033810394422197271 0 0.00019831721781899834 0.034069973351114655 0 0.00041870698529307751 0.033810394422197271 0 4.6970183219076675e-07 0.034997827035153722 0 0.00019831721781899834 0.034069973351114655 0 4.6970183219076675e-07 0.034997827035153722 0 8.3320642844048473e-08 0.034998692682222284 0 0.00019831721781899834 0.034069973351114655 0 8.3320642844048473e-08 0.034998692682222284 0 0.00015146614876808653 0.034299713577145514 0 0.00019831721781899834 0.034069973351114655 0 0.00015146614876808653 0.034299713577145514 0 0.0001529165607294594 0.033325647869733147 0 0.00010436190313330947 0.03367086109628812 0 0.00015146614876808653 0.034299713577145514 0 0.00019831721781899834 0.034069973351114655 0 0.0001529165607294594 0.033325647869733147 0 0.00022165890789440021 0.033080700245169077 0 0.00019831721781899834 0.034069973351114655 0 0.0001529165607294594 0.033325647869733147 0 0.00022165890789440021 0.033080700245169077 0 0.00018299599766730546 0.032309322593073189 0 0.0001529165607294594 0.033325647869733147 0 0.00037276353255408023 0.031332761052346288 0 0.00016939731996421534 0.031981284122005044 0 0.00018299599766730546 0.032309322593073189 0 0.00035856994940965386 0.03158006731004015 0 0.00037276353255408023 0.031332761052346288 0 0.00018299599766730546 0.032309322593073189 0 0.00035856994940965386 0.03158006731004015 0 0.00018299599766730546 0.032309322593073189 0 -1.1994950773846701e-05 0.032197315924500876 0 0.00018299599766730546 0.032309322593073189 0 0.0001529165607294594 0.033325647869733147 0 -1.1994950773846701e-05 0.032197315924500876 0 0.0001529165607294594 0.033325647869733147 0 0.00010436190313330947 0.03367086109628812 0 -1.1994950773846701e-05 0.032197315924500876 0 0.00010436190313330947 0.03367086109628812 0 -1.1994950773846701e-05 0.032197315924500876 0 -5.5951139236223252e-05 0.034101614123238998 0 -6.8822171830688241e-05 0.032331151993363345 0 -0.00067539969482420775 0.032472465588776811 0 0.00045351593860218581 0.031391190868381685 0 0.00035856994940965386 0.03158006731004015 0 -1.1994950773846701e-05 0.032197315924500876 0 -1.1994950773846701e-05 0.032197315924500876 0 -0.00046883786181109189 0.03084479568910679 0 -0.0015045923982327206 0.030715925216424966 0 -1.1994950773846701e-05 0.032197315924500876 0 0.0002364547746204363 0.030881514444748719 0 -0.00046883786181109189 0.03084479568910679 0 0.00045351593860218581 0.031391190868381685 0 -1.1994950773846701e-05 0.032197315924500876 0 0.0002364547746204363 0.030881514444748719 0 0.0011301600528813515 0.027504035620653591 0 -0.00098712361176895853 0.028839273164021174 0 0.00091423896076119721 0.030820664554979754 0 0.000663875582985993 0.030628429809157001 0 -0.00073779107618424935 0.028862936903661828 0 8.4053177358447308e-05 0.026651083750808619 0 -0.00073779107618424935 0.028862936903661828 0 -0.00025861446280596142 0.027570951307202596 0 0.000663875582985993 0.030628429809157001 0 -0.00022901329472054891 0.030350828714527083 0 -0.00073779107618424935 0.028862936903661828 0 0.000663875582985993 0.030628429809157001 0 0.0002364547746204363 0.030881514444748719 0 -0.00022901329472054891 0.030350828714527083 0 -0.00046883786181109189 0.03084479568910679 0 -0.00022901329472054891 0.030350828714527083 0 -0.0010137659686788735 0.030404403695688625 0 0.0002364547746204363 0.030881514444748719 0 -0.00046883786181109189 0.03084479568910679 0 -0.00022901329472054891 0.030350828714527083 0 -0.00022901329472054891 0.030350828714527083 0 -0.00073779107618424935 0.028862936903661828 0 -0.0010137659686788735 0.030404403695688625 0 -9.2330981674765327e-05 0.0270204588381492 0 -3.9990968554404859e-05 0.027012472320816407 0 -0.00025861446280596142 0.027570951307202596 0 -0.0013449193641692028 0.031371982004760227 0 -0.0015045923982327206 0.030715925216424966 0 -0.0010137659686788735 0.030404403695688625 0 -0.00046883786181109189 0.03084479568910679 0 -0.0015045923982327206 0.030715925216424966 0 -0.0010137659686788735 0.030404403695688625 0 -0.00073779107618424935 0.028862936903661828 0 -0.0013449193641692028 0.031371982004760227 0 -0.0010137659686788735 0.030404403695688625 0 6.4076218272749824e-05 0.034812830735566035 0 -5.5951139236223252e-05 0.034101614123238998 0 0.00011667341645915808 0.034400925421835649 0 -0.00012100610528296179 0.03291627003426309 0 -0.0013449193641692028 0.031371982004760227 0 -0.0015045923982327206 0.030715925216424966 0 -0.0001265395437540064 0.033813486788923472 0 -0.00067539969482420775 0.032472465588776811 0 6.4076218272749824e-05 0.034812830735566035 0 3.4715614212077946e-07 0.034999230481286871 0 0.00011667341645915808 0.034400925421835649 0 0.00015146614876808653 0.034299713577145514 0 3.4715614212077946e-07 0.034999230481286871 0 0.00011667341645915808 0.034400925421835649 0 8.3320642844048473e-08 0.034998692682222284 0 0.00015146614876808653 0.034299713577145514 0 3.4715614212077946e-07 0.034999230481286871 0 0.00015146614876808653 0.034299713577145514 0 0.00010436190313330947 0.03367086109628812 0 0.00011667341645915808 0.034400925421835649 0 0.00010436190313330947 0.03367086109628812 0 -5.5951139236223252e-05 0.034101614123238998 0 0.00011667341645915808 0.034400925421835649 0 -4.51858177369936e-05 0.034793357368853965 0 -2.2405107332890601e-08 0.034999790843616575 0 -1.806436736237972e-08 0.034999765876778235 0 -4.51858177369936e-05 0.034793357368853965 0 -1.806436736237972e-08 0.034999765876778235 0 -3.5590697489473733e-05 0.034809362552289835 0 -4.51858177369936e-05 0.034793357368853965 0 -3.5590697489473733e-05 0.034809362552289835 0 -7.9275468704715125e-05 0.034631194254707939 0 -4.51858177369936e-05 0.034793357368853965 0 -7.9275468704715125e-05 0.034631194254707939 0 -0.00010605783964264189 0.03460362554949252 0 -7.9275468704715125e-05 0.034631194254707939 0 -0.00010605783964264189 0.03460362554949252 0 -0.00014964932332629978 0.034407724491845558 0 -0.00010605783964264189 0.03460362554949252 0 -0.00017993440851452787 0.034414954384485039 0 -0.00014964932332629978 0.034407724491845558 0 -0.00010605783964264189 0.03460362554949252 0 -9.7759373147378851e-05 0.034693328764143959 0 -0.00014224563201726916 0.03456509501575445 0 -0.00010605783964264189 0.03460362554949252 0 -0.00014224563201726916 0.03456509501575445 0 -0.00017993440851452787 0.034414954384485039 0 -4.51858177369936e-05 0.034793357368853965 0 -0.00010605783964264189 0.03460362554949252 0 -9.7759373147378851e-05 0.034693328764143959 0 -9.7759373147378851e-05 0.034693328764143959 0 -0.00014224563201726916 0.03456509501575445 0 -0.00015342553720538879 0.034624728083951381 0 -0.00014224563201726916 0.03456509501575445 0 -0.00015342553720538879 0.034624728083951381 0 -0.00017936885359963399 0.034483079086422098 0 -0.00015342553720538879 0.034624728083951381 0 -0.00019640882131441491 0.034691803675241883 0 -0.00018078953746621335 0.034554530579442598 0 -9.7759373147378851e-05 0.034693328764143959 0 -0.00015342553720538879 0.034624728083951381 0 -0.00010348992663804597 0.034755039467286898 0 -9.7759373147378851e-05 0.034693328764143959 0 -0.00010348992663804597 0.034755039467286898 0 -3.8964132776346336e-05 0.03485623980113986 0 -0.00015342553720538879 0.034624728083951381 0 -0.00010348992663804597 0.034755039467286898 0 -0.00019640882131441491 0.034691803675241883 0 -0.00010348992663804597 0.034755039467286898 0 -3.8964132776346336e-05 0.03485623980113986 0 -4.1989245748089278e-05 0.034881058588522272 0 -4.51858177369936e-05 0.034793357368853965 0 -9.7759373147378851e-05 0.034693328764143959 0 -3.8964132776346336e-05 0.03485623980113986 0 -4.51858177369936e-05 0.034793357368853965 0 -2.2405107332890601e-08 0.034999790843616575 0 -3.8964132776346336e-05 0.03485623980113986 0 -2.2405107332890601e-08 0.034999790843616575 0 -3.8964132776346336e-05 0.03485623980113986 0 -3.3056569441393916e-09 0.034999824988131117 0 -3.8964132776346336e-05 0.03485623980113986 0 -3.3056569441393916e-09 0.034999824988131117 0 -4.1989245748089278e-05 0.034881058588522272 0 -3.3056569441393916e-09 0.034999824988131117 0 -2.0610041680146599e-05 0.034947203462959264 0 -1.0927584016809832e-08 0.034999921355291855 0 -3.3056569441393916e-09 0.034999824988131117 0 -4.1989245748089278e-05 0.034881058588522272 0 -2.0610041680146599e-05 0.034947203462959264 0 -4.1989245748089278e-05 0.034881058588522272 0 -5.4888551168014217e-05 0.034924566682871444 0 -2.0610041680146599e-05 0.034947203462959264 0 -4.1989245748089278e-05 0.034881058588522272 0 -5.4888551168014217e-05 0.034924566682871444 0 -0.00010008162141776163 0.034836195357022183 0 -5.4888551168014217e-05 0.034924566682871444 0 -2.0610041680146599e-05 0.034947203462959264 0 -2.2813559826647797e-05 0.034980353017816518 0 -5.4888551168014217e-05 0.034924566682871444 0 -7.1151035207342572e-05 0.03496326400098064 0 -2.2813559826647797e-05 0.034980353017816518 0 -2.0610041680146599e-05 0.034947203462959264 0 -1.0927584016809832e-08 0.034999921355291855 0 -2.2813559826647797e-05 0.034980353017816518 0 -1.0927584016809832e-08 0.034999921355291855 0 3.4469747918778532e-09 0.035000051691329123 0 -2.2813559826647797e-05 0.034980353017816518 0 3.4469747918778532e-09 0.035000051691329123 0 -2.2813559826647797e-05 0.034980353017816518 0 -3.0436419439068287e-05 0.035019208450320506 0 -2.2813559826647797e-05 0.034980353017816518 0 -6.604807539381279e-05 0.035000991108526093 0 -3.0436419439068287e-05 0.035019208450320506 0 -6.604807539381279e-05 0.035000991108526093 0 -3.0436419439068287e-05 0.035019208450320506 0 -9.7003684603583587e-05 0.03504058020244788 0 -7.1151035207342572e-05 0.03496326400098064 0 -2.2813559826647797e-05 0.034980353017816518 0 -6.604807539381279e-05 0.035000991108526093 0 -8.6345655843167539e-06 0.03500990638731051 0 -0.00011284687482479943 0.0349295428101873 0 -8.9142622453255163e-07 0.034994612987864458 0 -1.1158346406455671e-06 0.034997628322669769 0 -1.3468930866907358e-06 0.034995702242990437 0 -1.5059393123569996e-08 0.035000005157132183 0 -8.6345655843167539e-06 0.03500990638731051 0 -1.0236231177459466e-09 0.03499999622014445 0 -3.8054218455009251e-10 0.034999997433144574 0 -1.1158346406455671e-06 0.034997628322669769 0 -0.00016755086113648006 0.034564710551190828 0 -0.00029645391663201976 0.03434042859619317 0 -0.00034252043971266441 0.034273270956375994 0 -0.00026069146063418408 0.034254807919373305 0 -0.00027579131107146075 0.034359775759172297 0 -0.00024865702605246086 0.034143066173847873 0 -0.00026069146063418408 0.034254807919373305 0 -0.00030867156656057883 0.034201423640682002 0 -0.00013582863705030883 0.034321903219972381 0 -0.00016755086113648006 0.034564710551190828 0 -0.00036185902348179259 0.034269158256814522 0 -0.00026069146063418408 0.034254807919373305 0 -0.00030867156656057883 0.034201423640682002 0 -0.00036400532897617929 0.034139568748466576 0 -0.00036185902348179259 0.034269158256814522 0 -0.00030867156656057883 0.034201423640682002 0 -0.00010990153305967147 0.034680730567097605 0 -0.00011284687482479943 0.0349295428101873 0 9.470844235071754e-05 0.034285490688091148 0 0.00010260016951360278 0.034623942497358694 0 -3.9455511938360906e-05 0.034458411013433624 0 -0.00023590081715490731 0.034272706272810483 0 -3.9455511938360906e-05 0.034458411013433624 0 -0.00013434501642143606 0.034656354334355821 0 -0.00019438890234789471 0.035192612910013708 0 -0.00011038088166099167 0.035178729061397226 0 -0.00016238352580631374 0.035107681009780831 0 -0.00016755086113648006 0.034564710551190828 0 -0.00011284687482479943 0.0349295428101873 0 0.00010260016951360278 0.034623942497358694 0 -3.9455511938360906e-05 0.034458411013433624 0 -0.00013434501642143606 0.034656354334355821 0 -0.00011038088166099167 0.035178729061397226 0 -0.00016238352580631374 0.035107681009780831 0 -0.00014266543723493827 0.035055518059464073 0 -6.604807539381279e-05 0.035000991108526093 0 -9.7003684603583587e-05 0.03504058020244788 0 -0.00012394005506996639 0.034985130411927301 0 -0.00011284687482479943 0.0349295428101873 0 -0.00012568287438259352 0.035039900040556932 0 -0.00019438890234789471 0.035192612910013708 0 -0.00016238352580631374 0.035107681009780831 0 -0.00020969872060280114 0.03499829083851809 0 -7.1151035207342572e-05 0.03496326400098064 0 -6.604807539381279e-05 0.035000991108526093 0 -0.00012394005506996639 0.034985130411927301 0 -0.00016238352580631374 0.035107681009780831 0 -0.00014266543723493827 0.035055518059464073 0 -0.00020969872060280114 0.03499829083851809 0 -0.00034252043971266441 0.034273270956375994 0 -0.00027579131107146075 0.034359775759172297 0 -0.00032001010902515037 0.034453312287679325 0 -0.00027579131107146075 0.034359775759172297 0 -0.00024354396530214595 0.034438848326637198 0 -0.00032001010902515037 0.034453312287679325 0 -0.00016755086113648006 0.034564710551190828 0 -0.00026494189289644307 0.034757299198449089 0 -0.00026069146063418408 0.034254807919373305 0 -0.00027579131107146075 0.034359775759172297 0 -0.0002316323776397208 0.034330726658280804 0 -0.00027579131107146075 0.034359775759172297 0 -0.00024354396530214595 0.034438848326637198 0 -0.00020012033866532411 0.034408690325501798 0 -0.00026494189289644307 0.034757299198449089 0 -0.0002116533655106091 0.034674253115606728 0 -0.00032001010902515037 0.034453312287679325 0 -0.00023270378637134742 0.03452768111665884 0 -0.00019640882131441491 0.034691803675241883 0 -0.00020969872060280114 0.03499829083851809 0 -0.0001685186291298982 0.034878245859010795 0 -0.00019640882131441491 0.034691803675241883 0 -0.00024354396530214595 0.034438848326637198 0 -0.00032001010902515037 0.034453312287679325 0 -0.00023270378637134742 0.03452768111665884 0 -0.00024354396530214595 0.034438848326637198 0 -0.00023270378637134742 0.03452768111665884 0 -0.00018348581967878884 0.034528751600830812 0 -0.00012568287438259352 0.035039900040556932 0 -0.00016750528982496313 0.034885997931353899 0 -0.00012394005506996639 0.034985130411927301 0 -0.00010448729369194791 0.034922326350226192 0 -0.0001685186291298982 0.034878245859010795 0 -0.00014266543723493827 0.035055518059464073 0 -0.00020969872060280114 0.03499829083851809 0 -0.0001685186291298982 0.034878245859010795 0 -5.4888551168014217e-05 0.034924566682871444 0 -7.1151035207342572e-05 0.03496326400098064 0 -0.00010448729369194791 0.034922326350226192 0 -7.1151035207342572e-05 0.03496326400098064 0 -0.00012394005506996639 0.034985130411927301 0 -0.00010448729369194791 0.034922326350226192 0 -0.00010448729369194791 0.034922326350226192 0 -0.0001685186291298982 0.034878245859010795 0 -0.00010008162141776163 0.034836195357022183 0 -5.4888551168014217e-05 0.034924566682871444 0 -0.00010448729369194791 0.034922326350226192 0 -0.00010008162141776163 0.034836195357022183 0 -0.00010348992663804597 0.034755039467286898 0 -4.1989245748089278e-05 0.034881058588522272 0 -0.00010008162141776163 0.034836195357022183 0 -0.00010348992663804597 0.034755039467286898 0 -0.00010008162141776163 0.034836195357022183 0 -0.00019640882131441491 0.034691803675241883 0 -0.0001685186291298982 0.034878245859010795 0 -0.00010008162141776163 0.034836195357022183 0 -0.00019640882131441491 0.034691803675241883 0 -0.00019640882131441491 0.034691803675241883 0 -0.00018348581967878884 0.034528751600830812 0 -0.00018078953746621335 0.034554530579442598 0 -0.00023270378637134742 0.03452768111665884 0 -0.00019640882131441491 0.034691803675241883 0 -0.00018348581967878884 0.034528751600830812 0 -0.00019271578626477596 0.034456712395831791 0 -0.00018348581967878884 0.034528751600830812 0 -0.00018078953746621335 0.034554530579442598 0 -0.00019271578626477596 0.034456712395831791 0 -0.00015490888998507767 0.034483303853573156 0 -0.00025268385400351474 0.034444636637074845 0 -0.00019271578626477596 0.034456712395831791 0 -0.00015490888998507767 0.034483303853573156 0 -0.00018348581967878884 0.034528751600830812 0 -0.0001503108235234764 0.034478083916356664 0 -0.00012094866606018202 0.034516125855909796 0 -0.00015490888998507767 0.034483303853573156 0 -0.00018348581967878884 0.034528751600830812 0 -0.00020012033866532411 0.034408690325501798 0 -0.00024354396530214595 0.034438848326637198 0 -0.00018348581967878884 0.034528751600830812 0 -0.00020012033866532411 0.034408690325501798 0 -0.00015490888998507767 0.034483303853573156 0 -0.00020012033866532411 0.034408690325501798 0 -0.00015126319646276736 0.034367263486917786 0 -0.00027579131107146075 0.034359775759172297 0 -0.00020012033866532411 0.034408690325501798 0 -0.0002316323776397208 0.034330726658280804 0 -0.00020012033866532411 0.034408690325501798 0 -0.0002316323776397208 0.034330726658280804 0 -0.00018888043525668467 0.03430185201919974 0 -0.00015126319646276736 0.034367263486917786 0 -0.00012905120570370026 0.034279907328694265 0 -0.00018888043525668467 0.03430185201919974 0 -0.00020012033866532411 0.034408690325501798 0 -0.00015126319646276736 0.034367263486917786 0 -0.00018888043525668467 0.03430185201919974 0 -0.00015490888998507767 0.034483303853573156 0 -7.9456607780239758e-05 0.034344282560109317 0 -0.00015126319646276736 0.034367263486917786 0 -0.00015490888998507767 0.034483303853573156 0 -7.9456607780239758e-05 0.034344282560109317 0 1.4933114696565258e-05 0.034407377389631275 0 -7.9456607780239758e-05 0.034344282560109317 0 -6.4216867720962042e-05 0.034259999323779648 0 -8.4179211295288461e-06 0.034304714211177562 0 -7.9456607780239758e-05 0.034344282560109317 0 -0.00015126319646276736 0.034367263486917786 0 -0.00012905120570370026 0.034279907328694265 0 -0.00012905120570370026 0.034279907328694265 0 -6.4216867720962042e-05 0.034259999323779648 0 -0.00010651211317084582 0.034201100108080362 0 -7.9456607780239758e-05 0.034344282560109317 0 -0.00012905120570370026 0.034279907328694265 0 -6.4216867720962042e-05 0.034259999323779648 0 -8.2188957201165329e-05 0.034141170824377121 0 -0.00010651211317084582 0.034201100108080362 0 -5.0977228021498022e-05 0.03418965925203838 0 -6.4216867720962042e-05 0.034259999323779648 0 -0.00010651211317084582 0.034201100108080362 0 -5.0977228021498022e-05 0.03418965925203838 0 -5.176796631249988e-05 0.034143285818282285 0 -8.2188957201165329e-05 0.034141170824377121 0 -5.0977228021498022e-05 0.03418965925203838 0 -0.00012905120570370026 0.034279907328694265 0 -0.00010651211317084582 0.034201100108080362 0 -0.00017579217802375825 0.034218165286562997 0 -0.00013298025067351861 0.034127663931182856 0 -0.00010651211317084582 0.034201100108080362 0 -0.00017579217802375825 0.034218165286562997 0 -0.00024865702605246086 0.034143066173847873 0 -0.00026069146063418408 0.034254807919373305 0 -0.00017579217802375825 0.034218165286562997 0 -0.00026069146063418408 0.034254807919373305 0 -0.00017579217802375825 0.034218165286562997 0 -0.00018888043525668467 0.03430185201919974 0 -0.00026069146063418408 0.034254807919373305 0 -0.0002316323776397208 0.034330726658280804 0 -0.00018888043525668467 0.03430185201919974 0 -0.00012905120570370026 0.034279907328694265 0 -0.00017579217802375825 0.034218165286562997 0 -0.00018888043525668467 0.03430185201919974 0 -0.00024936935121157728 0.033868690478715019 0 -0.00046823713244875616 0.033555191674414446 0 -0.00040717800023836132 0.033524694006848571 0 -0.00024936935121157728 0.033868690478715019 0 -0.00016195325303972773 0.033835115540787067 0 -0.00040717800023836132 0.033524694006848571 0 -0.0011168565783977744 0.029223749749123746 0 -0.0010447119866697975 0.029368119203106915 0 -0.0010081882800617231 0.029219601202787202 0 -0.00071448124955976748 0.031518791737524351 0 -0.0010509257276156857 0.03265767465292975 0 -2.935263910907724e-06 0.034075691420983337 0 -0.00051659787732780864 0.033719878996713575 0 6.1660346171211829e-05 0.034206039183058146 0 5.499308808304389e-05 0.034294611208069599 0 0.00015512146496331571 0.034324723919844119 0 6.1660346171211829e-05 0.034206039183058146 0 -1.6280330174469969e-05 0.03417153972802426 0 -8.6594972421153166e-07 0.034239770503386169 0 -5.176796631249988e-05 0.034143285818282285 0 -5.0977228021498022e-05 0.03418965925203838 0 -1.6280330174469969e-05 0.03417153972802426 0 -5.0977228021498022e-05 0.03418965925203838 0 -1.6280330174469969e-05 0.03417153972802426 0 -8.6594972421153166e-07 0.034239770503386169 0 -6.4216867720962042e-05 0.034259999323779648 0 -5.0977228021498022e-05 0.03418965925203838 0 -8.6594972421153166e-07 0.034239770503386169 0 -6.4216867720962042e-05 0.034259999323779648 0 -8.6594972421153166e-07 0.034239770503386169 0 -8.4179211295288461e-06 0.034304714211177562 0 -8.6594972421153166e-07 0.034239770503386169 0 5.499308808304389e-05 0.034294611208069599 0 -8.4179211295288461e-06 0.034304714211177562 0 6.1660346171211829e-05 0.034206039183058146 0 -8.6594972421153166e-07 0.034239770503386169 0 5.499308808304389e-05 0.034294611208069599 0 5.499308808304389e-05 0.034294611208069599 0 -8.4179211295288461e-06 0.034304714211177562 0 1.4933114696565258e-05 0.034407377389631275 0 -7.9456607780239758e-05 0.034344282560109317 0 -8.4179211295288461e-06 0.034304714211177562 0 1.4933114696565258e-05 0.034407377389631275 0 5.499308808304389e-05 0.034294611208069599 0 1.4933114696565258e-05 0.034407377389631275 0 0.00015512146496331571 0.034324723919844119 0 -0.00027950597166059453 0.034546788658830874 0 -0.0004453515934192021 0.034636620077394098 0 -0.00043342745862436907 0.034442579780381288 0 -0.00012094866606018202 0.034516125855909796 0 -0.00051659787732780864 0.033719878996713575 0 -0.0010509257276156857 0.03265767465292975 0 -0.00051659787732780864 0.033719878996713575 0 -0.00043342745862436907 0.034442579780381288 0 -0.00025268385400351474 0.034444636637074845 0 -0.00041984498499949663 0.03428764015925187 0 -0.00015490888998507767 0.034483303853573156 0 -0.00027950597166059453 0.034546788658830874 0 -0.00025268385400351474 0.034444636637074845 0 -0.00027950597166059453 0.034546788658830874 0 -0.00043342745862436907 0.034442579780381288 0 -0.00025268385400351474 0.034444636637074845 0 -0.00025268385400351474 0.034444636637074845 0 -0.00028695209038852196 0.034362054600254564 0 -0.00041984498499949663 0.03428764015925187 0 -0.00019271578626477596 0.034456712395831791 0 -0.00025268385400351474 0.034444636637074845 0 -0.00028695209038852196 0.034362054600254564 0 -0.00028695209038852196 0.034362054600254564 0 -0.00041984498499949663 0.03428764015925187 0 -0.00041845630204250406 0.034145741540205984 0 -0.00041984498499949663 0.03428764015925187 0 -0.00041845630204250406 0.034145741540205984 0 -0.00061033762561510775 0.034048977888937897 0 -0.00041845630204250406 0.034145741540205984 0 -0.00030613560438326123 0.034239913679041153 0 -0.00036435336140497955 0.034120735475498848 0 -0.00041845630204250406 0.034145741540205984 0 -0.00030613560438326123 0.034239913679041153 0 -0.00026383303737184243 0.03433466103885565 0 -0.00028695209038852196 0.034362054600254564 0 -0.00041845630204250406 0.034145741540205984 0 -0.00026383303737184243 0.03433466103885565 0 -0.00019271578626477596 0.034456712395831791 0 -0.00026383303737184243 0.03433466103885565 0 -0.00020484185243578492 0.034444335091127834 0 -0.00019271578626477596 0.034456712395831791 0 -0.00028695209038852196 0.034362054600254564 0 -0.00026383303737184243 0.03433466103885565 0 -0.00015342553720538879 0.034624728083951381 0 -0.00018078953746621335 0.034554530579442598 0 -0.00017936885359963399 0.034483079086422098 0 -0.00019271578626477596 0.034456712395831791 0 -0.00020484185243578492 0.034444335091127834 0 -0.00018078953746621335 0.034554530579442598 0 -0.00020484185243578492 0.034444335091127834 0 -0.00018078953746621335 0.034554530579442598 0 -0.00017936885359963399 0.034483079086422098 0 -0.00017936885359963399 0.034483079086422098 0 -0.00023106944913317269 0.034350470155141644 0 -0.00017993440851452787 0.034414954384485039 0 -0.00014224563201726916 0.03456509501575445 0 -0.00017936885359963399 0.034483079086422098 0 -0.00017993440851452787 0.034414954384485039 0 -0.00030613560438326123 0.034239913679041153 0 -0.00026383303737184243 0.03433466103885565 0 -0.00023106944913317269 0.034350470155141644 0 -0.00026383303737184243 0.03433466103885565 0 -0.00020484185243578492 0.034444335091127834 0 -0.00023106944913317269 0.034350470155141644 0 -0.00020484185243578492 0.034444335091127834 0 -0.00017936885359963399 0.034483079086422098 0 -0.00023106944913317269 0.034350470155141644 0 -0.00017993440851452787 0.034414954384485039 0 -0.00020795132367096251 0.034298004102715468 0 -0.00027669721009304708 0.034204305556222316 0 -0.00030613560438326123 0.034239913679041153 0 -0.00023106944913317269 0.034350470155141644 0 -0.00027669721009304708 0.034204305556222316 0 -0.00023106944913317269 0.034350470155141644 0 -0.00017993440851452787 0.034414954384485039 0 -0.00027669721009304708 0.034204305556222316 0 -0.00017993440851452787 0.034414954384485039 0 -0.00014964932332629978 0.034407724491845558 0 -0.00020795132367096251 0.034298004102715468 0 -0.00014964932332629978 0.034407724491845558 0 -0.00020795132367096251 0.034298004102715468 0 -0.00023400708711514897 0.034163994289946424 0 -0.00020795132367096251 0.034298004102715468 0 -0.00027669721009304708 0.034204305556222316 0 -0.00023400708711514897 0.034163994289946424 0 -0.0003557684675642343 0.03402235429255953 0 -0.00027669721009304708 0.034204305556222316 0 -0.00023400708711514897 0.034163994289946424 0 -0.0003557684675642343 0.03402235429255953 0 -0.00049712311907028058 0.033954965083831591 0 -0.00045302450828841684 0.03385197189721207 0 -0.00041845630204250406 0.034145741540205984 0 -0.00036435336140497955 0.034120735475498848 0 -0.00049712311907028058 0.033954965083831591 0 -0.0003557684675642343 0.03402235429255953 0 -0.00036435336140497955 0.034120735475498848 0 -0.00049712311907028058 0.033954965083831591 0 -0.00030613560438326123 0.034239913679041153 0 -0.00036435336140497955 0.034120735475498848 0 -0.00027669721009304708 0.034204305556222316 0 -0.0003557684675642343 0.03402235429255953 0 -0.00036435336140497955 0.034120735475498848 0 -0.00027669721009304708 0.034204305556222316 0 -0.00062978075074619983 0.033844529351005355 0 -0.00049712311907028058 0.033954965083831591 0 -0.00057090295797237219 0.033784453978755569 0 -0.00062978075074619983 0.033844529351005355 0 -0.00072780769467733098 0.033793316710860805 0 -0.00065473784226518855 0.03391934331228319 0 -0.00062978075074619983 0.033844529351005355 0 -0.00049712311907028058 0.033954965083831591 0 -0.00065473784226518855 0.03391934331228319 0 -0.00049712311907028058 0.033954965083831591 0 -0.00057090295797237219 0.033784453978755569 0 -0.00045302450828841684 0.03385197189721207 0 -0.00062978075074619983 0.033844529351005355 0 -0.00057090295797237219 0.033784453978755569 0 -0.00066525289979681786 0.033689747819521693 0 -0.00066525289979681786 0.033689747819521693 0 -0.00077391159764091133 0.033601791902714229 0 -0.00076534946470912103 0.033700350427642439 0 -0.00076534946470912103 0.033700350427642439 0 -0.00072780769467733098 0.033793316710860805 0 -0.00075693865557708586 0.03372860926391847 0 -0.00062978075074619983 0.033844529351005355 0 -0.00066525289979681786 0.033689747819521693 0 -0.00072780769467733098 0.033793316710860805 0 -0.00066525289979681786 0.033689747819521693 0 -0.00076534946470912103 0.033700350427642439 0 -0.00072780769467733098 0.033793316710860805 0 -0.00072780769467733098 0.033793316710860805 0 -0.00079736865087036326 0.033782011187001616 0 -0.00065473784226518855 0.03391934331228319 0 -0.00079736865087036326 0.033782011187001616 0 -0.00075693865557708586 0.03372860926391847 0 -0.00073716403781995355 0.033672523600790129 0 -0.00072780769467733098 0.033793316710860805 0 -0.00079736865087036326 0.033782011187001616 0 -0.00075693865557708586 0.03372860926391847 0 -0.00079736865087036326 0.033782011187001616 0 -0.00073716403781995355 0.033672523600790129 0 -0.00076227001391070148 0.033575804624371396 0 -0.00073716403781995355 0.033672523600790129 0 -0.00076227001391070148 0.033575804624371396 0 -0.00067753865976548919 0.033551037359831525 0 -0.00079736865087036326 0.033782011187001616 0 -0.00076227001391070148 0.033575804624371396 0 -0.00091110358257236949 0.033811046128585091 0 -0.00079736865087036326 0.033782011187001616 0 -0.00091110358257236949 0.033811046128585091 0 -0.00065473784226518855 0.03391934331228319 0 -0.00091110358257236949 0.033811046128585091 0 -0.00065473784226518855 0.03391934331228319 0 -0.00061033762561510775 0.034048977888937897 0 -0.00041845630204250406 0.034145741540205984 0 -0.00049712311907028058 0.033954965083831591 0 -0.00065473784226518855 0.03391934331228319 0 -0.00041845630204250406 0.034145741540205984 0 -0.00065473784226518855 0.03391934331228319 0 -0.00061033762561510775 0.034048977888937897 0 -0.00041984498499949663 0.03428764015925187 0 -0.00061033762561510775 0.034048977888937897 0 -0.00065026720163109013 0.034395536489865181 0 -0.00093425790561703001 0.033814148795722906 0 -0.00098175323080533592 0.033833394261173516 0 -0.00091110358257236949 0.033811046128585091 0 -0.00061033762561510775 0.034048977888937897 0 -0.00065026720163109013 0.034395536489865181 0 -0.00091110358257236949 0.033811046128585091 0 -0.0014069310239301102 0.033225110360819328 0 -0.00088199606102068017 0.033137006385112307 0 -0.0014069310239301102 0.033225110360819328 0 -0.0010315778004520602 0.032817977344787211 0 -0.00088199606102068017 0.033137006385112307 0 -0.0004453515934192021 0.034636620077394098 0 -0.00043342745862436907 0.034442579780381288 0 -0.00065026720163109013 0.034395536489865181 0 -0.00043342745862436907 0.034442579780381288 0 -0.00041984498499949663 0.03428764015925187 0 -0.00065026720163109013 0.034395536489865181 0 -0.00051659787732780864 0.033719878996713575 0 -0.00098175323080533592 0.033833394261173516 0 -0.0016795934620806065 0.032779533362607055 0 -0.0014069310239301102 0.033225110360819328 0 -0.0013616187664852245 0.032877814851591074 0 -0.0016795934620806065 0.032779533362607055 0 -0.0013616187664852245 0.032877814851591074 0 -0.0012533033974880161 0.032559752678440051 0 -0.0010081851956410465 0.033391916655472684 0 -0.0010445773420425099 0.033412053497142748 0 -0.0008234228765851843 0.033688606748595605 0 -0.0010509257276156857 0.03265767465292975 0 -0.00098175323080533592 0.033833394261173516 0 -0.0014069310239301102 0.033225110360819328 0 -0.0013616187664852245 0.032877814851591074 0 -0.0010315778004520602 0.032817977344787211 0 -0.0013616187664852245 0.032877814851591074 0 -0.0012533033974880161 0.032559752678440051 0 -0.0010315778004520602 0.032817977344787211 0 -0.00061858446833945851 0.024600476530902183 0 -0.001329125797083599 0.029492735984531809 0 -0.001329125797083599 0.029492735984531809 0 -0.00093879265554952984 0.029713325270218728 0 -0.00087219709028386037 0.029094813656895618 0 -0.0008804877467119438 0.029235832626786629 0 -0.00084994911194323107 0.02922938504317708 0 -0.0011796990777077183 0.029461478379815886 0 -0.001329125797083599 0.029492735984531809 0 -0.0010509257276156857 0.03265767465292975 0 -0.001329125797083599 0.029492735984531809 0 -0.0010447119866697975 0.029368119203106915 0 -0.0008804877467119438 0.029235832626786629 0 -0.00085380514459644117 0.029231916119466593 0 -0.0010447119866697975 0.029368119203106915 0 -0.0008804877467119438 0.029235832626786629 0 -0.0010081882800617231 0.029219601202787202 0 -0.00095352279603243154 0.029164695541832278 0 -0.0008804877467119438 0.029235832626786629 0 -0.0010081882800617231 0.029219601202787202 0 -0.0008970103877561236 0.032582811015846223 0 -0.00076652359425937507 0.03282880164590822 0 -0.00065626495773919247 0.032626752821595939 0 -0.00093879265554952984 0.029713325270218728 0 -0.0005404276631496873 0.030047212321399001 0 -0.00051174630057475648 0.026682668287339749 0 -0.00094045204936833032 0.026854492112556336 0 -0.00049116784952357479 0.026767960136027603 0 -0.0009918867002945708 0.026649871508000845 0 -0.00051174630057475648 0.026682668287339749 0 -0.00094045204936833032 0.026854492112556336 0 -0.0009918867002945708 0.026649871508000845 0 -0.0014361985978369339 0.026930094476957663 0 -0.00094045204936833032 0.026854492112556336 0 -0.0012533033974880161 0.032559752678440051 0 -0.0008970103877561236 0.032582811015846223 0 -0.0010315778004520602 0.032817977344787211 0 -0.0008970103877561236 0.032582811015846223 0 -0.0010315778004520602 0.032817977344787211 0 -0.00076652359425937507 0.03282880164590822 0 -0.0010315778004520602 0.032817977344787211 0 -0.00076652359425937507 0.03282880164590822 0 -0.00088199606102068017 0.033137006385112307 0 -0.00076652359425937507 0.03282880164590822 0 -0.00068741726640507211 0.033032506448662451 0 -0.00059624516395997019 0.032835126705198683 0 -0.00076652359425937507 0.03282880164590822 0 -0.00059624516395997019 0.032835126705198683 0 -0.00065626495773919247 0.032626752821595939 0 -0.00068741726640507211 0.033032506448662451 0 -0.00088199606102068017 0.033137006385112307 0 -0.00077189393955680806 0.033350363741427649 0 -0.00076652359425937507 0.03282880164590822 0 -0.00068741726640507211 0.033032506448662451 0 -0.00088199606102068017 0.033137006385112307 0 -0.00076227001391070148 0.033575804624371396 0 -0.00091110358257236949 0.033811046128585091 0 -0.00077189393955680806 0.033350363741427649 0 -0.00091110358257236949 0.033811046128585091 0 -0.00088199606102068017 0.033137006385112307 0 -0.00077189393955680806 0.033350363741427649 0 -0.00076227001391070148 0.033575804624371396 0 -0.00077189393955680806 0.033350363741427649 0 -0.00062172995614584925 0.033188609860658969 0 -0.00068741726640507211 0.033032506448662451 0 -0.00077189393955680806 0.033350363741427649 0 -0.00062172995614584925 0.033188609860658969 0 -0.00076227001391070148 0.033575804624371396 0 -0.00062172995614584925 0.033188609860658969 0 -0.00067753865976548919 0.033551037359831525 0 -0.00062172995614584925 0.033188609860658969 0 -0.00051183790567385114 0.032950554481414492 0 -0.00049013777115207381 0.033000848083528128 0 -0.00064052547018808939 0.033187825987488588 0 -0.00059676890871518341 0.033279099452434735 0 -0.00062172995614584925 0.033188609860658969 0 -0.00063462325465356751 0.033621570601197748 0 -0.00067753865976548919 0.033551037359831525 0 -0.00062172995614584925 0.033188609860658969 0 -0.00051183790567385114 0.032950554481414492 0 -0.00057639313607371753 0.032956040891490387 0 -0.00051183790567385114 0.032950554481414492 0 -0.00056184823105702604 0.032713812184832054 0 -0.00053783718315579326 0.032429081943679827 0 -0.00050917209782063723 0.032893234273223583 0 -0.00054809260741628624 0.03271116749542153 0 -0.00051183790567385114 0.032950554481414492 0 -0.0005010461137472653 0.032999685119466583 0 -0.00049013777115207381 0.033000848083528128 0 -0.00056184823105702604 0.032713812184832054 0 -0.00054441838341667966 0.032818386056843785 0 -0.00062202383988912329 0.032676522489111466 0 -0.00054441838341667966 0.032818386056843785 0 -0.00058259562430322315 0.032725330056218485 0 -0.00062202383988912329 0.032676522489111466 0 -0.00051183790567385114 0.032950554481414492 0 -0.00056184823105702604 0.032713812184832054 0 -0.00054441838341667966 0.032818386056843785 0 -0.00051183790567385114 0.032950554481414492 0 -0.00054441838341667966 0.032818386056843785 0 -0.00057639313607371753 0.032956040891490387 0 -0.00068741726640507211 0.033032506448662451 0 -0.00062172995614584925 0.033188609860658969 0 -0.00057639313607371753 0.032956040891490387 0 -0.00054441838341667966 0.032818386056843785 0 -0.00057639313607371753 0.032956040891490387 0 -0.00059624516395997019 0.032835126705198683 0 -0.00068741726640507211 0.033032506448662451 0 -0.00057639313607371753 0.032956040891490387 0 -0.00059624516395997019 0.032835126705198683 0 -0.00059624516395997019 0.032835126705198683 0 -0.00058259562430322315 0.032725330056218485 0 -0.00058949765650511527 0.032720402001301926 0 -0.00054441838341667966 0.032818386056843785 0 -0.00059624516395997019 0.032835126705198683 0 -0.00058259562430322315 0.032725330056218485 0 -0.00058259562430322315 0.032725330056218485 0 -0.00058120130736542092 0.032678857630753379 0 -0.00058949765650511527 0.032720402001301926 0 0.000275696790226667 0.022479204261178515 0 -0.00081012889071386119 0.024295876341703271 0 -0.00058120130736542092 0.032678857630753379 0 -0.00058949765650511527 0.032720402001301926 0 -0.00065626495773919247 0.032626752821595939 0 -0.00059624516395997019 0.032835126705198683 0 -0.00058949765650511527 0.032720402001301926 0 -0.00065626495773919247 0.032626752821595939 0 -0.00081012889071386119 0.024295876341703271 0 -0.0005404276631496873 0.030047212321399001 0 -0.00051174630057475648 0.026682668287339749 0 -0.0001309749045584578 0.026669028940829401 0 -0.00049116784952357479 0.026767960136027603 0 -0.00089542199860299964 0.026604993368549698 0 -0.0008047882725847953 0.02621200324481554 0 -0.00068848083091052918 0.032679549517956354 0 -0.00079724104702785814 0.03260057583322034 0 -0.00081157767426743514 0.032547339265510192 0 -0.001067481338753451 0.019935937443275049 0 -0.0010925929791167353 0.020013995667973163 0 -0.00077681620662666754 0.019906810985286197 0 -0.00081012889071386119 0.024295876341703271 0 -0.001729110206925775 0.018368074246767091 0 -0.0012972488247755438 0.020184200874601186 0 -0.001067481338753451 0.019935937443275049 0 -0.0010925929791167353 0.020013995667973163 0 -0.00058259562430322315 0.032725330056218485 0 -0.00058120130736542092 0.032678857630753379 0 -0.00068848083091052918 0.032679549517956354 0 -0.00081012889071386119 0.024295876341703271 0 -0.00089542199860299964 0.026604993368549698 0 -0.00058259562430322315 0.032725330056218485 0 -0.00066952163988579308 0.03267098875420775 0 -0.00062202383988912329 0.032676522489111466 0 -0.00058259562430322315 0.032725330056218485 0 -0.00068848083091052918 0.032679549517956354 0 -0.00066952163988579308 0.03267098875420775 0 -0.00068848083091052918 0.032679549517956354 0 -0.00066952163988579308 0.03267098875420775 0 -0.00079724104702785814 0.03260057583322034 0 -0.00079724104702785814 0.03260057583322034 0 -0.00075522256962550307 0.032533502402590495 0 -0.00094141122794017397 0.032464132275780579 0 -0.00066952163988579308 0.03267098875420775 0 -0.00079724104702785814 0.03260057583322034 0 -0.00075522256962550307 0.032533502402590495 0 -0.00066952163988579308 0.03267098875420775 0 -0.00062202383988912329 0.032676522489111466 0 -0.00075522256962550307 0.032533502402590495 0 -0.00056184823105702604 0.032713812184832054 0 -0.00062202383988912329 0.032676522489111466 0 -0.00064455178445103434 0.032535589289895528 0 -0.00062202383988912329 0.032676522489111466 0 -0.00064455178445103434 0.032535589289895528 0 -0.00075522256962550307 0.032533502402590495 0 -0.00064455178445103434 0.032535589289895528 0 -0.00074250074817125953 0.032385331487330374 0 -0.00065623826241162581 0.032364297651744291 0 -0.00056184823105702604 0.032713812184832054 0 -0.00064455178445103434 0.032535589289895528 0 -0.00053783718315579326 0.032429081943679827 0 -0.00064455178445103434 0.032535589289895528 0 -0.00065623826241162581 0.032364297651744291 0 -0.00053783718315579326 0.032429081943679827 0 -0.00075522256962550307 0.032533502402590495 0 -0.00089060435117377813 0.032345988871554161 0 -0.00094141122794017397 0.032464132275780579 0 -0.00064455178445103434 0.032535589289895528 0 -0.00075522256962550307 0.032533502402590495 0 -0.00074250074817125953 0.032385331487330374 0 -0.00075522256962550307 0.032533502402590495 0 -0.00074250074817125953 0.032385331487330374 0 -0.00089060435117377813 0.032345988871554161 0 -0.00074250074817125953 0.032385331487330374 0 -0.00081198542340654397 0.032221744216524524 0 -0.00089060435117377813 0.032345988871554161 0 -0.00081198542340654397 0.032221744216524524 0 -0.00089060435117377813 0.032345988871554161 0 -0.00091919813412062994 0.03219618619764484 0 -0.00074250074817125953 0.032385331487330374 0 -0.00072632725109181826 0.032275297296618162 0 -0.00081198542340654397 0.032221744216524524 0 -0.00074250074817125953 0.032385331487330374 0 -0.00072632725109181826 0.032275297296618162 0 -0.00065623826241162581 0.032364297651744291 0 -0.00072632725109181826 0.032275297296618162 0 -0.00081198542340654397 0.032221744216524524 0 -0.00071029440000039109 0.032102876885704061 0 -0.00072632725109181826 0.032275297296618162 0 -0.00071029440000039109 0.032102876885704061 0 -0.00065623826241162581 0.032364297651744291 0 -0.00081198542340654397 0.032221744216524524 0 -0.00083677886458318027 0.032061913209584778 0 -0.00071029440000039109 0.032102876885704061 0 -0.00081198542340654397 0.032221744216524524 0 -0.00090472940774819258 0.032074886454167229 0 -0.00091919813412062994 0.03219618619764484 0 -0.00081198542340654397 0.032221744216524524 0 -0.00083677886458318027 0.032061913209584778 0 -0.00090472940774819258 0.032074886454167229 0 -0.00057944603389563799 0.032949115594448991 0 -0.00053298595850082638 0.032927836590977234 0 -0.00064737538103271119 0.032816825120189602 0 -0.00083677886458318027 0.032061913209584778 0 -0.00071029440000039109 0.032102876885704061 0 -0.0009201401916572149 0.031864862625298716 0 -0.00062218481502302175 0.033359014926971256 0 -0.00089367238070662668 0.03280017467537584 0 -0.00062517908687795504 0.032551929677438821 0 -0.00091497010049232288 0.032207655599155095 0 -0.00057944603389563799 0.032949115594448991 0 -0.00064737538103271119 0.032816825120189602 0 -0.00068936670682729316 0.032853905351443911 0 -0.00078756421627726556 0.033644536286544777 0 -0.00081088365329263525 0.033664441774901195 0 -0.00083396529239053148 0.033628015315579914 0 -0.00078756421627726556 0.033644536286544777 0 -0.00081088365329263525 0.033664441774901195 0 -0.00074714487463395515 0.033651011191816196 0 -0.00062218481502302175 0.033359014926971256 0 -0.00059676890871518341 0.033279099452434735 0 -0.00081088365329263525 0.033664441774901195 0 -0.00063462325465356751 0.033621570601197748 0 -0.00074714487463395515 0.033651011191816196 0 -0.00053298595850082638 0.032927836590977234 0 -0.0005010461137472653 0.032999685119466583 0 -0.00049013777115207381 0.033000848083528128 0 -0.00062517908687795504 0.032551929677438821 0 -0.00054809260741628624 0.03271116749542153 0 -0.00057944603389563799 0.032949115594448991 0 -0.00053298595850082638 0.032927836590977234 0 -0.0005010461137472653 0.032999685119466583 0 -0.00071029440000039109 0.032102876885704061 0 -0.00065623826241162581 0.032364297651744291 0 -0.00053783718315579326 0.032429081943679827 0 -0.00063462325465356751 0.033621570601197748 0 -0.00068952789831288165 0.033643317572155294 0 -0.00070317604986096119 0.033645375839961099 0 -0.00063462325465356751 0.033621570601197748 0 -0.00074714487463395515 0.033651011191816196 0 -0.00070317604986096119 0.033645375839961099 0 -0.00063462325465356751 0.033621570601197748 0 -0.00067753865976548919 0.033551037359831525 0 -0.00068952789831288165 0.033643317572155294 0 -0.00073716403781995355 0.033672523600790129 0 -0.00067753865976548919 0.033551037359831525 0 -0.00068952789831288165 0.033643317572155294 0 -0.00075693865557708586 0.03372860926391847 0 -0.00073716403781995355 0.033672523600790129 0 -0.00073751110526221642 0.033685090919496827 0 -0.00073716403781995355 0.033672523600790129 0 -0.00068952789831288165 0.033643317572155294 0 -0.00073751110526221642 0.033685090919496827 0 -0.00068952789831288165 0.033643317572155294 0 -0.00073751110526221642 0.033685090919496827 0 -0.00074606098909801855 0.033659123175900391 0 -0.00073751110526221642 0.033685090919496827 0 -0.00074606098909801855 0.033659123175900391 0 -0.00078453829080066565 0.033676786598287684 0 -0.00075693865557708586 0.03372860926391847 0 -0.00073751110526221642 0.033685090919496827 0 -0.00078453829080066565 0.033676786598287684 0 -0.00074714487463395515 0.033651011191816196 0 -0.00070317604986096119 0.033645375839961099 0 -0.00074606098909801855 0.033659123175900391 0 -0.00068952789831288165 0.033643317572155294 0 -0.00070317604986096119 0.033645375839961099 0 -0.00074606098909801855 0.033659123175900391 0 -0.00078756421627726556 0.033644536286544777 0 -0.00074714487463395515 0.033651011191816196 0 -0.00074606098909801855 0.033659123175900391 0 -0.00078756421627726556 0.033644536286544777 0 -0.00074606098909801855 0.033659123175900391 0 -0.00081462729025111682 0.033635647331584084 0 -0.00081462729025111682 0.033635647331584084 0 -0.00078453829080066565 0.033676786598287684 0 -0.00085508874065215229 0.033609973972297903 0 -0.00074606098909801855 0.033659123175900391 0 -0.00081462729025111682 0.033635647331584084 0 -0.00078453829080066565 0.033676786598287684 0 -0.00076534946470912103 0.033700350427642439 0 -0.00078453829080066565 0.033676786598287684 0 -0.00085508874065215229 0.033609973972297903 0 -0.00076534946470912103 0.033700350427642439 0 -0.00075693865557708586 0.03372860926391847 0 -0.00078453829080066565 0.033676786598287684 0 -0.00077391159764091133 0.033601791902714229 0 -0.00076534946470912103 0.033700350427642439 0 -0.00085508874065215229 0.033609973972297903 0 -0.00077391159764091133 0.033601791902714229 0 -0.00085508874065215229 0.033609973972297903 0 -0.00085768649925843882 0.033474026493392386 0 -0.00081462729025111682 0.033635647331584084 0 -0.00085508874065215229 0.033609973972297903 0 -0.00086753878639312201 0.033595215694857794 0 -0.00085508874065215229 0.033609973972297903 0 -0.00086753878639312201 0.033595215694857794 0 -0.00096020082609693253 0.03349535309908834 0 -0.0010099491179201159 0.032240743850909775 0 -0.0010288664887019739 0.032194489449570693 0 -0.0010283794672130879 0.032214918517020727 0 -0.0010099491179201159 0.032240743850909775 0 -0.0010288664887019739 0.032194489449570693 0 -0.001027471532829928 0.032152382289707328 0 -0.00095396989263439732 0.032937428545162156 0 -0.00089367238070662668 0.03280017467537584 0 -0.00086753878639312201 0.033595215694857794 0 -0.00086744296389132229 0.033623296170318451 0 -0.00083396529239053148 0.033628015315579914 0 -0.00081088365329263525 0.033664441774901195 0 -0.00086744296389132229 0.033623296170318451 0 -0.00083396529239053148 0.033628015315579914 0 -0.00089367238070662668 0.03280017467537584 0 -0.00091497010049232288 0.032207655599155095 0 -0.00081462729025111682 0.033635647331584084 0 -0.00086753878639312201 0.033595215694857794 0 -0.00083396529239053148 0.033628015315579914 0 -0.00078756421627726556 0.033644536286544777 0 -0.00081462729025111682 0.033635647331584084 0 -0.00083396529239053148 0.033628015315579914 0 -0.0010032044005489234 0.032348000198029206 0 -0.0010598120139473429 0.032122084114745666 0 -0.001027471532829928 0.032152382289707328 0 -0.0010099491179201159 0.032240743850909775 0 -0.0010032044005489234 0.032348000198029206 0 -0.001027471532829928 0.032152382289707328 0 -0.0010099491179201159 0.032240743850909775 0 -0.0010032044005489234 0.032348000198029206 0 -0.0010326751423334302 0.032440364638247197 0 -0.00095396989263439732 0.032937428545162156 0 -0.00096363023709288096 0.032948784989272326 0 -0.00085508874065215229 0.033609973972297903 0 -0.00096020082609693253 0.03349535309908834 0 -0.00085768649925843882 0.033474026493392386 0 -0.00096020082609693253 0.03349535309908834 0 -0.00085768649925843882 0.033474026493392386 0 -0.00092572068669496954 0.033005211781835533 0 -0.00096363023709288096 0.032948784989272326 0 -0.00090801300346686432 0.032966460968623504 0 -0.0010326751423334302 0.032440364638247197 0 -0.00092572068669496954 0.033005211781835533 0 -0.0010010802677469254 0.03262811898860888 0 -0.0010032044005489234 0.032348000198029206 0 -0.0010326751423334302 0.032440364638247197 0 -0.0010010802677469254 0.03262811898860888 0 -0.0010010802677469254 0.03262811898860888 0 -0.00093448731288872536 0.032771783305555524 0 -0.0010177720406847133 0.03240663347387298 0 -0.00092572068669496954 0.033005211781835533 0 -0.0010010802677469254 0.03262811898860888 0 -0.00093448731288872536 0.032771783305555524 0 -0.00081427074334568348 0.032768827012275389 0 -0.00092370392948601604 0.032465031125707339 0 -0.00082332020539621804 0.032597845096168324 0 -0.00081427074334568348 0.032768827012275389 0 -0.00082332020539621804 0.032597845096168324 0 -0.00070415646781766606 0.032782084362632351 0 -0.00087209554402716168 0.032769877938422939 0 -0.0010134273130034022 0.032389949925181259 0 -0.00081427074334568348 0.032768827012275389 0 -0.0010087718422911211 0.032389123592830006 0 -0.00092370392948601604 0.032465031125707339 0 -0.0010087718422911211 0.032389123592830006 0 -0.0010426735598748559 0.032196940645014098 0 -0.00092370392948601604 0.032465031125707339 0 -0.0010032044005489234 0.032348000198029206 0 -0.0010177720406847133 0.03240663347387298 0 -0.0010598120139473429 0.032122084114745666 0 -0.0010032044005489234 0.032348000198029206 0 -0.0010010802677469254 0.03262811898860888 0 -0.0010177720406847133 0.03240663347387298 0 -0.0010177720406847133 0.03240663347387298 0 -0.0010598120139473429 0.032122084114745666 0 -0.0011028982286984631 0.032025506601335442 0 -0.0010134273130034022 0.032389949925181259 0 -0.0011020309782640023 0.03208039639540556 0 -0.0010087718422911211 0.032389123592830006 0 -0.0010426735598748559 0.032196940645014098 0 -0.0011028982286984631 0.032025506601335442 0 -0.0010426735598748559 0.032196940645014098 0 -0.001114265615110588 0.031965857349806781 0 -0.0011335904213806063 0.031932948025713781 0 -0.0010426735598748559 0.032196940645014098 0 -0.0011028982286984631 0.032025506601335442 0 -0.0011335904213806063 0.031932948025713781 0 -0.0010426735598748559 0.032196940645014098 0 -0.001114265615110588 0.031965857349806781 0 -0.00099644933822541052 0.032158270994048083 0 -0.001114265615110588 0.031965857349806781 0 -0.0010984962940656315 0.03191600347991666 0 -0.0012079803173573106 0.031723632459738367 0 -0.001114265615110588 0.031965857349806781 0 -0.0010984962940656315 0.03191600347991666 0 -0.00099644933822541052 0.032158270994048083 0 -0.0010984962940656315 0.03191600347991666 0 -0.00096190451600252692 0.032102267421563989 0 -0.00099644933822541052 0.032158270994048083 0 -0.0010984962940656315 0.03191600347991666 0 -0.0010005043711212372 0.031959902389508917 0 -0.00096190451600252692 0.032102267421563989 0 -0.0010984962940656315 0.03191600347991666 0 -0.0010005043711212372 0.031959902389508917 0 -0.0011251453664507052 0.031783264954827473 0 -0.0010984962940656315 0.03191600347991666 0 -0.0012086060130226933 0.031693411882727195 0 -0.0011251453664507052 0.031783264954827473 0 -0.0010984962940656315 0.03191600347991666 0 -0.0012086060130226933 0.031693411882727195 0 -0.0012079803173573106 0.031723632459738367 0 -0.00085056186946983749 0.032148578223216366 0 -0.00072177801440128047 0.03215840407365253 0 -0.00069341007929065671 0.032351704331314485 0 -0.00085056186946983749 0.032148578223216366 0 -0.00072177801440128047 0.03215840407365253 0 -0.00087447868241732841 0.031973208721818143 0 -0.00085056186946983749 0.032148578223216366 0 -0.0010005043711212372 0.031959902389508917 0 -0.00096190451600252692 0.032102267421563989 0 -0.00085056186946983749 0.032148578223216366 0 -0.0010005043711212372 0.031959902389508917 0 -0.00087447868241732841 0.031973208721818143 0 -0.00096190451600252692 0.032102267421563989 0 -0.00084246541514007144 0.032316530018942309 0 -0.00099644933822541052 0.032158270994048083 0 -0.00085056186946983749 0.032148578223216366 0 -0.00096190451600252692 0.032102267421563989 0 -0.00084246541514007144 0.032316530018942309 0 -0.00085056186946983749 0.032148578223216366 0 -0.00084246541514007144 0.032316530018942309 0 -0.00069341007929065671 0.032351704331314485 0 -0.00084246541514007144 0.032316530018942309 0 -0.00076784787535356253 0.032553808485305362 0 -0.00067556668526852894 0.032527174622147957 0 -0.00084246541514007144 0.032316530018942309 0 -0.00076784787535356253 0.032553808485305362 0 -0.00090586936412883072 0.032380505451673931 0 -0.0010426735598748559 0.032196940645014098 0 -0.00090586936412883072 0.032380505451673931 0 -0.00099644933822541052 0.032158270994048083 0 -0.00084246541514007144 0.032316530018942309 0 -0.00090586936412883072 0.032380505451673931 0 -0.00099644933822541052 0.032158270994048083 0 -0.0010426735598748559 0.032196940645014098 0 -0.00090586936412883072 0.032380505451673931 0 -0.00092370392948601604 0.032465031125707339 0 -0.00076784787535356253 0.032553808485305362 0 -0.00090586936412883072 0.032380505451673931 0 -0.00082332020539621804 0.032597845096168324 0 -0.00090586936412883072 0.032380505451673931 0 -0.00092370392948601604 0.032465031125707339 0 -0.00082332020539621804 0.032597845096168324 0 -0.00076784787535356253 0.032553808485305362 0 -0.00082332020539621804 0.032597845096168324 0 -0.00070415646781766606 0.032782084362632351 0 -0.00076784787535356253 0.032553808485305362 0 -0.00070415646781766606 0.032782084362632351 0 -0.00063713616897496429 0.032709576676982106 0 -0.00070415646781766606 0.032782084362632351 0 -0.0005762701671603674 0.032935996135494416 0 -0.00063713616897496429 0.032709576676982106 0 -0.0005762701671603674 0.032935996135494416 0 -0.00052339801935849962 0.032850406624162692 0 -0.00063713616897496429 0.032709576676982106 0 -0.00052339801935849962 0.032850406624162692 0 -0.00063713616897496429 0.032709576676982106 0 -0.00053538578673320504 0.032657463802622931 0 -0.00063713616897496429 0.032709576676982106 0 -0.00067556668526852894 0.032527174622147957 0 -0.00053538578673320504 0.032657463802622931 0 -0.00076784787535356253 0.032553808485305362 0 -0.00063713616897496429 0.032709576676982106 0 -0.00067556668526852894 0.032527174622147957 0 -0.00084246541514007144 0.032316530018942309 0 -0.00067556668526852894 0.032527174622147957 0 -0.00069341007929065671 0.032351704331314485 0 -0.00067556668526852894 0.032527174622147957 0 -0.00059302971669939787 0.032482531154342346 0 -0.00069341007929065671 0.032351704331314485 0 -0.00053538578673320504 0.032657463802622931 0 -0.00059302971669939787 0.032482531154342346 0 -0.00048900318341290965 0.032534884359723723 0 -0.00067556668526852894 0.032527174622147957 0 -0.00053538578673320504 0.032657463802622931 0 -0.00059302971669939787 0.032482531154342346 0 -0.00059302971669939787 0.032482531154342346 0 -0.00048900318341290965 0.032534884359723723 0 -0.00058598562920764532 0.032337667288289518 0 -0.00048900318341290965 0.032534884359723723 0 -0.00045996893165176024 0.032466120880188694 0 -0.00051984703763171983 0.032349645363140743 0 -0.00048900318341290965 0.032534884359723723 0 -0.00058598562920764532 0.032337667288289518 0 -0.00051984703763171983 0.032349645363140743 0 -0.00058598562920764532 0.032337667288289518 0 -0.00072177801440128047 0.03215840407365253 0 -0.00069341007929065671 0.032351704331314485 0 -0.00059302971669939787 0.032482531154342346 0 -0.00058598562920764532 0.032337667288289518 0 -0.00069341007929065671 0.032351704331314485 0 -0.0003510516574407434 0.032850248450567221 0 -0.00035303851475012373 0.03275409446013388 0 -0.00027353888764931422 0.032936878792185723 0 -0.0003510516574407434 0.032850248450567221 0 -0.00040930062060022543 0.032648113282789902 0 -0.00042797692705685381 0.032722185215431888 0 -0.0003510516574407434 0.032850248450567221 0 -0.00035303851475012373 0.03275409446013388 0 -0.00040930062060022543 0.032648113282789902 0 -0.00048900318341290965 0.032534884359723723 0 -0.00040930062060022543 0.032648113282789902 0 -0.00045996893165176024 0.032466120880188694 0 -0.00048900318341290965 0.032534884359723723 0 -0.00040930062060022543 0.032648113282789902 0 -0.00042797692705685381 0.032722185215431888 0 -0.00053538578673320504 0.032657463802622931 0 -0.00042797692705685381 0.032722185215431888 0 -0.00040530769579742297 0.032882449180009134 0 -0.00053538578673320504 0.032657463802622931 0 -0.00048900318341290965 0.032534884359723723 0 -0.00042797692705685381 0.032722185215431888 0 -0.0003510516574407434 0.032850248450567221 0 -0.00042797692705685381 0.032722185215431888 0 -0.00040530769579742297 0.032882449180009134 0 -0.00040530769579742297 0.032882449180009134 0 -0.00032398351911791225 0.033013777581147749 0 -0.00030905004131356921 0.033132362985107307 0 -0.0003510516574407434 0.032850248450567221 0 -0.00040530769579742297 0.032882449180009134 0 -0.00032398351911791225 0.033013777581147749 0 -0.0003510516574407434 0.032850248450567221 0 -0.00032398351911791225 0.033013777581147749 0 -0.00028684731598266691 0.033048217829969792 0 -0.00040530769579742297 0.032882449180009134 0 -0.00038339422981055455 0.033062233744033082 0 -0.00030905004131356921 0.033132362985107307 0 -0.00052339801935849962 0.032850406624162692 0 -0.00053538578673320504 0.032657463802622931 0 -0.00040530769579742297 0.032882449180009134 0 -0.00052339801935849962 0.032850406624162692 0 -0.00040530769579742297 0.032882449180009134 0 -0.00038339422981055455 0.033062233744033082 0 -0.00052339801935849962 0.032850406624162692 0 -0.00038339422981055455 0.033062233744033082 0 -0.00046769882829845544 0.033153034164628149 0 -0.0005762701671603674 0.032935996135494416 0 -0.00052339801935849962 0.032850406624162692 0 -0.00046769882829845544 0.033153034164628149 0 -0.00038339422981055455 0.033062233744033082 0 -0.00046769882829845544 0.033153034164628149 0 -0.00027229904472458394 0.033283763874325523 0 -0.00038339422981055455 0.033062233744033082 0 -0.00027229904472458394 0.033283763874325523 0 -0.00030905004131356921 0.033132362985107307 0 -0.00047185324878218089 0.033201334355688596 0 -0.00030665355968392198 0.033448305831125145 0 -0.00046769882829845544 0.033153034164628149 0 -0.00038756473232911404 0.033522276377208421 0 -0.00031283912501949349 0.033623968416549806 0 -0.00038756473232911404 0.033522276377208421 0 -0.00044300488806091641 0.033665897257520082 0 -0.00035391487253865058 0.033744378425305352 0 -0.00038756473232911404 0.033522276377208421 0 -0.00044300488806091641 0.033665897257520082 0 -0.00054621194394919529 0.033450141100847597 0 -0.00039300127426212432 0.033466807345670084 0 -0.00060649978564413908 0.033151364241451778 0 -0.00038756473232911404 0.033522276377208421 0 -0.00062917888791018774 0.033155711531510555 0 -0.00054621194394919529 0.033450141100847597 0 -0.00046769882829845544 0.033153034164628149 0 -0.00038756473232911404 0.033522276377208421 0 -0.00058413374972752521 0.033129726056599272 0 -0.00070415646781766606 0.032782084362632351 0 -0.0005762701671603674 0.032935996135494416 0 -0.00058413374972752521 0.033129726056599272 0 -0.0005762701671603674 0.032935996135494416 0 -0.00046769882829845544 0.033153034164628149 0 -0.00058413374972752521 0.033129726056599272 0 -0.00087209554402716168 0.032769877938422939 0 -0.00060649978564413908 0.033151364241451778 0 -0.00081427074334568348 0.032768827012275389 0 -0.00070415646781766606 0.032782084362632351 0 -0.00058413374972752521 0.033129726056599272 0 -0.00093448731288872536 0.032771783305555524 0 -0.00062917888791018774 0.033155711531510555 0 -0.00072005176637865778 0.033194722157963819 0 -0.00092572068669496954 0.033005211781835533 0 -0.00093448731288872536 0.032771783305555524 0 -0.00072005176637865778 0.033194722157963819 0 -0.00062917888791018774 0.033155711531510555 0 -0.00072005176637865778 0.033194722157963819 0 -0.00054621194394919529 0.033450141100847597 0 -0.00061896224770811024 0.033474624277962467 0 -0.00072005176637865778 0.033194722157963819 0 -0.00054621194394919529 0.033450141100847597 0 -0.00061896224770811024 0.033474624277962467 0 -0.00072005176637865778 0.033194722157963819 0 -0.00073030090012657595 0.033438188368693875 0 -0.00092572068669496954 0.033005211781835533 0 -0.00072005176637865778 0.033194722157963819 0 -0.00073030090012657595 0.033438188368693875 0 -0.00085768649925843882 0.033474026493392386 0 -0.00092572068669496954 0.033005211781835533 0 -0.00073030090012657595 0.033438188368693875 0 -0.00066525289979681786 0.033689747819521693 0 -0.00077391159764091133 0.033601791902714229 0 -0.00073030090012657595 0.033438188368693875 0 -0.00077391159764091133 0.033601791902714229 0 -0.00085768649925843882 0.033474026493392386 0 -0.00073030090012657595 0.033438188368693875 0 -0.00066525289979681786 0.033689747819521693 0 -0.00061896224770811024 0.033474624277962467 0 -0.00054007609146123606 0.033656564828525748 0 -0.00066525289979681786 0.033689747819521693 0 -0.00061896224770811024 0.033474624277962467 0 -0.00073030090012657595 0.033438188368693875 0 -0.00057090295797237219 0.033784453978755569 0 -0.00054007609146123606 0.033656564828525748 0 -0.00045302450828841684 0.03385197189721207 0 -0.00057090295797237219 0.033784453978755569 0 -0.00066525289979681786 0.033689747819521693 0 -0.00054007609146123606 0.033656564828525748 0 -0.00045302450828841684 0.03385197189721207 0 -0.00044300488806091641 0.033665897257520082 0 -0.00033067238228951348 0.033903013313754213 0 -0.00054007609146123606 0.033656564828525748 0 -0.00045302450828841684 0.03385197189721207 0 -0.00044300488806091641 0.033665897257520082 0 -0.00061896224770811024 0.033474624277962467 0 -0.00054007609146123606 0.033656564828525748 0 -0.00054621194394919529 0.033450141100847597 0 -0.00054007609146123606 0.033656564828525748 0 -0.00044300488806091641 0.033665897257520082 0 -0.00054621194394919529 0.033450141100847597 0 -0.00033067238228951348 0.033903013313754213 0 -0.00023400708711514897 0.034163994289946424 0 -0.00021237793119232947 0.034107437611730226 0 -0.00033067238228951348 0.033903013313754213 0 -0.00021237793119232947 0.034107437611730226 0 -0.0002620303890385709 0.033895223915245687 0 -0.00044300488806091641 0.033665897257520082 0 -0.00035391487253865058 0.033744378425305352 0 -0.00033067238228951348 0.033903013313754213 0 -0.00035391487253865058 0.033744378425305352 0 -0.00033067238228951348 0.033903013313754213 0 -0.0002620303890385709 0.033895223915245687 0 -0.0003557684675642343 0.03402235429255953 0 -0.00045302450828841684 0.03385197189721207 0 -0.00033067238228951348 0.033903013313754213 0 -0.0003557684675642343 0.03402235429255953 0 -0.00033067238228951348 0.033903013313754213 0 -0.00023400708711514897 0.034163994289946424 0 -0.00014964932332629978 0.034407724491845558 0 -0.00023400708711514897 0.034163994289946424 0 -0.00015299852610572322 0.034300766934574498 0 -0.00014964932332629978 0.034407724491845558 0 -0.00015299852610572322 0.034300766934574498 0 -0.00010088446581304212 0.034506216060678274 0 -0.00023400708711514897 0.034163994289946424 0 -0.00015299852610572322 0.034300766934574498 0 -0.00021237793119232947 0.034107437611730226 0 -0.00021237793119232947 0.034107437611730226 0 -0.0001647936310541254 0.034191176586075178 0 -0.0002620303890385709 0.033895223915245687 0 -0.00015299852610572322 0.034300766934574498 0 -0.00021237793119232947 0.034107437611730226 0 -0.0001647936310541254 0.034191176586075178 0 -0.00015299852610572322 0.034300766934574498 0 -0.0001647936310541254 0.034191176586075178 0 -8.2204146327983653e-05 0.034520431258933629 0 -0.0001647936310541254 0.034191176586075178 0 -0.00020224641088175172 0.033998012094849803 0 -0.00011344314421535155 0.034345531056089375 0 -0.0001647936310541254 0.034191176586075178 0 -0.0002620303890385709 0.033895223915245687 0 -0.00020224641088175172 0.033998012094849803 0 -0.0002620303890385709 0.033895223915245687 0 -0.00031283912501949349 0.033623968416549806 0 -0.00020224641088175172 0.033998012094849803 0 -0.00038756473232911404 0.033522276377208421 0 -0.00035391487253865058 0.033744378425305352 0 -0.0002620303890385709 0.033895223915245687 0 -0.00038756473232911404 0.033522276377208421 0 -0.0002620303890385709 0.033895223915245687 0 -0.00031283912501949349 0.033623968416549806 0 -0.00027229904472458394 0.033283763874325523 0 -0.00024498869232576342 0.033339260901596925 0 -0.00030905004131356921 0.033132362985107307 0 -0.00027229904472458394 0.033283763874325523 0 -0.00024498869232576342 0.033339260901596925 0 -0.00021111190767849461 0.033540070398341851 0 -0.00030665355968392198 0.033448305831125145 0 -0.00020780990748950597 0.033772803768151519 0 -0.00024498869232576342 0.033339260901596925 0 -0.00025199335056943372 0.033250961183641549 0 -0.00021779964003704698 0.033468164916339402 0 -0.00024498869232576342 0.033339260901596925 0 -0.00021779964003704698 0.033468164916339402 0 -0.00021111190767849461 0.033540070398341851 0 -0.00024498869232576342 0.033339260901596925 0 -0.00030905004131356921 0.033132362985107307 0 -0.00025199335056943372 0.033250961183641549 0 -0.00025199335056943372 0.033250961183641549 0 -0.00024619485087629811 0.033176572192839725 0 -0.00028684731598266691 0.033048217829969792 0 -0.00032398351911791225 0.033013777581147749 0 -0.00025199335056943372 0.033250961183641549 0 -0.00028684731598266691 0.033048217829969792 0 -0.00032398351911791225 0.033013777581147749 0 -0.00030905004131356921 0.033132362985107307 0 -0.00025199335056943372 0.033250961183641549 0 -0.00025199335056943372 0.033250961183641549 0 -0.00021888274632625318 0.033379565539533751 0 -0.00021779964003704698 0.033468164916339402 0 -0.00025199335056943372 0.033250961183641549 0 -0.00024619485087629811 0.033176572192839725 0 -0.00021888274632625318 0.033379565539533751 0 -0.00024619485087629811 0.033176572192839725 0 -0.00021888274632625318 0.033379565539533751 0 -0.00020942656557060789 0.033297066790114474 0 -0.00024619485087629811 0.033176572192839725 0 -0.00020942656557060789 0.033297066790114474 0 -0.00027353888764931422 0.032936878792185723 0 -0.0003510516574407434 0.032850248450567221 0 -0.00028684731598266691 0.033048217829969792 0 -0.00027353888764931422 0.032936878792185723 0 -0.00024619485087629811 0.033176572192839725 0 -0.00028684731598266691 0.033048217829969792 0 -0.00027353888764931422 0.032936878792185723 0 -0.00026690746851995529 0.033558457916658818 0 -0.00034257198627418711 0.033246719547443168 0 -0.00018280496354333998 0.033647229419910836 0 -0.0001995227631685951 0.033515183187871063 0 -0.00018949648976896894 0.033744245276811691 0 -0.00018280496354333998 0.033647229419910836 0 -0.0001995227631685951 0.033515183187871063 0 -0.00020942656557060789 0.033297066790114474 0 -0.0001995227631685951 0.033515183187871063 0 -0.00021888274632625318 0.033379565539533751 0 -0.00020942656557060789 0.033297066790114474 0 -0.00021888274632625318 0.033379565539533751 0 -0.00020311939209804588 0.033555938429777298 0 -0.00021779964003704698 0.033468164916339402 0 -0.0001995227631685951 0.033515183187871063 0 -0.00021888274632625318 0.033379565539533751 0 -0.00020311939209804588 0.033555938429777298 0 -0.0001995227631685951 0.033515183187871063 0 -0.00020311939209804588 0.033555938429777298 0 -0.00018949648976896894 0.033744245276811691 0 -0.00020311939209804588 0.033555938429777298 0 -0.00018949648976896894 0.033744245276811691 0 -0.00019540827160557128 0.033713296520207221 0 -0.00019540827160557128 0.033713296520207221 0 -0.00021779964003704698 0.033468164916339402 0 -0.00021111190767849461 0.033540070398341851 0 -0.00020311939209804588 0.033555938429777298 0 -0.00019540827160557128 0.033713296520207221 0 -0.00021779964003704698 0.033468164916339402 0 -0.00020780990748950597 0.033772803768151519 0 -0.00014472483775160828 0.034132504574399834 0 -0.00019540827160557128 0.033713296520207221 0 -0.00021111190767849461 0.033540070398341851 0 -0.00018321087251205171 0.033913966194440266 0 -0.00014472483775160828 0.034132504574399834 0 -6.5418166195320434e-05 0.034545431954115441 0 -0.00018321087251205171 0.033913966194440266 0 -0.00017157367549046917 0.034023238902857508 0 -0.00010975848781222708 0.034410558311452143 0 -0.00017157367549046917 0.034023238902857508 0 -0.00012749507859472045 0.034314382623866033 0 -0.00010975848781222708 0.034410558311452143 0 -0.00019540827160557128 0.033713296520207221 0 -0.00018321087251205171 0.033913966194440266 0 -0.00017157367549046917 0.034023238902857508 0 -0.00018949648976896894 0.033744245276811691 0 -0.00019540827160557128 0.033713296520207221 0 -0.00017157367549046917 0.034023238902857508 0 -0.00018949648976896894 0.033744245276811691 0 -0.00017157367549046917 0.034023238902857508 0 -0.00015879565285370706 0.03398080942007168 0 -0.00017157367549046917 0.034023238902857508 0 -0.00015879565285370706 0.03398080942007168 0 -0.00012749507859472045 0.034314382623866033 0 -0.00018280496354333998 0.033647229419910836 0 -0.00018949648976896894 0.033744245276811691 0 -0.00015879565285370706 0.03398080942007168 0 -0.00026690746851995529 0.033558457916658818 0 -0.00019670879702938691 0.033889197468309949 0 -4.2819298064494505e-05 0.034501702603263275 0 -3.0112116247343794e-08 0.034999721873652835 0 -1.6436906438432156e-05 0.034255561252556119 0 2.7561306203894008e-06 0.033943040665562051 0 5.1119455433996421e-07 0.034998176637293099 0 2.9945203297120127e-09 0.034999988826895374 0 -2.555218138886819e-06 0.034998281126830788 0 -2.2780147073999891e-09 0.035000004214731886 0 -0.00019670879702938691 0.033889197468309949 0 -1.070641805002909e-05 0.034188847271534373 0 -0.00025380366775348817 0.033771893855090891 0 -1.6436906438432156e-05 0.034255561252556119 0 2.7561306203894008e-06 0.033943040665562051 0 -0.00015879565285370706 0.03398080942007168 0 -1.6436906438432156e-05 0.034255561252556119 0 -0.00012749507859472045 0.034314382623866033 0 -1.6436906438432156e-05 0.034255561252556119 0 -0.00012749507859472045 0.034314382623866033 0 -3.962607823761535e-05 0.034666922321278063 0 -1.6436906438432156e-05 0.034255561252556119 0 5.1119455433996421e-07 0.034998176637293099 0 -3.962607823761535e-05 0.034666922321278063 0 -3.962607823761535e-05 0.034666922321278063 0 -0.00010975848781222708 0.034410558311452143 0 -2.6674513548785234e-07 0.03500014815452273 0 5.1119455433996421e-07 0.034998176637293099 0 -3.962607823761535e-05 0.034666922321278063 0 -2.6674513548785234e-07 0.03500014815452273 0 -0.00012749507859472045 0.034314382623866033 0 -3.962607823761535e-05 0.034666922321278063 0 -0.00010975848781222708 0.034410558311452143 0 -4.6527248123961058e-05 0.034677148841739808 0 -1.2952691611787624e-08 0.034999720190112417 0 -2.953601777800602e-05 0.034794505301701459 0 -6.5418166195320434e-05 0.034545431954115441 0 2.4088686966875706e-08 0.034999840308045344 0 -2.0958260655402107e-08 0.034999721286327869 0 -3.2902729712026479e-05 0.034784288552218108 0 -2.953601777800602e-05 0.034794505301701459 0 -1.2952691611787624e-08 0.034999720190112417 0 -2.0958260655402107e-08 0.034999721286327869 0 -2.953601777800602e-05 0.034794505301701459 0 -2.0958260655402107e-08 0.034999721286327869 0 -3.2902729712026479e-05 0.034784288552218108 0 -1.1641792453782105e-08 0.03499973889087693 0 -3.2902729712026479e-05 0.034784288552218108 0 -2.953601777800602e-05 0.034794505301701459 0 -8.2204146327983653e-05 0.034520431258933629 0 -0.00011344314421535155 0.034345531056089375 0 -4.6527248123961058e-05 0.034677148841739808 0 -8.2204146327983653e-05 0.034520431258933629 0 -4.6527248123961058e-05 0.034677148841739808 0 -2.953601777800602e-05 0.034794505301701459 0 -8.2204146327983653e-05 0.034520431258933629 0 -0.0001647936310541254 0.034191176586075178 0 -0.00011344314421535155 0.034345531056089375 0 -8.2204146327983653e-05 0.034520431258933629 0 -3.2902729712026479e-05 0.034784288552218108 0 -8.2204146327983653e-05 0.034520431258933629 0 -5.5845992738002112e-05 0.034684625220495417 0 -8.2204146327983653e-05 0.034520431258933629 0 -5.5845992738002112e-05 0.034684625220495417 0 -0.00010088446581304212 0.034506216060678274 0 -0.00015299852610572322 0.034300766934574498 0 -8.2204146327983653e-05 0.034520431258933629 0 -0.00010088446581304212 0.034506216060678274 0 -7.9275468704715125e-05 0.034631194254707939 0 -0.00014964932332629978 0.034407724491845558 0 -0.00010088446581304212 0.034506216060678274 0 -7.9275468704715125e-05 0.034631194254707939 0 -5.5845992738002112e-05 0.034684625220495417 0 -0.00010088446581304212 0.034506216060678274 0 -3.5590697489473733e-05 0.034809362552289835 0 -7.9275468704715125e-05 0.034631194254707939 0 -5.5845992738002112e-05 0.034684625220495417 0 -3.5590697489473733e-05 0.034809362552289835 0 -5.5845992738002112e-05 0.034684625220495417 0 -1.1641792453782105e-08 0.03499973889087693 0 -3.2902729712026479e-05 0.034784288552218108 0 -5.5845992738002112e-05 0.034684625220495417 0 -1.1641792453782105e-08 0.03499973889087693 0 -1.806436736237972e-08 0.034999765876778235 0 -3.5590697489473733e-05 0.034809362552289835 0 -1.1641792453782105e-08 0.03499973889087693 0 0.00071122687599798273 0.011243085720548064 0 0.00031722526689702843 0.010486849709484035 0 8.2931717306814514e-05 0.011161055025573101 0 0.00084479001889856294 0.010782791348207166 0 0.00071122687599798273 0.011243085720548064 0 0.00031722526689702843 0.010486849709484035 0 0.00071122687599798273 0.011243085720548064 0 8.2931717306814514e-05 0.011161055025573101 0 0.00057310132896960016 0.01165799564705805 0 0.00071122687599798273 0.011243085720548064 0 0.00094908214293320343 0.011124382563693493 0 0.0010606400879370661 0.011303565386240229 0 0.00084479001889856294 0.010782791348207166 0 0.00071122687599798273 0.011243085720548064 0 0.00094908214293320343 0.011124382563693493 0 0.0011253413404781448 0.010994063100737446 0 0.0012657518908162589 0.011266201058439822 0 0.0010606400879370661 0.011303565386240229 0 0.00094908214293320343 0.011124382563693493 0 0.0011253413404781448 0.010994063100737446 0 0.0010606400879370661 0.011303565386240229 0 0.00135534420186022 0.011001965136968037 0 0.0011253413404781448 0.010994063100737446 0 0.0012657518908162589 0.011266201058439822 0 0.00135534420186022 0.011001965136968037 0 0.0012657518908162589 0.011266201058439822 0 0.0014324643035182648 0.0112077943836375 0 0.00135534420186022 0.011001965136968037 0 0.0015123925079655832 0.011087679055279746 0 0.0014324643035182648 0.0112077943836375 0 0.00135534420186022 0.011001965136968037 0 0.0012024646020403675 0.010388572392421438 0 0.0015839025334260239 0.010965820945189938 0 0.00084479001889856294 0.010782791348207166 0 0.0011253413404781448 0.010994063100737446 0 0.0012024646020403675 0.010388572392421438 0 0.00135534420186022 0.011001965136968037 0 0.0011253413404781448 0.010994063100737446 0 0.0012024646020403675 0.010388572392421438 0 0.00084479001889856294 0.010782791348207166 0 0.00094908214293320343 0.011124382563693493 0 0.0011253413404781448 0.010994063100737446 0 -0.00090745906507362845 0.0077144306666508825 0 -0.0010122008620061956 0.007666257755874822 0 -0.00098456039245738104 0.0078042962219528654 0 0.00084479001889856294 0.010782791348207166 0 0.0012024646020403675 0.010388572392421438 0 0.00031722526689702843 0.010486849709484035 0 5.1723248006433111e-05 0.0089375295839744708 0 -0.0003443762983948 0.0086940814721315936 0 0.0012024646020403675 0.010388572392421438 0 0.00031722526689702843 0.010486849709484035 0 0.00018033786703932367 0.0094112445865395106 0 0.00031722526689702843 0.010486849709484035 0 -0.00054753789497655474 0.010651958808775593 0 -0.00062497008252340638 0.0099653813257235963 0 0.00047626393680238837 0.010697615228511976 0 -0.0010193369370442287 0.0088938964009280808 0 0.00031722526689702843 0.010486849709484035 0 -0.00069622241950834183 0.0093405112920675552 0 0.00018033786703932367 0.0094112445865395106 0 -0.00054753789497655474 0.010651958808775593 0 -0.0012270210893680306 0.010376373539179732 0 -0.00062497008252340638 0.0099653813257235963 0 -0.00078654305175410448 0.027590624421603753 0 -0.00081123229024043092 0.030842789272355141 0 -0.0014103892019586368 0.030746458475193028 0 -0.00054753789497655474 0.010651958808775593 0 -0.0012270210893680306 0.010376373539179732 0 -0.0013268422719967408 0.01155420583428951 0 -0.0010257581654146055 0.019526000646321515 0 -0.0010933306673064412 0.021072603806136719 0 0.00031722526689702843 0.010486849709484035 0 -0.00054753789497655474 0.010651958808775593 0 8.2931717306814514e-05 0.011161055025573101 0 -0.0013268422719967408 0.01155420583428951 0 8.2931717306814514e-05 0.011161055025573101 0 -0.00010826647752274888 0.012002032834850521 0 -0.00054753789497655474 0.010651958808775593 0 -0.0013268422719967408 0.01155420583428951 0 8.2931717306814514e-05 0.011161055025573101 0 7.782009590484876e-06 0.012004021590214303 0 0.0011971081432811507 0.012452705191082733 0 -0.00010826647752274888 0.012002032834850521 0 0.00066389767469614291 0.013341652915471151 0 0.0018470201283712555 0.013102854961564887 0 8.2931717306814514e-05 0.011161055025573101 0 -0.00010826647752274888 0.012002032834850521 0 0.00057310132896960016 0.01165799564705805 0 -0.00010826647752274888 0.012002032834850521 0 -0.00054380367215961934 0.012924971699487879 0 0.00066389767469614291 0.013341652915471151 0 -0.0010933306673064412 0.021072603806136719 0 -0.0013649406905751733 0.022472425375054356 0 -0.0013268422719967408 0.01155420583428951 0 -0.00010826647752274888 0.012002032834850521 0 -0.00054380367215961934 0.012924971699487879 0 -0.0013268422719967408 0.01155420583428951 0 -0.00054380367215961934 0.012924971699487879 0 -0.0016277689342921746 0.013918579252105571 0 -0.00081123229024043092 0.030842789272355141 0 -0.0011547229462786157 0.031110736434493486 0 -0.0011979359467920085 0.031053880108705263 0 -0.00054380367215961934 0.012924971699487879 0 -0.0016277689342921746 0.013918579252105571 0 -0.00033308276299171501 0.014152782858714937 0 -0.0016277689342921746 0.013918579252105571 0 -0.00033308276299171501 0.014152782858714937 0 -0.00050942249344324648 0.014391285928260169 0 6.1819039846704643e-05 0.014513987383737969 0 0.0010726106227109291 0.015306814872727547 0 -0.00016764971700766645 0.014140436260242875 0 0.0015983772024810374 0.013999085170106477 0 0.00066389767469614291 0.013341652915471151 0 -0.00033308276299171501 0.014152782858714937 0 0.001264514512552714 0.014222653961871629 0 -0.00033308276299171501 0.014152782858714937 0 -0.00050942249344324648 0.014391285928260169 0 0.0014752931096348957 0.014806641432596267 0 -0.00033308276299171501 0.014152782858714937 0 0.0014752931096348957 0.014806641432596267 0 0.0016399677796751851 0.014415211956889469 0 -0.00054380367215961934 0.012924971699487879 0 0.00066389767469614291 0.013341652915471151 0 -0.00033308276299171501 0.014152782858714937 0 0.0014519570469540813 0.013847479886538772 0 0.0018848209654954524 0.013709377794816169 0 0.0015455809847144284 0.01353267526033488 0 0.0015983772024810374 0.013999085170106477 0 0.0026373063974857607 0.01319584439646177 0 0.0014519570469540813 0.013847479886538772 0 0.0018848209654954524 0.013709377794816169 0 0.0025531391525866797 0.013913425310772727 0 0.0010726106227109291 0.015306814872727547 0 0.0015983772024810374 0.013999085170106477 0 0.0015983772024810374 0.013999085170106477 0 0.0015989333272029822 0.013776617325061037 0 0.0018848209654954524 0.013709377794816169 0 0.002094943303734532 0.013621010807172942 0 0.0018487721697998756 0.013496433735945664 0 0.002094943303734532 0.013621010807172942 0 0.0018470201283712555 0.013102854961564887 0 0.0022841677098373488 0.01360690867947271 0 0.002094943303734532 0.013621010807172942 0 0.0018487721697998756 0.013496433735945664 0 0.0018470201283712555 0.013102854961564887 0 0.0018848209654954524 0.013709377794816169 0 0.0018487721697998756 0.013496433735945664 0 0.0015455809847144284 0.01353267526033488 0 0.0018487721697998756 0.013496433735945664 0 0.0015455809847144284 0.01353267526033488 0 0.0018470201283712555 0.013102854961564887 0 0.00066389767469614291 0.013341652915471151 0 0.001264514512552714 0.014222653961871629 0 0.0015455809847144284 0.01353267526033488 0 0.00066389767469614291 0.013341652915471151 0 0.0015455809847144284 0.01353267526033488 0 0.0018470201283712555 0.013102854961564887 0 -0.00010826647752274888 0.012002032834850521 0 0.00075802832836764959 0.011864631388784587 0 0.00057310132896960016 0.01165799564705805 0 0.00075802832836764959 0.011864631388784587 0 0.00093355388819033882 0.011699475019554737 0 0.0011030201186170525 0.011743075006640543 0 0.00075802832836764959 0.011864631388784587 0 0.00079512261625404855 0.011696490848231331 0 0.00057310132896960016 0.01165799564705805 0 0.00075802832836764959 0.011864631388784587 0 0.00093355388819033882 0.011699475019554737 0 0.00079512261625404855 0.011696490848231331 0 0.00093355388819033882 0.011699475019554737 0 0.00079512261625404855 0.011696490848231331 0 0.00091396416120649473 0.011552423023693381 0 0.00079512261625404855 0.011696490848231331 0 0.00091396416120649473 0.011552423023693381 0 0.00057310132896960016 0.01165799564705805 0 0.00071122687599798273 0.011243085720548064 0 0.00091396416120649473 0.011552423023693381 0 0.0010606400879370661 0.011303565386240229 0 0.00071122687599798273 0.011243085720548064 0 0.00091396416120649473 0.011552423023693381 0 0.00057310132896960016 0.01165799564705805 0 0.001256141070334749 0.011463948646690923 0 0.0013714200359916575 0.011344351463081074 0 0.0012657518908162589 0.011266201058439822 0 0.001256141070334749 0.011463948646690923 0 0.0012657518908162589 0.011266201058439822 0 0.0011105637824654808 0.011455796030643254 0 0.001256141070334749 0.011463948646690923 0 0.0013714200359916575 0.011344351463081074 0 0.0013665133697969968 0.011474040947977134 0 0.0013714200359916575 0.011344351463081074 0 0.0013665133697969968 0.011474040947977134 0 0.0014949246843547804 0.01134291792925394 0 0.0013714200359916575 0.011344351463081074 0 0.0012657518908162589 0.011266201058439822 0 0.0014324643035182648 0.0112077943836375 0 0.0012657518908162589 0.011266201058439822 0 0.0010606400879370661 0.011303565386240229 0 0.0011105637824654808 0.011455796030643254 0 0.00091396416120649473 0.011552423023693381 0 0.0010606400879370661 0.011303565386240229 0 0.0011105637824654808 0.011455796030643254 0 0.00091396416120649473 0.011552423023693381 0 0.0011105637824654808 0.011455796030643254 0 0.0011021069039493143 0.011601515969459963 0 0.001256141070334749 0.011463948646690923 0 0.0011105637824654808 0.011455796030643254 0 0.0011021069039493143 0.011601515969459963 0 0.00093355388819033882 0.011699475019554737 0 0.00091396416120649473 0.011552423023693381 0 0.0011021069039493143 0.011601515969459963 0 0.00093355388819033882 0.011699475019554737 0 0.0011021069039493143 0.011601515969459963 0 0.0011030201186170525 0.011743075006640543 0 0.0011021069039493143 0.011601515969459963 0 0.0012885242530586351 0.011606180432554097 0 0.0011030201186170525 0.011743075006640543 0 0.001256141070334749 0.011463948646690923 0 0.0011021069039493143 0.011601515969459963 0 0.0012885242530586351 0.011606180432554097 0 0.001256141070334749 0.011463948646690923 0 0.0012885242530586351 0.011606180432554097 0 0.0013665133697969968 0.011474040947977134 0 0.0012885242530586351 0.011606180432554097 0 0.0013665133697969968 0.011474040947977134 0 0.0014640086583838118 0.011560913758274586 0 0.0012885242530586351 0.011606180432554097 0 0.0013838657455749696 0.011678927826258727 0 0.0014640086583838118 0.011560913758274586 0 0.0018470201283712555 0.013102854961564887 0 0.0022841677098373488 0.01360690867947271 0 0.0026593335037428012 0.013700763976212737 0 0.00075802832836764959 0.011864631388784587 0 0.0011030201186170525 0.011743075006640543 0 0.0013448642980008038 0.011816453577152121 0 0.0012885242530586351 0.011606180432554097 0 0.0013838657455749696 0.011678927826258727 0 0.0012823090647346574 0.011713733135223794 0 0.0011971081432811507 0.012452705191082733 0 0.0020608403145584058 0.012798714950544609 0 0.0012823090647346574 0.011713733135223794 0 0.0011030201186170525 0.011743075006640543 0 0.0013448642980008038 0.011816453577152121 0 0.0012885242530586351 0.011606180432554097 0 0.0012823090647346574 0.011713733135223794 0 0.0011030201186170525 0.011743075006640543 0 0.0013838657455749696 0.011678927826258727 0 0.0012823090647346574 0.011713733135223794 0 0.0013448642980008038 0.011816453577152121 0 0.0013838657455749696 0.011678927826258727 0 0.0013448642980008038 0.011816453577152121 0 0.0014821626427962847 0.01168205827183379 0 0.0018848209654954524 0.013709377794816169 0 0.002094943303734532 0.013621010807172942 0 0.0025531391525866797 0.013913425310772727 0 0.002094943303734532 0.013621010807172942 0 0.0022841677098373488 0.01360690867947271 0 0.0025531391525866797 0.013913425310772727 0 0.0022841677098373488 0.01360690867947271 0 0.0025531391525866797 0.013913425310772727 0 0.0026593335037428012 0.013700763976212737 0 0.0013448642980008038 0.011816453577152121 0 0.001623759021771219 0.011706323748722956 0 0.0017543789460203929 0.01184835928854021 0 0.0020608403145584058 0.012798714950544609 0 0.0021933749699101115 0.012483064457163013 0 0.0025531391525866797 0.013913425310772727 0 0.0026593335037428012 0.013700763976212737 0 0.0032158064917333705 0.013952084010905251 0 0.0013448642980008038 0.011816453577152121 0 0.0014821626427962847 0.01168205827183379 0 0.001623759021771219 0.011706323748722956 0 0.0014821626427962847 0.01168205827183379 0 0.0016059566055520321 0.01157080837318337 0 0.001623759021771219 0.011706323748722956 0 0.0014821626427962847 0.01168205827183379 0 0.0016059566055520321 0.01157080837318337 0 0.0014640086583838118 0.011560913758274586 0 0.0013838657455749696 0.011678927826258727 0 0.0014821626427962847 0.01168205827183379 0 0.0014640086583838118 0.011560913758274586 0 0.0017303164839630092 0.011575166279767323 0 0.0016059566055520321 0.01157080837318337 0 0.0017253752872658898 0.011447360650405801 0 0.0017303164839630092 0.011575166279767323 0 0.0016059566055520321 0.01157080837318337 0 0.001623759021771219 0.011706323748722956 0 0.0017303164839630092 0.011575166279767323 0 0.001623759021771219 0.011706323748722956 0 0.001772096751230018 0.011681112955693202 0 0.001623759021771219 0.011706323748722956 0 0.001772096751230018 0.011681112955693202 0 0.0017543789460203929 0.01184835928854021 0 0.0018962510211152173 0.011688216952971779 0 0.001772096751230018 0.011681112955693202 0 0.0017543789460203929 0.01184835928854021 0 0.0018962510211152173 0.011688216952971779 0 0.0020504253880851745 0.011701018298283293 0 0.0017543789460203929 0.01184835928854021 0 0.0018962510211152173 0.011688216952971779 0 0.001772096751230018 0.011681112955693202 0 0.0018624180959993502 0.011577107166714418 0 0.0018962510211152173 0.011688216952971779 0 0.0020271306507784362 0.011560286577293657 0 0.0018624180959993502 0.011577107166714418 0 0.0018962510211152173 0.011688216952971779 0 0.0020504253880851745 0.011701018298283293 0 0.0020271306507784362 0.011560286577293657 0 0.0020271306507784362 0.011560286577293657 0 0.0019595944815253554 0.011378741870637445 0 0.0021503690436045666 0.011382970589386962 0 0.0020271306507784362 0.011560286577293657 0 0.0018624180959993502 0.011577107166714418 0 0.0019595944815253554 0.011378741870637445 0 0.0018624180959993502 0.011577107166714418 0 0.0018219080668291814 0.011466877586784746 0 0.0019595944815253554 0.011378741870637445 0 0.0017303164839630092 0.011575166279767323 0 0.001772096751230018 0.011681112955693202 0 0.0018624180959993502 0.011577107166714418 0 0.0017303164839630092 0.011575166279767323 0 0.0018624180959993502 0.011577107166714418 0 0.0018219080668291814 0.011466877586784746 0 0.0017303164839630092 0.011575166279767323 0 0.0018219080668291814 0.011466877586784746 0 0.0017253752872658898 0.011447360650405801 0 0.001828105999850558 0.011355010653112915 0 0.0019595944815253554 0.011378741870637445 0 0.0018983252620167904 0.011149701739802462 0 0.0018219080668291814 0.011466877586784746 0 0.001828105999850558 0.011355010653112915 0 0.0017253752872658898 0.011447360650405801 0 0.0018219080668291814 0.011466877586784746 0 0.001828105999850558 0.011355010653112915 0 0.0019595944815253554 0.011378741870637445 0 0.001828105999850558 0.011355010653112915 0 0.0017497049266501517 0.011283912037828596 0 0.0017253752872658898 0.011447360650405801 0 0.0019595944815253554 0.011378741870637445 0 0.0018983252620167904 0.011149701739802462 0 0.0021537130998589265 0.011160541718580965 0 0.0018983252620167904 0.011149701739802462 0 0.0017497049266501517 0.011283912037828596 0 0.0017367387025949996 0.01112155909417005 0 0.001828105999850558 0.011355010653112915 0 0.0018983252620167904 0.011149701739802462 0 0.0017497049266501517 0.011283912037828596 0 0.0017497049266501517 0.011283912037828596 0 0.0016408550274703568 0.011235668221095649 0 0.0017367387025949996 0.01112155909417005 0 0.0017497049266501517 0.011283912037828596 0 0.0016408550274703568 0.011235668221095649 0 0.0016160435595244181 0.011409586295078444 0 0.0016408550274703568 0.011235668221095649 0 0.0014949246843547804 0.01134291792925394 0 0.0015462554412005139 0.011182450060663022 0 0.0014949246843547804 0.01134291792925394 0 0.0014324643035182648 0.0112077943836375 0 0.0015462554412005139 0.011182450060663022 0 0.0013714200359916575 0.011344351463081074 0 0.0014949246843547804 0.01134291792925394 0 0.0014324643035182648 0.0112077943836375 0 0.0016408550274703568 0.011235668221095649 0 0.0014949246843547804 0.01134291792925394 0 0.0016160435595244181 0.011409586295078444 0 0.0014949246843547804 0.01134291792925394 0 0.0014640086583838118 0.011560913758274586 0 0.0016160435595244181 0.011409586295078444 0 0.0013665133697969968 0.011474040947977134 0 0.0014949246843547804 0.01134291792925394 0 0.0014640086583838118 0.011560913758274586 0 0.0016059566055520321 0.01157080837318337 0 0.0014640086583838118 0.011560913758274586 0 0.0016160435595244181 0.011409586295078444 0 0.0016059566055520321 0.01157080837318337 0 0.0017253752872658898 0.011447360650405801 0 0.0016160435595244181 0.011409586295078444 0 0.0017497049266501517 0.011283912037828596 0 0.0017253752872658898 0.011447360650405801 0 0.0016160435595244181 0.011409586295078444 0 0.0026859084517123029 0.011412092532598785 0 0.0025110156022043642 0.011437683425766728 0 0.0026804027678376404 0.011235893349426481 0 0.0027714958682876147 0.011524251894940149 0 0.0026859084517123029 0.011412092532598785 0 0.0026025939415426809 0.011532592126255773 0 0.0026859084517123029 0.011412092532598785 0 0.0026025939415426809 0.011532592126255773 0 0.0025110156022043642 0.011437683425766728 0 0.0024544808616136131 0.011643620938935496 0 0.0025110156022043642 0.011437683425766728 0 0.0022785936250946121 0.011543634175443735 0 0.0026025939415426809 0.011532592126255773 0 0.0024544808616136131 0.011643620938935496 0 0.0025110156022043642 0.011437683425766728 0 0.0025110156022043642 0.011437683425766728 0 0.0023323590297893307 0.011279814081725747 0 0.0026804027678376404 0.011235893349426481 0 0.0025110156022043642 0.011437683425766728 0 0.0022785936250946121 0.011543634175443735 0 0.0023323590297893307 0.011279814081725747 0 0.0022785936250946121 0.011543634175443735 0 0.0021503690436045666 0.011382970589386962 0 0.0023323590297893307 0.011279814081725747 0 0.0024544808616136131 0.011643620938935496 0 0.0022785936250946121 0.011543634175443735 0 0.0022252858428052362 0.011817775583912865 0 0.0020504253880851745 0.011701018298283293 0 0.0020271306507784362 0.011560286577293657 0 0.0022785936250946121 0.011543634175443735 0 0.0020504253880851745 0.011701018298283293 0 0.0022785936250946121 0.011543634175443735 0 0.0022252858428052362 0.011817775583912865 0 0.0020271306507784362 0.011560286577293657 0 0.0022785936250946121 0.011543634175443735 0 0.0021503690436045666 0.011382970589386962 0 0.0021537130998589265 0.011160541718580965 0 0.0023323590297893307 0.011279814081725747 0 0.0024552584171266519 0.011017691222230419 0 0.0019595944815253554 0.011378741870637445 0 0.0021503690436045666 0.011382970589386962 0 0.0021537130998589265 0.011160541718580965 0 0.0021503690436045666 0.011382970589386962 0 0.0021537130998589265 0.011160541718580965 0 0.0023323590297893307 0.011279814081725747 0 0.002336588956982326 0.011253032820371548 0 0.0027695937603700038 0.011170543239559412 0 0.0023323590297893307 0.011279814081725747 0 0.0025822172499646318 0.01124815079297622 0 0.0024552584171266519 0.011017691222230419 0 0.0026842351719398548 0.011099674097738148 0 0.0025822172499646318 0.01124815079297622 0 0.0024552584171266519 0.011017691222230419 0 0.0024552584171266519 0.011017691222230419 0 0.0021138924279763796 0.010788706582794492 0 0.0025254068550545402 0.010628080069405492 0 0.0027742077278391322 0.01086732470748813 0 0.0024552584171266519 0.011017691222230419 0 0.0025254068550545402 0.010628080069405492 0 0.0021537130998589265 0.011160541718580965 0 0.0024552584171266519 0.011017691222230419 0 0.0021138924279763796 0.010788706582794492 0 -0.0012200566871649371 0.0075320526533867484 0 -0.001276492205710894 0.0075289387638057597 0 -0.0011929808188810144 0.0076342525342869673 0 0.00040260345963602859 0.0091094242219342727 0 0.00065231582955435229 0.0090647027190614432 0 -0.0012200566871649371 0.0075320526533867484 0 -0.001276492205710894 0.0075289387638057597 0 -0.0012927858252991828 0.0075600209590686238 0 -0.001276492205710894 0.0075289387638057597 0 -0.0012927858252991828 0.0075600209590686238 0 -0.0013321677042238305 0.0074199081692446186 0 -0.0011072591271670804 0.0074797143157770253 0 -0.0012927858252991828 0.0075600209590686238 0 -0.0013321677042238305 0.0074199081692446186 0 0.0012024646020403675 0.010388572392421438 0 0.0017651275825658886 0.010945921470405162 0 0.0015839025334260239 0.010965820945189938 0 0.0016804478650807014 0.010954588516076235 0 0.0015839025334260239 0.010965820945189938 0 0.0016712110000017748 0.011022484169503069 0 0.00058792559254441826 0.0098918213836333597 0 0.0013042950600744309 0.010169711591762675 0 0.00058792559254441826 0.0098918213836333597 0 0.0011083886157145842 0.010255292487755039 0 0.0016804478650807014 0.010954588516076235 0 0.0017354218427312448 0.010978171965790796 0 0.0016712110000017748 0.011022484169503069 0 0.00135534420186022 0.011001965136968037 0 0.0015839025334260239 0.010965820945189938 0 0.0015123925079655832 0.011087679055279746 0 0.0015839025334260239 0.010965820945189938 0 0.0015123925079655832 0.011087679055279746 0 0.0016257809776068861 0.011094889760168597 0 0.0015123925079655832 0.011087679055279746 0 0.0014324643035182648 0.0112077943836375 0 0.0015462554412005139 0.011182450060663022 0 0.0016408550274703568 0.011235668221095649 0 0.0015462554412005139 0.011182450060663022 0 0.0016257809776068861 0.011094889760168597 0 0.0015123925079655832 0.011087679055279746 0 0.0015462554412005139 0.011182450060663022 0 0.0016257809776068861 0.011094889760168597 0 0.0016408550274703568 0.011235668221095649 0 0.0016257809776068861 0.011094889760168597 0 0.0017367387025949996 0.01112155909417005 0 0.0016257809776068861 0.011094889760168597 0 0.0016712110000017748 0.011022484169503069 0 0.0017367387025949996 0.01112155909417005 0 0.0015839025334260239 0.010965820945189938 0 0.0016257809776068861 0.011094889760168597 0 0.0016712110000017748 0.011022484169503069 0 0.0017354218427312448 0.010978171965790796 0 0.0016712110000017748 0.011022484169503069 0 0.0017367387025949996 0.01112155909417005 0 0.0018983252620167904 0.011149701739802462 0 0.0021138924279763796 0.010788706582794492 0 0.0017354218427312448 0.010978171965790796 0 0.00040260345963602859 0.0091094242219342727 0 0.00058792559254441826 0.0098918213836333597 0 0.0021138924279763796 0.010788706582794492 0 0.0016710242490921424 0.010944578805453532 0 0.0017354218427312448 0.010978171965790796 0 0.0018983252620167904 0.011149701739802462 0 0.0017354218427312448 0.010978171965790796 0 0.0017367387025949996 0.01112155909417005 0 -0.0012200566871649371 0.0075320526533867484 0 -0.001049748048128902 0.0075522767424259082 0 -0.0011274986842438012 0.0076091701588853703 0 0.0018983252620167904 0.011149701739802462 0 0.0021537130998589265 0.011160541718580965 0 0.0021138924279763796 0.010788706582794492 0 -0.0011274986842438012 0.0076091701588853703 0 -0.0010844518238799191 0.007689851098313388 0 -0.0011929808188810144 0.0076342525342869673 0 -0.0012200566871649371 0.0075320526533867484 0 -0.0011274986842438012 0.0076091701588853703 0 -0.0011929808188810144 0.0076342525342869673 0 -0.0011274986842438012 0.0076091701588853703 0 -0.0010639069996272062 0.0076128768268695539 0 -0.0010844518238799191 0.007689851098313388 0 5.1723248006433111e-05 0.0089375295839744708 0 0.00058792559254441826 0.0098918213836333597 0 -0.0010639069996272062 0.0076128768268695539 0 -0.0010122008620061956 0.007666257755874822 0 -0.0010844518238799191 0.007689851098313388 0 -0.00090745906507362845 0.0077144306666508825 0 -0.001049748048128902 0.0075522767424259082 0 -0.0010122008620061956 0.007666257755874822 0 -0.001049748048128902 0.0075522767424259082 0 -0.0010639069996272062 0.0076128768268695539 0 -0.0010122008620061956 0.007666257755874822 0 -0.001049748048128902 0.0075522767424259082 0 -0.0011274986842438012 0.0076091701588853703 0 -0.0010639069996272062 0.0076128768268695539 0 -0.00098456039245738104 0.0078042962219528654 0 -0.0010844518238799191 0.007689851098313388 0 -0.0011172843585532514 0.0078326425261603209 0 -0.0010122008620061956 0.007666257755874822 0 -0.00098456039245738104 0.0078042962219528654 0 -0.0010844518238799191 0.007689851098313388 0 -0.0010844518238799191 0.007689851098313388 0 -0.0011172843585532514 0.0078326425261603209 0 -0.0011929808188810144 0.0076342525342869673 0 -0.00098456039245738104 0.0078042962219528654 0 -0.0011172843585532514 0.0078326425261603209 0 -0.0009057990654474529 0.0079790529213183605 0 -0.001489841306601105 0.0068968083535820715 0 -0.00090087397228240742 0.0071936752308689785 0 -0.001276492205710894 0.0075289387638057597 0 -0.0013321677042238305 0.0074199081692446186 0 -0.0012729815122680937 0.0076420223546039183 0 -0.0014933991960488324 0.0073359489634604183 0 -0.0013321677042238305 0.0074199081692446186 0 -0.0012729815122680937 0.0076420223546039183 0 -0.001276492205710894 0.0075289387638057597 0 -0.0011929808188810144 0.0076342525342869673 0 -0.0012729815122680937 0.0076420223546039183 0 -0.0011172843585532514 0.0078326425261603209 0 -0.0011929808188810144 0.0076342525342869673 0 -0.0012729815122680937 0.0076420223546039183 0 -0.0018431512369640084 0.0059654312457779711 0 -0.0028399353277564834 0.0057280582302411537 0 -0.0023828780393816327 0.0061661532684354915 0 -0.001489841306601105 0.0068968083535820715 0 -0.0020486138575708064 0.0067026317260072427 0 -0.0031738152605075409 0.0059970586228497965 0 -0.0028399353277564834 0.0057280582302411537 0 -0.0030129558309388627 0.0058930313282278953 0 -0.0033367698473873698 0.006001926795549054 0 -0.0030129558309388627 0.0058930313282278953 0 -0.0030341584533188051 0.0065129391689543971 0 -0.0028399353277564834 0.0057280582302411537 0 -0.0030129558309388627 0.0058930313282278953 0 -0.0023828780393816327 0.0061661532684354915 0 -0.0030129558309388627 0.0058930313282278953 0 -0.0023828780393816327 0.0061661532684354915 0 -0.0026369715042402252 0.0065035598408983361 0 -0.0023828780393816327 0.0061661532684354915 0 -0.0026369715042402252 0.0065035598408983361 0 -0.0018800345130413993 0.006815243190322679 0 -0.0027536662817485521 0.0071412313842633109 0 -0.0026369715042402252 0.0065035598408983361 0 -0.0018800345130413993 0.006815243190322679 0 -0.0030129558309388627 0.0058930313282278953 0 -0.0026369715042402252 0.0065035598408983361 0 -0.0030341584533188051 0.0065129391689543971 0 -0.0027536662817485521 0.0071412313842633109 0 -0.0026369715042402252 0.0065035598408983361 0 -0.0030341584533188051 0.0065129391689543971 0 -0.0013225393366735132 0.0076707616465024166 0 -0.0018800345130413993 0.006815243190322679 0 -0.00080078780110720961 0.0071068059344273965 0 -0.0018431512369640084 0.0059654312457779711 0 -0.0018800345130413993 0.006815243190322679 0 -0.00093480070968089332 0.0063593697033964818 0 -0.0018431512369640084 0.0059654312457779711 0 -0.0023828780393816327 0.0061661532684354915 0 -0.0018800345130413993 0.006815243190322679 0 -0.0018800345130413993 0.006815243190322679 0 -0.00080078780110720961 0.0071068059344273965 0 -0.00093480070968089332 0.0063593697033964818 0 -0.00052624934421730972 0.0076974077761942268 0 -0.00080078780110720961 0.0071068059344273965 0 -0.00019703674105739694 0.0073792669951424873 0 -0.00080078780110720961 0.0071068059344273965 0 -0.00017593846233274739 0.0067585012538630453 0 -0.00019703674105739694 0.0073792669951424873 0 -0.00090087397228240742 0.0071936752308689785 0 -0.00064694919692261923 0.0071797962333363403 0 -0.00080078780110720961 0.0071068059344273965 0 -0.00093480070968089332 0.0063593697033964818 0 -0.00017593846233274739 0.0067585012538630453 0 -0.00098456039245738104 0.0078042962219528654 0 -0.0009057990654474529 0.0079790529213183605 0 -0.00088010829026370185 0.00790493856439628 0 -0.0009057990654474529 0.0079790529213183605 0 -0.00088010829026370185 0.00790493856439628 0 -0.00083414184256796228 0.0080312461100848602 0 -0.0009057990654474529 0.0079790529213183605 0 -0.00083414184256796228 0.0080312461100848602 0 -0.00083183323343476352 0.007999306008499775 0 -0.00088010829026370185 0.00790493856439628 0 -0.00082059919716789039 0.0079653742124911001 0 -0.00083414184256796228 0.0080312461100848602 0 -0.00090745906507362845 0.0077144306666508825 0 -0.00088010829026370185 0.00790493856439628 0 -0.00082059919716789039 0.0079653742124911001 0 -0.00090745906507362845 0.0077144306666508825 0 -0.00098456039245738104 0.0078042962219528654 0 -0.00088010829026370185 0.00790493856439628 0 -0.0012270210893680306 0.010376373539179732 0 -0.00062497008252340638 0.0099653813257235963 0 -0.001297376949457177 0.0095152908338167214 0 -0.0010193369370442287 0.0088938964009280808 0 -0.00097725707409606699 0.014207119691009016 0 -0.00069622241950834183 0.0093405112920675552 0 -0.00098787070542972512 0.0083386996799855347 0 -0.0014665762819180391 0.0082833433397183562 0 -0.00082059919716789039 0.0079653742124911001 0 -0.00083414184256796228 0.0080312461100848602 0 -0.00098787070542972512 0.0083386996799855347 0 -0.00069622241950834183 0.0093405112920675552 0 0.00018033786703932367 0.0094112445865395106 0 -0.00098787070542972512 0.0083386996799855347 0 -0.0003443762983948 0.0086940814721315936 0 -0.00098337826504178542 0.0083277734966596632 0 -0.00083414184256796228 0.0080312461100848602 0 -0.00093396223015861893 0.0081066673566918841 0 -0.00098787070542972512 0.0083386996799855347 0 -0.00083414184256796228 0.0080312461100848602 0 -0.00093396223015861893 0.0081066673566918841 0 -0.00083183323343476352 0.007999306008499775 0 -0.00093396223015861893 0.0081066673566918841 0 -0.00098787070542972512 0.0083386996799855347 0 -0.0011525334685066105 0.008036117528914432 0 -0.00093396223015861893 0.0081066673566918841 0 -0.0011525334685066105 0.008036117528914432 0 -0.00083183323343476352 0.007999306008499775 0 -0.00098787070542972512 0.0083386996799855347 0 -0.0011525334685066105 0.008036117528914432 0 -0.0014665762819180391 0.0082833433397183562 0 0.00023732602013733583 0.0071887788821878174 0 -0.00017593846233274739 0.0067585012538630453 0 0.00045992312034554982 0.0071395708826037822 0 -0.00064694919692261923 0.0071797962333363403 0 -6.7406261399972275e-06 0.0087983464266331284 0 -0.0011525334685066105 0.008036117528914432 0 -0.00083183323343476352 0.007999306008499775 0 -0.0013645414094785964 0.0078307953900372991 0 0.00023732602013733583 0.0071887788821878174 0 -0.00017593846233274739 0.0067585012538630453 0 3.7911045614108163e-05 0.0072716100818589636 0 -0.00017593846233274739 0.0067585012538630453 0 -0.00019703674105739694 0.0073792669951424873 0 3.7911045614108163e-05 0.0072716100818589636 0 -0.00019703674105739694 0.0073792669951424873 0 3.7911045614108163e-05 0.0072716100818589636 0 0.00010837943438779829 0.007524455282675614 0 0.00023732602013733583 0.0071887788821878174 0 0.00024543288789229871 0.0074545959111925134 0 0.00037343854807960511 0.0073304677931457403 0 0.00023732602013733583 0.0071887788821878174 0 0.00024543288789229871 0.0074545959111925134 0 3.7911045614108163e-05 0.0072716100818589636 0 0.00024543288789229871 0.0074545959111925134 0 3.7911045614108163e-05 0.0072716100818589636 0 0.00010837943438779829 0.007524455282675614 0 0.00024543288789229871 0.0074545959111925134 0 0.000286435445441637 0.0075912932427960487 0 0.00036143676976298358 0.0076068976434268566 0 0.00024543288789229871 0.0074545959111925134 0 0.00010837943438779829 0.007524455282675614 0 0.000286435445441637 0.0075912932427960487 0 0.00035229216280245802 0.0077069854718564727 0 0.00023654562685321515 0.0076599903343242343 0 0.000286435445441637 0.0075912932427960487 0 0.00023654562685321515 0.0076599903343242343 0 0.00010837943438779829 0.007524455282675614 0 0.000286435445441637 0.0075912932427960487 0 0.00035229216280245802 0.0077069854718564727 0 0.000286435445441637 0.0075912932427960487 0 0.00036143676976298358 0.0076068976434268566 0 0.00045286574341319255 0.007514333151578091 0 0.00058370089544443121 0.0073523486807735936 0 0.00075054227336287139 0.0075436005448846939 0 0.00024543288789229871 0.0074545959111925134 0 0.00038266669445284553 0.007624042767204289 0 0.00036143676976298358 0.0076068976434268566 0 0.00063742134630620766 0.011953495064353732 0 0.00088016791024341369 0.013435946250158141 0 -3.1626050897861309e-05 0.0093904519530077953 0 0.00063742134630620766 0.011953495064353732 0 0.00035229216280245802 0.0077069854718564727 0 0.00038016756910093711 0.0076227596269883829 0 0.00036143676976298358 0.0076068976434268566 0 0.00063742134630620766 0.011953495064353732 0 0.00066386035962210917 0.011856536275927759 0 0.00045286574341319255 0.007514333151578091 0 0.00037343854807960511 0.0073304677931457403 0 0.0004685649687993034 0.0073457550230178453 0 0.00045286574341319255 0.007514333151578091 0 0.0004685649687993034 0.0073457550230178453 0 0.00058370089544443121 0.0073523486807735936 0 0.00024543288789229871 0.0074545959111925134 0 0.00045286574341319255 0.007514333151578091 0 0.00037343854807960511 0.0073304677931457403 0 0.00023732602013733583 0.0071887788821878174 0 0.00046443787471514775 0.0071863514870889782 0 0.00045992312034554982 0.0071395708826037822 0 0.00037343854807960511 0.0073304677931457403 0 0.0004685649687993034 0.0073457550230178453 0 0.00046443787471514775 0.0071863514870889782 0 0.00023732602013733583 0.0071887788821878174 0 0.00037343854807960511 0.0073304677931457403 0 0.00046443787471514775 0.0071863514870889782 0 0.00046443787471514775 0.0071863514870889782 0 0.00058370089544443121 0.0073523486807735936 0 0.00045919531050860242 0.0071567371706378743 0 0.0004685649687993034 0.0073457550230178453 0 0.00046443787471514775 0.0071863514870889782 0 0.00058370089544443121 0.0073523486807735936 0 -1.0686172558993403e-05 0.0086216154480418736 0 -6.7406261399972275e-06 0.0087983464266331284 0 -0.0049806979357127704 0.020868145234136673 0 -0.0057741129563908958 0.020758059415120409 0 -0.0043654576634162279 0.024029714921618553 0 0.00058370089544443121 0.0073523486807735936 0 0.00045919531050860242 0.0071567371706378743 0 0.00087447271028490614 0.0074242406644583455 0 0.00058370089544443121 0.0073523486807735936 0 0.00087447271028490614 0.0074242406644583455 0 0.00075054227336287139 0.0075436005448846939 0 -6.7406261399972275e-06 0.0087983464266331284 0 -0.0014664307603751998 0.014595511327017547 0 -0.00066366693956341322 0.013532548458695733 0 -0.0013635824210116879 0.013463819490558233 0 -0.00097621148800637115 0.013781294021322565 0 -0.0014664307603751998 0.014595511327017547 0 -0.0016514988240273654 0.018581262318136053 0 0.00087447271028490614 0.0074242406644583455 0 0.00075054227336287139 0.0075436005448846939 0 0.00091006300550788822 0.0074743401308508574 0 -0.0014664307603751998 0.014595511327017547 0 -0.0017003828128350645 0.013643588582065352 0 0.00063742134630620766 0.011953495064353732 0 0.00068377136805285871 0.013750599653754001 0 0.00088016791024341369 0.013435946250158141 0 0.00057285076295365746 0.01608221552021985 0 0.00053265672335472839 0.0078904341690958328 0 0.00038016756910093711 0.0076227596269883829 0 0.00058219354913659367 0.0079139336594186097 0 0.00075054227336287139 0.0075436005448846939 0 0.0010116202683218437 0.0075968139498057072 0 0.00091006300550788822 0.0074743401308508574 0 0.00070949179367825043 0.01929111743218697 0 0.00083883329812894588 0.019361974731810748 0 0.00051092647373331091 0.019567392942773286 0 0.0011532560276320185 0.019157556643212205 0 0.00070949179367825043 0.01929111743218697 0 0.00083883329812894588 0.019361974731810748 0 0.00068377136805285871 0.013750599653754001 0 0.00044909120476525162 0.013705391626642003 0 0.00070949179367825043 0.01929111743218697 0 0.00051092647373331091 0.019567392942773286 0 0.00024059604895478444 0.019393495889349088 0 0.00057285076295365746 0.01608221552021985 0 -0.00060388453783278553 0.027206916968970488 0 0.00051092647373331091 0.019567392942773286 0 0.00024059604895478444 0.019393495889349088 0 0.00012554482358739848 0.019772643725355088 0 -0.0011448880011253417 0.031980466435529362 0 -0.0011797342266203308 0.031924043615403686 0 -0.0013203770463782573 0.03179031436827412 0 -0.00060388453783278553 0.027206916968970488 0 -0.0013430392670880239 0.021880199396537393 0 -0.0011797342266203308 0.031924043615403686 0 -0.001254420932131317 0.031775617555764898 0 -0.0012269750815611261 0.03164682402894925 0 -0.0011448880011253417 0.031980466435529362 0 -0.0011797342266203308 0.031924043615403686 0 -0.0011753776814892513 0.032166995935130317 0 -0.00088776748710289158 0.022770969373628658 0 -0.00047320429849082295 0.022748029692681856 0 -0.00095707323016735047 0.022623991246530355 0 -0.0011797342266203308 0.031924043615403686 0 -0.001254420932131317 0.031775617555764898 0 -0.0013203770463782573 0.03179031436827412 0 -0.001254420932131317 0.031775617555764898 0 -0.0013203770463782573 0.03179031436827412 0 -0.0013893078909266376 0.031592347218274787 0 -0.0014664307603751998 0.014595511327017547 0 -0.0013430392670880239 0.021880199396537393 0 0.00087912694792118169 0.007464095791833979 0 0.00096163732486342684 0.0074791228443698773 0 0.00091006300550788822 0.0074743401308508574 0 0.0010116202683218437 0.0075968139498057072 0 0.00096163732486342684 0.0074791228443698773 0 0.00091006300550788822 0.0074743401308508574 0 0.00057285076295365746 0.01608221552021985 0 -0.0013430392670880239 0.021880199396537393 0 -0.0012269750815611261 0.03164682402894925 0 -0.0012433320159535319 0.031524008772040098 0 -0.0013893078909266376 0.031592347218274787 0 -0.001254420932131317 0.031775617555764898 0 -0.0012269750815611261 0.03164682402894925 0 -0.0013893078909266376 0.031592347218274787 0 -0.0011797342266203308 0.031924043615403686 0 -0.0012269750815611261 0.03164682402894925 0 -0.0011145080271703826 0.03161800330048152 0 -0.0012269750815611261 0.03164682402894925 0 -0.001183011445819409 0.031561862252906185 0 -0.0011145080271703826 0.03161800330048152 0 -0.0012269750815611261 0.03164682402894925 0 -0.001183011445819409 0.031561862252906185 0 -0.0012433320159535319 0.031524008772040098 0 -0.001183011445819409 0.031561862252906185 0 -0.0012433320159535319 0.031524008772040098 0 -0.0012114237042471871 0.031497374879068112 0 -0.0012433320159535319 0.031524008772040098 0 -0.0013893078909266376 0.031592347218274787 0 -0.0012489247164433719 0.031359442224899357 0 -0.0030010813493335934 0.028622618225966515 0 -0.0021725767604806327 0.029226319880663102 0 -0.0013893078909266376 0.031592347218274787 0 -0.0014647942182919814 0.031319964645637639 0 -0.0012489247164433719 0.031359442224899357 0 -0.0026544412075107482 0.025211474335301683 0 -0.0043654576634162279 0.024029714921618553 0 -0.0028972092399974121 0.027431095649322914 0 -0.00078654305175410448 0.027590624421603753 0 -0.0026544412075107482 0.025211474335301683 0 -0.0012117299028667305 0.024031960942570828 0 -0.0010257581654146055 0.019526000646321515 0 -0.00097725707409606699 0.014207119691009016 0 -6.7406261399972275e-06 0.0087983464266331284 0 -0.00097725707409606699 0.014207119691009016 0 -0.00066366693956341322 0.013532548458695733 0 -0.00059054963350383977 0.014106383327314925 0 -0.00097621148800637115 0.013781294021322565 0 -0.0011525334685066105 0.008036117528914432 0 -0.0013645414094785964 0.0078307953900372991 0 -0.0014665762819180391 0.0082833433397183562 0 -0.0026544412075107482 0.025211474335301683 0 -0.0012117299028667305 0.024031960942570828 0 -0.0031380832870538619 0.022443222643118332 0 -0.00097725707409606699 0.014207119691009016 0 -0.0016514988240273654 0.018581262318136053 0 -0.0013430392670880239 0.021880199396537393 0 -0.0030010813493335934 0.028622618225966515 0 -0.0049806979357127704 0.020868145234136673 0 -0.0043654576634162279 0.024029714921618553 0 -0.0031380832870538619 0.022443222643118332 0 -0.0026544412075107482 0.025211474335301683 0 -0.0043654576634162279 0.024029714921618553 0 -0.0031380832870538619 0.022443222643118332 0 -0.00079724104702785814 0.03260057583322034 0 -0.00081157767426743514 0.032547339265510192 0 -0.00080975711163729471 0.032527527705052982 0 -0.00083005823816145795 0.032587108893488065 0 -0.00089514133385575415 0.032458212269859586 0 -0.00069964150611591196 0.01970228522638711 0 -0.001067481338753451 0.019935937443275049 0 -0.00077681620662666754 0.019906810985286197 0 -0.0008047882725847953 0.02621200324481554 0 -0.00051411512066915652 0.025983467126862801 0 -0.00069964150611591196 0.01970228522638711 0 -0.00077681620662666754 0.019906810985286197 0 -0.00035845386229939286 0.019834451779303069 0 -0.00081157767426743514 0.032547339265510192 0 -0.00080975711163729471 0.032527527705052982 0 -0.00078701822503051398 0.032411609095718975 0 -0.00089514133385575415 0.032458212269859586 0 -0.0011550377167033525 0.032796148821030831 0 -0.0011005882916018043 0.032490864717815121 0 -0.0012053899023231382 0.032270611423947833 0 -0.0011811717753220645 0.032359611022279848 0 -0.00080975711163729471 0.032527527705052982 0 -0.00077492166886841869 0.032422572534387621 0 -0.00078701822503051398 0.032411609095718975 0 -0.0012053899023231382 0.032270611423947833 0 -0.0011923279478442171 0.032279077221174055 0 -0.0011811717753220645 0.032359611022279848 0 -0.00020994428027194207 0.019475371769493082 0 -0.00069964150611591196 0.01970228522638711 0 -0.00035845386229939286 0.019834451779303069 0 -0.00060388453783278553 0.027206916968970488 0 -0.00051411512066915652 0.025983467126862801 0 -0.00020994428027194207 0.019475371769493082 0 0.00012554482358739848 0.019772643725355088 0 -0.00035845386229939286 0.019834451779303069 0 -0.00020994428027194207 0.019475371769493082 0 0.00024059604895478444 0.019393495889349088 0 0.00012554482358739848 0.019772643725355088 0 -0.0011797342266203308 0.031924043615403686 0 -0.0011753776814892513 0.032166995935130317 0 -0.00117288940412118 0.032336115975005422 0 -0.00060388453783278553 0.027206916968970488 0 -0.0011550377167033525 0.032796148821030831 0 -0.0011448880011253417 0.031980466435529362 0 -0.0012053899023231382 0.032270611423947833 0 -0.0011753776814892513 0.032166995935130317 0 -0.00068879312209145515 0.032272924253586147 0 -0.00077492166886841869 0.032422572534387621 0 -0.00078701822503051398 0.032411609095718975 0 -0.0011833634405937741 0.031947641070403994 0 -0.0011604005027326856 0.031978397913446976 0 -0.0012053899023231382 0.032270611423947833 0 -0.0011753776814892513 0.032166995935130317 0 -0.0011923279478442171 0.032279077221174055 0 -0.0011753776814892513 0.032166995935130317 0 -0.00117288940412118 0.032336115975005422 0 -0.0011923279478442171 0.032279077221174055 0 -0.001183011445819409 0.031561862252906185 0 -0.0011145080271703826 0.03161800330048152 0 -0.0011723925671395382 0.031590276383704048 0 -0.001183011445819409 0.031561862252906185 0 -0.0011723925671395382 0.031590276383704048 0 -0.0011960828152902453 0.031557857795235032 0 -0.00117288940412118 0.032336115975005422 0 -0.0011811717753220645 0.032359611022279848 0 -0.0012199252851421189 0.032283172389273196 0 -0.0011145080271703826 0.03161800330048152 0 -0.0011723925671395382 0.031590276383704048 0 -0.0012100786147317263 0.03161911845856686 0 -0.0011604005027326856 0.031978397913446976 0 -0.001201094781546245 0.031941991305791159 0 -0.00117288940412118 0.032336115975005422 0 -0.0011923279478442171 0.032279077221174055 0 -0.0011811717753220645 0.032359611022279848 0 -0.0011005882916018043 0.032490864717815121 0 -0.0011811717753220645 0.032359611022279848 0 -0.0011042434980324597 0.032377296169241961 0 -0.0011005882916018043 0.032490864717815121 0 -0.0011042434980324597 0.032377296169241961 0 -0.00094141122794017397 0.032464132275780579 0 -0.0011042434980324597 0.032377296169241961 0 -0.0010496332524318143 0.03232912077566609 0 -0.0012199252851421189 0.032283172389273196 0 -0.0011811717753220645 0.032359611022279848 0 -0.0011042434980324597 0.032377296169241961 0 -0.0012199252851421189 0.032283172389273196 0 -0.0011042434980324597 0.032377296169241961 0 -0.0010496332524318143 0.03232912077566609 0 -0.00094141122794017397 0.032464132275780579 0 -0.0010496332524318143 0.03232912077566609 0 -0.00089060435117377813 0.032345988871554161 0 -0.00094141122794017397 0.032464132275780579 0 -0.0010496332524318143 0.03232912077566609 0 -0.00089060435117377813 0.032345988871554161 0 -0.0010375555174257081 0.032207302772403461 0 -0.00079724104702785814 0.03260057583322034 0 -0.0011005882916018043 0.032490864717815121 0 -0.00094141122794017397 0.032464132275780579 0 -0.0010242391328796458 0.031728854701612658 0 -0.0011372274591128966 0.031820422769658283 0 -0.0011647524240865064 0.0317209383712991 0 -0.0009201401916572149 0.031864862625298716 0 -0.0010044295298598769 0.032079710367825739 0 -0.0011115047084076929 0.031976010566387374 0 -0.0009201401916572149 0.031864862625298716 0 -0.00090472940774819258 0.032074886454167229 0 -0.0010044295298598769 0.032079710367825739 0 -0.0010242391328796458 0.031728854701612658 0 -0.0011372274591128966 0.031820422769658283 0 -0.0011115047084076929 0.031976010566387374 0 -0.00091497010049232288 0.032207655599155095 0 -0.001062053940791481 0.031895503496299868 0 -0.00083677886458318027 0.032061913209584778 0 -0.0009201401916572149 0.031864862625298716 0 -0.00090472940774819258 0.032074886454167229 0 -0.00090472940774819258 0.032074886454167229 0 -0.00091919813412062994 0.03219618619764484 0 -0.0010044295298598769 0.032079710367825739 0 -0.00089060435117377813 0.032345988871554161 0 -0.00091919813412062994 0.03219618619764484 0 -0.0010375555174257081 0.032207302772403461 0 -0.00091919813412062994 0.03219618619764484 0 -0.0010375555174257081 0.032207302772403461 0 -0.0010044295298598769 0.032079710367825739 0 -0.0010375555174257081 0.032207302772403461 0 -0.0010044295298598769 0.032079710367825739 0 -0.0011115047084076929 0.031976010566387374 0 -0.0011280090077470037 0.03181245699950868 0 -0.001201094781546245 0.031941991305791159 0 -0.0010496332524318143 0.03232912077566609 0 -0.0010375555174257081 0.032207302772403461 0 -0.0012199252851421189 0.032283172389273196 0 -0.0011372274591128966 0.031820422769658283 0 -0.0011115047084076929 0.031976010566387374 0 -0.0012199252851421189 0.032283172389273196 0 -0.0011372274591128966 0.031820422769658283 0 -0.0011938679986706617 0.031706804514287069 0 -0.0012100786147317263 0.03161911845856686 0 -0.0010375555174257081 0.032207302772403461 0 -0.0011115047084076929 0.031976010566387374 0 -0.0012199252851421189 0.032283172389273196 0 -0.0011372274591128966 0.031820422769658283 0 -0.0011909468471161153 0.031730362055699207 0 -0.0011647524240865064 0.0317209383712991 0 -0.0011372274591128966 0.031820422769658283 0 -0.0011938679986706617 0.031706804514287069 0 -0.0011909468471161153 0.031730362055699207 0 -0.0011938679986706617 0.031706804514287069 0 -0.0011909468471161153 0.031730362055699207 0 -0.0012197755130855087 0.03167758610859054 0 -0.0011938679986706617 0.031706804514287069 0 -0.0012007989036436969 0.031635303779810109 0 -0.0012197755130855087 0.03167758610859054 0 -0.0011938679986706617 0.031706804514287069 0 -0.0012007989036436969 0.031635303779810109 0 -0.0012100786147317263 0.03161911845856686 0 -0.0011723925671395382 0.031590276383704048 0 -0.0012007989036436969 0.031635303779810109 0 -0.0012100786147317263 0.03161911845856686 0 -0.0011723925671395382 0.031590276383704048 0 -0.0012007989036436969 0.031635303779810109 0 -0.0011960828152902453 0.031557857795235032 0 -0.0012007989036436969 0.031635303779810109 0 -0.0012317758573421158 0.031629665985959676 0 -0.0012197755130855087 0.03167758610859054 0 -0.0012007989036436969 0.031635303779810109 0 -0.0012317758573421158 0.031629665985959676 0 -0.0011960828152902453 0.031557857795235032 0 -0.0012317758573421158 0.031629665985959676 0 -0.0012403973143474808 0.031688117559664539 0 -0.0012391006279484538 0.03167435194819359 0 -0.0012317758573421158 0.031629665985959676 0 -0.0012391006279484538 0.03167435194819359 0 -0.0012197755130855087 0.03167758610859054 0 -0.0012403973143474808 0.031688117559664539 0 -0.0012391006279484538 0.03167435194819359 0 -0.001250387643408219 0.031743729060521218 0 -0.0011992082368707583 0.031860844850792165 0 -0.0012298573088630105 0.0317842304998254 0 -0.0012391006279484538 0.03167435194819359 0 -0.0012225777729652776 0.03165465117310929 0 -0.001250387643408219 0.031743729060521218 0 -0.0012391006279484538 0.03167435194819359 0 -0.0012255837685808148 0.031677586225558857 0 -0.0012225777729652776 0.03165465117310929 0 -0.0012391006279484538 0.03167435194819359 0 -0.0012255837685808148 0.031677586225558857 0 -0.0012197755130855087 0.03167758610859054 0 -0.0012255837685808148 0.031677586225558857 0 -0.0012197755130855087 0.03167758610859054 0 -0.0012076807670836354 0.031696075548778541 0 -0.0010242391328796458 0.031728854701612658 0 -0.0011647524240865064 0.0317209383712991 0 -0.0012225777729652776 0.03165465117310929 0 -0.0012076807670836354 0.031696075548778541 0 -0.0011647524240865064 0.0317209383712991 0 -0.0012225777729652776 0.03165465117310929 0 -0.0011909468471161153 0.031730362055699207 0 -0.0012076807670836354 0.031696075548778541 0 -0.0011647524240865064 0.0317209383712991 0 -0.0011909468471161153 0.031730362055699207 0 -0.0012197755130855087 0.03167758610859054 0 -0.0012076807670836354 0.031696075548778541 0 -0.0012255837685808148 0.031677586225558857 0 -0.0012076807670836354 0.031696075548778541 0 -0.0012225777729652776 0.03165465117310929 0 -0.0011466960042236893 0.032148992078920587 0 -0.00105746130068804 0.032166086270226449 0 -0.0010935338914068891 0.03205146067843704 0 -0.00105746130068804 0.032166086270226449 0 -0.001027471532829928 0.032152382289707328 0 -0.0010935338914068891 0.03205146067843704 0 -0.0010288664887019739 0.032194489449570693 0 -0.00105746130068804 0.032166086270226449 0 -0.001027471532829928 0.032152382289707328 0 -0.00091497010049232288 0.032207655599155095 0 -0.0011992082368707583 0.031860844850792165 0 -0.00094362203721549845 0.032269658980174934 0 -0.00099021151400990599 0.032312356667335035 0 -0.00105746130068804 0.032166086270226449 0 -0.0010288664887019739 0.032194489449570693 0 -0.0010283794672130879 0.032214918517020727 0 -0.00105746130068804 0.032166086270226449 0 -0.00099021151400990599 0.032312356667335035 0 -0.0011466960042236893 0.032148992078920587 0 -0.00105746130068804 0.032166086270226449 0 -0.00089367238070662668 0.03280017467537584 0 -0.0011508788316574527 0.032037814309665007 0 -0.0013453324657031846 0.031050742972990621 0 -0.0012893988617314874 0.031022837377643161 0 -0.0013347196734197404 0.03097114322916281 0 -0.0013453324657031846 0.031050742972990621 0 -0.0014103892019586368 0.030746458475193028 0 -0.0014647942182919814 0.031319964645637639 0 -0.0014465100483402576 0.030760144817080986 0 -0.0021725767604806327 0.029226319880663102 0 -0.0013453324657031846 0.031050742972990621 0 -0.0014103892019586368 0.030746458475193028 0 -0.0013347196734197404 0.03097114322916281 0 -0.00078654305175410448 0.027590624421603753 0 -0.0014103892019586368 0.030746458475193028 0 -0.0028972092399974121 0.027431095649322914 0 -0.00078654305175410448 0.027590624421603753 0 -0.0026544412075107482 0.025211474335301683 0 -0.0028972092399974121 0.027431095649322914 0 -0.0013453324657031846 0.031050742972990621 0 -0.0014647942182919814 0.031319964645637639 0 -0.0012489247164433719 0.031359442224899357 0 -0.0012489247164433719 0.031359442224899357 0 -0.0012114237042471871 0.031497374879068112 0 -0.0012164669984453746 0.031544409756102433 0 -0.0012433320159535319 0.031524008772040098 0 -0.0012489247164433719 0.031359442224899357 0 -0.0012114237042471871 0.031497374879068112 0 -0.001183011445819409 0.031561862252906185 0 -0.0011960828152902453 0.031557857795235032 0 -0.0012114237042471871 0.031497374879068112 0 -0.0011960828152902453 0.031557857795235032 0 -0.0012114237042471871 0.031497374879068112 0 -0.0012164669984453746 0.031544409756102433 0 -0.0012317758573421158 0.031629665985959676 0 -0.0011960828152902453 0.031557857795235032 0 -0.0012164669984453746 0.031544409756102433 0 -0.0012317758573421158 0.031629665985959676 0 -0.0012164669984453746 0.031544409756102433 0 -0.0011868223831638046 0.031593651654523519 0 -0.0012489247164433719 0.031359442224899357 0 -0.0012164669984453746 0.031544409756102433 0 -0.0011868223831638046 0.031593651654523519 0 -0.0012547451392248851 0.031370197938895117 0 -0.0012456649568127066 0.031322254335491566 0 -0.0013453324657031846 0.031050742972990621 0 -0.0012489247164433719 0.031359442224899357 0 -0.0012893988617314874 0.031022837377643161 0 -0.0012456649568127066 0.031322254335491566 0 -0.0013036673485895332 0.031428098997104102 0 -0.0012893988617314874 0.031022837377643161 0 -0.0013810042570336968 0.031190245632060323 0 -0.0012998622829898277 0.031131926411819565 0 -0.0012317758573421158 0.031629665985959676 0 -0.0011868223831638046 0.031593651654523519 0 -0.0012455889232689977 0.031680168134337119 0 -0.0012317758573421158 0.031629665985959676 0 -0.0012403973143474808 0.031688117559664539 0 -0.0012455889232689977 0.031680168134337119 0 -0.0013810042570336968 0.031190245632060323 0 -0.0012998622829898277 0.031131926411819565 0 -0.0013240806224554501 0.031343622527425334 0 -0.0012893988617314874 0.031022837377643161 0 -0.0012998622829898277 0.031131926411819565 0 -0.0013347196734197404 0.03097114322916281 0 -0.0012998622829898277 0.031131926411819565 0 -0.0013347196734197404 0.03097114322916281 0 -0.0011979359467920085 0.031053880108705263 0 -0.0014103892019586368 0.030746458475193028 0 -0.0013347196734197404 0.03097114322916281 0 -0.0011979359467920085 0.031053880108705263 0 -0.00081123229024043092 0.030842789272355141 0 -0.0014103892019586368 0.030746458475193028 0 -0.0011979359467920085 0.031053880108705263 0 -0.0012998622829898277 0.031131926411819565 0 -0.0011979359467920085 0.031053880108705263 0 -0.001228826393281215 0.031185455849735387 0 -0.0011547229462786157 0.031110736434493486 0 -0.0011979359467920085 0.031053880108705263 0 -0.001228826393281215 0.031185455849735387 0 -0.001228826393281215 0.031185455849735387 0 -0.001260903743032464 0.031241670260909217 0 -0.0012078351305080713 0.031160614391716232 0 -0.001228826393281215 0.031185455849735387 0 -0.0013013522416781336 0.031311233113009464 0 -0.001260903743032464 0.031241670260909217 0 -0.0012998622829898277 0.031131926411819565 0 -0.001228826393281215 0.031185455849735387 0 -0.0013013522416781336 0.031311233113009464 0 -0.0012998622829898277 0.031131926411819565 0 -0.0013013522416781336 0.031311233113009464 0 -0.0013240806224554501 0.031343622527425334 0 -0.0013810042570336968 0.031190245632060323 0 -0.0013240806224554501 0.031343622527425334 0 -0.001323611215357719 0.031549746245587887 0 -0.0012403973143474808 0.031688117559664539 0 -0.0012455889232689977 0.031680168134337119 0 -0.001323611215357719 0.031549746245587887 0 -0.0013036673485895332 0.031428098997104102 0 -0.001321940606969709 0.031525186664964913 0 -0.001323611215357719 0.031549746245587887 0 -0.001322790064118576 0.031416345787066834 0 -0.0012898313663556569 0.031486249858996583 0 -0.0013240806224554501 0.031343622527425334 0 -0.001323611215357719 0.031549746245587887 0 -0.001322790064118576 0.031416345787066834 0 -0.0013013522416781336 0.031311233113009464 0 -0.0013240806224554501 0.031343622527425334 0 -0.001322790064118576 0.031416345787066834 0 -0.0013013522416781336 0.031311233113009464 0 -0.001322790064118576 0.031416345787066834 0 -0.0013368282244261285 0.031319381031438547 0 -0.0013368282244261285 0.031319381031438547 0 -0.0012898313663556569 0.031486249858996583 0 -0.0012788473454767451 0.031342808576454752 0 -0.001322790064118576 0.031416345787066834 0 -0.0013368282244261285 0.031319381031438547 0 -0.0012898313663556569 0.031486249858996583 0 -0.0013368282244261285 0.031319381031438547 0 -0.0012788473454767451 0.031342808576454752 0 -0.0013204047375961299 0.031050941915805756 0 -0.0013368282244261285 0.031319381031438547 0 -0.001472589630278737 0.030992533861108288 0 -0.0013204047375961299 0.031050941915805756 0 -0.001370123280231427 0.031187490139562155 0 -0.0013351568743321955 0.031523714730649043 0 -0.0012767829806070218 0.031254497210647672 0 -0.0012566030622115775 0.031219357712514894 0 -0.0012551235646175336 0.031198234199859051 0 -0.0012767829806070218 0.031254497210647672 0 -0.0012566030622115775 0.031219357712514894 0 -0.001260903743032464 0.031241670260909217 0 -0.0013368282244261285 0.031319381031438547 0 -0.0012767829806070218 0.031254497210647672 0 -0.001260903743032464 0.031241670260909217 0 -0.0013013522416781336 0.031311233113009464 0 -0.0013368282244261285 0.031319381031438547 0 -0.001260903743032464 0.031241670260909217 0 -0.0010598120139473429 0.032122084114745666 0 -0.001027471532829928 0.032152382289707328 0 -0.0011172484354744303 0.031956521471894123 0 -0.0010598120139473429 0.032122084114745666 0 -0.0011172484354744303 0.031956521471894123 0 -0.0011536119283271332 0.03185333127703141 0 -0.001027471532829928 0.032152382289707328 0 -0.0010935338914068891 0.03205146067843704 0 -0.0011172484354744303 0.031956521471894123 0 -0.0011466960042236893 0.032148992078920587 0 -0.0010935338914068891 0.03205146067843704 0 -0.0011608790301069192 0.031916523660393215 0 -0.0010935338914068891 0.03205146067843704 0 -0.0011608790301069192 0.031916523660393215 0 -0.0011172484354744303 0.031956521471894123 0 -0.0011608790301069192 0.031916523660393215 0 -0.0011172484354744303 0.031956521471894123 0 -0.0011989922245699382 0.031769216781221098 0 -0.0011172484354744303 0.031956521471894123 0 -0.0011989922245699382 0.031769216781221098 0 -0.0011536119283271332 0.03185333127703141 0 -0.0011989922245699382 0.031769216781221098 0 -0.001250387643408219 0.031743729060521218 0 -0.0012673716458606976 0.031618023724180072 0 -0.0011608790301069192 0.031916523660393215 0 -0.0011989922245699382 0.031769216781221098 0 -0.001250387643408219 0.031743729060521218 0 -0.0011466960042236893 0.032148992078920587 0 -0.0011608790301069192 0.031916523660393215 0 -0.001250387643408219 0.031743729060521218 0 -0.0012403973143474808 0.031688117559664539 0 -0.001323611215357719 0.031549746245587887 0 -0.001250387643408219 0.031743729060521218 0 -0.001323611215357719 0.031549746245587887 0 -0.001250387643408219 0.031743729060521218 0 -0.0012673716458606976 0.031618023724180072 0 -0.001323611215357719 0.031549746245587887 0 -0.0012898313663556569 0.031486249858996583 0 -0.0012673716458606976 0.031618023724180072 0 -0.0012898313663556569 0.031486249858996583 0 -0.0012673716458606976 0.031618023724180072 0 -0.0012329027875151548 0.031599964173938004 0 -0.0012788473454767451 0.031342808576454752 0 -0.0012329027875151548 0.031599964173938004 0 -0.001254568792588376 0.031475473106612709 0 -0.0012898313663556569 0.031486249858996583 0 -0.0012788473454767451 0.031342808576454752 0 -0.0012329027875151548 0.031599964173938004 0 -0.0012329027875151548 0.031599964173938004 0 -0.0011923105364294536 0.031724579492675091 0 -0.001254568792588376 0.031475473106612709 0 -0.0011989922245699382 0.031769216781221098 0 -0.0012673716458606976 0.031618023724180072 0 -0.0012329027875151548 0.031599964173938004 0 -0.0011989922245699382 0.031769216781221098 0 -0.0012329027875151548 0.031599964173938004 0 -0.0011536119283271332 0.03185333127703141 0 -0.0012329027875151548 0.031599964173938004 0 -0.0011536119283271332 0.03185333127703141 0 -0.0011923105364294536 0.031724579492675091 0 -0.0011536119283271332 0.03185333127703141 0 -0.0011028982286984631 0.032025506601335442 0 -0.0011923105364294536 0.031724579492675091 0 -0.0010598120139473429 0.032122084114745666 0 -0.0011536119283271332 0.03185333127703141 0 -0.0011028982286984631 0.032025506601335442 0 -0.001114265615110588 0.031965857349806781 0 -0.001216308157318817 0.031691054511661501 0 -0.0011335904213806063 0.031932948025713781 0 -0.0011028982286984631 0.032025506601335442 0 -0.0011335904213806063 0.031932948025713781 0 -0.0011923105364294536 0.031724579492675091 0 -0.001216308157318817 0.031691054511661501 0 -0.0011335904213806063 0.031932948025713781 0 -0.0011923105364294536 0.031724579492675091 0 -0.001216308157318817 0.031691054511661501 0 -0.0011923105364294536 0.031724579492675091 0 -0.0012527125611065803 0.03152669966777432 0 -0.001216308157318817 0.031691054511661501 0 -0.0012527125611065803 0.03152669966777432 0 -0.0012882292883861378 0.031456236437939732 0 -0.0012527125611065803 0.03152669966777432 0 -0.001254568792588376 0.031475473106612709 0 -0.0013145311007189023 0.031287810200753378 0 -0.0012527125611065803 0.03152669966777432 0 -0.0013145311007189023 0.031287810200753378 0 -0.0012882292883861378 0.031456236437939732 0 -0.0011923105364294536 0.031724579492675091 0 -0.0012527125611065803 0.03152669966777432 0 -0.001254568792588376 0.031475473106612709 0 -0.0012788473454767451 0.031342808576454752 0 -0.001254568792588376 0.031475473106612709 0 -0.0013008924267435785 0.031238986841956827 0 -0.0013008924267435785 0.031238986841956827 0 -0.0013145311007189023 0.031287810200753378 0 -0.001364704362405509 0.031057938816910838 0 -0.001254568792588376 0.031475473106612709 0 -0.0013008924267435785 0.031238986841956827 0 -0.0013145311007189023 0.031287810200753378 0 -0.0013145311007189023 0.031287810200753378 0 -0.001364704362405509 0.031057938816910838 0 -0.0013804724370981053 0.03110565184076897 0 -0.0013145311007189023 0.031287810200753378 0 -0.0013436258275398361 0.031267579607450281 0 -0.0013804724370981053 0.03110565184076897 0 -0.0013848295010528598 0.0311434421582109 0 -0.0013436258275398361 0.031267579607450281 0 -0.0013804724370981053 0.03110565184076897 0 -0.0013848295010528598 0.0311434421582109 0 -0.0013436258275398361 0.031267579607450281 0 -0.001332998412846698 0.031345594790876945 0 -0.0013436258275398361 0.031267579607450281 0 -0.0013085686002918275 0.031441649513181937 0 -0.001332998412846698 0.031345594790876945 0 -0.0013436258275398361 0.031267579607450281 0 -0.0012882292883861378 0.031456236437939732 0 -0.0013085686002918275 0.031441649513181937 0 -0.0013145311007189023 0.031287810200753378 0 -0.0013436258275398361 0.031267579607450281 0 -0.0012882292883861378 0.031456236437939732 0 -0.001216308157318817 0.031691054511661501 0 -0.0012882292883861378 0.031456236437939732 0 -0.0012682169262684035 0.031559276115948984 0 -0.0013085686002918275 0.031441649513181937 0 -0.0012682169262684035 0.031559276115948984 0 -0.0012719535212294562 0.031566813534554747 0 -0.0012882292883861378 0.031456236437939732 0 -0.0013085686002918275 0.031441649513181937 0 -0.0012682169262684035 0.031559276115948984 0 -0.0012086060130226933 0.031693411882727195 0 -0.0012079803173573106 0.031723632459738367 0 -0.0012719535212294562 0.031566813534554747 0 -0.0012682169262684035 0.031559276115948984 0 -0.0012079803173573106 0.031723632459738367 0 -0.0012719535212294562 0.031566813534554747 0 -0.001216308157318817 0.031691054511661501 0 -0.0012682169262684035 0.031559276115948984 0 -0.0012079803173573106 0.031723632459738367 0 -0.001114265615110588 0.031965857349806781 0 -0.001216308157318817 0.031691054511661501 0 -0.0012079803173573106 0.031723632459738367 0 -0.0014320078307287778 0.030281852596568931 0 -0.0014135993395693925 0.030698904651219591 0 -0.0015395696027300535 0.030406783480386626 0 -0.0014320078307287778 0.030281852596568931 0 -0.0014424671286659117 0.029425126574294993 0 -0.0015395696027300535 0.030406783480386626 0 -0.0014320078307287778 0.030281852596568931 0 -0.0014755206231983804 0.030425824810809091 0 -0.0013910910608826855 0.030685819211602426 0 -0.0014320078307287778 0.030281852596568931 0 -0.0013910910608826855 0.030685819211602426 0 -0.0014135993395693925 0.030698904651219591 0 -0.0014511972617939624 0.029484577571546725 0 -0.0011486869073628807 0.02783608637605077 0 -0.0014320078307287778 0.030281852596568931 0 -0.0014424671286659117 0.029425126574294993 0 -0.0014755206231983804 0.030425824810809091 0 -0.0014424671286659117 0.029425126574294993 0 -0.0014755206231983804 0.030425824810809091 0 -0.0021144847131433974 0.030604942162974491 0 -0.0013351568743321955 0.031523714730649043 0 -0.0011486869073628807 0.02783608637605077 0 -0.001472589630278737 0.030992533861108288 0 -0.0014755206231983804 0.030425824810809091 0 -0.0021144847131433974 0.030604942162974491 0 -0.001472589630278737 0.030992533861108288 0 -0.0013910910608826855 0.030685819211602426 0 -0.0013204047375961299 0.031050941915805756 0 -0.001472589630278737 0.030992533861108288 0 -0.0014755206231983804 0.030425824810809091 0 -0.0013910910608826855 0.030685819211602426 0 -0.0013910910608826855 0.030685819211602426 0 -0.0013204047375961299 0.031050941915805756 0 -0.0014135993395693925 0.030698904651219591 0 -0.0013008924267435785 0.031238986841956827 0 -0.0013204047375961299 0.031050941915805756 0 -0.0013461365522797414 0.031003343597460594 0 -0.0012788473454767451 0.031342808576454752 0 -0.0013008924267435785 0.031238986841956827 0 -0.0013204047375961299 0.031050941915805756 0 -0.0013008924267435785 0.031238986841956827 0 -0.0013461365522797414 0.031003343597460594 0 -0.001364704362405509 0.031057938816910838 0 -0.0013461365522797414 0.031003343597460594 0 -0.0014086884827673981 0.030890505193129938 0 -0.001364704362405509 0.031057938816910838 0 -0.0013204047375961299 0.031050941915805756 0 -0.0013461365522797414 0.031003343597460594 0 -0.0014135993395693925 0.030698904651219591 0 -0.0013461365522797414 0.031003343597460594 0 -0.0014086884827673981 0.030890505193129938 0 -0.0014135993395693925 0.030698904651219591 0 -0.0014135993395693925 0.030698904651219591 0 -0.0014812065201062865 0.030777221218091292 0 -0.0015395696027300535 0.030406783480386626 0 -0.0014086884827673981 0.030890505193129938 0 -0.0014135993395693925 0.030698904651219591 0 -0.0014812065201062865 0.030777221218091292 0 -0.0014086884827673981 0.030890505193129938 0 -0.0014812065201062865 0.030777221218091292 0 -0.0014138317018219579 0.030952726919348483 0 -0.0014812065201062865 0.030777221218091292 0 -0.0014138317018219579 0.030952726919348483 0 -0.0014241041726980909 0.03099693364675488 0 -0.001364704362405509 0.031057938816910838 0 -0.0014138317018219579 0.030952726919348483 0 -0.0013804724370981053 0.03110565184076897 0 -0.0014086884827673981 0.030890505193129938 0 -0.001364704362405509 0.031057938816910838 0 -0.0014138317018219579 0.030952726919348483 0 -0.0014138317018219579 0.030952726919348483 0 -0.0013804724370981053 0.03110565184076897 0 -0.0014241041726980909 0.03099693364675488 0 -0.0013848295010528598 0.0311434421582109 0 -0.0013804724370981053 0.03110565184076897 0 -0.0014241041726980909 0.03099693364675488 0 -0.0014241041726980909 0.03099693364675488 0 -0.0013925795071490269 0.031061492580315396 0 -0.001416802275752932 0.031081518623543941 0 -0.0013848295010528598 0.0311434421582109 0 -0.0014241041726980909 0.03099693364675488 0 -0.001416802275752932 0.031081518623543941 0 -0.0014716720643371951 0.030961532474671871 0 -0.0013719475623820082 0.030985525219997551 0 -0.0014812065201062865 0.030777221218091292 0 -0.0014241041726980909 0.03099693364675488 0 -0.0015668459640529263 0.030803709606686321 0 -0.0014241041726980909 0.03099693364675488 0 -0.0013352229754234662 0.031008164507441992 0 -0.0013925795071490269 0.031061492580315396 0 -0.0015668459640529263 0.030803709606686321 0 -0.0015395696027300535 0.030406783480386626 0 -0.0012125096376414365 0.031029683516952865 0 -0.0013352229754234662 0.031008164507441992 0 -0.0012586064019807326 0.030999707063787841 0 -0.001353093201407485 0.031068864987842955 0 -0.0013719475623820082 0.030985525219997551 0 -0.0014961938242873346 0.030118351075226261 0 -0.0014812065201062865 0.030777221218091292 0 -0.0015668459640529263 0.030803709606686321 0 -0.0015395696027300535 0.030406783480386626 0 -0.0014424671286659117 0.029425126574294993 0 -0.0015395696027300535 0.030406783480386626 0 -0.00080689631855472609 0.030185951745197732 0 -0.0015395696027300535 0.030406783480386626 0 -0.00080689631855472609 0.030185951745197732 0 -0.0012125096376414365 0.031029683516952865 0 -0.00080689631855472609 0.030185951745197732 0 -0.0012125096376414365 0.031029683516952865 0 0.00023469587743001687 0.030769760068704993 0 -0.0020425294316269733 0.032002777833083633 0 0.00063729811996228773 0.032287808531082839 0 0.00023469587743001687 0.030769760068704993 0 -0.0014961938242873346 0.030118351075226261 0 -2.9092322337591558e-06 0.027675652509600024 0 -0.0014961938242873346 0.030118351075226261 0 -6.7059157614029748e-05 0.031081902561048605 0 0.00091533181439404766 0.031534125080027342 0 0.0012942074243617811 0.030849898480241215 0 0.00023469587743001687 0.030769760068704993 0 0.00063729811996228773 0.032287808531082839 0 0.00091533181439404766 0.031534125080027342 0 0.00023469587743001687 0.030769760068704993 0 -2.9092322337591558e-06 0.027675652509600024 0 -0.00022885155430170295 0.030744769086266541 0 -2.9092322337591558e-06 0.027675652509600024 0 0.00091867151145449152 0.026956478681731476 0 0.00071239763167794522 0.032155426478295196 0 0.00091533181439404766 0.031534125080027342 0 0.0026962132369997517 0.032303911245140753 0 0.001565762595257245 0.027105918795237868 0 0.00091867151145449152 0.026956478681731476 0 0.00091533181439404766 0.031534125080027342 0 0.0012942074243617811 0.030849898480241215 0 0.0026962132369997517 0.032303911245140753 0 0.0012942074243617811 0.030849898480241215 0 0.0019659449720638282 0.030230875312726301 0 0.0026962132369997517 0.032303911245140753 0 0.0012942074243617811 0.030849898480241215 0 0.0019659449720638282 0.030230875312726301 0 0.00060560785553340029 0.030033029996724862 0 0.0019659449720638282 0.030230875312726301 0 0.00060560785553340029 0.030033029996724862 0 0.00036730057438500596 0.028780249873610862 0 -0.0014424671286659117 0.029425126574294993 0 -0.00080689631855472609 0.030185951745197732 0 0.00036730057438500596 0.028780249873610862 0 -0.00080689631855472609 0.030185951745197732 0 0.00060560785553340029 0.030033029996724862 0 0.00036730057438500596 0.028780249873610862 0 -0.00080689631855472609 0.030185951745197732 0 0.00023469587743001687 0.030769760068704993 0 0.00060560785553340029 0.030033029996724862 0 0.0012942074243617811 0.030849898480241215 0 0.00023469587743001687 0.030769760068704993 0 0.00060560785553340029 0.030033029996724862 0 0.0013743290477238367 0.023808089782782656 0 0.0011024914337215926 0.023630005739196793 0 0.0014516877291111533 0.023468744636978917 0 0.0013743290477238367 0.023808089782782656 0 0.0021219048571326339 0.023512331527342237 0 0.0018207203505395185 0.023971528467650518 0 0.0013743290477238367 0.023808089782782656 0 0.0014516877291111533 0.023468744636978917 0 0.0021219048571326339 0.023512331527342237 0 0.0013743290477238367 0.023808089782782656 0 0.0011024914337215926 0.023630005739196793 0 0.0010523672279921282 0.023959647628478978 0 0.0011024914337215926 0.023630005739196793 0 0.001007809431637604 0.023843224342552101 0 0.0010523672279921282 0.023959647628478978 0 0.0010110837717716438 0.023531110083973631 0 0.0011024914337215926 0.023630005739196793 0 0.001007809431637604 0.023843224342552101 0 0.0010110837717716438 0.023531110083973631 0 0.0011024914337215926 0.023630005739196793 0 0.00096290947573250652 0.023546348093357053 0 0.0010110837717716438 0.023531110083973631 0 0.00096290947573250652 0.023546348093357053 0 0.00054379258999355236 0.023813149947564938 0 0.0011024914337215926 0.023630005739196793 0 0.00096290947573250652 0.023546348093357053 0 0.0014516877291111533 0.023468744636978917 0 0.00096290947573250652 0.023546348093357053 0 0.0014516877291111533 0.023468744636978917 0 0.0015462506238007974 0.022917909556495416 0 0.0014516877291111533 0.023468744636978917 0 0.0015462506238007974 0.022917909556495416 0 0.0023136814289957158 0.022805030751393802 0 0.00096290947573250652 0.023546348093357053 0 0.0015462506238007974 0.022917909556495416 0 0.00054379258999355236 0.023813149947564938 0 0.0015462506238007974 0.022917909556495416 0 0.00054379258999355236 0.023813149947564938 0 0.0011478976262433156 0.022393317359390992 0 0.0011478976262433156 0.022393317359390992 0 0.00010007703161318624 0.022564477794700319 0 0.00060183213987514788 0.021553894090067513 0 0.00054379258999355236 0.023813149947564938 0 0.0011478976262433156 0.022393317359390992 0 0.00010007703161318624 0.022564477794700319 0 0.00010007703161318624 0.022564477794700319 0 -0.00020351146072308259 0.021812426219966784 0 0.00060183213987514788 0.021553894090067513 0 0.0015462506238007974 0.022917909556495416 0 0.0011478976262433156 0.022393317359390992 0 0.0021090896603025966 0.021782762321626365 0 0.0011478976262433156 0.022393317359390992 0 0.0014923658725537476 0.021015477864258746 0 0.0021090896603025966 0.021782762321626365 0 -0.0014424671286659117 0.029425126574294993 0 0.0006673408101999528 0.025893219678904046 0 -4.7887854087286662e-06 0.025867088268031753 0 -0.0014424671286659117 0.029425126574294993 0 0.00036730057438500596 0.028780249873610862 0 0.0006673408101999528 0.025893219678904046 0 0.0010110837717716438 0.023531110083973631 0 0.00054379258999355236 0.023813149947564938 0 0.0009448813737940922 0.02559281612094336 0 0.001565762595257245 0.027105918795237868 0 0.00065721799197836857 0.025722108779647895 0 0.0010110837717716438 0.023531110083973631 0 0.0009448813737940922 0.02559281612094336 0 0.0006673408101999528 0.025893219678904046 0 0.0019659449720638282 0.030230875312726301 0 0.00036730057438500596 0.028780249873610862 0 0.0006673408101999528 0.025893219678904046 0 0.00054379258999355236 0.023813149947564938 0 -0.00086694924468130776 0.022918684354341148 0 0.00010007703161318624 0.022564477794700319 0 0.00057347965113812313 0.024074435078062669 0 -4.1175900880934533e-05 0.024156729673684745 0 -0.00079496788609196352 0.022712341017578672 0 -0.00020351146072308259 0.021812426219966784 0 -0.00094991914279273393 0.021386433704327044 0 -0.00086694924468130776 0.022918684354341148 0 -0.00079496788609196352 0.022712341017578672 0 0.00010007703161318624 0.022564477794700319 0 -0.00079037876454346391 0.022787304660560552 0 -0.00097998711805787932 0.021544857071101833 0 -0.00079496788609196352 0.022712341017578672 0 0.00010007703161318624 0.022564477794700319 0 -0.00020351146072308259 0.021812426219966784 0 -0.00086694924468130776 0.022918684354341148 0 -0.00079496788609196352 0.022712341017578672 0 -0.00096331900785033531 0.022722603857960686 0 -0.00079496788609196352 0.022712341017578672 0 -0.00096331900785033531 0.022722603857960686 0 -0.00086427390502278418 0.022677083485523657 0 0.0009448813737940922 0.02559281612094336 0 0.0006673408101999528 0.025893219678904046 0 -4.7887854087286662e-06 0.025867088268031753 0 -4.1175900880934533e-05 0.024156729673684745 0 -0.0011486869073628807 0.02783608637605077 0 -0.00096331900785033531 0.022722603857960686 0 -0.00085492222112673035 0.022643698059248187 0 -0.00086427390502278418 0.022677083485523657 0 -0.0012566030622115775 0.031219357712514894 0 -0.0012551235646175336 0.031198234199859051 0 -0.0012336394210987903 0.031182185960542171 0 -0.0011486869073628807 0.02783608637605077 0 -0.00094460634283102991 0.024684739246972454 0 -0.0012566030622115775 0.031219357712514894 0 -0.001260903743032464 0.031241670260909217 0 -0.0012336394210987903 0.031182185960542171 0 -0.0010715071350928715 0.020286017709723502 0 -0.00018971144871736929 0.021008068539498163 0 0.00045913890296913728 0.020161771730520809 0 -0.0010715071350928715 0.020286017709723502 0 0.00045913890296913728 0.020161771730520809 0 -0.0004607488842785746 0.018855039472889832 0 -0.00094460634283102991 0.024684739246972454 0 0.00039549648442645621 0.018640616646704727 0 -0.00094460634283102991 0.024684739246972454 0 -0.00097998711805787932 0.021544857071101833 0 -0.0010715071350928715 0.020286017709723502 0 -0.00018971144871736929 0.021008068539498163 0 -0.00094991914279273393 0.021386433704327044 0 -0.00020351146072308259 0.021812426219966784 0 -0.00018971144871736929 0.021008068539498163 0 -0.00094991914279273393 0.021386433704327044 0 -0.00020351146072308259 0.021812426219966784 0 -0.00018971144871736929 0.021008068539498163 0 0.00060183213987514788 0.021553894090067513 0 0.0011478976262433156 0.022393317359390992 0 0.00060183213987514788 0.021553894090067513 0 0.0014923658725537476 0.021015477864258746 0 -0.00018971144871736929 0.021008068539498163 0 0.00060183213987514788 0.021553894090067513 0 0.00045913890296913728 0.020161771730520809 0 0.00060183213987514788 0.021553894090067513 0 0.0014923658725537476 0.021015477864258746 0 0.00045913890296913728 0.020161771730520809 0 0.0014923658725537476 0.021015477864258746 0 0.0016733156380973537 0.01961188616889915 0 0.0026747749781799485 0.020474169882806828 0 0.0014923658725537476 0.021015477864258746 0 0.0016733156380973537 0.01961188616889915 0 0.00045913890296913728 0.020161771730520809 0 0.00045913890296913728 0.020161771730520809 0 0.00068816632079789295 0.018786730471318375 0 -0.0004607488842785746 0.018855039472889832 0 0.0016733156380973537 0.01961188616889915 0 0.00045913890296913728 0.020161771730520809 0 0.00068816632079789295 0.018786730471318375 0 0.0016733156380973537 0.01961188616889915 0 0.00068816632079789295 0.018786730471318375 0 0.001599977457122288 0.017846334096592961 0 0.0023910196719065728 0.012529778966013656 0 0.0023963717003932074 0.01246929302395333 0 0.0023985242436215886 0.012455333155596651 0 0.00013001932186622089 0.017471827046907574 0 0.00068816632079789295 0.018786730471318375 0 0.001599977457122288 0.017846334096592961 0 0.0010726106227109291 0.015306814872727547 0 0.0020203380379574956 0.01512235477854067 0 0.0023902569269742282 0.012531761503141088 0 0.0023910196719065728 0.012529778966013656 0 0.0023985242436215886 0.012455333155596651 0 0.00013001932186622089 0.017471827046907574 0 0.00068816632079789295 0.018786730471318375 0 -0.0004607488842785746 0.018855039472889832 0 0.0010726106227109291 0.015306814872727547 0 0.00039549648442645621 0.018640616646704727 0 -0.00050942249344324648 0.014391285928260169 0 0.00063544260503588278 0.01661697991371713 0 -0.0013554826963353692 0.018446639043239309 0 -0.00050942249344324648 0.014391285928260169 0 0.0026599153046133273 0.015137156121581384 0 0.00063544260503588278 0.01661697991371713 0 0.0026599153046133273 0.015137156121581384 0 0.00063544260503588278 0.01661697991371713 0 0.0010283676912533847 0.01912985750684645 0 0.00063544260503588278 0.01661697991371713 0 -0.0013554826963353692 0.018446639043239309 0 0.0010283676912533847 0.01912985750684645 0 -0.0011547229462786157 0.031110736434493486 0 -0.001228826393281215 0.031185455849735387 0 -0.0012078351305080713 0.031160614391716232 0 -0.0013649406905751733 0.022472425375054356 0 -0.0012310414247824063 0.025352309729217582 0 -0.0016277689342921746 0.013918579252105571 0 -0.00050942249344324648 0.014391285928260169 0 -0.0013554826963353692 0.018446639043239309 0 -0.00094460634283102991 0.024684739246972454 0 -0.0012310414247824063 0.025352309729217582 0 -0.001260903743032464 0.031241670260909217 0 -0.0012336394210987903 0.031182185960542171 0 -0.0012078351305080713 0.031160614391716232 0 -0.00071857129290851124 0.023325064249461815 0 -0.0013554826963353692 0.018446639043239309 0 0.0010283676912533847 0.01912985750684645 0 0.0043773801453553477 0.018467722408048018 0 0.0048414970124189887 0.019292784838360482 0 0.0039192528018285929 0.019946329756285006 0 0.0057216928776973293 0.018719598619534896 0 0.0043773801453553477 0.018467722408048018 0 0.0048414970124189887 0.019292784838360482 0 0.0050135382424190047 0.013307368597818385 0 0.0032455757333773069 0.015505072802297334 0 0.0057216928776973293 0.018719598619534896 0 0.0048414970124189887 0.019292784838360482 0 0.0056021287834059344 0.019582699483238354 0 0.002750348997352776 0.011933487721537893 0 0.0024849811814803176 0.011841984001355913 0 0.0026704479339706723 0.011705629476665699 0 0.0030190759354353312 0.012322004485468082 0 0.0022338174093190165 0.012110950446079072 0 0.0024849811814803176 0.011841984001355913 0 0.0050135382424190047 0.013307368597818385 0 0.0018458326928788376 0.011304498697031295 0 0.0027714958682876147 0.011524251894940149 0 0.0026025939415426809 0.011532592126255773 0 0.0026704479339706723 0.011705629476665699 0 0.0026025939415426809 0.011532592126255773 0 0.0024544808616136131 0.011643620938935496 0 0.0026704479339706723 0.011705629476665699 0 0.0024544808616136131 0.011643620938935496 0 0.0024849811814803176 0.011841984001355913 0 0.0026704479339706723 0.011705629476665699 0 0.0022338174093190165 0.012110950446079072 0 0.0022441554168410342 0.01208295794413472 0 0.0023147187728107294 0.012313277172199849 0 0.0024544808616136131 0.011643620938935496 0 0.0024849811814803176 0.011841984001355913 0 0.0022252858428052362 0.011817775583912865 0 0.0022441554168410342 0.01208295794413472 0 0.0022252858428052362 0.011817775583912865 0 0.0015537372824154885 0.01172833962704887 0 0.0022338174093190165 0.012110950446079072 0 0.0024849811814803176 0.011841984001355913 0 0.0022441554168410342 0.01208295794413472 0 0.0024849811814803176 0.011841984001355913 0 0.0022441554168410342 0.01208295794413472 0 0.0022252858428052362 0.011817775583912865 0 0.0020504253880851745 0.011701018298283293 0 0.0022252858428052362 0.011817775583912865 0 0.0017543789460203929 0.01184835928854021 0 0.0021055913914632997 0.011960889194684228 0 0.0021933749699101115 0.012483064457163013 0 0.0022441554168410342 0.01208295794413472 0 0.0023147187728107294 0.012313277172199849 0 0.0023151119090130266 0.01237384350225155 0 0.0019436193481498876 0.011677347715599046 0 0.0021933749699101115 0.012483064457163013 0 0.0032455757333773069 0.015505072802297334 0 0.0026505474444080404 0.015222560481633889 0 0.0023985242436215886 0.012455333155596651 0 0.0023147187728107294 0.012313277172199849 0 0.0023151119090130266 0.01237384350225155 0 0.0020203380379574956 0.01512235477854067 0 0.0026505474444080404 0.015222560481633889 0 0.0026373063974857607 0.01319584439646177 0 0.0021933749699101115 0.012483064457163013 0 0.001599977457122288 0.017846334096592961 0 0.0029976852011571798 0.018182002667286156 0 0.0027505795792419261 0.019293466385969148 0 0.0023963717003932074 0.01246929302395333 0 0.0023985242436215886 0.012455333155596651 0 0.0023151119090130266 0.01237384350225155 0 0.0016733156380973537 0.01961188616889915 0 0.001599977457122288 0.017846334096592961 0 0.0027505795792419261 0.019293466385969148 0 0.0043773801453553477 0.018467722408048018 0 0.0029976852011571798 0.018182002667286156 0 0.0027505795792419261 0.019293466385969148 0 0.0043773801453553477 0.018467722408048018 0 0.0027505795792419261 0.019293466385969148 0 0.0039192528018285929 0.019946329756285006 0 0.0027505795792419261 0.019293466385969148 0 0.0026747749781799485 0.020474169882806828 0 0.0039192528018285929 0.019946329756285006 0 0.0016733156380973537 0.01961188616889915 0 0.0027505795792419261 0.019293466385969148 0 0.0026747749781799485 0.020474169882806828 0 0.0026747749781799485 0.020474169882806828 0 0.0021090896603025966 0.021782762321626365 0 0.0034771761919254931 0.021406865792522767 0 0.0014923658725537476 0.021015477864258746 0 0.0026747749781799485 0.020474169882806828 0 0.0021090896603025966 0.021782762321626365 0 0.0026747749781799485 0.020474169882806828 0 0.0039192528018285929 0.019946329756285006 0 0.0034771761919254931 0.021406865792522767 0 0.0047492982104547056 0.021050607778311997 0 0.0039192528018285929 0.019946329756285006 0 0.0034771761919254931 0.021406865792522767 0 0.0047492982104547056 0.021050607778311997 0 0.0039192528018285929 0.019946329756285006 0 0.0049192258925082749 0.020035848626736408 0 0.003225222549549921 0.017040360942664378 0 0.0032877914996222945 0.021617826647788965 0 0.0048414970124189887 0.019292784838360482 0 0.0039192528018285929 0.019946329756285006 0 0.0049192258925082749 0.020035848626736408 0 0.0048414970124189887 0.019292784838360482 0 0.0056021287834059344 0.019582699483238354 0 0.0049192258925082749 0.020035848626736408 0 0.0056021287834059344 0.019582699483238354 0 0.0049192258925082749 0.020035848626736408 0 0.0055479381470942097 0.02037918653774011 0 0.0047492982104547056 0.021050607778311997 0 0.0049192258925082749 0.020035848626736408 0 0.0055479381470942097 0.02037918653774011 0 0.0034154562046878321 0.0094402094707312957 0 0.00096071690459127062 0.0099705429721820109 0 0.002777953861015251 0.0086009591551122148 0 0.0016416779491488901 0.00018202209270267827 0 0.003225222549549921 0.017040360942664378 0 0.003225222549549921 0.017040360942664378 0 0.0038769956471997038 0.014566079391888125 0 0.0016416779491488901 0.00018202209270267827 0 -0.00068613888887566533 0.00069066564549340312 0 0.0048966506418160107 0.020359374108845106 0 0.0038402618642463166 0.020763888501012163 0 0.0040898184588571539 0.021884392256888905 0 -0.0044577000712042042 -0.02135629261210999 0 -0.0042836163646631873 -0.02068044331595683 0 -0.0050803380987412316 -0.020331681257398086 0 0.0034461547876842211 0.021537649389214285 0 0.0040898184588571539 0.021884392256888905 0 0.0030835341763034664 0.022180914345598112 0 0.0038402618642463166 0.020763888501012163 0 0.0034461547876842211 0.021537649389214285 0 0.0028451224251062508 0.021326625843320787 0 0.0038402618642463166 0.020763888501012163 0 0.0034461547876842211 0.021537649389214285 0 0.0040898184588571539 0.021884392256888905 0 -0.00068613888887566533 0.00069066564549340312 0 -0.001189334116680869 0.0018616586636033489 0 0.0040898184588571539 0.021884392256888905 0 0.0030835341763034664 0.022180914345598112 0 0.0033076410992137718 0.022992299477178967 0 -0.0043341438118345036 -0.020055618199353351 0 -0.0050803380987412316 -0.020331681257398086 0 -0.00478439889786955 -0.019324860333751453 0 0.0021590938090476994 0.021681620680231026 0 0.0032877914996222945 0.021617826647788965 0 0.0021090896603025966 0.021782762321626365 0 0.0028451224251062508 0.021326625843320787 0 0.0023924845157365375 0.022188045070121485 0 0.0015462506238007974 0.022917909556495416 0 0.0021090896603025966 0.021782762321626365 0 0.0023924845157365375 0.022188045070121485 0 0.0034461547876842211 0.021537649389214285 0 0.0028451224251062508 0.021326625843320787 0 0.0030835341763034664 0.022180914345598112 0 0.0028451224251062508 0.021326625843320787 0 0.0030835341763034664 0.022180914345598112 0 0.0023924845157365375 0.022188045070121485 0 0.0030835341763034664 0.022180914345598112 0 0.0023136814289957158 0.022805030751393802 0 0.0033076410992137718 0.022992299477178967 0 0.0030835341763034664 0.022180914345598112 0 0.0023924845157365375 0.022188045070121485 0 0.0023136814289957158 0.022805030751393802 0 0.0015462506238007974 0.022917909556495416 0 0.0023924845157365375 0.022188045070121485 0 0.0023136814289957158 0.022805030751393802 0 0.0014516877291111533 0.023468744636978917 0 0.0023136814289957158 0.022805030751393802 0 0.0021219048571326339 0.023512331527342237 0 0.0023136814289957158 0.022805030751393802 0 0.0021219048571326339 0.023512331527342237 0 0.0033076410992137718 0.022992299477178967 0 0.0021219048571326339 0.023512331527342237 0 0.0033076410992137718 0.022992299477178967 0 0.0026879087422392368 0.023801666258122682 0 -0.001189334116680869 0.0018616586636033489 0 -0.001911466452300772 0.002798473172974594 0 0.0021219048571326339 0.023512331527342237 0 0.0026879087422392368 0.023801666258122682 0 0.0018207203505395185 0.023971528467650518 0 -0.0050803380987412316 -0.020331681257398086 0 -0.00478439889786955 -0.019324860333751453 0 -0.0057346266436665372 -0.019278093548498281 0 -0.0057346266436665372 -0.019278093548498281 0 -0.005373267465975445 -0.018346671198586944 0 -0.0065081777652590917 -0.018183705484094519 0 -0.00478439889786955 -0.019324860333751453 0 -0.005373267465975445 -0.018346671198586944 0 -0.00437570855911424 -0.018408914330985127 0 -0.00478439889786955 -0.019324860333751453 0 -0.0057346266436665372 -0.019278093548498281 0 -0.005373267465975445 -0.018346671198586944 0 -0.005373267465975445 -0.018346671198586944 0 -0.0049177539841732017 -0.017463432109194075 0 -0.00437570855911424 -0.018408914330985127 0 -0.005373267465975445 -0.018346671198586944 0 -0.0059575517246559014 -0.017185227323722477 0 -0.0049177539841732017 -0.017463432109194075 0 -0.005373267465975445 -0.018346671198586944 0 -0.0059575517246559014 -0.017185227323722477 0 -0.0065081777652590917 -0.018183705484094519 0 -0.0059575517246559014 -0.017185227323722477 0 -0.0049177539841732017 -0.017463432109194075 0 -0.0051471337955541381 -0.016257416651427332 0 0.0026879087422392368 0.023801666258122682 0 0.0023081442360334062 0.024539407248722594 0 0.0018207203505395185 0.023971528467650518 0 -0.001911466452300772 0.002798473172974594 0 -0.0026715625449028452 0.0039845783004904753 0 -0.0059575517246559014 -0.017185227323722477 0 -0.0076102169793737318 -0.016795122438206939 0 -0.0063707594624664507 -0.015931545526853767 0 -0.0059575517246559014 -0.017185227323722477 0 -0.0065081777652590917 -0.018183705484094519 0 -0.0076102169793737318 -0.016795122438206939 0 -0.0076102169793737318 -0.016795122438206939 0 -0.0074070799394575313 -0.015053283156009638 0 -0.0090353603210640825 -0.014687506063414395 0 -0.0026715625449028452 0.0039845783004904753 0 -0.0035728515791557981 0.0051297844122493181 0 -0.0076102169793737318 -0.016795122438206939 0 -0.0063707594624664507 -0.015931545526853767 0 -0.0074070799394575313 -0.015053283156009638 0 -0.0063707594624664507 -0.015931545526853767 0 -0.0074070799394575313 -0.015053283156009638 0 -0.00615085493967997 -0.013538995718644175 0 -0.0074070799394575313 -0.015053283156009638 0 -0.0079242235572235947 -0.013974329020730415 0 -0.00615085493967997 -0.013538995718644175 0 -0.0079242235572235947 -0.013974329020730415 0 -0.0085367928088208554 -0.01302130157494547 0 -0.0090353603210640825 -0.014687506063414395 0 -0.0074070799394575313 -0.015053283156009638 0 -0.0079242235572235947 -0.013974329020730415 0 -0.0090353603210640825 -0.014687506063414395 0 -0.0051471337955541381 -0.016257416651427332 0 -0.0048407896467491541 -0.01597242723847336 0 -0.0044774061746438486 -0.016829840938274679 0 -0.0049177539841732017 -0.017463432109194075 0 -0.0051471337955541381 -0.016257416651427332 0 -0.0044774061746438486 -0.016829840938274679 0 -0.0059575517246559014 -0.017185227323722477 0 -0.0063707594624664507 -0.015931545526853767 0 -0.0051471337955541381 -0.016257416651427332 0 -0.0051471337955541381 -0.016257416651427332 0 -0.0048407896467491541 -0.01597242723847336 0 -0.0053832840299740071 -0.015792770973512227 0 -0.0063707594624664507 -0.015931545526853767 0 -0.0051471337955541381 -0.016257416651427332 0 -0.00615085493967997 -0.013538995718644175 0 -0.005439023219689366 -0.017009810986801443 0 -0.004299758226854993 -0.01210429786621438 0 -0.0026245280025345092 -0.012183153353723998 0 -0.0029329119980995169 -0.011692183023903176 0 -0.0022061302485432608 -0.01188278196249315 0 -0.00033099291128967843 -0.009569431273356209 0 -0.00035673719816633771 -0.01012550904553298 0 -0.00040117524158302879 -0.010394543358046791 0 -0.0015498304097709618 -0.010902714023228288 0 -0.0012926079437431653 -0.011096588969567635 0 -0.00034618153580163904 -0.010871232126366075 0 -0.00047063358281345177 -0.010679754528195499 0 -0.00035673719816633771 -0.01012550904553298 0 -0.00035863089498207307 -0.0097334752583994634 0 -0.00035203639368619461 -0.010048223327227419 0 -0.00033099291128967843 -0.009569431273356209 0 -0.00026759498984241801 -0.0086490549295758154 0 -0.00035673719816633771 -0.01012550904553298 0 -0.00066470248358919298 -0.0090453685912148408 0 -0.00033099291128967843 -0.009569431273356209 0 -0.0019714864215907551 -0.0088515078723259248 0 -0.0015498304097709618 -0.010902714023228288 0 -0.0030339342947771665 -0.0081748551672302522 0 -0.00066470248358919298 -0.0090453685912148408 0 -0.00033099291128967843 -0.009569431273356209 0 -0.00026759498984241801 -0.0086490549295758154 0 -0.0026245280025345092 -0.012183153353723998 0 -0.0029329119980995169 -0.011692183023903176 0 -0.0034200599196262181 -0.011998496717621446 0 -0.0037246133701942488 -0.014317558493891267 0 -0.004299758226854993 -0.01210429786621438 0 -0.0029329119980995169 -0.011692183023903176 0 -0.0034200599196262181 -0.011998496717621446 0 -0.0037309914932316599 -0.011497582781405408 0 -0.004299758226854993 -0.01210429786621438 0 -0.0061088443757891372 -0.0096765367686587785 0 -0.0079242235572235947 -0.013974329020730415 0 -0.00615085493967997 -0.013538995718644175 0 -0.0077602330275577973 -0.012934606397219373 0 -0.0021309064339220781 -0.0068656164293524466 0 -0.004200824689589616 -0.0063747185164336308 0 -0.003301652809117418 -0.0050411776389043452 0 -0.004299758226854993 -0.01210429786621438 0 -0.0030339342947771665 -0.0081748551672302522 0 -0.004200824689589616 -0.0063747185164336308 0 -0.0057307247648873379 -0.0045234465877108058 0 -0.00625561564867585 -0.0058678743949186788 0 -0.0061088443757891372 -0.0096765367686587785 0 -0.0065597108840871323 -0.0047675981688957286 0 -0.0085367928088208554 -0.01302130157494547 0 -0.0077602330275577973 -0.012934606397219373 0 -0.0094035420697876834 -0.012340876034045082 0 -0.0079242235572235947 -0.013974329020730415 0 -0.0085367928088208554 -0.01302130157494547 0 -0.0077602330275577973 -0.012934606397219373 0 -0.0030339342947771665 -0.0081748551672302522 0 -0.0052113143450573038 -0.0058818811314614687 0 -0.004200824689589616 -0.0063747185164336308 0 -0.003301652809117418 -0.0050411776389043452 0 -0.0057307247648873379 -0.0045234465877108058 0 -0.0031293303746831288 -0.0060363946110427403 0 -0.0043915220609739795 -0.0059109347127125041 0 -0.0040351333387793394 -0.0068798379253573114 0 -0.0023781139835736351 -0.0071822157837226671 0 -0.0031293303746831288 -0.0060363946110427403 0 -0.0040351333387793394 -0.0068798379253573114 0 -0.0030339342947771665 -0.0081748551672302522 0 -0.0030033784627442233 -0.0065974070831309496 0 -0.00066470248358919298 -0.0090453685912148408 0 -0.0019714864215907551 -0.0088515078723259248 0 -0.0017514749505699203 -0.0077546945628896571 0 -0.00066470248358919298 -0.0090453685912148408 0 -0.0017514749505699203 -0.0077546945628896571 0 -0.0016161661544219616 -0.0059067820542117585 0 -0.0019714864215907551 -0.0088515078723259248 0 -0.0017514749505699203 -0.0077546945628896571 0 -0.0029750908721801811 -0.0071253090655953866 0 -0.00066470248358919298 -0.0090453685912148408 0 -0.0013581146671268033 -0.0083632385680828883 0 -0.00078768158227370943 -0.0085527160430714476 0 -0.00069395558355000813 -0.0088503928321492769 0 -0.0015291523387384949 -0.0071507085277107566 0 -0.0017514749505699203 -0.0077546945628896571 0 -0.0016161661544219616 -0.0059067820542117585 0 -0.0029750908721801811 -0.0071253090655953866 0 -0.0013581146671268033 -0.0083632385680828883 0 -0.00089461466211489076 -0.0081581058197295903 0 -0.00078768158227370943 -0.0085527160430714476 0 -0.0016161661544219616 -0.0059067820542117585 0 -0.0029750908721801811 -0.0071253090655953866 0 -0.0038364820801017416 -0.0049469568162823791 0 -0.0031293303746831288 -0.0060363946110427403 0 -0.0038364820801017416 -0.0049469568162823791 0 -0.0043915220609739795 -0.0059109347127125041 0 -0.0030033784627442233 -0.0065974070831309496 0 -0.0037784146299854379 -0.0051858536291799094 0 -0.0015291523387384949 -0.0071507085277107566 0 -0.0028193908083711488 -0.0050814592347089302 0 -0.0013581146671268033 -0.0083632385680828883 0 -0.0013449507096138602 -0.0076651184708679482 0 -0.0022598631534840466 -0.0073373988813332531 0 -0.0016161661544219616 -0.0059067820542117585 0 -0.0038364820801017416 -0.0049469568162823791 0 -0.0033168054246755958 -0.0029801894562674737 0 -0.0013581146671268033 -0.0083632385680828883 0 -0.0013449507096138602 -0.0076651184708679482 0 -0.00089461466211489076 -0.0081581058197295903 0 -0.0013449507096138602 -0.0076651184708679482 0 -0.00077634000607062147 -0.0075234390175712637 0 -0.00089461466211489076 -0.0081581058197295903 0 -0.00077634000607062147 -0.0075234390175712637 0 -0.00089461466211489076 -0.0081581058197295903 0 -0.00026759498984241801 -0.0086490549295758154 0 -0.00063556207235214044 -0.011150288743622911 0 -0.00049225272621948558 -0.01100120995697133 0 -0.00034618153580163904 -0.010871232126366075 0 -0.00070650636747701862 -0.0093611723690334124 0 -0.00035863089498207307 -0.0097334752583994634 0 -0.00049225272621948558 -0.01100120995697133 0 -0.00052840323593907588 -0.011050642661638913 0 -0.00055154100971074773 -0.010936517611042671 0 -0.00063556207235214044 -0.011150288743622911 0 -0.00049225272621948558 -0.01100120995697133 0 -0.00052840323593907588 -0.011050642661638913 0 -0.00049225272621948558 -0.01100120995697133 0 -0.00048508131707403277 -0.010873695053619686 0 -0.00055154100971074773 -0.010936517611042671 0 -0.00049225272621948558 -0.01100120995697133 0 -0.00048508131707403277 -0.010873695053619686 0 -0.00034618153580163904 -0.010871232126366075 0 -0.00048508131707403277 -0.010873695053619686 0 -0.00034618153580163904 -0.010871232126366075 0 -0.00047063358281345177 -0.010679754528195499 0 -0.00089461466211489076 -0.0081581058197295903 0 -0.00026759498984241801 -0.0086490549295758154 0 -0.00078768158227370943 -0.0085527160430714476 0 -0.00066470248358919298 -0.0090453685912148408 0 -0.00026759498984241801 -0.0086490549295758154 0 -0.00078768158227370943 -0.0085527160430714476 0 -0.0019945924115832478 0.010563671051352889 0 -0.0017358112819780358 0.01088849857284847 0 -0.0021678278612270864 0.011101146728877168 0 -0.0019945924115832478 0.010563671051352889 0 -0.0017358112819780358 0.01088849857284847 0 -0.0014222037320870604 0.01026794257248476 0 -0.0019945924115832478 0.010563671051352889 0 -0.0021678278612270864 0.011101146728877168 0 -0.00259321732729936 0.011076466176370143 0 -0.00015300162750145924 0.017654590462005751 0 0.00063722001605256713 0.019741850703706335 0 0.0011488626055665885 0.023097417804822499 0 0.0010357377297108606 0.023186000066676052 0 0.00094596444323515592 0.023347663300350232 0 -0.0021678278612270864 0.011101146728877168 0 -0.0020364545320322989 0.011435036314438924 0 -0.0024473851280079604 0.011509331202894739 0 -0.0021678278612270864 0.011101146728877168 0 -0.00259321732729936 0.011076466176370143 0 -0.0024473851280079604 0.011509331202894739 0 -0.0069233483685699542 -0.0047100794588346272 0 -0.0066602232499674988 -0.0031863765877600094 0 -0.0079754686218194305 -0.0027415983784745217 0 -0.0043531677542467733 0.003493396807217383 0 -0.004884733593589481 0.0035265820585441755 0 -0.0017358112819780358 0.01088849857284847 0 -0.0021678278612270864 0.011101146728877168 0 -0.0020364545320322989 0.011435036314438924 0 -0.0069233483685699542 -0.0047100794588346272 0 -0.0053430669821652481 -0.003384995829002444 0 -0.0052750443112346166 -0.0051711922731117075 0 -0.0069233483685699542 -0.0047100794588346272 0 -0.0066602232499674988 -0.0031863765877600094 0 -0.0053430669821652481 -0.003384995829002444 0 -0.0053430669821652481 -0.003384995829002444 0 -0.0038364820801017416 -0.0049469568162823791 0 -0.0033168054246755958 -0.0029801894562674737 0 -0.0053430669821652481 -0.003384995829002444 0 -0.0038364820801017416 -0.0049469568162823791 0 -0.0052750443112346166 -0.0051711922731117075 0 -0.0038364820801017416 -0.0049469568162823791 0 -0.0043915220609739795 -0.0059109347127125041 0 -0.0052750443112346166 -0.0051711922731117075 0 -0.0043915220609739795 -0.0059109347127125041 0 -0.0052750443112346166 -0.0051711922731117075 0 -0.0058440723670968526 -0.0065757607307704085 0 -0.0043531677542467733 0.003493396807217383 0 -0.0047224085061118764 4.6484764215856264e-05 0 -0.0069233483685699542 -0.0047100794588346272 0 -0.0052750443112346166 -0.0051711922731117075 0 -0.0058440723670968526 -0.0065757607307704085 0 -0.0019945924115832478 0.010563671051352889 0 -0.0014222037320870604 0.01026794257248476 0 -0.0013005639790848805 0.0099977529800044686 0 0.0013360015493501568 0.022700110836437703 0 0.0013534413730435515 0.022598788898198746 0 0.0011402884987705764 0.022917969996365223 0 -0.00015300162750145924 0.017654590462005751 0 -0.0038836683412457273 0.0081009879693491639 0 -0.0047224085061118764 4.6484764215856264e-05 0 -0.0038836683412457273 0.0081009879693491639 0 -0.008133859442450932 -0.0039975178047325834 0 -0.007623243721008666 -0.004957622342030398 0 -0.006936648867233307 -0.0048348817022720062 0 -0.0047224085061118764 4.6484764215856264e-05 0 -0.0052113143450573038 -0.0058818811314614687 0 -0.0043915220609739795 -0.0059109347127125041 0 -0.0058440723670968526 -0.0065757607307704085 0 -0.0040351333387793394 -0.0068798379253573114 0 -0.008133859442450932 -0.0039975178047325834 0 -0.006936648867233307 -0.0048348817022720062 0 -0.0057307247648873379 -0.0045234465877108058 0 -0.007623243721008666 -0.004957622342030398 0 -0.006936648867233307 -0.0048348817022720062 0 -0.00625561564867585 -0.0058678743949186788 0 -0.006936648867233307 -0.0048348817022720062 0 -0.0057307247648873379 -0.0045234465877108058 0 -0.00625561564867585 -0.0058678743949186788 0 -0.0095228488371048668 -0.012241013507439299 0 -0.010490448950839499 -0.011949595679124647 0 -0.0090353603210640825 -0.014687506063414395 0 -0.0039130153800671971 0.0097016909176293933 0 -0.0035728515791557981 0.0051297844122493181 0 -0.0085367928088208554 -0.01302130157494547 0 -0.0095228488371048668 -0.012241013507439299 0 -0.0090353603210640825 -0.014687506063414395 0 -0.0065597108840871323 -0.0047675981688957286 0 -0.0039130153800671971 0.0097016909176293933 0 -0.0070369725935523018 0.0043624739187106982 0 -0.0037672696313458395 0.0022785578974264305 0 -0.0062068617722369863 0.0028271227129527633 0 -0.0038836683412457273 0.0081009879693491639 0 -0.0065597108840871323 -0.0047675981688957286 0 -0.0072189092307187791 -0.010793389455172738 0 -0.0065597108840871323 -0.0047675981688957286 0 -0.0039130153800671971 0.0097016909176293933 0 0.0013593234192984575 0.027344669634976976 0 0.0013135841466369426 0.027160989384862142 0 -0.00020066965178451864 0.027800834628803027 0 0.0010775687546691075 0.026183870208192649 0 -0.0038836683412457273 0.0081009879693491639 0 -0.0039130153800671971 0.0097016909176293933 0 -0.00020066965178451864 0.027800834628803027 0 -0.00078383380643516295 0.026696379846845263 0 0.00014972983233362878 0.025829726614806647 0 0.0011488626055665885 0.023097417804822499 0 0.0013360015493501568 0.022700110836437703 0 0.0011402884987705764 0.022917969996365223 0 0.0010357377297108606 0.023186000066676052 0 0.0011402884987705764 0.022917969996365223 0 0.00098799015742947983 0.023200953004580385 0 0.0013593234192984575 0.027344669634976976 0 -0.00056771274372297259 0.025465760990915465 0 0.0011488626055665885 0.023097417804822499 0 0.0010357377297108606 0.023186000066676052 0 0.0011402884987705764 0.022917969996365223 0 0.0011402884987705764 0.022917969996365223 0 0.00094941585376676042 0.023089439144003781 0 0.00098799015742947983 0.023200953004580385 0 -0.00020066965178451864 0.027800834628803027 0 -0.00078383380643516295 0.026696379846845263 0 -0.0018061522279890316 0.027402485928232856 0 -0.00020066965178451864 0.027800834628803027 0 -0.001714983886246713 0.028361488511616524 0 -0.0018061522279890316 0.027402485928232856 0 -0.00020066965178451864 0.027800834628803027 0 0.00014972983233362878 0.025829726614806647 0 0.0010775687546691075 0.026183870208192649 0 -0.00078383380643516295 0.026696379846845263 0 0.00014972983233362878 0.025829726614806647 0 -0.0013751975889179273 0.025672635622597955 0 0.00014972983233362878 0.025829726614806647 0 -0.00025047743712013136 0.024941674899636172 0 0.00054346958226044351 0.024408912821365026 0 -0.0012534574799286087 0.02478745447680869 0 -0.0015893165061564075 0.02648709198915947 0 0.00014972983233362878 0.025829726614806647 0 -0.00025047743712013136 0.024941674899636172 0 -0.0013751975889179273 0.025672635622597955 0 -0.00025047743712013136 0.024941674899636172 0 -0.00089243863416118706 0.024346423570439497 0 -0.0013751975889179273 0.025672635622597955 0 0.0013135841466369426 0.027160989384862142 0 0.0019274242363325356 0.025691262090922373 0 0.0010775687546691075 0.026183870208192649 0 0.00014972983233362878 0.025829726614806647 0 0.0013405635174079571 0.024869433610167767 0 0.00054346958226044351 0.024408912821365026 0 0.00014972983233362878 0.025829726614806647 0 0.0010775687546691075 0.026183870208192649 0 0.0013405635174079571 0.024869433610167767 0 0.0019274242363325356 0.025691262090922373 0 0.0010775687546691075 0.026183870208192649 0 0.0013405635174079571 0.024869433610167767 0 0.0023081442360334062 0.024539407248722594 0 0.0019274242363325356 0.025691262090922373 0 0.0013405635174079571 0.024869433610167767 0 0.0023081442360334062 0.024539407248722594 0 0.0014390476579534263 0.02429658746549801 0 0.0018207203505395185 0.023971528467650518 0 0.0023081442360334062 0.024539407248722594 0 0.0013405635174079571 0.024869433610167767 0 0.0014390476579534263 0.02429658746549801 0 0.0013838686690549398 0.02467668047897072 0 0.000599363327147252 0.02416355108761143 0 0.0013405635174079571 0.024869433610167767 0 0.0010523672279921282 0.023959647628478978 0 0.0014390476579534263 0.02429658746549801 0 0.0013405635174079571 0.024869433610167767 0 0.00054346958226044351 0.024408912821365026 0 0.00068305574167848372 0.023538724076255374 0 0.00054346958226044351 0.024408912821365026 0 0.00068305574167848372 0.023538724076255374 0 0.00024014209680006343 0.023666566592755831 0 0.00055706724500149225 0.023255258163232748 0 0.00068305574167848372 0.023538724076255374 0 0.00024014209680006343 0.023666566592755831 0 0.00091867151145449152 0.026956478681731476 0 0.000599363327147252 0.02416355108761143 0 0.0013743290477238367 0.023808089782782656 0 0.0010523672279921282 0.023959647628478978 0 0.0014073462258131638 0.024008396504857508 0 0.0010523672279921282 0.023959647628478978 0 0.0014390476579534263 0.02429658746549801 0 0.0014073462258131638 0.024008396504857508 0 0.0014390476579534263 0.02429658746549801 0 0.0014073462258131638 0.024008396504857508 0 0.0018207203505395185 0.023971528467650518 0 0.0013743290477238367 0.023808089782782656 0 0.0014073462258131638 0.024008396504857508 0 0.0018207203505395185 0.023971528467650518 0 -0.00025047743712013136 0.024941674899636172 0 -0.00089243863416118706 0.024346423570439497 0 -0.00010030716899783377 0.023966994979117959 0 -0.00025047743712013136 0.024941674899636172 0 0.00054346958226044351 0.024408912821365026 0 -0.00010030716899783377 0.023966994979117959 0 -0.00045893974398280809 0.023168427031930831 0 0.00055706724500149225 0.023255258163232748 0 0.00024014209680006343 0.023666566592755831 0 -0.00045893974398280809 0.023168427031930831 0 -0.00010030716899783377 0.023966994979117959 0 0.00024014209680006343 0.023666566592755831 0 0.00054346958226044351 0.024408912821365026 0 -0.00010030716899783377 0.023966994979117959 0 0.00024014209680006343 0.023666566592755831 0 -0.00045893974398280809 0.023168427031930831 0 -0.00089243863416118706 0.024346423570439497 0 -0.00010030716899783377 0.023966994979117959 0 -0.0019760697869471875 0.025859950645807133 0 -0.0014255930173350888 0.025921814233027529 0 -0.0017792320290117123 0.026178918720521412 0 -2.9092322337591558e-06 0.027675652509600024 0 -0.0012534574799286087 0.02478745447680869 0 -0.0014255930173350888 0.025921814233027529 0 -0.0016095865341533516 0.026448115889103226 0 -0.0017792320290117123 0.026178918720521412 0 -0.0019760697869471875 0.025859950645807133 0 -0.0017792320290117123 0.026178918720521412 0 -0.0021105350882478788 0.026487232712843031 0 -0.0016095865341533516 0.026448115889103226 0 -0.0017792320290117123 0.026178918720521412 0 -0.0021105350882478788 0.026487232712843031 0 -0.0016095865341533516 0.026448115889103226 0 -0.0021105350882478788 0.026487232712843031 0 -0.001778773958587658 0.026994004115188819 0 -0.0021105350882478788 0.026487232712843031 0 -0.002524177381977149 0.026477097450100715 0 -0.0025926248474841718 0.026145984705277767 0 -0.0021105350882478788 0.026487232712843031 0 -0.002524177381977149 0.026477097450100715 0 -0.002518728897796287 0.026742981115226678 0 -0.0014961938242873346 0.030118351075226261 0 -0.0019359422417573882 0.028359147320033452 0 -0.0019760697869471875 0.025859950645807133 0 -0.0021105350882478788 0.026487232712843031 0 -0.0025926248474841718 0.026145984705277767 0 -0.0013352229754234662 0.031008164507441992 0 -0.0013925795071490269 0.031061492580315396 0 -0.001353093201407485 0.031068864987842955 0 -0.0013925795071490269 0.031061492580315396 0 -0.001353093201407485 0.031068864987842955 0 -0.0014417101225821462 0.031116173185461091 0 -0.0019359422417573882 0.028359147320033452 0 -0.0023665504001751433 0.028846004351487226 0 -0.0013925795071490269 0.031061492580315396 0 -0.001416802275752932 0.031081518623543941 0 -0.0014417101225821462 0.031116173185461091 0 -0.0032945521994106851 0.026486675379267015 0 -0.00285950704895449 0.02662798466179301 0 -0.0032983165847148069 0.02704607870412741 0 -0.002524177381977149 0.026477097450100715 0 -0.0025926248474841718 0.026145984705277767 0 -0.00285950704895449 0.02662798466179301 0 -0.0025926248474841718 0.026145984705277767 0 -0.0032945521994106851 0.026486675379267015 0 -0.00285950704895449 0.02662798466179301 0 -0.002524177381977149 0.026477097450100715 0 -0.00285950704895449 0.02662798466179301 0 -0.002518728897796287 0.026742981115226678 0 -0.00285950704895449 0.02662798466179301 0 -0.0028097442764907672 0.027117758923679635 0 -0.0032983165847148069 0.02704607870412741 0 -0.00285950704895449 0.02662798466179301 0 -0.0028097442764907672 0.027117758923679635 0 -0.002518728897796287 0.026742981115226678 0 -0.0032983165847148069 0.02704607870412741 0 -0.0035876511963712637 0.027472107586423405 0 -0.0031485320059300432 0.027714305933249861 0 -0.0028097442764907672 0.027117758923679635 0 -0.0032983165847148069 0.02704607870412741 0 -0.0031485320059300432 0.027714305933249861 0 -0.0028097442764907672 0.027117758923679635 0 -0.002683299403195687 0.027484287066015797 0 -0.0022217423161340045 0.027103219238265731 0 -0.0028097442764907672 0.027117758923679635 0 -0.002683299403195687 0.027484287066015797 0 -0.0031485320059300432 0.027714305933249861 0 -0.0022217423161340045 0.027103219238265731 0 -0.0018061522279890316 0.027402485928232856 0 -0.0022872425074101106 0.027496055449129329 0 -0.002683299403195687 0.027484287066015797 0 -0.0022217423161340045 0.027103219238265731 0 -0.0022872425074101106 0.027496055449129329 0 -0.00078383380643516295 0.026696379846845263 0 -0.0013751975889179273 0.025672635622597955 0 -0.0018061522279890316 0.027402485928232856 0 -0.0015893165061564075 0.02648709198915947 0 -0.0017942942352079121 0.027273049146570423 0 -0.0022217423161340045 0.027103219238265731 0 -0.001778773958587658 0.026994004115188819 0 -0.0018061522279890316 0.027402485928232856 0 -0.0021105350882478788 0.026487232712843031 0 -0.0022217423161340045 0.027103219238265731 0 -0.001778773958587658 0.026994004115188819 0 -0.0028097442764907672 0.027117758923679635 0 -0.0022217423161340045 0.027103219238265731 0 -0.002518728897796287 0.026742981115226678 0 -0.0021105350882478788 0.026487232712843031 0 -0.0022217423161340045 0.027103219238265731 0 -0.002518728897796287 0.026742981115226678 0 -0.0012987185020358844 0.031508416825201405 0 -0.001236559432349313 0.031612108223423238 0 -0.0012587476866758429 0.031540195055833831 0 -0.0014422445272310785 0.031324322907649374 0 -0.0013521674425783848 0.031363350174953689 0 -0.0015794569335580528 0.031139931625996743 0 -0.0015514039213048089 0.031135862336036151 0 -0.0014826705978300801 0.031205767065164928 0 -0.0012086060130226933 0.031693411882727195 0 -0.0012719535212294562 0.031566813534554747 0 -0.001236559432349313 0.031612108223423238 0 -0.0012719535212294562 0.031566813534554747 0 -0.0012987185020358844 0.031508416825201405 0 -0.001236559432349313 0.031612108223423238 0 -0.0013085686002918275 0.031441649513181937 0 -0.0012719535212294562 0.031566813534554747 0 -0.0012987185020358844 0.031508416825201405 0 -0.0013085686002918275 0.031441649513181937 0 -0.0012987185020358844 0.031508416825201405 0 -0.001332998412846698 0.031345594790876945 0 -0.0015794569335580528 0.031139931625996743 0 -0.0015378988977341943 0.031142802793548838 0 -0.001570935320053388 0.031137609183194231 0 -0.0014422445272310785 0.031324322907649374 0 -0.0014376288989900361 0.031217861266372271 0 -0.0015794569335580528 0.031139931625996743 0 -0.001520291116452665 0.031092985100271708 0 -0.0015378988977341943 0.031142802793548838 0 -0.0014260202329050423 0.031108962469178585 0 -0.0014376288989900361 0.031217861266372271 0 -0.0013848295010528598 0.0311434421582109 0 -0.001416802275752932 0.031081518623543941 0 -0.001332998412846698 0.031345594790876945 0 -0.001416802275752932 0.031081518623543941 0 -0.0014417101225821462 0.031116173185461091 0 -0.001520291116452665 0.031092985100271708 0 -0.0023665504001751433 0.028846004351487226 0 -0.0028420083901411907 0.02896576321930866 0 -0.0014417101225821462 0.031116173185461091 0 -0.001520291116452665 0.031092985100271708 0 -0.0015378988977341943 0.031142802793548838 0 -0.0032945521994106851 0.026486675379267015 0 -0.0032983165847148069 0.02704607870412741 0 -0.0039597686574979864 0.026903207428853024 0 -0.0032983165847148069 0.02704607870412741 0 -0.0035876511963712637 0.027472107586423405 0 -0.0039597686574979864 0.026903207428853024 0 -0.0035876511963712637 0.027472107586423405 0 -0.0039891794370566624 0.02758665288201272 0 -0.0039597686574979864 0.026903207428853024 0 -0.0039891794370566624 0.02758665288201272 0 -0.0039597686574979864 0.026903207428853024 0 -0.0045197179849692584 0.027269640991494683 0 -0.0028420083901411907 0.02896576321930866 0 -0.0024359977126074579 0.029681630293501418 0 -0.0015378988977341943 0.031142802793548838 0 -0.0015727787711221253 0.031134487364747408 0 -0.001570935320053388 0.031137609183194231 0 -0.0032491352776581081 0.028869913624380607 0 -0.0024359977126074579 0.029681630293501418 0 -0.002166823825912028 0.03040917380242605 0 -0.001853446931961783 0.030788249750961887 0 -0.0018826693331222631 0.030491882687035596 0 -0.001853446931961783 0.030788249750961887 0 -0.0017384530979554084 0.030775906650654845 0 -0.0018826693331222631 0.030491882687035596 0 -0.0017384530979554084 0.030775906650654845 0 -0.0015514039213048089 0.031135862336036151 0 -0.001541787396143897 0.030818776041704781 0 -0.0017384530979554084 0.030775906650654845 0 -0.00174180905005783 0.030396669221687638 0 -0.001541787396143897 0.030818776041704781 0 -0.0024359977126074579 0.029681630293501418 0 -0.0020561334436037409 0.030296535630005249 0 -0.0015727787711221253 0.031134487364747408 0 -0.001570935320053388 0.031137609183194231 0 -0.0015514039213048089 0.031135862336036151 0 -0.0019346542246158499 0.030878875945503457 0 -0.0017384530979554084 0.030775906650654845 0 -0.0015514039213048089 0.031135862336036151 0 -0.0015794569335580528 0.031139931625996743 0 -0.001570935320053388 0.031137609183194231 0 -0.0015514039213048089 0.031135862336036151 0 -0.0024359977126074579 0.029681630293501418 0 -0.0011987550582619531 0.031421468231147241 0 -0.00174180905005783 0.030396669221687638 0 -0.0018305165479240366 0.030051333953007419 0 -0.0015530071451347249 0.030300309993921935 0 -0.0017384530979554084 0.030775906650654845 0 -0.00174180905005783 0.030396669221687638 0 -0.0018826693331222631 0.030491882687035596 0 -0.00174180905005783 0.030396669221687638 0 -0.0018826693331222631 0.030491882687035596 0 -0.001893094639494552 0.030224315925769761 0 -0.0018826693331222631 0.030491882687035596 0 -0.001893094639494552 0.030224315925769761 0 -0.0019954720809321996 0.0301989696676703 0 -0.0019819646658179781 0.030072264186956715 0 -0.001893094639494552 0.030224315925769761 0 -0.0018305165479240366 0.030051333953007419 0 -0.00174180905005783 0.030396669221687638 0 -0.001893094639494552 0.030224315925769761 0 -0.0018305165479240366 0.030051333953007419 0 -0.0019819646658179781 0.030072264186956715 0 -0.0020447095058766943 0.029993688085829747 0 -0.0018305165479240366 0.030051333953007419 0 -0.0019819646658179781 0.030072264186956715 0 -0.001893094639494552 0.030224315925769761 0 -0.0019954720809321996 0.0301989696676703 0 -0.0019819646658179781 0.030072264186956715 0 -0.0020447095058766943 0.029993688085829747 0 -0.002092561708801149 0.029888481222944723 0 -0.0020382586244325502 0.029731915224184283 0 -0.002148886670319667 0.029646591398457788 0 -0.0019508376372824661 0.029553126390585695 0 -0.002092561708801149 0.029888481222944723 0 -0.0022594547873570725 0.029615942736192471 0 -0.0020382586244325502 0.029731915224184283 0 -0.0020763274097279519 0.029860960250725228 0 -0.0019819646658179781 0.030072264186956715 0 -0.002092561708801149 0.029888481222944723 0 -0.0019954720809321996 0.0301989696676703 0 -0.002166823825912028 0.03040917380242605 0 -0.0018826693331222631 0.030491882687035596 0 -0.0019954720809321996 0.0301989696676703 0 -0.002166823825912028 0.03040917380242605 0 -0.002092561708801149 0.029888481222944723 0 -0.0019954720809321996 0.0301989696676703 0 -0.0035876511963712637 0.027472107586423405 0 -0.0039891794370566624 0.02758665288201272 0 -0.0034909757538250357 0.027976842860144763 0 -0.002166823825912028 0.03040917380242605 0 -0.002092561708801149 0.029888481222944723 0 -0.002656881901281639 0.029761617908587404 0 -0.0032491352776581081 0.028869913624380607 0 -0.0029885610669618127 0.02891137985303871 0 -0.0022594547873570725 0.029615942736192471 0 -0.0025875256631271658 0.029210508904941087 0 -0.002656881901281639 0.029761617908587404 0 -0.002092561708801149 0.029888481222944723 0 -0.0022594547873570725 0.029615942736192471 0 -0.002656881901281639 0.029761617908587404 0 -0.0019438346328730385 0.02947352118067903 0 -0.0022594547873570725 0.029615942736192471 0 -0.0025875256631271658 0.029210508904941087 0 -0.0019484229427892757 0.023812170747098418 0 -0.0025752036669035982 0.024994440286760393 0 -0.0013002626397767276 0.024469786686081168 0 -0.0023675510977341383 0.026279175270400724 0 -0.002122524586462309 0.028281491152824446 0 -0.0019484229427892757 0.023812170747098418 0 -0.0025752036669035982 0.024994440286760393 0 -0.0034919260313256758 0.024189211808161179 0 -0.0025752036669035982 0.024994440286760393 0 -0.0034919260313256758 0.024189211808161179 0 -0.0038869485930912652 0.025190423514030173 0 -0.0025752036669035982 0.024994440286760393 0 -0.0038869485930912652 0.025190423514030173 0 -0.0032519330089385121 0.025776209464944494 0 -0.0019438346328730385 0.02947352118067903 0 -0.0025875256631271658 0.029210508904941087 0 -0.001804118947141258 0.02911360362621981 0 -0.0020382586244325502 0.029731915224184283 0 -0.002122524586462309 0.028281491152824446 0 -0.002122524586462309 0.028281491152824446 0 -0.002094715871915944 0.029940673743760103 0 -0.0018803044016648166 0.029644084916713265 0 -0.0018924351076637603 0.029675417981476198 0 -0.0019347096874925164 0.029672012742485696 0 -0.0020382586244325502 0.029731915224184283 0 -0.0018868601996972309 0.029873649942091258 0 -0.0018924351076637603 0.029675417981476198 0 -0.0019347096874925164 0.029672012742485696 0 -0.0019422734450551004 0.029694612197437381 0 -0.0021532093054807801 0.030098913995478548 0 -0.0022682420877483886 0.030118967800619963 0 -0.002234640877453791 0.030024502549066225 0 -0.002122524586462309 0.028281491152824446 0 -0.0029689388203906937 0.027374107653969502 0 -0.0021013452234441479 0.029970347690629954 0 -0.0021532093054807801 0.030098913995478548 0 -0.002234640877453791 0.030024502549066225 0 -0.0022682420877483886 0.030118967800619963 0 -0.002234640877453791 0.030024502549066225 0 -0.0023383973689239312 0.030093638171860292 0 -0.002094715871915944 0.029940673743760103 0 -0.0022172773186176806 0.029899228013852381 0 -0.0019347096874925164 0.029672012742485696 0 -0.0019422734450551004 0.029694612197437381 0 -0.0019802465669974049 0.029706743681275353 0 -0.0018868601996972309 0.029873649942091258 0 -0.0017378316553838889 0.029843328968511888 0 -0.0019422734450551004 0.029694612197437381 0 -0.0019828302885656359 0.029716869338310501 0 -0.0019802465669974049 0.029706743681275353 0 -0.0018305165479240366 0.030051333953007419 0 -0.0015530071451347249 0.030300309993921935 0 -0.0015685082692799255 0.030056231464313566 0 -0.0025453296752975521 0.028354772588548634 0 -0.001714983886246713 0.028361488511616524 0 -0.0022547801900219869 0.027902633155692642 0 0.00094941585376676042 0.023089439144003781 0 -0.00038680185930091204 0.023408341445181495 0 0.00085205717302474474 0.023349987313831158 0 -0.0025453296752975521 0.028354772588548634 0 -0.001714983886246713 0.028361488511616524 0 -0.0028593855358156274 0.028875500691071025 0 -0.00056771274372297259 0.025465760990915465 0 -0.0015732332965371367 0.026210077302005155 0 0.00094941585376676042 0.023089439144003781 0 0.00098799015742947983 0.023200953004580385 0 0.00085205717302474474 0.023349987313831158 0 -0.001714983886246713 0.028361488511616524 0 -0.0018061522279890316 0.027402485928232856 0 -0.0022547801900219869 0.027902633155692642 0 -0.0018061522279890316 0.027402485928232856 0 -0.0022872425074101106 0.027496055449129329 0 -0.0022547801900219869 0.027902633155692642 0 -0.0025453296752975521 0.028354772588548634 0 -0.0022547801900219869 0.027902633155692642 0 -0.0026445118084987957 0.027857908035036703 0 -0.0022872425074101106 0.027496055449129329 0 -0.0022547801900219869 0.027902633155692642 0 -0.0026445118084987957 0.027857908035036703 0 -0.002683299403195687 0.027484287066015797 0 -0.0022872425074101106 0.027496055449129329 0 -0.0026445118084987957 0.027857908035036703 0 -0.0029527367308066761 0.028134341328524239 0 -0.0026445118084987957 0.027857908035036703 0 -0.0031485320059300432 0.027714305933249861 0 -0.002683299403195687 0.027484287066015797 0 -0.0026445118084987957 0.027857908035036703 0 -0.0031485320059300432 0.027714305933249861 0 -0.0025453296752975521 0.028354772588548634 0 -0.0029527367308066761 0.028134341328524239 0 -0.0026445118084987957 0.027857908035036703 0 -0.0029527367308066761 0.028134341328524239 0 -0.0034909757538250357 0.027976842860144763 0 -0.0031485320059300432 0.027714305933249861 0 -0.0035876511963712637 0.027472107586423405 0 -0.0034909757538250357 0.027976842860144763 0 -0.0031485320059300432 0.027714305933249861 0 -0.002656881901281639 0.029761617908587404 0 -0.0027588002786836877 0.029145554728579284 0 -0.0028594569244418874 0.028786956578330254 0 -0.0025875256631271658 0.029210508904941087 0 -0.0027588002786836877 0.029145554728579284 0 -0.0028593855358156274 0.028875500691071025 0 -0.0029885610669618127 0.02891137985303871 0 -0.0028528327832443813 0.028829120070355291 0 -0.0025875256631271658 0.029210508904941087 0 -0.002656881901281639 0.029761617908587404 0 -0.0027588002786836877 0.029145554728579284 0 -0.0029527367308066761 0.028134341328524239 0 -0.0034909757538250357 0.027976842860144763 0 -0.0028594569244418874 0.028786956578330254 0 -0.0025453296752975521 0.028354772588548634 0 -0.0029527367308066761 0.028134341328524239 0 -0.0028594569244418874 0.028786956578330254 0 -0.0027588002786836877 0.029145554728579284 0 -0.0028594569244418874 0.028786956578330254 0 -0.0028593855358156274 0.028875500691071025 0 -0.0025453296752975521 0.028354772588548634 0 -0.0028594569244418874 0.028786956578330254 0 -0.0028593855358156274 0.028875500691071025 0 -0.00038680185930091204 0.023408341445181495 0 -0.0013002626397767276 0.024469786686081168 0 -0.00050225646562777697 0.024834652359553233 0 -0.00038680185930091204 0.023408341445181495 0 -0.00050225646562777697 0.024834652359553233 0 0.00021035361360705214 0.024001074957817271 0 -0.0023675510977341383 0.026279175270400724 0 -0.0015732332965371367 0.026210077302005155 0 -0.0019484229427892757 0.023812170747098418 0 -0.00038680185930091204 0.023408341445181495 0 -0.0013002626397767276 0.024469786686081168 0 -0.0025752036669035982 0.024994440286760393 0 -0.0013002626397767276 0.024469786686081168 0 -0.0016083667670840527 0.025346400992886521 0 -0.0013002626397767276 0.024469786686081168 0 -0.00050225646562777697 0.024834652359553233 0 -0.0016083667670840527 0.025346400992886521 0 -0.00050225646562777697 0.024834652359553233 0 -0.0006524476320497821 0.025609301398817886 0 -0.0016083667670840527 0.025346400992886521 0 -0.00050225646562777697 0.024834652359553233 0 0.00016003501720005016 0.024937091371210494 0 -4.7533258676221401e-05 0.025602955793359309 0 -0.00050225646562777697 0.024834652359553233 0 0.00016003501720005016 0.024937091371210494 0 0.00021035361360705214 0.024001074957817271 0 0.00016003501720005016 0.024937091371210494 0 0.00021035361360705214 0.024001074957817271 0 0.00072418873768975473 0.024793674496015335 0 0.00016003501720005016 0.024937091371210494 0 0.00072418873768975473 0.024793674496015335 0 0.00069352485544440048 0.025506132764758174 0 -0.00038680185930091204 0.023408341445181495 0 0.00021035361360705214 0.024001074957817271 0 0.00085205717302474474 0.023349987313831158 0 0.00021035361360705214 0.024001074957817271 0 0.00078132202156461987 0.024002673522673955 0 0.00072418873768975473 0.024793674496015335 0 0.00021035361360705214 0.024001074957817271 0 0.00085205717302474474 0.023349987313831158 0 0.00078132202156461987 0.024002673522673955 0 0.00098799015742947983 0.023200953004580385 0 0.00085205717302474474 0.023349987313831158 0 0.00094596444323515592 0.023347663300350232 0 0.00085205717302474474 0.023349987313831158 0 0.00078132202156461987 0.024002673522673955 0 0.0012964738363830039 0.024419966996251163 0 0.0010357377297108606 0.023186000066676052 0 0.00098799015742947983 0.023200953004580385 0 0.00094596444323515592 0.023347663300350232 0 0.0013136031739626889 0.024757001599550105 0 0.00063722001605256713 0.019741850703706335 0 0.0012381210837071948 0.024445695566504107 0 0.00072418873768975473 0.024793674496015335 0 0.0015458394674903225 0.025481970905429849 0 0.00063722001605256713 0.019741850703706335 0 -1.0109624167655198e-05 0.019682452037444887 0 0.00063722001605256713 0.019741850703706335 0 -0.00011981256417003043 0.023722095979153143 0 0.00078132202156461987 0.024002673522673955 0 0.0012964738363830039 0.024419966996251163 0 0.00072418873768975473 0.024793674496015335 0 0.001100217696226317 0.026061976855835375 0 0.0015458394674903225 0.025481970905429849 0 0.0018046615928306658 0.026424015185067675 0 0.00072418873768975473 0.024793674496015335 0 0.00069352485544440048 0.025506132764758174 0 0.0015458394674903225 0.025481970905429849 0 0.001100217696226317 0.026061976855835375 0 0.00069352485544440048 0.025506132764758174 0 0.0015458394674903225 0.025481970905429849 0 0.001100217696226317 0.026061976855835375 0 0.0005597855821339832 0.026083037333366667 0 0.00069352485544440048 0.025506132764758174 0 0.001100217696226317 0.026061976855835375 0 0.00087093078000214795 0.026780444286597083 0 0.0018046615928306658 0.026424015185067675 0 0.001100217696226317 0.026061976855835375 0 0.00087093078000214795 0.026780444286597083 0 0.0005597855821339832 0.026083037333366667 0 0.00087093078000214795 0.026780444286597083 0 8.1095438428075103e-05 0.026536021246242877 0 0.00022730871417501647 0.027183361555598945 0 0.00087093078000214795 0.026780444286597083 0 8.1095438428075103e-05 0.026536021246242877 0 0.0005597855821339832 0.026083037333366667 0 8.1095438428075103e-05 0.026536021246242877 0 -0.00027133879297568022 0.02706255902836165 0 0.00022730871417501647 0.027183361555598945 0 8.1095438428075103e-05 0.026536021246242877 0 0.0005597855821339832 0.026083037333366667 0 -4.7533258676221401e-05 0.025602955793359309 0 0.0005597855821339832 0.026083037333366667 0 0.00069352485544440048 0.025506132764758174 0 -4.7533258676221401e-05 0.025602955793359309 0 0.00016003501720005016 0.024937091371210494 0 0.00069352485544440048 0.025506132764758174 0 -4.7533258676221401e-05 0.025602955793359309 0 -0.00050225646562777697 0.024834652359553233 0 -4.7533258676221401e-05 0.025602955793359309 0 -0.0006524476320497821 0.025609301398817886 0 8.1095438428075103e-05 0.026536021246242877 0 -4.7533258676221401e-05 0.025602955793359309 0 -0.00046010832441240903 0.026253478154005781 0 -0.0006524476320497821 0.025609301398817886 0 -0.0012000121103058529 0.025933652280996564 0 -0.00046010832441240903 0.026253478154005781 0 -4.7533258676221401e-05 0.025602955793359309 0 -0.0006524476320497821 0.025609301398817886 0 -0.00046010832441240903 0.026253478154005781 0 -0.0006524476320497821 0.025609301398817886 0 -0.0016083667670840527 0.025346400992886521 0 -0.0012000121103058529 0.025933652280996564 0 -0.0012000121103058529 0.025933652280996564 0 -0.0010298837524933002 0.026694858671724331 0 -0.0020654397458231997 0.025854794044192955 0 -0.0016083667670840527 0.025346400992886521 0 -0.0012000121103058529 0.025933652280996564 0 -0.0020654397458231997 0.025854794044192955 0 -0.0010619512889828713 0.028084657062420759 0 -0.0010426556105245944 0.028053806514807749 0 -0.00073229628550445841 0.026769778927860415 0 -0.00062673286827436339 0.026918144964604002 0 -0.00072272965234752243 0.027303922921640991 0 8.1095438428075103e-05 0.026536021246242877 0 -0.00046010832441240903 0.026253478154005781 0 -0.00039874591166474195 0.026681314410380134 0 -0.0012000121103058529 0.025933652280996564 0 -0.0010298837524933002 0.026694858671724331 0 -0.00046010832441240903 0.026253478154005781 0 -0.00074693043165904025 0.026765842483682904 0 -0.00046010832441240903 0.026253478154005781 0 -0.00068360988058203335 0.026764866861980301 0 -0.0010619512889828713 0.028084657062420759 0 -0.00020476252592642821 0.026452871375955422 0 -0.00046010832441240903 0.026253478154005781 0 -0.00039874591166474195 0.026681314410380134 0 -0.00068360988058203335 0.026764866861980301 0 -0.00039874591166474195 0.026681314410380134 0 -0.00050862763324437306 0.026878701992244281 0 -0.00027133879297568022 0.02706255902836165 0 -0.00039874591166474195 0.026681314410380134 0 -0.00050862763324437306 0.026878701992244281 0 -0.00068360988058203335 0.026764866861980301 0 -0.00050862763324437306 0.026878701992244281 0 -0.00068360988058203335 0.026764866861980301 0 -0.00062673286827436339 0.026918144964604002 0 -0.00073229628550445841 0.026769778927860415 0 -0.00068360988058203335 0.026764866861980301 0 -0.00062673286827436339 0.026918144964604002 0 -0.00050862763324437306 0.026878701992244281 0 -0.00062673286827436339 0.026918144964604002 0 -0.00051711622738461664 0.027101503875495536 0 -0.00062673286827436339 0.026918144964604002 0 -0.00051711622738461664 0.027101503875495536 0 -0.00072272965234752243 0.027303922921640991 0 -0.00050862763324437306 0.026878701992244281 0 -0.00051711622738461664 0.027101503875495536 0 -0.00027133879297568022 0.02706255902836165 0 8.1095438428075103e-05 0.026536021246242877 0 -0.00039874591166474195 0.026681314410380134 0 -0.00027133879297568022 0.02706255902836165 0 -0.00027133879297568022 0.02706255902836165 0 -0.00013449475584008643 0.027578313759596049 0 0.00022730871417501647 0.027183361555598945 0 -0.00027133879297568022 0.02706255902836165 0 -0.000434032653887275 0.027396468767105785 0 -0.00013449475584008643 0.027578313759596049 0 -0.00051711622738461664 0.027101503875495536 0 -0.00027133879297568022 0.02706255902836165 0 -0.000434032653887275 0.027396468767105785 0 -0.000434032653887275 0.027396468767105785 0 -0.00072272965234752243 0.027303922921640991 0 -0.00056696134316318986 0.027827984253730544 0 -0.00051711622738461664 0.027101503875495536 0 -0.000434032653887275 0.027396468767105785 0 -0.00072272965234752243 0.027303922921640991 0 -0.000434032653887275 0.027396468767105785 0 -0.00013449475584008643 0.027578313759596049 0 -0.00056696134316318986 0.027827984253730544 0 -0.00072272965234752243 0.027303922921640991 0 -0.00056696134316318986 0.027827984253730544 0 -0.001460765480080981 0.027872195278924608 0 -0.0010619512889828713 0.028084657062420759 0 -0.0017473070023313014 0.029175937616863282 0 -0.00073229628550445841 0.026769778927860415 0 -0.00072272965234752243 0.027303922921640991 0 -0.001460765480080981 0.027872195278924608 0 -0.00056696134316318986 0.027827984253730544 0 -0.00068230766100527878 0.028584570217392424 0 -0.001460765480080981 0.027872195278924608 0 -0.00056696134316318986 0.027827984253730544 0 -0.00068230766100527878 0.028584570217392424 0 -0.00013542295107150316 0.028177911758794975 0 -0.00013449475584008643 0.027578313759596049 0 -0.00056696134316318986 0.027827984253730544 0 -0.00013542295107150316 0.028177911758794975 0 -0.00013542295107150316 0.028177911758794975 0 0.00042486361849006433 0.027744789380163715 0 0.00045500057965272041 0.028458283599318634 0 -0.00013449475584008643 0.027578313759596049 0 -0.00013542295107150316 0.028177911758794975 0 0.00042486361849006433 0.027744789380163715 0 0.00042486361849006433 0.027744789380163715 0 0.001146954270919576 0.02755946075037808 0 0.00045500057965272041 0.028458283599318634 0 -0.0044801883158735274 0.017237902326349086 0 -0.0054245131783332914 0.018291350540287011 0 -0.010105131043812186 0.0056042868412640289 0 -0.011468629953709168 0.0084109105369604836 0 -0.0094195796997228413 0.0078979610846368065 0 0.00087093078000214795 0.026780444286597083 0 0.00042486361849006433 0.027744789380163715 0 0.001146954270919576 0.02755946075037808 0 0.00087093078000214795 0.026780444286597083 0 0.001146954270919576 0.02755946075037808 0 0.0018046615928306658 0.026424015185067675 0 0.00087093078000214795 0.026780444286597083 0 0.00042486361849006433 0.027744789380163715 0 0.00022730871417501647 0.027183361555598945 0 -0.00013449475584008643 0.027578313759596049 0 0.00042486361849006433 0.027744789380163715 0 0.00022730871417501647 0.027183361555598945 0 -0.0022984655076231774 0.03021125259492571 0 -0.0022021501206396072 0.030228921010982027 0 -0.0023340898136427236 0.030329914505651499 0 -0.0029190294444896444 0.029006419035488666 0 -0.0021509894521666625 0.030857296948600215 0 -0.0022021501206396072 0.030228921010982027 0 -0.002301940070960394 0.030413756101885361 0 -0.0023340898136427236 0.030329914505651499 0 -0.0019993979924074032 0.030225530444616858 0 -0.0029190294444896444 0.029006419035488666 0 -0.0022682420877483886 0.030118967800619963 0 -0.0022984655076231774 0.03021125259492571 0 -0.0022016135818706435 0.03021337015761115 0 -0.0022682420877483886 0.030118967800619963 0 -0.0022984655076231774 0.03021125259492571 0 -0.002344254052434898 0.030148073604970738 0 -0.0029689388203906937 0.027374107653969502 0 -0.0029190294444896444 0.029006419035488666 0 -0.0021532093054807801 0.030098913995478548 0 -0.0022682420877483886 0.030118967800619963 0 -0.0022016135818706435 0.03021337015761115 0 -0.0038869485930912652 0.025190423514030173 0 -0.0042739684793505171 0.026199113189377978 0 -0.0032519330089385121 0.025776209464944494 0 -0.0022752404731357901 0.030139823172310815 0 -0.0021773642060583915 0.030319002470488052 0 -0.002301940070960394 0.030413756101885361 0 -0.0022752404731357901 0.030139823172310815 0 -0.0020296131894300246 0.030139964388641697 0 -0.0021773642060583915 0.030319002470488052 0 -0.0029190294444896444 0.029006419035488666 0 -0.0025029149962097997 0.028207558324004438 0 -0.0042739684793505171 0.026199113189377978 0 -0.0032519330089385121 0.025776209464944494 0 -0.002679397757999199 0.02642797189764336 0 -0.0025752036669035982 0.024994440286760393 0 -0.0032519330089385121 0.025776209464944494 0 -0.0020654397458231997 0.025854794044192955 0 -0.0032519330089385121 0.025776209464944494 0 -0.0020654397458231997 0.025854794044192955 0 -0.002679397757999199 0.02642797189764336 0 -0.0025752036669035982 0.024994440286760393 0 -0.0016083667670840527 0.025346400992886521 0 -0.0020654397458231997 0.025854794044192955 0 -0.0010619512889828713 0.028084657062420759 0 -0.0025029149962097997 0.028207558324004438 0 -0.0017261092791084989 0.030147528969510232 0 -0.0020296131894300246 0.030139964388641697 0 -0.0019713814722343227 0.030357989181410545 0 -0.0010298837524933002 0.026694858671724331 0 -0.0020654397458231997 0.025854794044192955 0 -0.002679397757999199 0.02642797189764336 0 -0.00068230766100527878 0.028584570217392424 0 -0.001460765480080981 0.027872195278924608 0 -0.0014925262679537717 0.028991878924632068 0 -0.0017473070023313014 0.029175937616863282 0 -0.0021450759173979677 0.029807869758644596 0 -0.001460765480080981 0.027872195278924608 0 -0.0021814245588396858 0.029167128099008215 0 -0.0014925262679537717 0.028991878924632068 0 -0.0020296131894300246 0.030139964388641697 0 -0.0019713814722343227 0.030357989181410545 0 -0.0021773642060583915 0.030319002470488052 0 -0.0019713814722343227 0.030357989181410545 0 -0.0022119642769467675 0.030500039028637037 0 -0.0021773642060583915 0.030319002470488052 0 -0.0022119642769467675 0.030500039028637037 0 -0.002301940070960394 0.030413756101885361 0 -0.0023384366343873028 0.030562082834977609 0 -0.0022119642769467675 0.030500039028637037 0 -0.0021773642060583915 0.030319002470488052 0 -0.002301940070960394 0.030413756101885361 0 -0.0022119642769467675 0.030500039028637037 0 -0.0023777906431061324 0.030452000965848998 0 -0.0023384366343873028 0.030562082834977609 0 -0.0023777906431061324 0.030452000965848998 0 -0.002247761783071605 0.030711665298186874 0 -0.0023770693140232218 0.030824937186325979 0 -0.0021450759173979677 0.029807869758644596 0 -0.0023677071180237168 0.030368398206683956 0 -0.0021814245588396858 0.029167128099008215 0 -0.0023777906431061324 0.030452000965848998 0 -0.0019783886137060467 0.030088115111090139 0 -0.0023777906431061324 0.030452000965848998 0 -0.0019783886137060467 0.030088115111090139 0 -0.002247761783071605 0.030711665298186874 0 -0.0019783886137060467 0.030088115111090139 0 -0.0011943555069833093 0.029924448320545107 0 -0.0017435656980791694 0.030642684389380215 0 -0.0021814245588396858 0.029167128099008215 0 -0.0019783886137060467 0.030088115111090139 0 -0.0014925262679537717 0.028991878924632068 0 -0.00068230766100527878 0.028584570217392424 0 -0.0014925262679537717 0.028991878924632068 0 -0.0011943555069833093 0.029924448320545107 0 -0.0019783886137060467 0.030088115111090139 0 -0.0014925262679537717 0.028991878924632068 0 -0.0011943555069833093 0.029924448320545107 0 -0.0010608187708286956 0.029377492791681746 0 -0.0015224768546871284 0.029990202212770059 0 -0.00089038590828468894 0.028868359811046913 0 -0.00090086444864722161 0.029239650740613084 0 -0.0013111607987641074 0.029342382861763928 0 -0.00090086444864722161 0.029239650740613084 0 -0.00095416362700962516 0.02973532811700106 0 -0.00058510438215821526 0.029590457416807603 0 -0.00090086444864722161 0.029239650740613084 0 -0.00095416362700962516 0.02973532811700106 0 -0.0013111607987641074 0.029342382861763928 0 -0.00095416362700962516 0.02973532811700106 0 -0.0017857227103056628 0.030059418236551054 0 -0.00089265437427304333 0.030369523821809203 0 -0.0019183555504898369 0.030484794287978165 0 -0.0015224768546871284 0.029990202212770059 0 -0.00095416362700962516 0.02973532811700106 0 -0.0017857227103056628 0.030059418236551054 0 -0.0013111607987641074 0.029342382861763928 0 -0.0020760617649883098 0.030912250899542013 0 -0.0017435656980791694 0.030642684389380215 0 -0.002247761783071605 0.030711665298186874 0 -0.0019783886137060467 0.030088115111090139 0 -0.0017435656980791694 0.030642684389380215 0 -0.002247761783071605 0.030711665298186874 0 -0.0020760617649883098 0.030912250899542013 0 -0.002247761783071605 0.030711665298186874 0 -0.0022480771169199397 0.030898312856107182 0 -0.002247761783071605 0.030711665298186874 0 -0.0023332715587153401 0.030873488885339403 0 -0.0022480771169199397 0.030898312856107182 0 -0.0023332715587153401 0.030873488885339403 0 -0.0023393108793633259 0.030934632449903 0 -0.0022480771169199397 0.030898312856107182 0 -0.002247761783071605 0.030711665298186874 0 -0.0023332715587153401 0.030873488885339403 0 -0.0023770693140232218 0.030824937186325979 0 -0.012660177350187625 0.011004528617609793 0 -0.010736773623320796 0.010229947285903271 0 -0.010374499972835417 0.01207699211491859 0 -0.010736773623320796 0.010229947285903271 0 -0.010374499972835417 0.01207699211491859 0 -0.0088307647928553661 0.010075226012678308 0 -0.0091702909993618582 0.0069464444191794832 0 -0.0088626430567338762 0.0069847951781386603 0 -0.010736773623320796 0.010229947285903271 0 -0.0088307647928553661 0.010075226012678308 0 -0.0094195796997228413 0.0078979610846368065 0 -0.010736773623320796 0.010229947285903271 0 -0.011468629953709168 0.0084109105369604836 0 -0.0094195796997228413 0.0078979610846368065 0 -0.012660177350187625 0.011004528617609793 0 -0.010736773623320796 0.010229947285903271 0 -0.011468629953709168 0.0084109105369604836 0 -0.00013542295107150316 0.028177911758794975 0 0.00045500057965272041 0.028458283599318634 0 -0.00030494042096590945 0.028688604242821034 0 -0.0066791704492301105 0.019885089617400323 0 -0.0054245131783332914 0.018291350540287011 0 -6.712122290510694e-05 0.028998761384541979 0 0.00045500057965272041 0.028458283599318634 0 -0.00030494042096590945 0.028688604242821034 0 -0.00068230766100527878 0.028584570217392424 0 -0.00013542295107150316 0.028177911758794975 0 -0.00030494042096590945 0.028688604242821034 0 -0.00068230766100527878 0.028584570217392424 0 -0.00089038590828468894 0.028868359811046913 0 -0.0006124380874743859 0.028794138196637859 0 -0.00069648763542297636 0.028666973676858803 0 -0.0010608187708286956 0.029377492791681746 0 -0.00068230766100527878 0.028584570217392424 0 -0.00030494042096590945 0.028688604242821034 0 -0.0006124380874743859 0.028794138196637859 0 -0.00089038590828468894 0.028868359811046913 0 -0.00090086444864722161 0.029239650740613084 0 -0.0005229641553395676 0.029063375412528129 0 -0.00089038590828468894 0.028868359811046913 0 -0.0006124380874743859 0.028794138196637859 0 -0.0005229641553395676 0.029063375412528129 0 -6.712122290510694e-05 0.028998761384541979 0 -0.00030494042096590945 0.028688604242821034 0 -0.0005229641553395676 0.029063375412528129 0 -0.00030494042096590945 0.028688604242821034 0 -0.0006124380874743859 0.028794138196637859 0 -0.0005229641553395676 0.029063375412528129 0 -6.712122290510694e-05 0.028998761384541979 0 -0.0005229641553395676 0.029063375412528129 0 -0.00038000834270004205 0.029393740008936232 0 -0.012660177350187625 0.011004528617609793 0 -0.013847710969470368 0.013433940756261298 0 -0.012891504123565441 0.013792705585757722 0 -0.0066791704492301105 0.019885089617400323 0 -0.0040133302765842857 0.02287640886223305 0 -0.00090086444864722161 0.029239650740613084 0 -0.0005229641553395676 0.029063375412528129 0 -0.00038000834270004205 0.029393740008936232 0 0.0010508231633111046 0.031302625743900948 0 -0.0040133302765842857 0.02287640886223305 0 -0.00090086444864722161 0.029239650740613084 0 -0.00013799815411702471 0.029473965363251513 0 -0.00058510438215821526 0.029590457416807603 0 -0.00095416362700962516 0.02973532811700106 0 -0.00034750079783748319 0.029920387308427079 0 -0.00089265437427304333 0.030369523821809203 0 -0.00095416362700962516 0.02973532811700106 0 -0.00058510438215821526 0.029590457416807603 0 -0.00034750079783748319 0.029920387308427079 0 -0.00013799815411702471 0.029473965363251513 0 -0.00058510438215821526 0.029590457416807603 0 -0.00034750079783748319 0.029920387308427079 0 -0.0031781952365531048 0.021088604371595026 0 -0.0087964349539751442 0.014236030850374413 0 -0.0055045698109051442 0.012086075974727646 0 -0.0055586033813532802 0.012146442866572047 0 -0.0055232255129824001 0.012086624614370153 0 -0.0054564881667787625 0.019325515120809652 0 -0.0050867132233747099 0.018695138773072145 0 -0.0058759652483551675 0.019147223686726941 0 -0.0040133302765842857 0.02287640886223305 0 -0.0087964349539751442 0.014236030850374413 0 -0.0040133302765842857 0.02287640886223305 0 -0.0031781952365531048 0.021088604371595026 0 -0.0055045698109051442 0.012086075974727646 0 -0.0054802809767419604 0.01207797753360519 0 -0.0055232255129824001 0.012086624614370153 0 -0.0055232255129824001 0.012086624614370153 0 -0.0056498249279734302 0.012116413044220535 0 -0.0055227675977349133 0.011987165568513813 0 -0.0073809483518640735 0.0088640751604772521 0 -0.0056980898495037702 0.012467818284437129 0 -0.0055586033813532802 0.012146442866572047 0 -0.0055232255129824001 0.012086624614370153 0 -0.0056498249279734302 0.012116413044220535 0 -0.0087964349539751442 0.014236030850374413 0 -0.0073809483518640735 0.0088640751604772521 0 -0.0092732477133803514 0.010312439521064349 0 -0.0085781205972671418 0.010574851615675342 0 -0.0074812360334315826 0.0091237922721554305 0 -0.012660177350187625 0.011004528617609793 0 -0.012891504123565441 0.013792705585757722 0 -0.010374499972835417 0.01207699211491859 0 -0.0073809483518640735 0.0088640751604772521 0 -0.0091702909993618582 0.0069464444191794832 0 -0.0087964349539751442 0.014236030850374413 0 -0.0091702909993618582 0.0069464444191794832 0 -0.0055284133163211267 0.011892951523247227 0 -0.0054991360203259596 0.011837351330616523 0 -0.0055151851933179412 0.011924301673646156 0 -0.0090699076941007459 0.0036428375428015488 0 -0.0077527738253568828 0.0019015765994348924 0 -0.0064537004958180235 0.0046083980403783141 0 -0.0073809483518640735 0.0088640751604772521 0 -0.0059351269206697616 0.0089022119154569136 0 -0.0056130035274806946 0.0025566082669140795 0 -0.0037359334982027675 0.0034327327414508894 0 -0.0064537004958180235 0.0046083980403783141 0 -0.0056130035274806946 0.0025566082669140795 0 -0.0036072572312833041 0.0012761309663319763 0 -0.0037359334982027675 0.0034327327414508894 0 -0.0077527738253568828 0.0019015765994348924 0 -0.0056130035274806946 0.0025566082669140795 0 -0.0056341035315980439 0.00048994045429291363 0 -0.0077527738253568828 0.0019015765994348924 0 -0.0056130035274806946 0.0025566082669140795 0 -0.0064537004958180235 0.0046083980403783141 0 -0.0091702909993618582 0.0069464444191794832 0 -0.0063037086473311937 0.0019379934723082397 0 -0.01033870968212428 0.0057319861996013013 0 -0.0070633328088027586 0.0036040231653422061 0 -0.0084036824900471999 0.0032183236812630767 0 -0.0056130035274806946 0.0025566082669140795 0 -0.0056341035315980439 0.00048994045429291363 0 -0.0036072572312833041 0.0012761309663319763 0 -0.0056341035315980439 0.00048994045429291363 0 -0.0034887690259916924 -0.0009105415397508425 0 -0.0036072572312833041 0.0012761309663319763 0 -0.0070633328088027586 0.0036040231653422061 0 -0.0064664499183590581 0.00072885111128068625 0 -0.0051355105872674519 0.00088170573135424148 0 -0.0070633328088027586 0.0036040231653422061 0 -0.0051355105872674519 0.00088170573135424148 0 -0.0038237187637293617 0.0014893427605797548 0 -0.0063037086473311937 0.0019379934723082397 0 -0.0036094625535198176 -0.0021117679260188363 0 -0.0088626430567338762 0.0069847951781386603 0 -0.0068072660789669243 0.004523361837364335 0 -0.0070633328088027586 0.0036040231653422061 0 -0.0084036824900471999 0.0032183236812630767 0 -0.0064664499183590581 0.00072885111128068625 0 -0.0088307647928553661 0.010075226012678308 0 -0.0071814171548122896 0.0080183345866788359 0 -0.0094195796997228413 0.0078979610846368065 0 -0.00262967391803924 -0.0099549166096597648 0 -0.0032753419596830628 -0.010090388404750331 0 -0.0028793251145417366 -0.0092209180985410363 0 -0.00262967391803924 -0.0099549166096597648 0 -0.0028793251145417366 -0.0092209180985410363 0 -0.0021009759231184469 -0.0097411877321333523 0 -0.0022488954981536532 -0.010206446638317768 0 -0.00262967391803924 -0.0099549166096597648 0 -0.0021009759231184469 -0.0097411877321333523 0 -0.0022488954981536532 -0.010206446638317768 0 -0.00262967391803924 -0.0099549166096597648 0 -0.0026395543623238477 -0.010494121549510059 0 -0.00262967391803924 -0.0099549166096597648 0 -0.0032753419596830628 -0.010090388404750331 0 -0.0026395543623238477 -0.010494121549510059 0 -0.0026342887226151611 -0.007342044734369441 0 -0.0026411233962628845 -0.0073406914174339189 0 -0.0025788631403431462 -0.0073584966708509225 0 -0.0031944542035203085 -0.0051346824670535788 0 -0.0029036212102324351 -0.0088753565571929212 0 -0.0031794332836356325 0.001022310400008012 0 -0.003828103542758796 0.0014178295255513639 0 -0.0037819263236346622 0.00035243885031220113 0 -0.0051355105872674519 0.00088170573135424148 0 -0.0038237187637293617 0.0014893427605797548 0 -0.0037819263236346622 0.00035243885031220113 0 -0.0036094625535198176 -0.0021117679260188363 0 -0.0037656856906178242 0.00054138477943020029 0 -0.0031944542035203085 -0.0051346824670535788 0 -0.0036094625535198176 -0.0021117679260188363 0 -0.0036094625535198176 -0.0021117679260188363 0 -0.0031019970273754465 -0.0032831439534948673 0 -0.0026786129480711562 -0.0073025957350638165 0 -0.0025788631403431462 -0.0073584966708509225 0 -0.0026072952793075154 -0.0072091385773055232 0 -0.0026411233962628845 -0.0073406914174339189 0 -0.0026786129480711562 -0.0073025957350638165 0 -0.0025788631403431462 -0.0073584966708509225 0 -0.0028793251145417366 -0.0092209180985410363 0 -0.0025119129135455641 -0.0082547054208099661 0 -0.0019265385417890366 -0.0089437832564249822 0 -0.0029036212102324351 -0.0088753565571929212 0 -0.0023639096621845971 -0.0076138813346053671 0 -0.0025788631403431462 -0.0073584966708509225 0 -0.0023680712557344486 -0.0072613452085038468 0 -0.0026072952793075154 -0.0072091385773055232 0 -0.0031019970273754465 -0.0032831439534948673 0 -0.0031914553990026761 -0.0024348022285380719 0 -0.0026786129480711562 -0.0073025957350638165 0 -0.0026072952793075154 -0.0072091385773055232 0 -0.00281878987938983 -0.007032607091241783 0 -0.0026072952793075154 -0.0072091385773055232 0 -0.00281878987938983 -0.007032607091241783 0 -0.0024732982568372881 -0.0069151709174448258 0 -0.0023680712557344486 -0.0072613452085038468 0 -0.0026072952793075154 -0.0072091385773055232 0 -0.0024732982568372881 -0.0069151709174448258 0 -0.0023680712557344486 -0.0072613452085038468 0 -0.0024732982568372881 -0.0069151709174448258 0 -0.0020190611799880184 -0.0071091311919248366 0 -0.0023639096621845971 -0.0076138813346053671 0 -0.00208259983515618 -0.0071857784156871534 0 -0.0020190611799880184 -0.0071091311919248366 0 -0.0011399270498608379 -0.0075102867361806405 0 -0.0017401939121547013 -0.0079951049022105088 0 -0.0025119129135455641 -0.0082547054208099661 0 -0.0020190611799880184 -0.0071091311919248366 0 -0.0017401939121547013 -0.0079951049022105088 0 -0.0011399270498608379 -0.0075102867361806405 0 -0.0010920301213485951 -0.0084774129445685346 0 -0.0017401939121547013 -0.0079951049022105088 0 -0.0011399270498608379 -0.0075102867361806405 0 -0.0010920301213485951 -0.0084774129445685346 0 -0.00054194749798424507 -0.008023704844798191 0 -0.0010920301213485951 -0.0084774129445685346 0 -0.0017401939121547013 -0.0079951049022105088 0 -0.0019265385417890366 -0.0089437832564249822 0 -0.0025119129135455641 -0.0082547054208099661 0 -0.0017401939121547013 -0.0079951049022105088 0 -0.0019265385417890366 -0.0089437832564249822 0 0.00027934970940640094 -0.008239031580056894 0 0.00034068152401882498 -0.0068961110104716885 0 0.0010749191809281903 -0.0073502147956256824 0 0.00027934970940640094 -0.008239031580056894 0 -0.00044335206262358903 -0.0071320910134213432 0 0.00034068152401882498 -0.0068961110104716885 0 -0.00054194749798424507 -0.008023704844798191 0 0.00027934970940640094 -0.008239031580056894 0 -0.00044335206262358903 -0.0071320910134213432 0 -0.0011399270498608379 -0.0075102867361806405 0 -0.00054194749798424507 -0.008023704844798191 0 -0.00044335206262358903 -0.0071320910134213432 0 -0.00054194749798424507 -0.008023704844798191 0 0.00027934970940640094 -0.008239031580056894 0 -0.00036490320220722495 -0.0087754288184004429 0 -0.0010920301213485951 -0.0084774129445685346 0 -0.00054194749798424507 -0.008023704844798191 0 -0.00036490320220722495 -0.0087754288184004429 0 0.00027934970940640094 -0.008239031580056894 0 -4.3276704567040463e-05 -0.0095166194477540808 0 0.00092799407317627691 -0.0092421448036164606 0 0.00027934970940640094 -0.008239031580056894 0 -0.00036490320220722495 -0.0087754288184004429 0 -4.3276704567040463e-05 -0.0095166194477540808 0 -0.00036490320220722495 -0.0087754288184004429 0 -4.3276704567040463e-05 -0.0095166194477540808 0 -0.0011684082627025053 -0.009916330110456997 0 -0.00063076919820633317 -0.010418855738804895 0 -0.0011684082627025053 -0.009916330110456997 0 -0.00098362629367919428 -0.010447347200569735 0 -0.00063076919820633317 -0.010418855738804895 0 -0.00098362629367919428 -0.010447347200569735 0 -0.00075752628462138832 -0.010676599679933122 0 -0.00038825420117923526 -0.0099655127902580666 0 -0.0011529314754006299 -0.0099500166552679396 0 -0.00063076919820633317 -0.010418855738804895 0 -0.00040878815805416735 -0.010725113670649232 0 -0.00044262779532981396 -0.010793546213658557 0 -0.00063076919820633317 -0.010418855738804895 0 -0.00055214917719948982 -0.010826672539282961 0 -0.00075752628462138832 -0.010676599679933122 0 -0.00038825420117923526 -0.0099655127902580666 0 0.00022896567924794137 -0.009975513579608004 0 -0.00063076919820633317 -0.010418855738804895 0 -0.00055214917719948982 -0.010826672539282961 0 -0.00044262779532981396 -0.010793546213658557 0 -0.0028793251145417366 -0.0092209180985410363 0 -0.0019265385417890366 -0.0089437832564249822 0 -0.0021009759231184469 -0.0097411877321333523 0 -0.0019265385417890366 -0.0089437832564249822 0 -0.0011684082627025053 -0.009916330110456997 0 -0.0021009759231184469 -0.0097411877321333523 0 -0.0010920301213485951 -0.0084774129445685346 0 -0.00036490320220722495 -0.0087754288184004429 0 -0.0011684082627025053 -0.009916330110456997 0 -0.0010920301213485951 -0.0084774129445685346 0 -0.0019265385417890366 -0.0089437832564249822 0 -0.0011684082627025053 -0.009916330110456997 0 -0.0011684082627025053 -0.009916330110456997 0 -0.0013428594934767192 -0.010529685368583659 0 -0.00098362629367919428 -0.010447347200569735 0 -0.0011684082627025053 -0.009916330110456997 0 -0.0017630981210354669 -0.01027271960721592 0 -0.0013428594934767192 -0.010529685368583659 0 -0.0011684082627025053 -0.009916330110456997 0 -0.0017630981210354669 -0.01027271960721592 0 -0.0021009759231184469 -0.0097411877321333523 0 -0.0022488954981536532 -0.010206446638317768 0 -0.0017630981210354669 -0.01027271960721592 0 -0.0021009759231184469 -0.0097411877321333523 0 -0.0017630981210354669 -0.01027271960721592 0 -0.0020893836403412616 -0.01064964973813989 0 -0.0017056685770473362 -0.010588719024927969 0 -0.0022488954981536532 -0.010206446638317768 0 -0.0017630981210354669 -0.01027271960721592 0 -0.0020893836403412616 -0.01064964973813989 0 -0.0018046958217309821 -0.0099401429119507449 0 -0.0021610976838246899 -0.0089480541140872887 0 -0.0020893836403412616 -0.01064964973813989 0 -0.0019138405067424078 -0.010821885091308847 0 -0.0017056685770473362 -0.010588719024927969 0 -0.0019138405067424078 -0.010821885091308847 0 -0.0017056685770473362 -0.010588719024927969 0 -0.0014158419934603424 -0.010945314532526803 0 -0.0017056685770473362 -0.010588719024927969 0 -0.0013428594934767192 -0.010529685368583659 0 -0.0014158419934603424 -0.010945314532526803 0 -0.0017630981210354669 -0.01027271960721592 0 -0.0017056685770473362 -0.010588719024927969 0 -0.0013428594934767192 -0.010529685368583659 0 -0.0013428594934767192 -0.010529685368583659 0 -0.00099599325040756938 -0.010814993922474281 0 -0.0014158419934603424 -0.010945314532526803 0 -0.0013428594934767192 -0.010529685368583659 0 -0.00098362629367919428 -0.010447347200569735 0 -0.00099599325040756938 -0.010814993922474281 0 -0.00099599325040756938 -0.010814993922474281 0 -0.0010836717735759392 -0.011030435536636199 0 -0.0014158419934603424 -0.010945314532526803 0 -0.0010836717735759392 -0.011030435536636199 0 -0.0014158419934603424 -0.010945314532526803 0 -0.001072484925224202 -0.01121282940974362 0 -0.00099599325040756938 -0.010814993922474281 0 -0.0010836717735759392 -0.011030435536636199 0 -0.00086197609442506399 -0.011107193380608641 0 -0.0016727323448736486 -0.010866132012567201 0 -0.0014158419934603424 -0.010945314532526803 0 -0.001072484925224202 -0.01121282940974362 0 -0.0021610976838246899 -0.0089480541140872887 0 -0.0012789937507866884 -0.0084947447290299703 0 -0.0021975909174427794 -0.0049186291113348275 0 -0.002197272310369619 -0.005787208274260709 0 -0.0024963835366768375 -0.0052796130092491976 0 -0.0021975909174427794 -0.0049186291113348275 0 -0.002197272310369619 -0.005787208274260709 0 -0.0014499198773098745 -0.0062416702658198726 0 -0.0021610976838246899 -0.0089480541140872887 0 -0.0011331658135882556 -0.010603523642102271 0 -0.00055214917719948982 -0.010826672539282961 0 -0.00075752628462138832 -0.010676599679933122 0 -0.00070873633691148825 -0.010950825698518801 0 -0.00099599325040756938 -0.010814993922474281 0 -0.00075752628462138832 -0.010676599679933122 0 -0.00070873633691148825 -0.010950825698518801 0 -0.00098362629367919428 -0.010447347200569735 0 -0.00099599325040756938 -0.010814993922474281 0 -0.00075752628462138832 -0.010676599679933122 0 -0.00086197609442506399 -0.011107193380608641 0 -0.00070873633691148825 -0.010950825698518801 0 -0.00064798679607902369 -0.011168536448815063 0 -0.00099599325040756938 -0.010814993922474281 0 -0.00086197609442506399 -0.011107193380608641 0 -0.00070873633691148825 -0.010950825698518801 0 -0.00055214917719948982 -0.010826672539282961 0 -0.00070873633691148825 -0.010950825698518801 0 -0.00051230363415570948 -0.011073682729420373 0 -0.00070873633691148825 -0.010950825698518801 0 -0.00064798679607902369 -0.011168536448815063 0 -0.00051230363415570948 -0.011073682729420373 0 -0.00064798679607902369 -0.011168536448815063 0 -0.00047726679363332665 -0.011264476395117256 0 -0.00051230363415570948 -0.011073682729420373 0 -0.00064798679607902369 -0.011168536448815063 0 -0.00056694137048097701 -0.011273050224487673 0 -0.00047726679363332665 -0.011264476395117256 0 -0.00064798679607902369 -0.011168536448815063 0 -0.00056694137048097701 -0.011273050224487673 0 -0.00076000937511097307 -0.011196897791099378 0 -0.00086197609442506399 -0.011107193380608641 0 -0.00064798679607902369 -0.011168536448815063 0 -0.00076000937511097307 -0.011196897791099378 0 -0.00063556207235214044 -0.011150288743622911 0 -0.00076000937511097307 -0.011196897791099378 0 -0.00052840323593907588 -0.011050642661638913 0 -0.00072005052360970135 -0.011203308275710625 0 -0.00055992056157100616 -0.011190566553587028 0 -0.00056694137048097701 -0.011273050224487673 0 -0.00076000937511097307 -0.011196897791099378 0 -0.00055865548841717424 -0.011367702046113249 0 -0.0021190029484147248 -0.0065043842999646922 0 -0.0014499198773098745 -0.0062416702658198726 0 -0.0015817013275996824 -0.0070579394699790731 0 -0.002197272310369619 -0.005787208274260709 0 -0.0021190029484147248 -0.0065043842999646922 0 -0.0014499198773098745 -0.0062416702658198726 0 -0.00086197609442506399 -0.011107193380608641 0 -0.00076000937511097307 -0.011196897791099378 0 -0.001072484925224202 -0.01121282940974362 0 -0.0010836717735759392 -0.011030435536636199 0 -0.00086197609442506399 -0.011107193380608641 0 -0.001072484925224202 -0.01121282940974362 0 -0.00063556207235214044 -0.011150288743622911 0 -0.00076000937511097307 -0.011196897791099378 0 -0.001072484925224202 -0.01121282940974362 0 -0.00077634000607062147 -0.0075234390175712637 0 -0.0014499198773098745 -0.0062416702658198726 0 -0.0015817013275996824 -0.0070579394699790731 0 -0.00070650636747701862 -0.0093611723690334124 0 -0.0012789937507866884 -0.0084947447290299703 0 -0.0013449507096138602 -0.0076651184708679482 0 -0.00077634000607062147 -0.0075234390175712637 0 -0.0015817013275996824 -0.0070579394699790731 0 -0.0021190029484147248 -0.0065043842999646922 0 -0.0015817013275996824 -0.0070579394699790731 0 -0.0022598631534840466 -0.0073373988813332531 0 -0.0013449507096138602 -0.0076651184708679482 0 -0.0015817013275996824 -0.0070579394699790731 0 -0.0022598631534840466 -0.0073373988813332531 0 -0.0021190029484147248 -0.0065043842999646922 0 -0.0022598631534840466 -0.0073373988813332531 0 -0.0031746662434493978 -0.0061981967158219759 0 -0.0028193908083711488 -0.0050814592347089302 0 -0.003994509721736237 -0.0037102810381438702 0 -0.0053430669821652481 -0.003384995829002444 0 -0.0033168054246755958 -0.0029801894562674737 0 -0.0048749266304148669 -0.00055433555481567559 0 -0.002197272310369619 -0.005787208274260709 0 -0.0021190029484147248 -0.0065043842999646922 0 -0.0031746662434493978 -0.0061981967158219759 0 -0.0048749266304148669 -0.00055433555481567559 0 -0.0063858455662193789 -0.0018257517875690035 0 -0.0073188301359349657 0.00026195535753711284 0 -0.0053430669821652481 -0.003384995829002444 0 -0.0048749266304148669 -0.00055433555481567559 0 -0.0063858455662193789 -0.0018257517875690035 0 -0.0066602232499674988 -0.0031863765877600094 0 -0.0053430669821652481 -0.003384995829002444 0 -0.0063858455662193789 -0.0018257517875690035 0 -0.0063858455662193789 -0.0018257517875690035 0 -0.0079754686218194305 -0.0027415983784745217 0 -0.0080330546617226432 -0.000921317487498664 0 -0.0066602232499674988 -0.0031863765877600094 0 -0.0063858455662193789 -0.0018257517875690035 0 -0.0079754686218194305 -0.0027415983784745217 0 -0.004884733593589481 0.0035265820585441755 0 -0.0049795221390117319 0.011024858688030444 0 -1.0109624167655198e-05 0.019682452037444887 0 -0.0049795221390117319 0.011024858688030444 0 -0.0020364545320322989 0.011435036314438924 0 -0.0024473851280079604 0.011509331202894739 0 -0.0023296281211275423 0.011932654579290091 0 -0.0079754686218194305 -0.0027415983784745217 0 -0.0098680198891296644 0.00050772880984874811 0 -0.0080330546617226432 -0.000921317487498664 0 -0.0098680198891296644 0.00050772880984874811 0 -0.0080330546617226432 -0.000921317487498664 0 -0.0060778300217794621 0.0023809102276391831 0 -0.0063858455662193789 -0.0018257517875690035 0 -0.0080330546617226432 -0.000921317487498664 0 -0.0073188301359349657 0.00026195535753711284 0 -0.0078868868440482125 -0.00077658869545791634 0 -0.0065439715182121858 0.0016902499489763684 0 -0.0065439715182121858 0.0016902499489763684 0 -0.0050504186137297347 0.00018376853738806643 0 -0.0060778300217794621 0.0023809102276391831 0 -0.0080128702097364349 0.005453602210816564 0 -0.0048193580883657654 0.0054275577071462161 0 -0.0049795221390117319 0.011024858688030444 0 -0.0095731687908661971 0.0014855356013241281 0 -0.0044801883158735274 0.017237902326349086 0 -0.0049795221390117319 0.011024858688030444 0 -0.010105131043812186 0.0056042868412640289 0 -0.0087644922760229237 0.0033666411118742183 0 -0.0080128702097364349 0.005453602210816564 0 -0.0098680198891296644 0.00050772880984874811 0 -0.0060778300217794621 0.0023809102276391831 0 -0.0080128702097364349 0.005453602210816564 0 -0.010105131043812186 0.0056042868412640289 0 -0.0080128702097364349 0.005453602210816564 0 -0.0094195796997228413 0.0078979610846368065 0 -0.0071814171548122896 0.0080183345866788359 0 -0.0080128702097364349 0.005453602210816564 0 -0.0094195796997228413 0.0078979610846368065 0 -0.0064664499183590581 0.00072885111128068625 0 -0.0051355105872674519 0.00088170573135424148 0 -0.0045510109423931517 -0.0016825893551051395 0 -0.0071814171548122896 0.0080183345866788359 0 -0.0080128702097364349 0.005453602210816564 0 -0.0048193580883657654 0.0054275577071462161 0 -0.0068072660789669243 0.004523361837364335 0 -0.0050504186137297347 0.00018376853738806643 0 -0.0031944542035203085 -0.0051346824670535788 0 -0.0050504186137297347 0.00018376853738806643 0 -0.0035568602308333544 -0.0040390649327196769 0 -0.0033691478354654089 -0.0047284347961631902 0 -0.0040762721338723738 -0.0050272788896321861 0 -0.0051355105872674519 0.00088170573135424148 0 -0.0037819263236346622 0.00035243885031220113 0 -0.0045510109423931517 -0.0016825893551051395 0 -0.0031794332836356325 0.001022310400008012 0 -0.0037819263236346622 0.00035243885031220113 0 -0.0045510109423931517 -0.0016825893551051395 0 -0.0035568602308333544 -0.0040390649327196769 0 -0.0033691478354654089 -0.0047284347961631902 0 -0.0028810761532555092 -0.0044727829046704946 0 -0.0031944542035203085 -0.0051346824670535788 0 -0.0026963653609582568 -0.0074781884892962513 0 -0.0022488954981536532 -0.010206446638317768 0 -0.0020893836403412616 -0.01064964973813989 0 -0.0026395543623238477 -0.010494121549510059 0 -0.0021610976838246899 -0.0089480541140872887 0 -0.0026963653609582568 -0.0074781884892962513 0 -0.0021975909174427794 -0.0049186291113348275 0 -0.0028810761532555092 -0.0044727829046704946 0 -0.0027469354580752321 -0.004955624439366136 0 -0.0020893836403412616 -0.01064964973813989 0 -0.0019421804514376203 -0.010876095560073679 0 -0.0026395543623238477 -0.010494121549510059 0 -0.0033691478354654089 -0.0047284347961631902 0 -0.0027469354580752321 -0.004955624439366136 0 -0.0029637747062476448 -0.0053464588264452535 0 -0.0033691478354654089 -0.0047284347961631902 0 -0.0028810761532555092 -0.0044727829046704946 0 -0.0027469354580752321 -0.004955624439366136 0 -0.002197272310369619 -0.005787208274260709 0 -0.0031746662434493978 -0.0061981967158219759 0 -0.0029637747062476448 -0.0053464588264452535 0 -0.0027469354580752321 -0.004955624439366136 0 -0.0029637747062476448 -0.0053464588264452535 0 -0.0024963835366768375 -0.0052796130092491976 0 -0.0021975909174427794 -0.0049186291113348275 0 -0.0027469354580752321 -0.004955624439366136 0 -0.0024963835366768375 -0.0052796130092491976 0 -0.002197272310369619 -0.005787208274260709 0 -0.0029637747062476448 -0.0053464588264452535 0 -0.0024963835366768375 -0.0052796130092491976 0 -0.0048749266304148669 -0.00055433555481567559 0 -0.0073188301359349657 0.00026195535753711284 0 -0.0065642137311195678 0.0017217894495827023 0 -0.0033691478354654089 -0.0047284347961631902 0 -0.0029637747062476448 -0.0053464588264452535 0 -0.0040762721338723738 -0.0050272788896321861 0 -0.003994509721736237 -0.0037102810381438702 0 -0.0050504186137297347 0.00018376853738806643 0 -0.0031746662434493978 -0.0061981967158219759 0 -0.0029637747062476448 -0.0053464588264452535 0 -0.0040762721338723738 -0.0050272788896321861 0 -0.00013846831609178379 0.034283797919887532 0 2.4193576364924758e-05 0.034265197785642118 0 4.847737049223057e-06 0.034115089559182493 0 2.1929887314914476e-06 0.034998462141028364 0 -6.4093332455232572e-09 0.034999978833242767 0 3.3085809550442612e-09 0.035000004510377235 0 2.1929887314914476e-06 0.034998462141028364 0 -6.4093332455232572e-09 0.034999978833242767 0 4.2325788600039005e-06 0.034985094340798217 0 2.1929887314914476e-06 0.034998462141028364 0 3.3085809550442612e-09 0.035000004510377235 0 9.4304278376852513e-08 0.034998619316974268 0 -6.6246925434902391e-05 0.034614753501366176 0 -6.3619567155494283e-05 0.034766230853225596 0 -0.00013846831609178379 0.034283797919887532 0 -4.9425790477311471e-05 0.034388188202940637 0 -0.0001381917620763785 0.034495201323647341 0 -0.00013846831609178379 0.034283797919887532 0 -4.9425790477311471e-05 0.034388188202940637 0 2.4193576364924758e-05 0.034265197785642118 0 -4.9425790477311471e-05 0.034388188202940637 0 0.0001452760921714612 0.034341164328573676 0 2.4193576364924758e-05 0.034265197785642118 0 -4.9425790477311471e-05 0.034388188202940637 0 0.0001452760921714612 0.034341164328573676 0 6.5188362879060446e-05 0.034462421358866582 0 0.0001452760921714612 0.034341164328573676 0 0.000273082724381865 0.034434781409503616 0 6.5188362879060446e-05 0.034462421358866582 0 0.0001452760921714612 0.034341164328573676 0 0.0001488834404714076 0.034189422767849593 0 0.0003171183284707111 0.034220798243322997 0 0.0001452760921714612 0.034341164328573676 0 0.0001488834404714076 0.034189422767849593 0 2.4193576364924758e-05 0.034265197785642118 0 0.0001488834404714076 0.034189422767849593 0 2.4193576364924758e-05 0.034265197785642118 0 4.847737049223057e-06 0.034115089559182493 0 0.0001488834404714076 0.034189422767849593 0 4.847737049223057e-06 0.034115089559182493 0 0.00013442460797737495 0.034067468526826732 0 0.0001488834404714076 0.034189422767849593 0 0.00024346605520533416 0.034097489435493879 0 0.0003171183284707111 0.034220798243322997 0 0.0001488834404714076 0.034189422767849593 0 0.00013442460797737495 0.034067468526826732 0 0.00024346605520533416 0.034097489435493879 0 0.00013442460797737495 0.034067468526826732 0 0.00020043229535083912 0.033960194479447377 0 7.4286875918752501e-05 0.033961512503662361 0 0.00013442460797737495 0.034067468526826732 0 0.00024346605520533416 0.034097489435493879 0 0.00020043229535083912 0.033960194479447377 0 0.00074655576074423799 0.03195131187793343 0 0.00053374847472344904 0.032649854102084312 0 0.0010065772063154038 0.031348319818367137 0 0.0010286921002444806 0.031346771550897143 0 0.001017331704676162 0.03135193418206586 0 4.847737049223057e-06 0.034115089559182493 0 7.4286875918752501e-05 0.033961512503662361 0 -5.5926736285494352e-05 0.03396651557284313 0 0.00053374847472344904 0.032649854102084312 0 0.00035367063125601951 0.033086459145952943 0 0.00074655576074423799 0.03195131187793343 0 0.0010505274240236908 0.031270082758901654 0 0.00096665903485138093 0.031366868735673105 0 0.0010065772063154038 0.031348319818367137 0 0.001017331704676162 0.03135193418206586 0 4.847737049223057e-06 0.034115089559182493 0 0.00013442460797737495 0.034067468526826732 0 7.4286875918752501e-05 0.033961512503662361 0 0.00035367063125601951 0.033086459145952943 0 5.0407371510975541e-05 0.034311073841552464 0 0.00035367063125601951 0.033086459145952943 0 -8.7891471680031827e-05 0.034631937909482706 0 0.00038645210783706699 0.03375878962626204 0 -0.00011902385988522385 0.034392626617254847 0 -0.00011828104581745289 0.033781519802780671 0 4.847737049223057e-06 0.034115089559182493 0 -5.5926736285494352e-05 0.03396651557284313 0 -0.00013720336193916713 0.034069980198998151 0 -0.00013846831609178379 0.034283797919887532 0 4.847737049223057e-06 0.034115089559182493 0 -0.00013720336193916713 0.034069980198998151 0 -1.0628257060204803e-07 0.035000296517754471 0 -8.7891471680031827e-05 0.034631937909482706 0 -6.6246925434902391e-05 0.034614753501366176 0 -8.7891471680031827e-05 0.034631937909482706 0 9.8050248836291827e-11 0.03500000153515654 0 6.8689594642451407e-08 0.034998690076650303 0 -5.5635643935529987e-10 0.034999988873538244 0 9.8050248836291827e-11 0.03500000153515654 0 4.536446407801313e-07 0.034997794232447463 0 6.8689594642451407e-08 0.034998690076650303 0 6.8689594642451407e-08 0.034998690076650303 0 7.2633180495134717e-07 0.034995350210910367 0 -5.5635643935529987e-10 0.034999988873538244 0 -8.7891471680031827e-05 0.034631937909482706 0 5.0407371510975541e-05 0.034311073841552464 0 4.536446407801313e-07 0.034997794232447463 0 6.8689594642451407e-08 0.034998690076650303 0 7.2633180495134717e-07 0.034995350210910367 0 6.2382949854823946e-07 0.034995162816928597 0 1.1837678227302692e-09 0.034999991718959927 0 5.2838073585522957e-07 0.034997954118232269 0 5.0407371510975541e-05 0.034311073841552464 0 -5.40344773424101e-08 0.034999866218215922 0 5.0407371510975541e-05 0.034311073841552464 0 0.00018466579430754862 0.034187802644166369 0 6.2382949854823946e-07 0.034995162816928597 0 5.2838073585522957e-07 0.034997954118232269 0 1.3678698077272133e-06 0.034996095097656166 0 1.1837678227302692e-09 0.034999991718959927 0 5.2838073585522957e-07 0.034997954118232269 0 7.3951828980252084e-10 0.034999996075711193 0 5.2838073585522957e-07 0.034997954118232269 0 7.3951828980252084e-10 0.034999996075711193 0 1.3678698077272133e-06 0.034996095097656166 0 0.00033056649312685063 0.033473620589795854 0 0.00034743103027987907 0.033517126506899683 0 0.00029854695753013587 0.033505259560309038 0 0.00033056649312685063 0.033473620589795854 0 0.00034637737176282873 0.03347644937764397 0 0.00034743103027987907 0.033517126506899683 0 0.00034743103027987907 0.033517126506899683 0 0.0003480014166587146 0.033567225989179737 0 0.00032381243861454262 0.033548014072623519 0 0.00034743103027987907 0.033517126506899683 0 0.00029854695753013587 0.033505259560309038 0 0.00030592890183910005 0.033536406330489918 0 0.00034743103027987907 0.033517126506899683 0 0.00032381243861454262 0.033548014072623519 0 0.00030592890183910005 0.033536406330489918 0 7.3951828980252084e-10 0.034999996075711193 0 8.6581596816619532e-07 0.034997955061991458 0 2.3541215570663854e-09 0.034999987645236437 0 0.00018466579430754862 0.034187802644166369 0 0.00017825694482805269 0.034549005498569957 0 1.3678698077272133e-06 0.034996095097656166 0 8.6581596816619532e-07 0.034997955061991458 0 3.1036840750157489e-06 0.034994475076448407 0 7.3951828980252084e-10 0.034999996075711193 0 1.3678698077272133e-06 0.034996095097656166 0 8.6581596816619532e-07 0.034997955061991458 0 8.6581596816619532e-07 0.034997955061991458 0 2.3541215570663854e-09 0.034999987645236437 0 3.1036840750157489e-06 0.034994475076448407 0 -1.909489413105866e-07 0.034999974756275587 0 0.00017825694482805269 0.034549005498569957 0 -2.6008353491378276e-09 0.034999987975966873 0 2.3309393532007548e-06 0.034994503696706369 0 1.3968260535557848e-08 0.034989970120336507 0 0.00017825694482805269 0.034549005498569957 0 5.9762700638128076e-05 0.035050655170383645 0 0.0003480014166587146 0.033567225989179737 0 0.00032381243861454262 0.033548014072623519 0 0.00030651454402877458 0.033571844539211644 0 0.00017825694482805269 0.034549005498569957 0 4.0359443014921715e-05 0.034012666144602355 0 1.743546264837597e-06 0.034972152296131452 0 1.3968260535557848e-08 0.034989970120336507 0 -2.076378880789477e-05 0.034974792226400285 0 -4.2819298064494505e-05 0.034501702603263275 0 4.0359443014921715e-05 0.034012666144602355 0 -2.555218138886819e-06 0.034998281126830788 0 1.3968260535557848e-08 0.034989970120336507 0 -2.076378880789477e-05 0.034974792226400285 0 -0.00025380366775348817 0.033771893855090891 0 2.7561306203894008e-06 0.033943040665562051 0 -0.00017656131192238789 0.033498577225598833 0 2.9945203297120127e-09 0.034999988826895374 0 -2.555218138886819e-06 0.034998281126830788 0 1.3968260535557848e-08 0.034989970120336507 0 2.9945203297120127e-09 0.034999988826895374 0 -2.6008353491378276e-09 0.034999987975966873 0 1.3968260535557848e-08 0.034989970120336507 0 0.0002684016564517985 0.033574963725786673 0 0.00025944107517750247 0.03355896969991215 0 0.00021820055441972749 0.033584952128084704 0 -0.00033765471913838936 0.033472856241754452 0 -0.00025380366775348817 0.033771893855090891 0 -0.00031780055843948842 0.033478999137691152 0 8.0545575308651449e-06 0.0334969769218093 0 -0.00017969817564209237 0.03352837891693175 0 -0.00025380366775348817 0.033771893855090891 0 -0.00031780055843948842 0.033478999137691152 0 -0.00017656131192238789 0.033498577225598833 0 8.0545575308651449e-06 0.0334969769218093 0 4.0359443014921715e-05 0.034012666144602355 0 0.0002684016564517985 0.033574963725786673 0 0.00028298256208245001 0.033556446861538171 0 0.0003063624887616128 0.033568734791806033 0 0.00028298256208245001 0.033556446861538171 0 0.0003063624887616128 0.033568734791806033 0 0.00029707375993660379 0.033555103632863854 0 4.0359443014921715e-05 0.034012666144602355 0 9.8628272554972642e-05 0.033732189396996168 0 0.00032381243861454262 0.033548014072623519 0 0.00030651454402877458 0.033571844539211644 0 0.00029707375993660379 0.033555103632863854 0 0.00032381243861454262 0.033548014072623519 0 0.00029707375993660379 0.033555103632863854 0 0.00030592890183910005 0.033536406330489918 0 0.00028298256208245001 0.033556446861538171 0 0.00028075992136088391 0.03353915152428439 0 0.00030592890183910005 0.033536406330489918 0 0.00028298256208245001 0.033556446861538171 0 0.00029707375993660379 0.033555103632863854 0 0.00030592890183910005 0.033536406330489918 0 0.00028298256208245001 0.033556446861538171 0 0.00028075992136088391 0.03353915152428439 0 0.00025944107517750247 0.03355896969991215 0 0.0002684016564517985 0.033574963725786673 0 0.00028298256208245001 0.033556446861538171 0 0.00025944107517750247 0.03355896969991215 0 0.00025944107517750247 0.03355896969991215 0 0.00025578125398347478 0.033546128381722363 0 0.00021820055441972749 0.033584952128084704 0 0.00028075992136088391 0.03353915152428439 0 0.00025944107517750247 0.03355896969991215 0 0.00025578125398347478 0.033546128381722363 0 0.0009342997975325556 0.031548295727710771 0 0.000923660492266518 0.031391068345997905 0 0.0010160045505656701 0.031388303924096334 0 0.00041477372847815975 0.032739073840169185 0 0.00077444031447133411 0.032271446598993794 0 0.00028075992136088391 0.03353915152428439 0 0.00025578125398347478 0.033546128381722363 0 0.00029854695753013587 0.033505259560309038 0 0.00028075992136088391 0.03353915152428439 0 0.00029854695753013587 0.033505259560309038 0 0.00030592890183910005 0.033536406330489918 0 0.0010160045505656701 0.031388303924096334 0 0.001017331704676162 0.03135193418206586 0 0.00097161966614132044 0.03133923364396006 0 0.00035367063125601951 0.033086459145952943 0 0.00077444031447133411 0.032271446598993794 0 0.0010286921002444806 0.031346771550897143 0 0.0010160045505656701 0.031388303924096334 0 0.001017331704676162 0.03135193418206586 0 0.00094969000304975836 0.031273845498346546 0 0.001017331704676162 0.03135193418206586 0 0.00097161966614132044 0.03133923364396006 0 0.000923660492266518 0.031391068345997905 0 0.0010160045505656701 0.031388303924096334 0 0.00097161966614132044 0.03133923364396006 0 0.000923660492266518 0.031391068345997905 0 0.00097161966614132044 0.03133923364396006 0 0.00091564846455481435 0.031310734243108991 0 0.00094969000304975836 0.031273845498346546 0 0.00097161966614132044 0.03133923364396006 0 0.00091564846455481435 0.031310734243108991 0 0.00091564846455481435 0.031310734243108991 0 0.00083769209017400597 0.031324965772444202 0 0.00087522851315007769 0.03123101826410796 0 0.00083769209017400597 0.031324965772444202 0 0.00075608266554911565 0.031245496645516586 0 0.00087522851315007769 0.03123101826410796 0 0.000923660492266518 0.031391068345997905 0 0.00091564846455481435 0.031310734243108991 0 0.00083769209017400597 0.031324965772444202 0 0.00075608266554911565 0.031245496645516586 0 0.00072821629304077064 0.031356425107786877 0 0.00062868788530408878 0.031200237491319699 0 0.00083769209017400597 0.031324965772444202 0 0.00075608266554911565 0.031245496645516586 0 0.00072821629304077064 0.031356425107786877 0 0.00083769209017400597 0.031324965772444202 0 0.00072821629304077064 0.031356425107786877 0 0.00080568896520224012 0.031446143842633827 0 0.00072821629304077064 0.031356425107786877 0 0.00080568896520224012 0.031446143842633827 0 0.0006128117402395771 0.031477215253682092 0 0.00080568896520224012 0.031446143842633827 0 0.00071787213725247104 0.031590458536856277 0 0.0006128117402395771 0.031477215253682092 0 0.0009342997975325556 0.031548295727710771 0 0.000923660492266518 0.031391068345997905 0 0.00080568896520224012 0.031446143842633827 0 0.000923660492266518 0.031391068345997905 0 0.00083769209017400597 0.031324965772444202 0 0.00080568896520224012 0.031446143842633827 0 0.0009342997975325556 0.031548295727710771 0 0.00080568896520224012 0.031446143842633827 0 0.00071787213725247104 0.031590458536856277 0 0.00041477372847815975 0.032739073840169185 0 0.00011240062461114606 0.032246719383643582 0 -0.00016363443473209737 0.033046338916270158 0 -0.00047484968183239735 0.033033495976430342 0 -0.00032057868925608083 0.033236219522498535 0 0.00041477372847815975 0.032739073840169185 0 -0.00017969817564209237 0.03352837891693175 0 -0.00044362875485096662 0.033156850582901028 0 -0.00046745595464247149 0.033197998322778734 0 -0.00051192267171046248 0.033025400016441317 0 -0.00047484968183239735 0.033033495976430342 0 -0.00044362875485096662 0.033156850582901028 0 -0.00035621692210537499 0.033248619569766297 0 -0.00044362875485096662 0.033156850582901028 0 -0.00046745595464247149 0.033197998322778734 0 -0.00035883842944395999 0.033299368924216415 0 -0.00047484968183239735 0.033033495976430342 0 -0.00044362875485096662 0.033156850582901028 0 -0.00051192267171046248 0.033025400016441317 0 -0.00047484968183239735 0.033033495976430342 0 -0.00035621692210537499 0.033248619569766297 0 -0.00032057868925608083 0.033236219522498535 0 -0.00033765471913838936 0.033472856241754452 0 -0.00046745595464247149 0.033197998322778734 0 -0.00035883842944395999 0.033299368924216415 0 -0.00033765471913838936 0.033472856241754452 0 -0.00031780055843948842 0.033478999137691152 0 -0.00036255589628807048 0.033328024603500775 0 -0.00033765471913838936 0.033472856241754452 0 -0.00035883842944395999 0.033299368924216415 0 -0.00036255589628807048 0.033328024603500775 0 -0.00044362875485096662 0.033156850582901028 0 -0.00035883842944395999 0.033299368924216415 0 -0.00035621692210537499 0.033248619569766297 0 -0.00020452813074704003 0.033514347341305602 0 -0.00017969817564209237 0.03352837891693175 0 -0.00035883842944395999 0.033299368924216415 0 -0.00035621692210537499 0.033248619569766297 0 -0.00029923442096112577 0.033237492906510346 0 -0.00018384725291799455 0.033501087237377894 0 -0.00017969817564209237 0.03352837891693175 0 -0.00054831129729524474 0.032933738854600492 0 -0.00051192267171046248 0.033025400016441317 0 -0.00054602222268760518 0.032879480319246673 0 -0.00054831129729524474 0.032933738854600492 0 -0.00054602222268760518 0.032879480319246673 0 -0.00052908122038536126 0.032659481461149956 0 -0.00046745595464247149 0.033197998322778734 0 -0.00054831129729524474 0.032933738854600492 0 -0.00051192267171046248 0.033025400016441317 0 -0.00034257198627418711 0.033246719547443168 0 -0.0004146360245825482 0.032935910947933578 0 -0.00047484968183239735 0.033033495976430342 0 -0.00051192267171046248 0.033025400016441317 0 -0.00054602222268760518 0.032879480319246673 0 0.00071787213725247104 0.031590458536856277 0 0.00042849909289782056 0.031660314322849693 0 0.0006128117402395771 0.031477215253682092 0 0.00011240062461114606 0.032246719383643582 0 -6.8967876453630638e-05 0.032276885473829488 0 0.00042849909289782056 0.031660314322849693 0 0.00041659152234088713 0.031472209834910836 0 0.000216883355167104 0.031553229419949605 0 0.00041659152234088713 0.031472209834910836 0 0.00052527820665865135 0.031334860351599873 0 0.00025954296378444226 0.031326789609578937 0 0.00042849909289782056 0.031660314322849693 0 0.00041659152234088713 0.031472209834910836 0 0.0006128117402395771 0.031477215253682092 0 0.00072821629304077064 0.031356425107786877 0 0.0006128117402395771 0.031477215253682092 0 0.00052527820665865135 0.031334860351599873 0 0.00041659152234088713 0.031472209834910836 0 0.0006128117402395771 0.031477215253682092 0 0.00052527820665865135 0.031334860351599873 0 0.00072821629304077064 0.031356425107786877 0 0.00052527820665865135 0.031334860351599873 0 0.00062868788530408878 0.031200237491319699 0 0.00052527820665865135 0.031334860351599873 0 0.00062868788530408878 0.031200237491319699 0 0.00041306728321105507 0.031146573326632607 0 0.00052527820665865135 0.031334860351599873 0 0.00041306728321105507 0.031146573326632607 0 0.00025954296378444226 0.031326789609578937 0 0.00041306728321105507 0.031146573326632607 0 0.00051899712658346722 0.030966414388932439 0 0.00018528984540934214 0.030770780728382748 0 0.00054015441529663122 0.034078104378644586 0 0.00056074172991476439 0.034215163865550562 0 0.00065206870870864061 0.034115521270610662 0 0.00051836896564305386 0.032496721804543362 0 0.00043640467223491117 0.032537553531821611 0 0.00054015441529663122 0.034078104378644586 0 0.0003885130235454753 0.034021101885669633 0 0.00045336502883179579 0.034171289383715407 0 0.00054015441529663122 0.034078104378644586 0 0.00056074172991476439 0.034215163865550562 0 0.00045336502883179579 0.034171289383715407 0 0.00051836896564305386 0.032496721804543362 0 0.00055285123364012291 0.032659700114499458 0 0.00062868788530408878 0.031200237491319699 0 0.00051899712658346722 0.030966414388932439 0 0.00077040007387893441 0.031133864053440451 0 0.00062868788530408878 0.031200237491319699 0 0.00041306728321105507 0.031146573326632607 0 0.00051899712658346722 0.030966414388932439 0 0.00075608266554911565 0.031245496645516586 0 0.00062868788530408878 0.031200237491319699 0 0.00077040007387893441 0.031133864053440451 0 0.00075608266554911565 0.031245496645516586 0 0.00077040007387893441 0.031133864053440451 0 0.00087522851315007769 0.03123101826410796 0 0.00024346605520533416 0.034097489435493879 0 0.00020043229535083912 0.033960194479447377 0 0.0003885130235454753 0.034021101885669633 0 0.00074655576074423799 0.03195131187793343 0 0.00055285123364012291 0.032659700114499458 0 0.0009708531916375623 0.031260989588208624 0 0.00077040007387893441 0.031133864053440451 0 0.00087522851315007769 0.03123101826410796 0 0.00094969000304975836 0.031273845498346546 0 0.00091564846455481435 0.031310734243108991 0 0.00087522851315007769 0.03123101826410796 0 0.00074655576074423799 0.03195131187793343 0 0.00094818126327421719 0.031401179120900763 0 0.00024346605520533416 0.034097489435493879 0 0.0003885130235454753 0.034021101885669633 0 0.0003171183284707111 0.034220798243322997 0 0.0003885130235454753 0.034021101885669633 0 0.0003171183284707111 0.034220798243322997 0 0.00045336502883179579 0.034171289383715407 0 0.0003171183284707111 0.034220798243322997 0 0.00043406854651631562 0.034323911289321107 0 0.00045336502883179579 0.034171289383715407 0 0.0003171183284707111 0.034220798243322997 0 0.000273082724381865 0.034434781409503616 0 0.00043406854651631562 0.034323911289321107 0 0.0001452760921714612 0.034341164328573676 0 0.0003171183284707111 0.034220798243322997 0 0.000273082724381865 0.034434781409503616 0 0.00043406854651631562 0.034323911289321107 0 0.00056074172991476439 0.034215163865550562 0 0.00051412177225851699 0.034367735297720081 0 0.00056074172991476439 0.034215163865550562 0 0.00060058193942900387 0.034338489366788148 0 0.00051412177225851699 0.034367735297720081 0 0.00056074172991476439 0.034215163865550562 0 0.0006268585655106703 0.034238865588033136 0 0.00060058193942900387 0.034338489366788148 0 0.00043406854651631562 0.034323911289321107 0 0.00056074172991476439 0.034215163865550562 0 0.00045336502883179579 0.034171289383715407 0 0.00068194647283117743 0.034222472472518299 0 0.00073419382890919655 0.034129195863198125 0 0.00065206870870864061 0.034115521270610662 0 0.0006268585655106703 0.034238865588033136 0 0.00068194647283117743 0.034222472472518299 0 0.00065206870870864061 0.034115521270610662 0 0.00056074172991476439 0.034215163865550562 0 0.0006268585655106703 0.034238865588033136 0 0.00065206870870864061 0.034115521270610662 0 0.00064635350569929506 0.034277401699065797 0 0.0006268585655106703 0.034238865588033136 0 0.00068194647283117743 0.034222472472518299 0 0.00064635350569929506 0.034277401699065797 0 0.00068194647283117743 0.034222472472518299 0 0.0006656372922611059 0.034308457565351488 0 0.00064635350569929506 0.034277401699065797 0 0.0006268585655106703 0.034238865588033136 0 0.00060058193942900387 0.034338489366788148 0 0.00068194647283117743 0.034222472472518299 0 0.00071239569958425402 0.03423724447334215 0 0.0006656372922611059 0.034308457565351488 0 0.00071239569958425402 0.03423724447334215 0 0.0007485138591797224 0.034246195732678404 0 0.00070999697641225027 0.03427454007146815 0 0.00071239569958425402 0.03423724447334215 0 0.00074479566612122678 0.034197299837857804 0 0.0007485138591797224 0.034246195732678404 0 0.00026435043075039873 0.032358618814710409 0 -0.00070715893050061986 0.031899269245489151 0 0.00068194647283117743 0.034222472472518299 0 0.00071239569958425402 0.03423724447334215 0 0.00074479566612122678 0.034197299837857804 0 -0.0006050358630173006 0.030071350529938711 0 -0.00087038040320060032 0.029930316496306088 0 -0.00043646184681106573 0.02986884845285908 0 -0.0006050358630173006 0.030071350529938711 0 -0.00034467690103402786 0.030167825424817149 0 -0.00043646184681106573 0.02986884845285908 0 -0.0011138140423957465 0.030127849843194814 0 -0.00070715893050061986 0.031899269245489151 0 -0.00068461488509454968 0.030361168470421345 0 -0.00034467690103402786 0.030167825424817149 0 -0.00025131537707660925 0.030486849115809071 0 -0.0006050358630173006 0.030071350529938711 0 -0.00068461488509454968 0.030361168470421345 0 -0.00034467690103402786 0.030167825424817149 0 0.00026435043075039873 0.032358618814710409 0 0.00020396133079604055 0.03161937961253946 0 0.00068194647283117743 0.034222472472518299 0 0.00074479566612122678 0.034197299837857804 0 0.00073419382890919655 0.034129195863198125 0 -0.00021606333806465107 0.030609521506678367 0 -0.00023231921941969502 0.030541544618973262 0 -0.00029262804555953273 0.030689057299444537 0 9.0894731659535977e-05 0.031261809261789446 0 0.00020396133079604055 0.03161937961253946 0 -0.00029262804555953273 0.030689057299444537 0 -0.0004753915214650456 0.030649701128969344 0 -0.00034542720027089181 0.030838874740518663 0 -0.00023231921941969502 0.030541544618973262 0 -0.00029262804555953273 0.030689057299444537 0 -0.0004753915214650456 0.030649701128969344 0 -0.00021606333806465107 0.030609521506678367 0 -0.00029262804555953273 0.030689057299444537 0 -0.00019625291458317902 0.030794214956918572 0 -0.00021606333806465107 0.030609521506678367 0 -0.00019625291458317902 0.030794214956918572 0 -3.267892556705887e-05 0.030842704742164516 0 -0.00067331603599270738 0.030358836806463341 0 -0.00023231921941969502 0.030541544618973262 0 -0.0004753915214650456 0.030649701128969344 0 -0.00067331603599270738 0.030358836806463341 0 -0.0004753915214650456 0.030649701128969344 0 -0.00076582086453492776 0.030638524055399619 0 -0.00081217780575216971 0.030220960046586993 0 0.00020396133079604055 0.03161937961253946 0 -0.0004753915214650456 0.030649701128969344 0 -0.00058915103603796558 0.030841478258292008 0 -0.00076582086453492776 0.030638524055399619 0 -0.0004753915214650456 0.030649701128969344 0 -0.00058915103603796558 0.030841478258292008 0 -0.00034542720027089181 0.030838874740518663 0 -0.00058915103603796558 0.030841478258292008 0 -0.00034542720027089181 0.030838874740518663 0 -0.00041395223976845085 0.031056399947539684 0 -0.00058915103603796558 0.030841478258292008 0 -0.00041395223976845085 0.031056399947539684 0 -0.00067952106764844835 0.031055036007843904 0 -0.00034542720027089181 0.030838874740518663 0 -0.00013647172156708773 0.031008816480088443 0 -0.00041395223976845085 0.031056399947539684 0 -0.00019625291458317902 0.030794214956918572 0 -0.00034542720027089181 0.030838874740518663 0 -0.00013647172156708773 0.031008816480088443 0 -0.00029262804555953273 0.030689057299444537 0 -0.00019625291458317902 0.030794214956918572 0 -0.00034542720027089181 0.030838874740518663 0 -3.267892556705887e-05 0.030842704742164516 0 0.00018528984540934214 0.030770780728382748 0 0.00013751955554345801 0.031049716573054689 0 -0.00013647172156708773 0.031008816480088443 0 -3.267892556705887e-05 0.030842704742164516 0 0.00013751955554345801 0.031049716573054689 0 -0.00019625291458317902 0.030794214956918572 0 -0.00013647172156708773 0.031008816480088443 0 -3.267892556705887e-05 0.030842704742164516 0 -0.00021606333806465107 0.030609521506678367 0 -0.00022909646923434984 0.030554993240651817 0 0.00018528984540934214 0.030770780728382748 0 -0.00021606333806465107 0.030609521506678367 0 -3.267892556705887e-05 0.030842704742164516 0 0.00018528984540934214 0.030770780728382748 0 0.00020396133079604055 0.03161937961253946 0 0.00043640467223491117 0.032537553531821611 0 0.00041306728321105507 0.031146573326632607 0 0.00018528984540934214 0.030770780728382748 0 0.00013751955554345801 0.031049716573054689 0 0.00013751955554345801 0.031049716573054689 0 0.00025954296378444226 0.031326789609578937 0 2.5764201594134374e-05 0.031219978236224195 0 0.00041306728321105507 0.031146573326632607 0 0.00013751955554345801 0.031049716573054689 0 0.00025954296378444226 0.031326789609578937 0 0.00025954296378444226 0.031326789609578937 0 2.5764201594134374e-05 0.031219978236224195 0 -1.3722235305900473e-05 0.031438621484135953 0 -0.00013647172156708773 0.031008816480088443 0 0.00013751955554345801 0.031049716573054689 0 2.5764201594134374e-05 0.031219978236224195 0 -0.00013647172156708773 0.031008816480088443 0 2.5764201594134374e-05 0.031219978236224195 0 -0.00024288259149049963 0.031325626290442721 0 -1.3722235305900473e-05 0.031438621484135953 0 0.000216883355167104 0.031553229419949605 0 -1.8160495718473464e-05 0.031612837634363192 0 2.5764201594134374e-05 0.031219978236224195 0 -1.3722235305900473e-05 0.031438621484135953 0 -0.00024288259149049963 0.031325626290442721 0 -1.3722235305900473e-05 0.031438621484135953 0 -1.8160495718473464e-05 0.031612837634363192 0 -0.00020527409411979638 0.031649623925203457 0 0.00025954296378444226 0.031326789609578937 0 -1.3722235305900473e-05 0.031438621484135953 0 0.000216883355167104 0.031553229419949605 0 0.00041659152234088713 0.031472209834910836 0 0.00025954296378444226 0.031326789609578937 0 0.000216883355167104 0.031553229419949605 0 0.00042849909289782056 0.031660314322849693 0 0.000216883355167104 0.031553229419949605 0 5.4872941964008658e-05 0.031767967726191476 0 -0.00054602222268760518 0.032879480319246673 0 -0.00051873013554662277 0.032568020084381519 0 -0.00052908122038536126 0.032659481461149956 0 -6.8967876453630638e-05 0.032276885473829488 0 -0.00026372606093307623 0.032155730510589391 0 0.000216883355167104 0.031553229419949605 0 -1.8160495718473464e-05 0.031612837634363192 0 5.4872941964008658e-05 0.031767967726191476 0 -1.8160495718473464e-05 0.031612837634363192 0 5.4872941964008658e-05 0.031767967726191476 0 -0.00020527409411979638 0.031649623925203457 0 -0.00045568713158480639 0.032605013043843063 0 -0.00050735544505418981 0.032299736149807419 0 -0.00051873013554662277 0.032568020084381519 0 -0.00052908122038536126 0.032659481461149956 0 -0.00050865275979573193 0.032223033180922886 0 -0.00045996893165176024 0.032466120880188694 0 -0.00038512208401989445 0.032582633678582676 0 -0.00050865275979573193 0.032223033180922886 0 -0.00040930062060022543 0.032648113282789902 0 -0.00045996893165176024 0.032466120880188694 0 -0.00038512208401989445 0.032582633678582676 0 -0.0004146360245825482 0.032935910947933578 0 -0.00045568713158480639 0.032605013043843063 0 -0.00035303851475012373 0.03275409446013388 0 -0.00027353888764931422 0.032936878792185723 0 -0.00038512208401989445 0.032582633678582676 0 -0.00035303851475012373 0.03275409446013388 0 -0.00040930062060022543 0.032648113282789902 0 -0.00038512208401989445 0.032582633678582676 0 -0.00058559567904657207 0.032161566477694421 0 -0.00050865275979573193 0.032223033180922886 0 -0.00051827194094993803 0.031965458883364183 0 -0.00058559567904657207 0.032161566477694421 0 -0.00051827194094993803 0.031965458883364183 0 -0.00072478257318743685 0.031953870117698943 0 -0.00072177801440128047 0.03215840407365253 0 -0.00058559567904657207 0.032161566477694421 0 -0.00072478257318743685 0.031953870117698943 0 -0.00058598562920764532 0.032337667288289518 0 -0.00072177801440128047 0.03215840407365253 0 -0.00058559567904657207 0.032161566477694421 0 -0.00058598562920764532 0.032337667288289518 0 -0.00058559567904657207 0.032161566477694421 0 -0.00051984703763171983 0.032349645363140743 0 -0.00045996893165176024 0.032466120880188694 0 -0.00051984703763171983 0.032349645363140743 0 -0.00050865275979573193 0.032223033180922886 0 -0.00058559567904657207 0.032161566477694421 0 -0.00051984703763171983 0.032349645363140743 0 -0.00050865275979573193 0.032223033180922886 0 5.4872941964008658e-05 0.031767967726191476 0 -0.00020527409411979638 0.031649623925203457 0 -0.00051827194094993803 0.031965458883364183 0 -0.00026372606093307623 0.032155730510589391 0 -0.00053859568646110617 0.032002902936201907 0 -0.00051873013554662277 0.032568020084381519 0 -0.00050865275979573193 0.032223033180922886 0 -0.00051827194094993803 0.031965458883364183 0 -0.00020527409411979638 0.031649623925203457 0 -0.00044131046843595673 0.031636774555754067 0 -0.00051827194094993803 0.031965458883364183 0 -0.00044131046843595673 0.031636774555754067 0 -0.00051827194094993803 0.031965458883364183 0 -0.00067585573495202345 0.031697745169820955 0 -0.00051827194094993803 0.031965458883364183 0 -0.00067585573495202345 0.031697745169820955 0 -0.00072478257318743685 0.031953870117698943 0 -0.00044131046843595673 0.031636774555754067 0 -0.00067585573495202345 0.031697745169820955 0 -0.00051364784292305253 0.03140489660820206 0 -0.00020527409411979638 0.031649623925203457 0 -0.00044131046843595673 0.031636774555754067 0 -0.00024288259149049963 0.031325626290442721 0 -1.3722235305900473e-05 0.031438621484135953 0 -0.00020527409411979638 0.031649623925203457 0 -0.00024288259149049963 0.031325626290442721 0 -0.00044131046843595673 0.031636774555754067 0 -0.00051364784292305253 0.03140489660820206 0 -0.00024288259149049963 0.031325626290442721 0 -0.00051364784292305253 0.03140489660820206 0 -0.00024288259149049963 0.031325626290442721 0 -0.00041395223976845085 0.031056399947539684 0 -0.00013647172156708773 0.031008816480088443 0 -0.00024288259149049963 0.031325626290442721 0 -0.00041395223976845085 0.031056399947539684 0 -0.00051364784292305253 0.03140489660820206 0 -0.00041395223976845085 0.031056399947539684 0 -0.00067952106764844835 0.031055036007843904 0 -0.00067952106764844835 0.031055036007843904 0 -0.00098563102902330096 0.031097083728489096 0 -0.00084770356223791562 0.030868762706736629 0 -0.00051364784292305253 0.03140489660820206 0 -0.00067952106764844835 0.031055036007843904 0 -0.00098563102902330096 0.031097083728489096 0 -0.00052811812607655713 0.031382045694686091 0 -0.0009317995115502468 0.031119825523593492 0 -0.00088769569364459053 0.031144203431472797 0 -0.001078757578723598 0.03129631538979908 0 -0.00085023090171656437 0.031490203584521995 0 -0.001078757578723598 0.03129631538979908 0 -0.00085023090171656437 0.031490203584521995 0 -0.0010290155967081719 0.031600316211709445 0 -0.00067585573495202345 0.031697745169820955 0 -0.00051364784292305253 0.03140489660820206 0 -0.00085023090171656437 0.031490203584521995 0 -0.00051364784292305253 0.03140489660820206 0 -0.00088769569364459053 0.031144203431472797 0 -0.00085023090171656437 0.031490203584521995 0 -0.00067585573495202345 0.031697745169820955 0 -0.0008770836796184703 0.031754366233064539 0 -0.00072478257318743685 0.031953870117698943 0 -0.00067585573495202345 0.031697745169820955 0 -0.00085023090171656437 0.031490203584521995 0 -0.0008770836796184703 0.031754366233064539 0 -0.00085023090171656437 0.031490203584521995 0 -0.0008770836796184703 0.031754366233064539 0 -0.0010290155967081719 0.031600316211709445 0 -0.0008770836796184703 0.031754366233064539 0 -0.0010290155967081719 0.031600316211709445 0 -0.0010121983654669939 0.03180086297246984 0 -0.0010005043711212372 0.031959902389508917 0 -0.0010121983654669939 0.03180086297246984 0 -0.00087447868241732841 0.031973208721818143 0 -0.0008770836796184703 0.031754366233064539 0 -0.0010121983654669939 0.03180086297246984 0 -0.00087447868241732841 0.031973208721818143 0 -0.00072177801440128047 0.03215840407365253 0 -0.00087447868241732841 0.031973208721818143 0 -0.00072478257318743685 0.031953870117698943 0 -0.0008770836796184703 0.031754366233064539 0 -0.00087447868241732841 0.031973208721818143 0 -0.00072478257318743685 0.031953870117698943 0 -0.0012086060130226933 0.031693411882727195 0 -0.001236559432349313 0.031612108223423238 0 -0.0011251453664507052 0.031783264954827473 0 -0.001236559432349313 0.031612108223423238 0 -0.0011251453664507052 0.031783264954827473 0 -0.0011368057563779497 0.031658845255160308 0 -0.0010005043711212372 0.031959902389508917 0 -0.0010121983654669939 0.03180086297246984 0 -0.0011251453664507052 0.031783264954827473 0 -0.0010121983654669939 0.03180086297246984 0 -0.0011251453664507052 0.031783264954827473 0 -0.0011368057563779497 0.031658845255160308 0 -0.0011368057563779497 0.031658845255160308 0 -0.0011534345459443757 0.031536407107572662 0 -0.0012053777796477727 0.031584386730431811 0 -0.0010290155967081719 0.031600316211709445 0 -0.0010121983654669939 0.03180086297246984 0 -0.0011368057563779497 0.031658845255160308 0 -0.0010290155967081719 0.031600316211709445 0 -0.0011368057563779497 0.031658845255160308 0 -0.0011534345459443757 0.031536407107572662 0 -0.001236559432349313 0.031612108223423238 0 -0.0012053777796477727 0.031584386730431811 0 -0.0012587476866758429 0.031540195055833831 0 -0.0011534345459443757 0.031536407107572662 0 -0.0012053777796477727 0.031584386730431811 0 -0.0012587476866758429 0.031540195055833831 0 -0.001236559432349313 0.031612108223423238 0 -0.0011368057563779497 0.031658845255160308 0 -0.0012053777796477727 0.031584386730431811 0 -0.0015514039213048089 0.031135862336036151 0 -0.001377758031795899 0.031041378575521368 0 -0.001541787396143897 0.030818776041704781 0 -0.0015514039213048089 0.031135862336036151 0 -0.0014826705978300801 0.031205767065164928 0 -0.001377758031795899 0.031041378575521368 0 -0.001078757578723598 0.03129631538979908 0 -0.0014826705978300801 0.031205767065164928 0 -0.001377758031795899 0.031041378575521368 0 -0.001078757578723598 0.03129631538979908 0 -0.0011534345459443757 0.031536407107572662 0 -0.0012587476866758429 0.031540195055833831 0 -0.0010783411333717104 0.031290693309559324 0 -0.0013521674425783848 0.031363350174953689 0 -0.001078757578723598 0.03129631538979908 0 -0.0010290155967081719 0.031600316211709445 0 -0.0011534345459443757 0.031536407107572662 0 -0.001078757578723598 0.03129631538979908 0 -0.001377758031795899 0.031041378575521368 0 -0.0012906512941901205 0.03075725830131585 0 -0.0009317995115502468 0.031119825523593492 0 -0.0013571907973730724 0.030752524581858984 0 -0.00088769569364459053 0.031144203431472797 0 -0.001078757578723598 0.03129631538979908 0 -0.0012906512941901205 0.03075725830131585 0 -0.001377758031795899 0.031041378575521368 0 -0.001541787396143897 0.030818776041704781 0 -0.0012906512941901205 0.03075725830131585 0 -0.00174180905005783 0.030396669221687638 0 -0.0015530071451347249 0.030300309993921935 0 -0.0014151777385958218 0.030761194147946924 0 -0.001728513904511525 0.03043455953352333 0 -0.0013571907973730724 0.030752524581858984 0 -0.00174180905005783 0.030396669221687638 0 -0.001541787396143897 0.030818776041704781 0 -0.0012906512941901205 0.03075725830131585 0 -0.0015530071451347249 0.030300309993921935 0 -0.0012665350215418857 0.030427411261317993 0 -0.0014151777385958218 0.030761194147946924 0 -0.0015530071451347249 0.030300309993921935 0 -0.0012665350215418857 0.030427411261317993 0 -0.0013574386338599308 0.030198461692375136 0 -0.0012665350215418857 0.030427411261317993 0 -0.0014151777385958218 0.030761194147946924 0 -0.0010563390262017724 0.030694668110667348 0 -0.00098563102902330096 0.031097083728489096 0 -0.0010563390262017724 0.030694668110667348 0 -0.00084770356223791562 0.030868762706736629 0 -0.00098563102902330096 0.031097083728489096 0 -0.0014151777385958218 0.030761194147946924 0 -0.0010563390262017724 0.030694668110667348 0 -0.0010563390262017724 0.030694668110667348 0 -0.00084770356223791562 0.030868762706736629 0 -0.00076582086453492776 0.030638524055399619 0 -0.00058915103603796558 0.030841478258292008 0 -0.00067952106764844835 0.031055036007843904 0 -0.00084770356223791562 0.030868762706736629 0 -0.00058915103603796558 0.030841478258292008 0 -0.00084770356223791562 0.030868762706736629 0 -0.00076582086453492776 0.030638524055399619 0 -0.00067331603599270738 0.030358836806463341 0 -0.00076582086453492776 0.030638524055399619 0 -0.00097592035403096906 0.030468551478612806 0 -0.0010563390262017724 0.030694668110667348 0 -0.00076582086453492776 0.030638524055399619 0 -0.00097592035403096906 0.030468551478612806 0 -0.0012665350215418857 0.030427411261317993 0 -0.00097592035403096906 0.030468551478612806 0 -0.0010877872237594543 0.030219687376997942 0 -0.0012665350215418857 0.030427411261317993 0 -0.0010563390262017724 0.030694668110667348 0 -0.00097592035403096906 0.030468551478612806 0 -0.00068461488509454968 0.030361168470421345 0 -0.0010877872237594543 0.030219687376997942 0 -0.00087038040320060032 0.029930316496306088 0 -0.00081217780575216971 0.030220960046586993 0 -0.0010058273014191229 0.030270590284199848 0 -0.00067331603599270738 0.030358836806463341 0 -0.00097592035403096906 0.030468551478612806 0 -0.0010877872237594543 0.030219687376997942 0 -0.0014778486429526826 0.030680489054859945 0 -0.0014826226683444361 0.030665329944590355 0 -0.0013774440623086932 0.03068324791605501 0 -0.0006050358630173006 0.030071350529938711 0 -0.00068461488509454968 0.030361168470421345 0 -0.00087038040320060032 0.029930316496306088 0 -0.0014778486429526826 0.030680489054859945 0 -0.0015908993865554671 0.03066562710360039 0 -0.0014826226683444361 0.030665329944590355 0 -0.0010877872237594543 0.030219687376997942 0 -0.00087038040320060032 0.029930316496306088 0 -0.0012752125554197195 0.029986663657472611 0 -0.0011138140423957465 0.030127849843194814 0 -0.0017876173306487387 0.030165625843854526 0 -0.0017876173306487387 0.030165625843854526 0 -0.0019899406625215115 0.030378047619346111 0 -0.0017876173306487387 0.030165625843854526 0 -0.0022172773186176806 0.029899228013852381 0 -0.0023488289699509831 0.030148613603175976 0 -0.0023383973689239312 0.030093638171860292 0 -0.0023482931979698913 0.030149260535059497 0 -0.0023383973689239312 0.030093638171860292 0 -0.002344254052434898 0.030148073604970738 0 -0.0023482931979698913 0.030149260535059497 0 -0.0020090302306643992 0.029744751280393507 0 -0.0019828302885656359 0.029716869338310501 0 -0.0019802465669974049 0.029706743681275353 0 -0.0017876173306487387 0.030165625843854526 0 -0.0017378316553838889 0.029843328968511888 0 -0.0022682420877483886 0.030118967800619963 0 -0.0023383973689239312 0.030093638171860292 0 -0.002344254052434898 0.030148073604970738 0 -0.0015530071451347249 0.030300309993921935 0 -0.0015685082692799255 0.030056231464313566 0 -0.0013574386338599308 0.030198461692375136 0 -0.0012752125554197195 0.029986663657472611 0 -0.0015685082692799255 0.030056231464313566 0 -0.0013574386338599308 0.030198461692375136 0 -0.0012665350215418857 0.030427411261317993 0 -0.0010877872237594543 0.030219687376997942 0 -0.0013574386338599308 0.030198461692375136 0 -0.0010877872237594543 0.030219687376997942 0 -0.0012752125554197195 0.029986663657472611 0 -0.0013574386338599308 0.030198461692375136 0 -0.0023407442565763744 0.030163149771984751 0 -0.0023414017442724348 0.030164254363821533 0 -0.0023445590430076764 0.030157886133345625 0 -0.0023407442565763744 0.030163149771984751 0 -0.0023414017442724348 0.030164254363821533 0 -0.0023421719340094614 0.030164308220663072 0 -0.0022984655076231774 0.03021125259492571 0 -0.0024421321305164037 0.030339475579124361 0 -0.0023340898136427236 0.030329914505651499 0 -0.0022984655076231774 0.03021125259492571 0 -0.0024421321305164037 0.030339475579124361 0 -0.002344254052434898 0.030148073604970738 0 -0.0023370873101090307 0.030256876281047878 0 -0.0023636676018675188 0.030154334858962815 0 -0.0023488289699509831 0.030148613603175976 0 -0.0023445590430076764 0.030157886133345625 0 -0.0023376319823814845 0.030166803960593951 0 -0.0023488289699509831 0.030148613603175976 0 -0.0023482931979698913 0.030149260535059497 0 -0.0023445590430076764 0.030157886133345625 0 -0.002344254052434898 0.030148073604970738 0 -0.0023482931979698913 0.030149260535059497 0 -0.0023445590430076764 0.030157886133345625 0 -0.0023414017442724348 0.030164254363821533 0 -0.002344254052434898 0.030148073604970738 0 -0.0023445590430076764 0.030157886133345625 0 -0.0023407442565763744 0.030163149771984751 0 -0.0023445590430076764 0.030157886133345625 0 -0.0023376319823814845 0.030166803960593951 0 -0.0023488289699509831 0.030148613603175976 0 -0.0023376319823814845 0.030166803960593951 0 -0.0023270409539318257 0.030178607576631229 0 -0.0023376319823814845 0.030166803960593951 0 -0.002318911686771685 0.030174718682059426 0 -0.0023270409539318257 0.030178607576631229 0 -0.002318911686771685 0.030174718682059426 0 -0.0023270409539318257 0.030178607576631229 0 -0.0022918349110989263 0.030191602388215357 0 -0.0024696350468893916 0.030686767353809097 0 -0.0018792824798519936 0.03208302155489999 0 -0.0023376319823814845 0.030166803960593951 0 -0.002318911686771685 0.030174718682059426 0 -0.0023313572822576539 0.03016215602030067 0 -0.002318911686771685 0.030174718682059426 0 -0.0023313572822576539 0.03016215602030067 0 -0.0022965352762560997 0.030177712926235487 0 -0.0023407442565763744 0.030163149771984751 0 -0.0023313572822576539 0.03016215602030067 0 -0.0023421719340094614 0.030164308220663072 0 -0.0023407442565763744 0.030163149771984751 0 -0.0023376319823814845 0.030166803960593951 0 -0.0023313572822576539 0.03016215602030067 0 -0.0023480830570498262 0.031534289667568695 0 -0.0023896081177285618 0.03147137411457198 0 -0.0024457595630054669 0.031488098445315707 0 -0.0024696350468893916 0.030686767353809097 0 -0.0023013186964488835 0.030815530907969763 0 -0.0023480830570498262 0.031534289667568695 0 -0.0023896081177285618 0.03147137411457198 0 -0.002344661371833456 0.031441351439845305 0 -0.0023480830570498262 0.031534289667568695 0 -0.002266445613964648 0.031478890635879601 0 -0.0022314350476030295 0.031586037957897252 0 -0.0023480830570498262 0.031534289667568695 0 -0.002344661371833456 0.031441351439845305 0 -0.002266445613964648 0.031478890635879601 0 -0.002344661371833456 0.031441351439845305 0 -0.0023309182127745774 0.031367495302254106 0 -0.0023185657115249525 0.031378187283532089 0 -0.002344661371833456 0.031441351439845305 0 -0.0023185657115249525 0.031378187283532089 0 -0.002266445613964648 0.031478890635879601 0 -0.0022489970120520182 0.031971250196151942 0 -0.0020887655184470607 0.032642096341399911 0 -0.002344661371833456 0.031441351439845305 0 -0.0024160347007926171 0.031424973188435144 0 -0.0023309182127745774 0.031367495302254106 0 -0.0023896081177285618 0.03147137411457198 0 -0.002344661371833456 0.031441351439845305 0 -0.0024160347007926171 0.031424973188435144 0 -0.0024649081946218313 0.031043874903495212 0 -0.0023013186964488835 0.030815530907969763 0 -0.0025180828811444053 0.030603328810066274 0 -0.0024681227321225793 0.030414298372952772 0 -0.0023822750976971708 0.030492171018438652 0 -0.0025180828811444053 0.030603328810066274 0 -0.0023822750976971708 0.030492171018438652 0 -0.002399365852325253 0.030781666129375187 0 -0.0023896081177285618 0.03147137411457198 0 -0.0024160347007926171 0.031424973188435144 0 -0.0024457595630054669 0.031488098445315707 0 -0.0024421321305164037 0.030339475579124361 0 -0.0024681227321225793 0.030414298372952772 0 -0.0023822750976971708 0.030492171018438652 0 -0.0023370873101090307 0.030256876281047878 0 -0.0023013186964488835 0.030815530907969763 0 -0.002301940070960394 0.030413756101885361 0 -0.0023340898136427236 0.030329914505651499 0 -0.0023822750976971708 0.030492171018438652 0 -0.0024421321305164037 0.030339475579124361 0 -0.0023340898136427236 0.030329914505651499 0 -0.0023822750976971708 0.030492171018438652 0 -0.0023822750976971708 0.030492171018438652 0 -0.0023384366343873028 0.030562082834977609 0 -0.002399365852325253 0.030781666129375187 0 -0.002301940070960394 0.030413756101885361 0 -0.0023822750976971708 0.030492171018438652 0 -0.0023384366343873028 0.030562082834977609 0 -0.0023384366343873028 0.030562082834977609 0 -0.002399365852325253 0.030781666129375187 0 -0.0023694137831122954 0.03080968309857654 0 -0.0023777906431061324 0.030452000965848998 0 -0.0023384366343873028 0.030562082834977609 0 -0.0023694137831122954 0.03080968309857654 0 -0.002399365852325253 0.030781666129375187 0 -0.0023799912308325689 0.031020845475687647 0 -0.0023694137831122954 0.03080968309857654 0 -0.0023799912308325689 0.031020845475687647 0 -0.0023694137831122954 0.03080968309857654 0 -0.0023696857423988194 0.031045528739449019 0 -0.0023694137831122954 0.03080968309857654 0 -0.0023770693140232218 0.030824937186325979 0 -0.0023696857423988194 0.031045528739449019 0 -0.0023777906431061324 0.030452000965848998 0 -0.0023694137831122954 0.03080968309857654 0 -0.0023770693140232218 0.030824937186325979 0 -0.0023332715587153401 0.030873488885339403 0 -0.0023770693140232218 0.030824937186325979 0 -0.0023570038742467452 0.030981481256188586 0 -0.0023696857423988194 0.031045528739449019 0 -0.0023570038742467452 0.030981481256188586 0 -0.0022690235152276477 0.031129436740074866 0 -0.0023770693140232218 0.030824937186325979 0 -0.0023696857423988194 0.031045528739449019 0 -0.0023570038742467452 0.030981481256188586 0 -0.0023570038742467452 0.030981481256188586 0 -0.0022690235152276477 0.031129436740074866 0 -0.0022822665115514481 0.0310027785828716 0 -0.0023332715587153401 0.030873488885339403 0 -0.0023570038742467452 0.030981481256188586 0 -0.0023393108793633259 0.030934632449903 0 -0.0020370839106655641 0.031157431353732768 0 -0.0022690235152276477 0.031129436740074866 0 -0.0022822665115514481 0.0310027785828716 0 -0.0020370839106655641 0.031157431353732768 0 -0.0022690235152276477 0.031129436740074866 0 -0.0022622054369068972 0.031266107839395631 0 -0.0023696857423988194 0.031045528739449019 0 -0.0022622054369068972 0.031266107839395631 0 -0.0023780617020346269 0.03126219419987445 0 -0.0023696857423988194 0.031045528739449019 0 -0.0022690235152276477 0.031129436740074866 0 -0.0022622054369068972 0.031266107839395631 0 -0.0020370839106655641 0.031157431353732768 0 -0.0022622054369068972 0.031266107839395631 0 -0.0018650133643966468 0.03134912440819064 0 -0.0022622054369068972 0.031266107839395631 0 -0.0022877340496256383 0.031481132180552582 0 -0.0018650133643966468 0.03134912440819064 0 -0.0022877340496256383 0.031481132180552582 0 -0.0023780617020346269 0.03126219419987445 0 -0.0023309182127745774 0.031367495302254106 0 -0.0022877340496256383 0.031481132180552582 0 -0.0021978787620830077 0.032644476016774136 0 -0.0016313291908417293 0.032054195450240089 0 -0.0022622054369068972 0.031266107839395631 0 -0.0022877340496256383 0.031481132180552582 0 -0.0023780617020346269 0.03126219419987445 0 -0.002399365852325253 0.030781666129375187 0 -0.0023799912308325689 0.031020845475687647 0 -0.0023780617020346269 0.03126219419987445 0 -0.0023799912308325689 0.031020845475687647 0 -0.0023696857423988194 0.031045528739449019 0 -0.0023780617020346269 0.03126219419987445 0 -0.0024160347007926171 0.031424973188435144 0 -0.0023780617020346269 0.03126219419987445 0 -0.0023309182127745774 0.031367495302254106 0 -0.0024649081946218313 0.031043874903495212 0 -0.0023876532177388556 0.031209864352753129 0 -0.0025180828811444053 0.030603328810066274 0 -0.002399365852325253 0.030781666129375187 0 -0.0023780617020346269 0.03126219419987445 0 -0.0022973193817631462 0.031550887661220911 0 -0.0022489970120520182 0.031971250196151942 0 -0.0022877340496256383 0.031481132180552582 0 -0.0023309182127745774 0.031367495302254106 0 -0.0023185657115249525 0.031378187283532089 0 -0.0021978787620830077 0.032644476016774136 0 -0.0016313291908417293 0.032054195450240089 0 -0.0013937080240544349 0.032937108848603659 0 -0.0016313291908417293 0.032054195450240089 0 -0.00089431188140578566 0.032561961228908747 0 -0.0013937080240544349 0.032937108848603659 0 -0.0016313291908417293 0.032054195450240089 0 -0.0011374073839643833 0.031601842494157241 0 -0.00089431188140578566 0.032561961228908747 0 -0.0022877340496256383 0.031481132180552582 0 -0.0016313291908417293 0.032054195450240089 0 -0.0018650133643966468 0.03134912440819064 0 -0.0016313291908417293 0.032054195450240089 0 -0.0018650133643966468 0.03134912440819064 0 -0.0011374073839643833 0.031601842494157241 0 -0.001829326237298136 0.031377406493535709 0 -0.0013220700322762024 0.031606340138364539 0 -0.0018650133643966468 0.03134912440819064 0 -0.0015178485340307261 0.031613392959482171 0 -0.0014977692864549157 0.031477433585131852 0 -0.0014977692864549157 0.031477433585131852 0 -0.0015442915053949929 0.031389176530698802 0 -0.001696686534957871 0.031317338299565824 0 -0.0018650133643966468 0.03134912440819064 0 -0.0014977692864549157 0.031477433585131852 0 -0.001696686534957871 0.031317338299565824 0 -0.0014977692864549157 0.031477433585131852 0 -0.0015442915053949929 0.031389176530698802 0 -0.0014469162357551315 0.031459323256284831 0 -0.0020370839106655641 0.031157431353732768 0 -0.0018650133643966468 0.03134912440819064 0 -0.001696686534957871 0.031317338299565824 0 -0.001371399485175683 0.031605046641005816 0 -0.0014020089954436409 0.031536664589897352 0 -0.0014006123569525052 0.031561047804014641 0 -0.001371399485175683 0.031605046641005816 0 -0.0014006123569525052 0.031561047804014641 0 -0.0013764096500604268 0.031610301322207823 0 -0.0013753425062626222 0.031630135214542707 0 -0.001371399485175683 0.031605046641005816 0 -0.0013764096500604268 0.031610301322207823 0 -0.0013753425062626222 0.031630135214542707 0 -0.0013764096500604268 0.031610301322207823 0 -0.0013888790016633665 0.031646268559525521 0 -0.001371399485175683 0.031605046641005816 0 -0.0013757455816911864 0.031668015058149014 0 -0.001363379078308565 0.031674281605153135 0 -0.0013753425062626222 0.031630135214542707 0 -0.001371399485175683 0.031605046641005816 0 -0.0013757455816911864 0.031668015058149014 0 -0.001371399485175683 0.031605046641005816 0 -0.0014020089954436409 0.031536664589897352 0 -0.0013669234919128908 0.031588747640565018 0 -0.0014977692864549157 0.031477433585131852 0 -0.0014020089954436409 0.031536664589897352 0 -0.0014469162357551315 0.031459323256284831 0 -0.0014977692864549157 0.031477433585131852 0 -0.0014020089954436409 0.031536664589897352 0 -0.0014006123569525052 0.031561047804014641 0 -0.0015178485340307261 0.031613392959482171 0 -0.0014977692864549157 0.031477433585131852 0 -0.0014006123569525052 0.031561047804014641 0 -0.0015178485340307261 0.031613392959482171 0 -0.0014006123569525052 0.031561047804014641 0 -0.0013898205638163154 0.031600842273556376 0 -0.0015178485340307261 0.031613392959482171 0 -0.0013898205638163154 0.031600842273556376 0 -0.0013793371332923986 0.031628757178885622 0 -0.0013898205638163154 0.031600842273556376 0 -0.0013838010364067483 0.031612929817151303 0 -0.0013793371332923986 0.031628757178885622 0 -0.0013838010364067483 0.031612929817151303 0 -0.0013793371332923986 0.031628757178885622 0 -0.0013987363308076053 0.031607810590254672 0 -0.0014006123569525052 0.031561047804014641 0 -0.0013898205638163154 0.031600842273556376 0 -0.0013764096500604268 0.031610301322207823 0 -0.0013898205638163154 0.031600842273556376 0 -0.0013764096500604268 0.031610301322207823 0 -0.0013838010364067483 0.031612929817151303 0 -0.00026931673118703954 0.031939987522196088 0 -0.00089431188140578566 0.032561961228908747 0 -0.00015207658653619083 0.032381981615059473 0 -0.00026931673118703954 0.031939987522196088 0 -0.00015207658653619083 0.032381981615059473 0 0.00054173692463727172 0.032239321650626394 0 -0.0013220700322762024 0.031606340138364539 0 -0.00086834227575013109 0.031713162264720894 0 -0.0011374073839643833 0.031601842494157241 0 -0.00026931673118703954 0.031939987522196088 0 -0.00089431188140578566 0.032561961228908747 0 -0.00089431188140578566 0.032561961228908747 0 -0.00057510487536954042 0.032946134275434698 0 -0.00077407181824572333 0.033165034385579793 0 -0.00089431188140578566 0.032561961228908747 0 -0.00077407181824572333 0.033165034385579793 0 -0.0013937080240544349 0.032937108848603659 0 -0.00089431188140578566 0.032561961228908747 0 -0.00057510487536954042 0.032946134275434698 0 -0.0004397541451224626 0.032773619868704279 0 -0.00090444160541876685 0.032602614766059322 0 -0.00019408630804453988 0.032545372038924325 0 -0.00057510487536954042 0.032946134275434698 0 -0.0004397541451224626 0.032773619868704279 0 -0.00018120624754508493 0.033054005871311576 0 -0.00057510487536954042 0.032946134275434698 0 -0.00037800491730464054 0.033263424169109455 0 -0.00018120624754508493 0.033054005871311576 0 -0.00057510487536954042 0.032946134275434698 0 -0.00037800491730464054 0.033263424169109455 0 -0.00077407181824572333 0.033165034385579793 0 -0.00037800491730464054 0.033263424169109455 0 -0.00049163523826877031 0.033628340546031914 0 -0.00012735576735685471 0.033515904584435187 0 -0.00037800491730464054 0.033263424169109455 0 -0.00049163523826877031 0.033628340546031914 0 -0.00077407181824572333 0.033165034385579793 0 -0.00049163523826877031 0.033628340546031914 0 -0.00037821231719039429 0.034016866272281995 0 -0.00081929708469901416 0.03400207191429791 0 -0.00049163523826877031 0.033628340546031914 0 -0.00037821231719039429 0.034016866272281995 0 -8.900672864839525e-05 0.033836173387144189 0 -0.00049163523826877031 0.033628340546031914 0 -0.0010841578658450967 0.03357301425089472 0 -0.00081929708469901416 0.03400207191429791 0 -0.00049163523826877031 0.033628340546031914 0 -0.00077407181824572333 0.033165034385579793 0 -0.0010841578658450967 0.03357301425089472 0 -0.00077407181824572333 0.033165034385579793 0 -0.0013937080240544349 0.032937108848603659 0 -0.0010841578658450967 0.03357301425089472 0 -0.0013937080240544349 0.032937108848603659 0 -0.0019391610354205398 0.033495469689853223 0 -0.0010841578658450967 0.03357301425089472 0 -0.0021978787620830077 0.032644476016774136 0 -0.0013937080240544349 0.032937108848603659 0 -0.0019391610354205398 0.033495469689853223 0 -0.0020887655184470607 0.032642096341399911 0 -0.0018792824798519936 0.03208302155489999 0 -0.0010841578658450967 0.03357301425089472 0 -0.001327532554078133 0.033957755916299889 0 -0.00081929708469901416 0.03400207191429791 0 -0.0019391610354205398 0.033495469689853223 0 -0.0010841578658450967 0.03357301425089472 0 -0.001327532554078133 0.033957755916299889 0 -0.0018792824798519936 0.03208302155489999 0 -0.00082777446731636657 0.033468263857598629 0 -0.0014578990299052796 0.032201164407900155 0 -0.00056828759969326705 0.032522939005322 0 -0.0010469162415218773 0.032617270749142377 0 -0.001327532554078133 0.033957755916299889 0 -0.0017058261829358894 0.034173187639689101 0 -0.0011362582738918155 0.034336520594896058 0 -0.001327532554078133 0.033957755916299889 0 -0.0011362582738918155 0.034336520594896058 0 -0.00081929708469901416 0.03400207191429791 0 -0.0019391610354205398 0.033495469689853223 0 -0.001327532554078133 0.033957755916299889 0 -0.0017058261829358894 0.034173187639689101 0 -0.002318911686771685 0.030174718682059426 0 -0.0022965352762560997 0.030177712926235487 0 -0.0022918349110989263 0.030191602388215357 0 -0.0014826226683444361 0.030665329944590355 0 -0.001387056145296653 0.030653176188028427 0 -0.0013774440623086932 0.03068324791605501 0 -0.0019899406625215115 0.030378047619346111 0 -0.0015221663154286144 0.031123662632082577 0 -0.0018792824798519936 0.03208302155489999 0 -0.0015221663154286144 0.031123662632082577 0 -0.0014578990299052796 0.032201164407900155 0 -0.0013008621317976352 0.032755398790940221 0 -0.0010469162415218773 0.032617270749142377 0 -0.0013008621317976352 0.032755398790940221 0 -0.0010469162415218773 0.032617270749142377 0 -0.0011194795711013548 0.032755498245233113 0 -0.0013008621317976352 0.032755398790940221 0 -0.0011194795711013548 0.032755498245233113 0 -0.0011314714637637659 0.032846685531406607 0 -0.0013008621317976352 0.032755398790940221 0 -0.001191639409388831 0.033136313380304615 0 -0.0011314714637637659 0.032846685531406607 0 -0.0015221663154286144 0.031123662632082577 0 -0.00070715893050061986 0.031899269245489151 0 -0.00070715893050061986 0.031899269245489151 0 0.00020234674817719978 0.03357943395199376 0 -0.001191639409388831 0.033136313380304615 0 -0.00088628284637201865 0.032880970732485623 0 -0.00043828376485442288 0.032992726654650986 0 -0.00056828759969326705 0.032522939005322 0 -0.00082394797377396457 0.032702658172449744 0 -0.00043828376485442288 0.032992726654650986 0 -0.00056828759969326705 0.032522939005322 0 -0.0010469162415218773 0.032617270749142377 0 -0.00082394797377396457 0.032702658172449744 0 -0.00099795020035630864 0.032772863341493423 0 -0.00088628284637201865 0.032880970732485623 0 -0.0011314714637637659 0.032846685531406607 0 -0.0010469162415218773 0.032617270749142377 0 -0.00099795020035630864 0.032772863341493423 0 -0.0011194795711013548 0.032755498245233113 0 -0.00099795020035630864 0.032772863341493423 0 -0.0011194795711013548 0.032755498245233113 0 -0.0011314714637637659 0.032846685531406607 0 -0.0010469162415218773 0.032617270749142377 0 -0.00099795020035630864 0.032772863341493423 0 -0.00082394797377396457 0.032702658172449744 0 -0.00099795020035630864 0.032772863341493423 0 -0.00082394797377396457 0.032702658172449744 0 -0.00088628284637201865 0.032880970732485623 0 -0.001191639409388831 0.033136313380304615 0 -0.00088628284637201865 0.032880970732485623 0 -0.0011314714637637659 0.032846685531406607 0 -0.00082394797377396457 0.032702658172449744 0 -0.00088628284637201865 0.032880970732485623 0 -0.00043828376485442288 0.032992726654650986 0 -0.00056828759969326705 0.032522939005322 0 -0.00043828376485442288 0.032992726654650986 0 0.00031415164586919914 0.032850249125022379 0 0.00020234674817719978 0.03357943395199376 0 0.00017261258655480461 0.033961615860550846 0 -0.00082777446731636657 0.033468263857598629 0 0.00017261258655480461 0.033961615860550846 0 0.00071239569958425402 0.03423724447334215 0 0.00070999697641225027 0.03427454007146815 0 0.0006656372922611059 0.034308457565351488 0 0.00071453213412046076 0.034373535322403226 0 0.00060058193942900387 0.034338489366788148 0 0.00055683573694801497 0.034436738959676555 0 0.00017261258655480461 0.033961615860550846 0 0.00021741104384174616 0.034408284776286699 0 0.00017261258655480461 0.033961615860550846 0 0.00082022752518342516 0.034432681319887817 0 0.00064635350569929506 0.034277401699065797 0 0.0006656372922611059 0.034308457565351488 0 0.00060058193942900387 0.034338489366788148 0 -0.00062992554198583711 0.034455512097401615 0 -0.00037821231719039429 0.034016866272281995 0 -0.00081929708469901416 0.03400207191429791 0 -0.00062992554198583711 0.034455512097401615 0 -0.00037821231719039429 0.034016866272281995 0 -2.8598556165545807e-05 0.034237349401696753 0 -0.0011362582738918155 0.034336520594896058 0 -0.00062992554198583711 0.034455512097401615 0 -0.00081929708469901416 0.03400207191429791 0 0.00021741104384174616 0.034408284776286699 0 0.00035185901667749499 0.034323280453061399 0 -2.8598556165545807e-05 0.034237349401696753 0 0.00028848523264249186 0.034113595221439662 0 0.0001882722352202493 0.033890968702082365 0 -2.8598556165545807e-05 0.034237349401696753 0 0.0001882722352202493 0.033890968702082365 0 -8.900672864839525e-05 0.033836173387144189 0 -0.00037821231719039429 0.034016866272281995 0 -2.8598556165545807e-05 0.034237349401696753 0 -8.900672864839525e-05 0.033836173387144189 0 0.00060058193942900387 0.034338489366788148 0 0.00055683573694801497 0.034436738959676555 0 0.00051412177225851699 0.034367735297720081 0 0.00055683573694801497 0.034436738959676555 0 0.00051412177225851699 0.034367735297720081 0 0.00040544066440902912 0.034544676347907699 0 0.000273082724381865 0.034434781409503616 0 0.00043406854651631562 0.034323911289321107 0 0.00040544066440902912 0.034544676347907699 0 0.00043406854651631562 0.034323911289321107 0 0.00051412177225851699 0.034367735297720081 0 0.00040544066440902912 0.034544676347907699 0 0.000273082724381865 0.034434781409503616 0 0.00040544066440902912 0.034544676347907699 0 0.00022662363436880745 0.034672411910188917 0 0.00028848523264249186 0.034113595221439662 0 0.00031896265667234096 0.033998167068747073 0 0.00038765686476006288 0.034130799868150943 0 0.00035185901667749499 0.034323280453061399 0 0.00030136428477452686 0.03440776270199291 0 0.00031896265667234096 0.033998167068747073 0 0.00027210199863022497 0.033829826496832159 0 0.0001882722352202493 0.033890968702082365 0 0.00028848523264249186 0.034113595221439662 0 0.00031896265667234096 0.033998167068747073 0 0.0001882722352202493 0.033890968702082365 0 0.00031896265667234096 0.033998167068747073 0 0.00036522081063226414 0.034043642509463928 0 0.00038765686476006288 0.034130799868150943 0 0.00036522081063226414 0.034043642509463928 0 0.00027210199863022497 0.033829826496832159 0 0.00032956294044010555 0.033788786384817783 0 0.00031896265667234096 0.033998167068747073 0 0.00036522081063226414 0.034043642509463928 0 0.00027210199863022497 0.033829826496832159 0 0.00027210199863022497 0.033829826496832159 0 0.0001685210559837973 0.033695636655960703 0 0.0001882722352202493 0.033890968702082365 0 0.00027210199863022497 0.033829826496832159 0 0.00018700195733656441 0.033646731444438839 0 0.00032956294044010555 0.033788786384817783 0 0.00027210199863022497 0.033829826496832159 0 0.0001685210559837973 0.033695636655960703 0 0.00018700195733656441 0.033646731444438839 0 0.0001685210559837973 0.033695636655960703 0 0.0001194408247696068 0.033563152165913254 0 0.00018700195733656441 0.033646731444438839 0 0.0001685210559837973 0.033695636655960703 0 7.4119991682547481e-05 0.03363524788688043 0 0.0001882722352202493 0.033890968702082365 0 0.0001194408247696068 0.033563152165913254 0 7.4119991682547481e-05 0.03363524788688043 0 7.4548892406557063e-05 0.033423206524238441 0 0.0001685210559837973 0.033695636655960703 0 0.0001194408247696068 0.033563152165913254 0 7.4119991682547481e-05 0.03363524788688043 0 7.4119991682547481e-05 0.03363524788688043 0 0.0001882722352202493 0.033890968702082365 0 -8.900672864839525e-05 0.033836173387144189 0 -0.00049163523826877031 0.033628340546031914 0 -8.900672864839525e-05 0.033836173387144189 0 -0.00012735576735685471 0.033515904584435187 0 -0.00037800491730464054 0.033263424169109455 0 -0.00012735576735685471 0.033515904584435187 0 -0.00018120624754508493 0.033054005871311576 0 -0.00012735576735685471 0.033515904584435187 0 7.4548892406557063e-05 0.033423206524238441 0 -0.00018120624754508493 0.033054005871311576 0 7.4119991682547481e-05 0.03363524788688043 0 -8.900672864839525e-05 0.033836173387144189 0 -0.00012735576735685471 0.033515904584435187 0 7.4119991682547481e-05 0.03363524788688043 0 -0.00012735576735685471 0.033515904584435187 0 7.4548892406557063e-05 0.033423206524238441 0 -0.0004397541451224626 0.032773619868704279 0 -0.00018120624754508493 0.033054005871311576 0 4.6710292440436137e-05 0.032726785119771271 0 7.4548892406557063e-05 0.033423206524238441 0 -0.00018120624754508493 0.033054005871311576 0 7.1788335109592146e-05 0.03299951311146905 0 7.1788335109592146e-05 0.03299951311146905 0 0.00040135524926990067 0.032812724703124664 0 4.6710292440436137e-05 0.032726785119771271 0 -0.00018120624754508493 0.033054005871311576 0 7.1788335109592146e-05 0.03299951311146905 0 4.6710292440436137e-05 0.032726785119771271 0 7.4548892406557063e-05 0.033423206524238441 0 9.5933491558090081e-05 0.033537753569038237 0 0.00010833023835206954 0.033598618519483717 0 7.4548892406557063e-05 0.033423206524238441 0 7.1788335109592146e-05 0.03299951311146905 0 0.00040135524926990067 0.032812724703124664 0 0.00016183619868643146 0.033301077672068129 0 1.7895403577810606e-05 0.03349817700592321 0 0.0001194408247696068 0.033563152165913254 0 9.5933491558090081e-05 0.033537753569038237 0 0.00018700195733656441 0.033646731444438839 0 0.0001194408247696068 0.033563152165913254 0 7.4548892406557063e-05 0.033423206524238441 0 9.5933491558090081e-05 0.033537753569038237 0 0.00020482047406738496 0.033744522893255573 0 6.7245133948880522e-05 0.03412633049883456 0 9.5933491558090081e-05 0.033537753569038237 0 0.00016032446336907411 0.033542631884078855 0 0.00018700195733656441 0.033646731444438839 0 9.5933491558090081e-05 0.033537753569038237 0 0.00010833023835206954 0.033598618519483717 0 5.5545893802436792e-05 0.033582918297608233 0 1.7895403577810606e-05 0.03349817700592321 0 6.7245133948880522e-05 0.03412633049883456 0 2.6400225892982482e-05 0.034342809654093101 0 -1.8787980592915855e-05 0.034329795816780875 0 4.2134116908908432e-06 0.03438750614328976 0 1.7895403577810606e-05 0.03349817700592321 0 -0.00037077873855049772 0.033659272381965484 0 -0.00025009396728290119 0.033129829835831216 0 -0.0002520296586538833 0.033134176909162184 0 -0.00024564504197287706 0.033127816748896387 0 -0.0014608295671308621 0.031579056602663941 0 -0.0014305352787584383 0.031596958791006831 0 -0.0014085376652062933 0.031580372599551196 0 1.7895403577810606e-05 0.03349817700592321 0 -0.00035000131961693173 0.032500193310780273 0 -0.00037077873855049772 0.033659272381965484 0 -0.00035000131961693173 0.032500193310780273 0 -0.0014608295671308621 0.031579056602663941 0 -0.0014305352787584383 0.031596958791006831 0 -0.0014575310067297198 0.031614840250120291 0 -0.00037077873855049772 0.033659272381965484 0 -0.00076738302188312049 0.033182406082299637 0 -0.0014608295671308621 0.031579056602663941 0 -0.0014575310067297198 0.031614840250120291 0 -0.0015190889586679951 0.031621068997574657 0 -0.0013793371332923986 0.031628757178885622 0 -0.0014085376652062933 0.031580372599551196 0 -0.0013987363308076053 0.031607810590254672 0 -0.00019408630804453988 0.032545372038924325 0 -0.00035000131961693173 0.032500193310780273 0 -0.00086834227575013109 0.031713162264720894 0 -0.00035000131961693173 0.032500193310780273 0 -0.0014305352787584383 0.031596958791006831 0 -0.0014085376652062933 0.031580372599551196 0 -0.0013987363308076053 0.031607810590254672 0 -0.0013838010364067483 0.031612929817151303 0 -0.0013987363308076053 0.031607810590254672 0 -0.0014014944822416183 0.03162930103656706 0 -0.0013764096500604268 0.031610301322207823 0 -0.0013838010364067483 0.031612929817151303 0 -0.0014014944822416183 0.03162930103656706 0 -0.0014014944822416183 0.03162930103656706 0 -0.0014262990504619458 0.031616323163866804 0 -0.0014373516056194627 0.031636157106753542 0 -0.0014014944822416183 0.03162930103656706 0 -0.0014373516056194627 0.031636157106753542 0 -0.0014287098744650872 0.031665516824955796 0 -0.0014305352787584383 0.031596958791006831 0 -0.0013987363308076053 0.031607810590254672 0 -0.0014262990504619458 0.031616323163866804 0 -0.0013987363308076053 0.031607810590254672 0 -0.0014014944822416183 0.03162930103656706 0 -0.0014262990504619458 0.031616323163866804 0 -0.0014305352787584383 0.031596958791006831 0 -0.0014262990504619458 0.031616323163866804 0 -0.0014575310067297198 0.031614840250120291 0 -0.0014262990504619458 0.031616323163866804 0 -0.0014575310067297198 0.031614840250120291 0 -0.0014373516056194627 0.031636157106753542 0 -0.0014575310067297198 0.031614840250120291 0 -0.0014736979987895272 0.031647973831198217 0 -0.0015190889586679951 0.031621068997574657 0 -0.0014736979987895272 0.031647973831198217 0 -0.0015104145406867997 0.031664913267130446 0 -0.0015190889586679951 0.031621068997574657 0 -0.0014736979987895272 0.031647973831198217 0 -0.0014373516056194627 0.031636157106753542 0 -0.0014287098744650872 0.031665516824955796 0 -0.0014575310067297198 0.031614840250120291 0 -0.0014736979987895272 0.031647973831198217 0 -0.0014373516056194627 0.031636157106753542 0 -0.0014736979987895272 0.031647973831198217 0 -0.0014287098744650872 0.031665516824955796 0 -0.0014742743476614103 0.03168557281369145 0 -0.0014287098744650872 0.031665516824955796 0 -0.0014742743476614103 0.03168557281369145 0 -0.0014559780024041369 0.031728977674294459 0 -0.0014736979987895272 0.031647973831198217 0 -0.0014742743476614103 0.03168557281369145 0 -0.0015104145406867997 0.031664913267130446 0 -0.0014742743476614103 0.03168557281369145 0 -0.0015104145406867997 0.031664913267130446 0 -0.0015150797371343463 0.031718504538354106 0 -0.0015104145406867997 0.031664913267130446 0 -0.0015150797371343463 0.031718504538354106 0 -0.0015631622634543292 0.031678048677546873 0 -0.0015160066367124019 0.031783647561539285 0 -0.0014559780024041369 0.031728977674294459 0 -0.0014707746161748225 0.031825906753261336 0 -0.0015150797371343463 0.031718504538354106 0 -0.0015160066367124019 0.031783647561539285 0 -0.0014559780024041369 0.031728977674294459 0 -0.0014742743476614103 0.03168557281369145 0 -0.0015150797371343463 0.031718504538354106 0 -0.0014559780024041369 0.031728977674294459 0 -0.0015150797371343463 0.031718504538354106 0 -0.0015160066367124019 0.031783647561539285 0 -0.0015975467334518809 0.031774364390133467 0 -0.0014559780024041369 0.031728977674294459 0 -0.0014067657770709034 0.031701908612455802 0 -0.0014268622310656739 0.031764958581257559 0 -0.0014287098744650872 0.031665516824955796 0 -0.0014559780024041369 0.031728977674294459 0 -0.0014067657770709034 0.031701908612455802 0 -0.0013753425062626222 0.031630135214542707 0 -0.0013757455816911864 0.031668015058149014 0 -0.0013888790016633665 0.031646268559525521 0 -0.0014067657770709034 0.031701908612455802 0 -0.0013757455816911864 0.031668015058149014 0 -0.0013879734687896306 0.031746371467860857 0 -0.0014067657770709034 0.031701908612455802 0 -0.0013757455816911864 0.031668015058149014 0 -0.0013888790016633665 0.031646268559525521 0 -0.0013764096500604268 0.031610301322207823 0 -0.0014014944822416183 0.03162930103656706 0 -0.0013888790016633665 0.031646268559525521 0 -0.0014014944822416183 0.03162930103656706 0 -0.0014287098744650872 0.031665516824955796 0 -0.0013888790016633665 0.031646268559525521 0 -0.0014287098744650872 0.031665516824955796 0 -0.0014067657770709034 0.031701908612455802 0 -0.0013888790016633665 0.031646268559525521 0 -0.0014918804678880398 0.033752568563909784 0 -0.0010047147238335427 0.035586675283477233 0 -9.8626150822395697e-05 0.034972122555717036 0 -0.00013195137208584296 0.034958043472979115 0 -0.00011294233079117691 0.034972257045530454 0 -0.002798784253463658 0.035988518182388705 0 -0.0018542388648952557 0.035769787523356085 0 -0.0024670522480845264 0.035304518432612481 0 -9.8626150822395697e-05 0.034972122555717036 0 -0.00013195137208584296 0.034958043472979115 0 -8.0766355970888446e-05 0.034964113349142359 0 -0.0015975467334518809 0.031774364390133467 0 -0.001654279938872022 0.031682525237611538 0 -0.001840616281027751 0.031949995470148568 0 -0.0014918804678880398 0.033752568563909784 0 -0.0022283321733400541 0.033687577698783895 0 -0.0015150797371343463 0.031718504538354106 0 -0.0015975467334518809 0.031774364390133467 0 -0.0015631622634543292 0.031678048677546873 0 -0.0015975467334518809 0.031774364390133467 0 -0.0015631622634543292 0.031678048677546873 0 -0.001654279938872022 0.031682525237611538 0 -0.0013187765981648046 0.033086035760931151 0 -0.0014918804678880398 0.033752568563909784 0 -0.00013195137208584296 0.034958043472979115 0 -0.00012170531222408373 0.034975026242469613 0 -0.0001328759498723756 0.034971998507701711 0 -0.00013195137208584296 0.034958043472979115 0 -0.00012170531222408373 0.034975026242469613 0 -0.00011294233079117691 0.034972257045530454 0 -0.0015631622634543292 0.031678048677546873 0 -0.0015963815730551758 0.031690332887584771 0 -0.0015190889586679951 0.031621068997574657 0 -0.0015104145406867997 0.031664913267130446 0 -0.0015631622634543292 0.031678048677546873 0 -0.0015190889586679951 0.031621068997574657 0 -0.0014918804678880398 0.033752568563909784 0 -0.00076738302188312049 0.033182406082299637 0 -0.00012170531222408373 0.034975026242469613 0 -0.0001328759498723756 0.034971998507701711 0 -0.00011865316833196203 0.034991165525932698 0 -0.00010289719896132609 0.034983890690537707 0 -0.00011865316833196203 0.034991165525932698 0 -7.8381269782712765e-05 0.035007581494265638 0 -0.00012170531222408373 0.034975026242469613 0 -0.00010289719896132609 0.034983890690537707 0 -0.00011865316833196203 0.034991165525932698 0 -9.8626150822395697e-05 0.034972122555717036 0 -0.00011294233079117691 0.034972257045530454 0 -0.00010289719896132609 0.034983890690537707 0 -0.00012170531222408373 0.034975026242469613 0 -0.00011294233079117691 0.034972257045530454 0 -0.00010289719896132609 0.034983890690537707 0 -9.8626150822395697e-05 0.034972122555717036 0 -0.00010289719896132609 0.034983890690537707 0 -8.2318458551036423e-05 0.034986895596574315 0 5.5274253934744696e-06 0.034984384662886669 0 -2.4981339780735221e-06 0.034985707932512662 0 -3.7974012731617347e-06 0.034993252180653828 0 -0.00015103296732080974 0.03440062963605045 0 -0.00013960999791893868 0.034429109741611091 0 -0.0002757710734590996 0.034472949183404621 0 -0.00011134264155255043 0.034731961047387711 0 -9.1121763660444936e-05 0.034850062376504724 0 -0.00010941115964930007 0.034770949167342566 0 -9.1121763660444936e-05 0.034850062376504724 0 -1.8787980592915855e-05 0.034329795816780875 0 4.2134116908908432e-06 0.03438750614328976 0 -0.00013960999791893868 0.034429109741611091 0 -1.8787980592915855e-05 0.034329795816780875 0 -0.00015103296732080974 0.03440062963605045 0 -0.00013960999791893868 0.034429109741611091 0 -0.00037077873855049772 0.033659272381965484 0 -0.00010941115964930007 0.034770949167342566 0 6.7245133948880522e-05 0.03412633049883456 0 -0.00011134264155255043 0.034731961047387711 0 -0.00013769788377566706 0.034973611799274468 0 -0.0001328759498723756 0.034971998507701711 0 -0.00011865316833196203 0.034991165525932698 0 6.7245133948880522e-05 0.03412633049883456 0 0.00016082931925293954 0.034400032810894654 0 1.8035121523673265e-05 0.034970135192505206 0 5.5274253934744696e-06 0.034984384662886669 0 2.9591042279884408e-06 0.034976855374497497 0 0.00016032446336907411 0.033542631884078855 0 0.00018700195733656441 0.033646731444438839 0 0.00032956294044010555 0.033788786384817783 0 5.5274253934744696e-06 0.034984384662886669 0 2.9591042279884408e-06 0.034976855374497497 0 -2.4981339780735221e-06 0.034985707932512662 0 -2.4981339780735221e-06 0.034985707932512662 0 -7.7356416686315826e-06 0.034991215844527523 0 -5.7280270035975799e-06 0.034986324705155121 0 0.00016082931925293954 0.034400032810894654 0 0.00017281298017520302 0.034550807590926165 0 2.9591042279884408e-06 0.034976855374497497 0 -2.4981339780735221e-06 0.034985707932512662 0 -5.7280270035975799e-06 0.034986324705155121 0 -6.475650737990777e-06 0.0349929646708299 0 -7.7356416686315826e-06 0.034991215844527523 0 -5.7280270035975799e-06 0.034986324705155121 0 -6.475650737990777e-06 0.0349929646708299 0 -7.7356416686315826e-06 0.034991215844527523 0 -7.0844623745796837e-06 0.034997266197228656 0 -7.7356416686315826e-06 0.034991215844527523 0 -1.1332821497597304e-05 0.034997070123402398 0 -9.1394535633521562e-06 0.034996469562488981 0 -7.7356416686315826e-06 0.034991215844527523 0 -1.1332821497597304e-05 0.034997070123402398 0 -7.0844623745796837e-06 0.034997266197228656 0 -2.4981339780735221e-06 0.034985707932512662 0 -7.7356416686315826e-06 0.034991215844527523 0 -3.7974012731617347e-06 0.034993252180653828 0 -7.7356416686315826e-06 0.034991215844527523 0 -3.7974012731617347e-06 0.034993252180653828 0 -9.1394535633521562e-06 0.034996469562488981 0 -0.00010289719896132609 0.034983890690537707 0 -7.8381269782712765e-05 0.035007581494265638 0 -8.2318458551036423e-05 0.034986895596574315 0 -7.8381269782712765e-05 0.035007581494265638 0 -8.2318458551036423e-05 0.034986895596574315 0 -5.679738523290837e-05 0.034989780230116334 0 -9.1121763660444936e-05 0.034850062376504724 0 1.7020808218003893e-06 0.034968804772043581 0 1.0624147172632827e-06 0.034994647139940327 0 -9.1394535633521562e-06 0.034996469562488981 0 -1.8005639986815887e-05 0.035001442006374311 0 -9.1121763660444936e-05 0.034850062376504724 0 -7.6116558979907159e-06 0.035037643475304608 0 -7.8381269782712765e-05 0.035007581494265638 0 -5.679738523290837e-05 0.034989780230116334 0 -1.8005639986815887e-05 0.035001442006374311 0 -5.679738523290837e-05 0.034989780230116334 0 -1.8005639986815887e-05 0.035001442006374311 0 -2.4269510759423519e-05 0.03499147259688995 0 -1.1332821497597304e-05 0.034997070123402398 0 -9.1394535633521562e-06 0.034996469562488981 0 -1.8005639986815887e-05 0.035001442006374311 0 -2.4269510759423519e-05 0.03499147259688995 0 -8.0766355970888446e-05 0.034964113349142359 0 -1.8519414359932342e-05 0.03498760787438996 0 -5.679738523290837e-05 0.034989780230116334 0 -2.4269510759423519e-05 0.03499147259688995 0 -8.0766355970888446e-05 0.034964113349142359 0 -8.2318458551036423e-05 0.034986895596574315 0 -5.679738523290837e-05 0.034989780230116334 0 -8.0766355970888446e-05 0.034964113349142359 0 -9.8626150822395697e-05 0.034972122555717036 0 -8.2318458551036423e-05 0.034986895596574315 0 -8.0766355970888446e-05 0.034964113349142359 0 -2.3903250230773484e-08 0.034999923167683689 0 -1.5142665233474944e-05 0.035002667518991858 0 -1.3185961548759315e-05 0.034999871600242455 0 -2.3903250230773484e-08 0.034999923167683689 0 -1.5142665233474944e-05 0.035002667518991858 0 -3.543942590266767e-05 0.035050079691759835 0 -2.4269510759423519e-05 0.03499147259688995 0 -1.5142665233474944e-05 0.035002667518991858 0 -1.3185961548759315e-05 0.034999871600242455 0 -2.4269510759423519e-05 0.03499147259688995 0 -1.5142665233474944e-05 0.035002667518991858 0 -1.8519414359932342e-05 0.03498760787438996 0 -1.8005639986815887e-05 0.035001442006374311 0 -2.4269510759423519e-05 0.03499147259688995 0 -1.3185961548759315e-05 0.034999871600242455 0 -1.8005639986815887e-05 0.035001442006374311 0 -1.3185961548759315e-05 0.034999871600242455 0 -8.7943216984420067e-06 0.034999852190946167 0 -1.1332821497597304e-05 0.034997070123402398 0 -1.8005639986815887e-05 0.035001442006374311 0 -8.7943216984420067e-06 0.034999852190946167 0 -2.3903250230773484e-08 0.034999923167683689 0 -8.7943216984420067e-06 0.034999852190946167 0 -2.7858353654326302e-09 0.035000021553667583 0 -2.3903250230773484e-08 0.034999923167683689 0 -1.3185961548759315e-05 0.034999871600242455 0 -8.7943216984420067e-06 0.034999852190946167 0 -8.7943216984420067e-06 0.034999852190946167 0 -2.7858353654326302e-09 0.035000021553667583 0 -7.0844623745796837e-06 0.034997266197228656 0 -2.7858353654326302e-09 0.035000021553667583 0 -7.0844623745796837e-06 0.034997266197228656 0 -4.3601478599839648e-09 0.034999988562197187 0 -1.1332821497597304e-05 0.034997070123402398 0 -8.7943216984420067e-06 0.034999852190946167 0 -7.0844623745796837e-06 0.034997266197228656 0 -6.475650737990777e-06 0.0349929646708299 0 -7.0844623745796837e-06 0.034997266197228656 0 -2.2019811209091297e-06 0.034998553578061829 0 -7.0844623745796837e-06 0.034997266197228656 0 -4.3601478599839648e-09 0.034999988562197187 0 -2.2019811209091297e-06 0.034998553578061829 0 -2.2019811209091297e-06 0.034998553578061829 0 -1.0671133382331052e-09 0.035000005015994137 0 -4.8823198881297883e-06 0.034996385428281547 0 -4.5017963660673064e-08 0.034999866503233161 0 9.4957875930988962e-05 0.034745798719381535 0 -4.3601478599839648e-09 0.034999988562197187 0 -2.2019811209091297e-06 0.034998553578061829 0 -1.0671133382331052e-09 0.035000005015994137 0 -1.5852466203228729e-08 0.034999320249467905 0 1.1658986148394325e-07 0.03500009313696073 0 0.00025548129333601282 0.034501590388493923 0 -1.6024501540150311e-07 0.034999798110240066 0 6.8452857940016732e-06 0.034910339327188983 0 2.7766349378244022e-05 0.034828572823297939 0 8.9255908195875468e-08 0.034999837574965116 0 0.00017713659232488176 0.034596487464493779 0 -1.5852466203228729e-08 0.034999320249467905 0 0.00028901558133177151 0.034338199563380398 0 0.00025548129333601282 0.034501590388493923 0 -6.475650737990777e-06 0.0349929646708299 0 -2.2019811209091297e-06 0.034998553578061829 0 -4.8823198881297883e-06 0.034996385428281547 0 -6.475650737990777e-06 0.0349929646708299 0 -4.8823198881297883e-06 0.034996385428281547 0 -5.7280270035975799e-06 0.034986324705155121 0 0.00025548129333601282 0.034501590388493923 0 0.00039004165713796653 0.034124059528272417 0 0.00035950955665714837 0.034247366193347527 0 9.4957875930988962e-05 0.034745798719381535 0 0.00017281298017520302 0.034550807590926165 0 0.00036522081063226414 0.034043642509463928 0 0.00032956294044010555 0.033788786384817783 0 0.00039004165713796653 0.034124059528272417 0 0.00036522081063226414 0.034043642509463928 0 0.00039004165713796653 0.034124059528272417 0 0.00035950955665714837 0.034247366193347527 0 0.00036522081063226414 0.034043642509463928 0 0.00035950955665714837 0.034247366193347527 0 0.00038765686476006288 0.034130799868150943 0 0.00028901558133177151 0.034338199563380398 0 0.00035950955665714837 0.034247366193347527 0 0.00038765686476006288 0.034130799868150943 0 0.00028901558133177151 0.034338199563380398 0 0.00025548129333601282 0.034501590388493923 0 0.00035950955665714837 0.034247366193347527 0 0.00017713659232488176 0.034596487464493779 0 0.00030136428477452686 0.03440776270199291 0 2.7766349378244022e-05 0.034828572823297939 0 0.00022662363436880745 0.034672411910188917 0 3.9209090604695523e-05 0.034678908810465862 0 0.00027041538154133095 0.034449443384244174 0 8.9450833624087111e-05 0.034477474861061189 0 0.000273082724381865 0.034434781409503616 0 0.00022662363436880745 0.034672411910188917 0 0.00011766999713143219 0.034547537349722983 0 0.00022662363436880745 0.034672411910188917 0 0.00011766999713143219 0.034547537349722983 0 3.9209090604695523e-05 0.034678908810465862 0 -4.9425790477311471e-05 0.034388188202940637 0 6.5188362879060446e-05 0.034462421358866582 0 -0.0001381917620763785 0.034495201323647341 0 0.00011766999713143219 0.034547537349722983 0 3.9209090604695523e-05 0.034678908810465862 0 -7.9163972934479795e-05 0.034614348756308463 0 8.9450833624087111e-05 0.034477474861061189 0 -6.3619567155494283e-05 0.034766230853225596 0 3.3085809550442612e-09 0.035000004510377235 0 9.4304278376852513e-08 0.034998619316974268 0 -1.6955347642342972e-09 0.034999995292361023 0 -6.3619567155494283e-05 0.034766230853225596 0 -3.3959633660689869e-10 0.034999953551906722 0 -1.6024501540150311e-07 0.034999798110240066 0 6.8452857940016732e-06 0.034910339327188983 0 1.1358855213662533e-07 0.035000031648796039 0 6.8452857940016732e-06 0.034910339327188983 0 -2.8512807563634173e-05 0.034998558755430238 0 1.1358855213662533e-07 0.035000031648796039 0 -2.1235452206347138e-06 0.034918202182706179 0 -6.3619567155494283e-05 0.034766230853225596 0 6.8452857940016732e-06 0.034910339327188983 0 2.7766349378244022e-05 0.034828572823297939 0 3.9209090604695523e-05 0.034678908810465862 0 6.8452857940016732e-06 0.034910339327188983 0 3.9209090604695523e-05 0.034678908810465862 0 -7.9163972934479795e-05 0.034614348756308463 0 5.4086068851637015e-05 0.035006621340131612 0 5.0140197563373468e-05 0.034906632075933024 0 0.00010982922812544923 0.034892431720636607 0 -8.3265516646396283e-08 0.034999757223839363 0 5.4086068851637015e-05 0.035006621340131612 0 5.0140197563373468e-05 0.034906632075933024 0 -8.3265516646396283e-08 0.034999757223839363 0 5.4086068851637015e-05 0.035006621340131612 0 6.523231897996692e-08 0.0350001677219237 0 4.7455636636400789e-05 0.035038598324721247 0 5.0198534368849935e-08 0.034999926694979276 0 4.7455636636400789e-05 0.035038598324721247 0 -2.1724509566530353e-05 0.034295999773017269 0 -0.00017653019158169448 0.032970203282189359 0 6.3011017725236206e-05 0.035064817830198006 0 0.00020354945231146522 0.034360137832714362 0 0.00035741411955414183 0.034511712995043485 0 9.5071822216111451e-05 0.034558748196882538 0 2.4948808082207508e-05 0.034923985666957862 0 0.00014039469872797089 0.034853225671846323 0 6.3547489553292862e-05 0.034972221745024602 0 -0.00017653019158169448 0.032970203282189359 0 0.00023146230529346684 0.03216059327480867 0 -0.00026519828929211388 0.030017044910971034 0 -9.3272890415397865e-05 0.030042579474655204 0 -0.00036944520070068636 0.029770824112899698 0 -0.00016050498781515878 0.034545599360915155 0 -0.0001786002286679744 0.034696000806700274 0 -0.00028813927854318383 0.034618208500729414 0 -0.00026519828929211388 0.030017044910971034 0 -9.3272890415397865e-05 0.030042579474655204 0 -0.00021703413639797151 0.030203999225503025 0 -0.00026362711468831625 0.033478949503448388 0 -0.00046161429491702814 0.033293936733592371 0 0.00014432878613989251 0.032893583668138195 0 -2.1724509566530353e-05 0.034295999773017269 0 -0.00025216634912142639 0.032321235993302076 0 -0.00017653019158169448 0.032970203282189359 0 -0.00025216634912142639 0.032321235993302076 0 2.4948808082207508e-05 0.034923985666957862 0 0.00014039469872797089 0.034853225671846323 0 0.00011927687778580658 0.034833608370223708 0 5.4086068851637015e-05 0.035006621340131612 0 0.00016142813058191139 0.034941513767423396 0 0.00010982922812544923 0.034892431720636607 0 -0.00017653019158169448 0.032970203282189359 0 -2.1724509566530353e-05 0.034295999773017269 0 -2.1724509566530353e-05 0.034295999773017269 0 6.5873525087621181e-05 0.034818175100998688 0 -0.00016050498781515878 0.034545599360915155 0 -0.0001786002286679744 0.034696000806700274 0 -5.2788724827630394e-05 0.034669027811125332 0 -0.0001786002286679744 0.034696000806700274 0 -6.5179439455686122e-05 0.034795368995234985 0 -5.2788724827630394e-05 0.034669027811125332 0 -0.0001786002286679744 0.034696000806700274 0 -0.0001605513774376764 0.034838950070996411 0 -0.00035397628305641841 0.034702241584919101 0 -0.0001786002286679744 0.034696000806700274 0 -0.00028813927854318383 0.034618208500729414 0 -0.00035397628305641841 0.034702241584919101 0 -0.00025216634912142639 0.032321235993302076 0 -0.00077830484898962172 0.032400118374938489 0 -0.00073789679617915997 0.033975210337504017 0 -0.00077830484898962172 0.032400118374938489 0 -0.0013667104793509087 0.032835221788392495 0 -0.001814296956960768 0.032910040056948406 0 -0.0018221364958958843 0.032684053643680031 0 -0.0013667104793509087 0.032835221788392495 0 -0.0017858395032129804 0.033100895495092937 0 -0.001814296956960768 0.032910040056948406 0 -0.00073789679617915997 0.033975210337504017 0 -0.00028227275600539205 0.034368539876058909 0 -0.0001605513774376764 0.034838950070996411 0 -6.5179439455686122e-05 0.034795368995234985 0 -2.7935427898235567e-06 0.034910105915256021 0 -0.0001786002286679744 0.034696000806700274 0 -0.0001605513774376764 0.034838950070996411 0 -6.5179439455686122e-05 0.034795368995234985 0 2.8407858393000985e-05 0.034811912914592985 0 2.851433993401766e-05 0.034815733821734071 0 -2.7935427898235567e-06 0.034910105915256021 0 3.1761780410726856e-05 0.035013254496864113 0 -0.00028227275600539205 0.034368539876058909 0 -6.5179439455686122e-05 0.034795368995234985 0 2.8407858393000985e-05 0.034811912914592985 0 -2.7935427898235567e-06 0.034910105915256021 0 -6.5179439455686122e-05 0.034795368995234985 0 2.8407858393000985e-05 0.034811912914592985 0 -5.2788724827630394e-05 0.034669027811125332 0 1.554512400702354e-05 0.034789291699775383 0 6.5873525087621181e-05 0.034818175100998688 0 2.8407858393000985e-05 0.034811912914592985 0 5.0140197563373468e-05 0.034906632075933024 0 2.851433993401766e-05 0.034815733821734071 0 2.8407858393000985e-05 0.034811912914592985 0 5.0140197563373468e-05 0.034906632075933024 0 0.00010982922812544923 0.034892431720636607 0 3.6063958343340588e-08 0.034999831290430196 0 3.1761780410726856e-05 0.035013254496864113 0 3.4879042789508616e-10 0.035000000525695601 0 -3.6585784573142363e-10 0.034999998903903477 0 -4.5704164355706329e-07 0.034999183674286644 0 -8.3265516646396283e-08 0.034999757223839363 0 5.0140197563373468e-05 0.034906632075933024 0 2.851433993401766e-05 0.034815733821734071 0 -3.6585784573142363e-10 0.034999998903903477 0 -4.5704164355706329e-07 0.034999183674286644 0 -1.3442664254378923e-09 0.034999995108529705 0 -4.5704164355706329e-07 0.034999183674286644 0 -1.3442664254378923e-09 0.034999995108529705 0 -2.6403594426043434e-06 0.034995757035166976 0 -1.3442664254378923e-09 0.034999995108529705 0 -2.6403594426043434e-06 0.034995757035166976 0 -1.4517936177246178e-09 0.03499999953627933 0 -0.00028227275600539205 0.034368539876058909 0 -2.6389086582378945e-08 0.034999882004479489 0 -0.00028227275600539205 0.034368539876058909 0 -0.00049926538159657241 0.033954678039362737 0 -0.00046227439066614032 0.033935931298416835 0 -0.00065736402279240004 0.034115322576547383 0 -0.00033224796679015713 0.034611667954801605 0 -0.00065736402279240004 0.034115322576547383 0 -0.00033224796679015713 0.034611667954801605 0 -0.00080479602915427598 0.034492189121683461 0 -0.00046227439066614032 0.033935931298416835 0 -0.00033224796679015713 0.034611667954801605 0 9.187624085544931e-08 0.034998258464010203 0 -0.00033224796679015713 0.034611667954801605 0 9.187624085544931e-08 0.034998258464010203 0 -0.00013809790584660102 0.034898802855854401 0 9.187624085544931e-08 0.034998258464010203 0 -9.9644300299940645e-08 0.035000462044259953 0 -0.00013809790584660102 0.034898802855854401 0 -9.9644300299940645e-08 0.035000462044259953 0 -0.00013809790584660102 0.034898802855854401 0 -3.543942590266767e-05 0.035050079691759835 0 -0.00013809790584660102 0.034898802855854401 0 -0.00045010122181759842 0.035034096410103494 0 -3.543942590266767e-05 0.035050079691759835 0 -0.00033224796679015713 0.034611667954801605 0 -0.00013809790584660102 0.034898802855854401 0 -0.00047600599140737681 0.034809323587619977 0 -0.00033224796679015713 0.034611667954801605 0 -0.00047600599140737681 0.034809323587619977 0 -0.00080479602915427598 0.034492189121683461 0 -0.00047600599140737681 0.034809323587619977 0 -0.00089634959596978216 0.034899419046004375 0 -0.00080479602915427598 0.034492189121683461 0 -0.00047600599140737681 0.034809323587619977 0 -0.00045010122181759842 0.035034096410103494 0 -0.00089634959596978216 0.034899419046004375 0 -0.00013809790584660102 0.034898802855854401 0 -0.00047600599140737681 0.034809323587619977 0 -0.00045010122181759842 0.035034096410103494 0 -0.00045010122181759842 0.035034096410103494 0 -3.543942590266767e-05 0.035050079691759835 0 -0.00080203237349776553 0.035488940517393049 0 -1.5142665233474944e-05 0.035002667518991858 0 -3.543942590266767e-05 0.035050079691759835 0 -1.8519414359932342e-05 0.03498760787438996 0 -0.00045010122181759842 0.035034096410103494 0 -0.00080203237349776553 0.035488940517393049 0 -0.00089634959596978216 0.034899419046004375 0 -7.3271521667759456e-05 0.03508405253079816 0 -0.00040455364751134921 0.035199334103971504 0 -2.3903250230773484e-08 0.034999923167683689 0 -9.9644300299940645e-08 0.035000462044259953 0 -3.543942590266767e-05 0.035050079691759835 0 -0.0018542388648952557 0.035769787523356085 0 -0.0016184229708344504 0.035111668717423397 0 -0.00080203237349776553 0.035488940517393049 0 -0.0018542388648952557 0.035769787523356085 0 -0.0016184229708344504 0.035111668717423397 0 -0.0024670522480845264 0.035304518432612481 0 -0.0010047147238335427 0.035586675283477233 0 -0.00040455364751134921 0.035199334103971504 0 -0.0016184229708344504 0.035111668717423397 0 -0.00080203237349776553 0.035488940517393049 0 -0.00089634959596978216 0.034899419046004375 0 -0.0016184229708344504 0.035111668717423397 0 -0.00089634959596978216 0.034899419046004375 0 -0.0014035533925004571 0.034465654162186263 0 -0.00089634959596978216 0.034899419046004375 0 -0.0014035533925004571 0.034465654162186263 0 -0.00080479602915427598 0.034492189121683461 0 -0.0016184229708344504 0.035111668717423397 0 -0.0014035533925004571 0.034465654162186263 0 -0.0021774297068870361 0.034545587799378392 0 -0.0018526593013922454 0.033358710279554227 0 -0.0020464066114876467 0.033489868610230102 0 -0.0014035533925004571 0.034465654162186263 0 -0.0012028100101502887 0.033937140819841762 0 -0.0018177854791582852 0.03340299269502963 0 -0.0014035533925004571 0.034465654162186263 0 -0.0018177854791582852 0.03340299269502963 0 -0.0021774297068870361 0.034545587799378392 0 -0.0014035533925004571 0.034465654162186263 0 -0.00080479602915427598 0.034492189121683461 0 -0.0012028100101502887 0.033937140819841762 0 -0.00065736402279240004 0.034115322576547383 0 -0.0012028100101502887 0.033937140819841762 0 -0.0012829611129353811 0.03341182022426295 0 -0.00065736402279240004 0.034115322576547383 0 -0.00080479602915427598 0.034492189121683461 0 -0.0012028100101502887 0.033937140819841762 0 -0.00038580257060832153 0.033353561938817729 0 -0.00065736402279240004 0.034115322576547383 0 -0.0012829611129353811 0.03341182022426295 0 -0.0013667104793509087 0.032835221788392495 0 -0.00038580257060832153 0.033353561938817729 0 -0.0012829611129353811 0.03341182022426295 0 -0.0012028100101502887 0.033937140819841762 0 -0.0012829611129353811 0.03341182022426295 0 -0.0018177854791582852 0.03340299269502963 0 -0.0012829611129353811 0.03341182022426295 0 -0.0018177854791582852 0.03340299269502963 0 -0.0017858395032129804 0.033100895495092937 0 -0.0013667104793509087 0.032835221788392495 0 -0.0012829611129353811 0.03341182022426295 0 -0.0017858395032129804 0.033100895495092937 0 -0.0018177854791582852 0.03340299269502963 0 -0.0017858395032129804 0.033100895495092937 0 -0.0018663813052218082 0.033097706057330423 0 -0.0017858395032129804 0.033100895495092937 0 -0.0018507533600681523 0.033052917179512212 0 -0.0018663813052218082 0.033097706057330423 0 -0.0018507533600681523 0.033052917179512212 0 -0.0018498472796271168 0.033064334543471144 0 -0.0019070965761209123 0.032976241572650576 0 -0.0018498472796271168 0.033064334543471144 0 -0.0018663813052218082 0.033097706057330423 0 -0.0017339690589877681 0.032899938727757282 0 -0.0018507533600681523 0.033052917179512212 0 -0.0018498472796271168 0.033064334543471144 0 -0.0018663813052218082 0.033097706057330423 0 -0.0018498472796271168 0.033064334543471144 0 -0.0019003400595481166 0.033088486614812493 0 -0.0019070965761209123 0.032976241572650576 0 -0.00071430790001163582 0.030691858033484717 0 -0.00093529131978622776 0.030500987614029973 0 -0.00051154654544208027 0.030394834373716467 0 -0.001308278385449719 0.032105443549110428 0 -0.001156226211469149 0.031535465027683271 0 -0.0018498472796271168 0.033064334543471144 0 -0.0017339690589877681 0.032899938727757282 0 -0.0015668038781987761 0.032974261888597013 0 -0.0017281278212127615 0.032723086332491332 0 -0.0014829380023175275 0.032433591166128872 0 -0.0020273975256831557 0.032959440670712395 0 -0.001308278385449719 0.032105443549110428 0 -0.0017339690589877681 0.032899938727757282 0 -0.0015668038781987761 0.032974261888597013 0 -0.0014927553331313371 0.032868837876200797 0 -0.0015172855019612316 0.032017063767874179 0 -0.0014280498142701242 0.031890123974233124 0 -0.0011004791944657596 0.031852651528459008 0 -0.001308278385449719 0.032105443549110428 0 -0.0014829380023175275 0.032433591166128872 0 -0.0017339690589877681 0.032899938727757282 0 -0.0015344986838951333 0.032689409885763208 0 -0.0015983624765908613 0.032561540514605594 0 -0.0015000532032760775 0.032506295650538232 0 -0.0015983624765908613 0.032561540514605594 0 -0.0015147303598238725 0.032425725222349357 0 -0.0015000532032760775 0.032506295650538232 0 -0.0015344986838951333 0.032689409885763208 0 -0.0015983624765908613 0.032561540514605594 0 -0.0015175451752007759 0.03249824121723608 0 -0.0014829380023175275 0.032433591166128872 0 -0.0017339690589877681 0.032899938727757282 0 -0.0015983624765908613 0.032561540514605594 0 -0.001752022588185053 0.032732243818153178 0 -0.0015983624765908613 0.032561540514605594 0 -0.001752022588185053 0.032732243818153178 0 -0.0016925404547458427 0.032432370729502308 0 -0.0015983624765908613 0.032561540514605594 0 -0.0015353516313950889 0.032336323497080217 0 -0.0016925404547458427 0.032432370729502308 0 -0.0015983624765908613 0.032561540514605594 0 -0.0015353516313950889 0.032336323497080217 0 -0.0015147303598238725 0.032425725222349357 0 -0.0018177854791582852 0.03340299269502963 0 -0.0018663813052218082 0.033097706057330423 0 -0.0020177663850515695 0.032506952227957679 0 -0.001752022588185053 0.032732243818153178 0 -0.0020177663850515695 0.032506952227957679 0 -0.0016925404547458427 0.032432370729502308 0 -0.0018663813052218082 0.033097706057330423 0 -0.001752022588185053 0.032732243818153178 0 -0.0020177663850515695 0.032506952227957679 0 -0.0018663813052218082 0.033097706057330423 0 -0.0017339690589877681 0.032899938727757282 0 -0.001752022588185053 0.032732243818153178 0 -0.0016184229708344504 0.035111668717423397 0 -0.0021774297068870361 0.034545587799378392 0 -0.0024670522480845264 0.035304518432612481 0 -0.0020177663850515695 0.032506952227957679 0 -0.0016925404547458427 0.032432370729502308 0 -0.0017444799113618479 0.032216035324569701 0 -0.0020464066114876467 0.033489868610230102 0 -0.0022283321733400541 0.033687577698783895 0 -0.0020177663850515695 0.032506952227957679 0 -0.0017444799113618479 0.032216035324569701 0 -0.001840616281027751 0.031949995470148568 0 -0.0016925404547458427 0.032432370729502308 0 -0.0015744161224148193 0.032172044821858925 0 -0.0017444799113618479 0.032216035324569701 0 -0.0015353516313950889 0.032336323497080217 0 -0.0015744161224148193 0.032172044821858925 0 -0.0015080300953484208 0.032191024233443152 0 -0.0015353516313950889 0.032336323497080217 0 -0.0016925404547458427 0.032432370729502308 0 -0.0015744161224148193 0.032172044821858925 0 -0.0015744161224148193 0.032172044821858925 0 -0.0016376300608638057 0.032034782620810158 0 -0.0015202110351562603 0.031970582278381891 0 -0.0015744161224148193 0.032172044821858925 0 -0.0017444799113618479 0.032216035324569701 0 -0.0016376300608638057 0.032034782620810158 0 -0.0016376300608638057 0.032034782620810158 0 -0.0015683597290615538 0.031866173669866375 0 -0.001840616281027751 0.031949995470148568 0 -0.0017444799113618479 0.032216035324569701 0 -0.0016376300608638057 0.032034782620810158 0 -0.001840616281027751 0.031949995470148568 0 -0.0015975467334518809 0.031774364390133467 0 -0.0015683597290615538 0.031866173669866375 0 -0.001840616281027751 0.031949995470148568 0 -0.0016376300608638057 0.032034782620810158 0 -0.0015683597290615538 0.031866173669866375 0 -0.0015202110351562603 0.031970582278381891 0 -0.0015160066367124019 0.031783647561539285 0 -0.0015975467334518809 0.031774364390133467 0 -0.0015683597290615538 0.031866173669866375 0 -0.0013834225647329969 0.031827864805875128 0 -0.0013879734687896306 0.031746371467860857 0 -0.0014181434198405857 0.031830375597544876 0 -0.0013834225647329969 0.031827864805875128 0 -0.0014181434198405857 0.031830375597544876 0 -0.0014091122685616498 0.03191657919164579 0 -0.0013834225647329969 0.031827864805875128 0 -0.0013672342937135521 0.031752638275698589 0 -0.0013879734687896306 0.031746371467860857 0 -0.0013834225647329969 0.031827864805875128 0 -0.0013672342937135521 0.031752638275698589 0 -0.0013531077874610472 0.031794572676276674 0 -0.0013672342937135521 0.031752638275698589 0 -0.0013531077874610472 0.031794572676276674 0 -0.0013552820757370733 0.031698900371734548 0 -0.0013757455816911864 0.031668015058149014 0 -0.0013879734687896306 0.031746371467860857 0 -0.001363379078308565 0.031674281605153135 0 -0.0013672342937135521 0.031752638275698589 0 -0.0013879734687896306 0.031746371467860857 0 -0.001363379078308565 0.031674281605153135 0 -0.0014067657770709034 0.031701908612455802 0 -0.0013879734687896306 0.031746371467860857 0 -0.0014268622310656739 0.031764958581257559 0 -0.0013879734687896306 0.031746371467860857 0 -0.0014268622310656739 0.031764958581257559 0 -0.0014181434198405857 0.031830375597544876 0 -0.0014559780024041369 0.031728977674294459 0 -0.0014268622310656739 0.031764958581257559 0 -0.0014707746161748225 0.031825906753261336 0 -0.0014268622310656739 0.031764958581257559 0 -0.0014707746161748225 0.031825906753261336 0 -0.0014181434198405857 0.031830375597544876 0 -0.0015683597290615538 0.031866173669866375 0 -0.0014707746161748225 0.031825906753261336 0 -0.0015202110351562603 0.031970582278381891 0 -0.0015160066367124019 0.031783647561539285 0 -0.0015683597290615538 0.031866173669866375 0 -0.0014707746161748225 0.031825906753261336 0 -0.0014707746161748225 0.031825906753261336 0 -0.0015202110351562603 0.031970582278381891 0 -0.0014458385058122045 0.031928325548631543 0 -0.0014707746161748225 0.031825906753261336 0 -0.0014458385058122045 0.031928325548631543 0 -0.0014181434198405857 0.031830375597544876 0 -0.0014458385058122045 0.031928325548631543 0 -0.0014181434198405857 0.031830375597544876 0 -0.0014091122685616498 0.03191657919164579 0 -0.0014458385058122045 0.031928325548631543 0 -0.0014221141956594892 0.032014402089348588 0 -0.0014091122685616498 0.03191657919164579 0 -0.0014458385058122045 0.031928325548631543 0 -0.0014221141956594892 0.032014402089348588 0 -0.0014842853204952693 0.032076153883639651 0 -0.0015744161224148193 0.032172044821858925 0 -0.0014842853204952693 0.032076153883639651 0 -0.0015080300953484208 0.032191024233443152 0 -0.0015744161224148193 0.032172044821858925 0 -0.0015202110351562603 0.031970582278381891 0 -0.0014842853204952693 0.032076153883639651 0 -0.0015202110351562603 0.031970582278381891 0 -0.0014458385058122045 0.031928325548631543 0 -0.0014842853204952693 0.032076153883639651 0 -0.0014842853204952693 0.032076153883639651 0 -0.0015080300953484208 0.032191024233443152 0 -0.0014511258250142673 0.032176727346629484 0 -0.0015353516313950889 0.032336323497080217 0 -0.0015080300953484208 0.032191024233443152 0 -0.0014511258250142673 0.032176727346629484 0 -0.0014221141956594892 0.032014402089348588 0 -0.0014842853204952693 0.032076153883639651 0 -0.0014511258250142673 0.032176727346629484 0 -0.0014221141956594892 0.032014402089348588 0 -0.0014511258250142673 0.032176727346629484 0 -0.0013956947932746264 0.032063457549052987 0 -0.0013956947932746264 0.032063457549052987 0 -0.0013766656113011666 0.031929442441370762 0 -0.0013525809704710426 0.031979754477317955 0 -0.0014221141956594892 0.032014402089348588 0 -0.0013956947932746264 0.032063457549052987 0 -0.0013766656113011666 0.031929442441370762 0 -0.0014221141956594892 0.032014402089348588 0 -0.0014091122685616498 0.03191657919164579 0 -0.0013766656113011666 0.031929442441370762 0 -0.0013834225647329969 0.031827864805875128 0 -0.0014091122685616498 0.03191657919164579 0 -0.0013766656113011666 0.031929442441370762 0 -0.0013766656113011666 0.031929442441370762 0 -0.0013531077874610472 0.031794572676276674 0 -0.0013477757208669103 0.031872640886061586 0 -0.0013834225647329969 0.031827864805875128 0 -0.0013766656113011666 0.031929442441370762 0 -0.0013531077874610472 0.031794572676276674 0 -0.0013766656113011666 0.031929442441370762 0 -0.0013477757208669103 0.031872640886061586 0 -0.0013525809704710426 0.031979754477317955 0 -0.0013477757208669103 0.031872640886061586 0 -0.0013525809704710426 0.031979754477317955 0 -0.0013332020817640427 0.031860903587192152 0 -0.0011365427082638284 0.031472741832935469 0 -0.0013058300245708733 0.031478872279053195 0 -0.0013525809704710426 0.031979754477317955 0 -0.0013834621810040781 0.032130151856594021 0 -0.0013092432307259452 0.031975460737914421 0 -0.0012654084134594568 0.030800144843936471 0 -0.00096298297876258804 0.030778278887993653 0 -0.0012541575098313688 0.030679098238427141 0 -0.0012186820200538091 0.030813400708480116 0 -0.0011365427082638284 0.031472741832935469 0 -0.0011772204991228436 0.030884012713501972 0 -0.0010897255838140938 0.030885664413870213 0 -0.0011896599968750556 0.030914951623631542 0 -0.0013834621810040781 0.032130151856594021 0 -0.0014432669821713951 0.032414480793201098 0 -0.0013092432307259452 0.031975460737914421 0 -0.0013525809704710426 0.031979754477317955 0 -0.0013092432307259452 0.031975460737914421 0 -0.0013332020817640427 0.031860903587192152 0 -0.0013956947932746264 0.032063457549052987 0 -0.0013525809704710426 0.031979754477317955 0 -0.0013834621810040781 0.032130151856594021 0 -0.0013956947932746264 0.032063457549052987 0 -0.0013834621810040781 0.032130151856594021 0 -0.0014262169005740744 0.032225278222740052 0 -0.0015353516313950889 0.032336323497080217 0 -0.0014511258250142673 0.032176727346629484 0 -0.0014632928523232941 0.03233679952651479 0 -0.0015353516313950889 0.032336323497080217 0 -0.0015147303598238725 0.032425725222349357 0 -0.0014632928523232941 0.03233679952651479 0 -0.0014511258250142673 0.032176727346629484 0 -0.0013956947932746264 0.032063457549052987 0 -0.0014262169005740744 0.032225278222740052 0 -0.0013834621810040781 0.032130151856594021 0 -0.0014262169005740744 0.032225278222740052 0 -0.0014432669821713951 0.032414480793201098 0 -0.0014511258250142673 0.032176727346629484 0 -0.0014632928523232941 0.03233679952651479 0 -0.0014262169005740744 0.032225278222740052 0 -0.0014632928523232941 0.03233679952651479 0 -0.0014262169005740744 0.032225278222740052 0 -0.0014432669821713951 0.032414480793201098 0 -0.0014829380023175275 0.032433591166128872 0 -0.0011365427082638284 0.031472741832935469 0 -0.0015000532032760775 0.032506295650538232 0 -0.0015127915684299352 0.032532497664611471 0 -0.0014432669821713951 0.032414480793201098 0 -0.0015000532032760775 0.032506295650538232 0 -0.0014632928523232941 0.03233679952651479 0 -0.0014432669821713951 0.032414480793201098 0 -0.0015000532032760775 0.032506295650538232 0 -0.0015147303598238725 0.032425725222349357 0 -0.0014632928523232941 0.03233679952651479 0 -0.00096298297876258804 0.030778278887993653 0 -0.00093529131978622776 0.030500987614029973 0 -0.0012541575098313688 0.030679098238427141 0 -0.00071430790001163582 0.030691858033484717 0 -0.00096298297876258804 0.030778278887993653 0 -0.00093529131978622776 0.030500987614029973 0 -0.001308278385449719 0.032105443549110428 0 -0.0011365427082638284 0.031472741832935469 0 -0.00075161136985206262 0.030354679549069379 0 -0.00095053134779127561 0.030466892593741527 0 -0.00090909929972467717 0.030276455212068804 0 -0.00083381893379968358 0.03042639218870807 0 -0.0011177402157717742 0.030575074306517552 0 -0.00095053134779127561 0.030466892593741527 0 -0.00090909929972467717 0.030276455212068804 0 -0.0010280700293657068 0.030356259345281342 0 -0.00090909929972467717 0.030276455212068804 0 -0.00085620879492835449 0.030057439377176396 0 -0.00098954818574908802 0.030112511298721084 0 -0.00090909929972467717 0.030276455212068804 0 -0.00085620879492835449 0.030057439377176396 0 -0.00076020395465065029 0.030193015202939169 0 -0.00085620879492835449 0.030057439377176396 0 -0.00072615280041525673 0.030079795127277171 0 -0.00076020395465065029 0.030193015202939169 0 -0.00076020395465065029 0.030193015202939169 0 -0.00067306873062176749 0.030257689759434204 0 -0.00065879430901669264 0.03017133042494163 0 -0.00072615280041525673 0.030079795127277171 0 -0.00076020395465065029 0.030193015202939169 0 -0.00065879430901669264 0.03017133042494163 0 -0.00075161136985206262 0.030354679549069379 0 -0.00090909929972467717 0.030276455212068804 0 -0.00076020395465065029 0.030193015202939169 0 -0.00075161136985206262 0.030354679549069379 0 -0.00076020395465065029 0.030193015202939169 0 -0.00067306873062176749 0.030257689759434204 0 -0.00083381893379968358 0.03042639218870807 0 -0.00058141854138777033 0.030303394979487367 0 -0.00093529131978622776 0.030500987614029973 0 -0.00056306098503886134 0.030296996637818902 0 -0.00051154654544208027 0.030394834373716467 0 -0.00075161136985206262 0.030354679549069379 0 -0.00056306098503886134 0.030296996637818902 0 -0.00067306873062176749 0.030257689759434204 0 -0.00056306098503886134 0.030296996637818902 0 -0.00061596716349688729 0.030237536999451319 0 -0.00067306873062176749 0.030257689759434204 0 -0.00056306098503886134 0.030296996637818902 0 -0.00061596716349688729 0.030237536999451319 0 -0.00056603712916370407 0.030227043805287606 0 -0.001814296956960768 0.032910040056948406 0 -0.0019070965761209123 0.032976241572650576 0 -0.0018221364958958843 0.032684053643680031 0 -0.00056306098503886134 0.030296996637818902 0 -0.00051154654544208027 0.030394834373716467 0 -0.00037448007416265351 0.030180724362432819 0 -0.001156226211469149 0.031535465027683271 0 -0.00077830484898962172 0.032400118374938489 0 -0.0018507533600681523 0.033052917179512212 0 -0.001814296956960768 0.032910040056948406 0 -0.0019070965761209123 0.032976241572650576 0 -0.0017858395032129804 0.033100895495092937 0 -0.0018507533600681523 0.033052917179512212 0 -0.001814296956960768 0.032910040056948406 0 -0.00052732700396594288 0.03101329170435381 0 -0.00062451292055263024 0.030032578966583907 0 -0.00044787037245656782 0.030154552345498589 0 -0.00056603712916370407 0.030227043805287606 0 -0.00060724388213875824 0.030041379653526296 0 -0.00077830484898962172 0.032400118374938489 0 -0.00052732700396594288 0.03101329170435381 0 -0.00056306098503886134 0.030296996637818902 0 -0.00037448007416265351 0.030180724362432819 0 -0.00056603712916370407 0.030227043805287606 0 -0.00037448007416265351 0.030180724362432819 0 -0.00042553138281589041 0.030147191522435394 0 -0.00056603712916370407 0.030227043805287606 0 -0.00052732700396594288 0.03101329170435381 0 -0.00036723447139409799 0.030242839216581885 0 -0.00064469670300495129 0.031919761134357454 0 -0.00052374977710615785 0.031744397345178248 0 -0.00045158230505321285 0.031790545578916585 0 -0.00025216634912142639 0.032321235993302076 0 -0.00052732700396594288 0.03101329170435381 0 -0.00065879430901669264 0.03017133042494163 0 -0.00056603712916370407 0.030227043805287606 0 -0.00060724388213875824 0.030041379653526296 0 -0.00061596716349688729 0.030237536999451319 0 -0.00067306873062176749 0.030257689759434204 0 -0.00065879430901669264 0.03017133042494163 0 -0.00061596716349688729 0.030237536999451319 0 -0.00065879430901669264 0.03017133042494163 0 -0.00056603712916370407 0.030227043805287606 0 -0.00072615280041525673 0.030079795127277171 0 -0.00065879430901669264 0.03017133042494163 0 -0.00060724388213875824 0.030041379653526296 0 -0.00055960490731961311 0.030133238592414673 0 -0.00055935067785782837 0.029930661950708527 0 -0.0007460183011016423 0.029946839688308524 0 -0.00062451292055263024 0.030032578966583907 0 -0.00071137466487717173 0.029981117916526474 0 -0.00055960490731961311 0.030133238592414673 0 -0.00038104472802358172 0.030054283229659352 0 -0.00055935067785782837 0.029930661950708527 0 -0.00035972071691687814 0.0302894848650282 0 -0.00055960490731961311 0.030133238592414673 0 -0.00038104472802358172 0.030054283229659352 0 -0.00021703413639797151 0.030203999225503025 0 -0.00035972071691687814 0.0302894848650282 0 -0.00038104472802358172 0.030054283229659352 0 -0.00026519828929211388 0.030017044910971034 0 -0.00021703413639797151 0.030203999225503025 0 -0.00038104472802358172 0.030054283229659352 0 -0.00026519828929211388 0.030017044910971034 0 -0.00038104472802358172 0.030054283229659352 0 -0.00036944520070068636 0.029770824112899698 0 -0.00038104472802358172 0.030054283229659352 0 -0.00055935067785782837 0.029930661950708527 0 -0.00036944520070068636 0.029770824112899698 0 -0.00055935067785782837 0.029930661950708527 0 -0.00069402545527369258 0.029769450086455693 0 -0.00036944520070068636 0.029770824112899698 0 -0.00069402545527369258 0.029769450086455693 0 -0.0007460183011016423 0.029946839688308524 0 -0.00089392561855047858 0.029684766280160174 0 -0.00055935067785782837 0.029930661950708527 0 -0.00069402545527369258 0.029769450086455693 0 -0.0007460183011016423 0.029946839688308524 0 -0.00094877954261724797 0.029912162097929854 0 -0.0007460183011016423 0.029946839688308524 0 -0.00089392561855047858 0.029684766280160174 0 -0.00085620879492835449 0.030057439377176396 0 -0.00094877954261724797 0.029912162097929854 0 -0.00098954818574908802 0.030112511298721084 0 -0.00085620879492835449 0.030057439377176396 0 -0.00094877954261724797 0.029912162097929854 0 -0.0007460183011016423 0.029946839688308524 0 -0.00085620879492835449 0.030057439377176396 0 -0.00072615280041525673 0.030079795127277171 0 -0.0007460183011016423 0.029946839688308524 0 -0.00072615280041525673 0.030079795127277171 0 -0.00060724388213875824 0.030041379653526296 0 -0.0007460183011016423 0.029946839688308524 0 -0.0002124564913038287 0.027008584573613218 0 0.00047678502214511075 0.025994621242688497 0 0.0006123892700233538 0.024192051217670981 0 0.0021138399167098245 0.022669123634326705 0 0.0024008499281127221 0.022089853065524828 0 -0.0011290307101045696 0.029780378302520703 0 -0.0014201564817626973 0.029872147717225812 0 -0.0011557384152721122 0.030000298746116528 0 -0.00094877954261724797 0.029912162097929854 0 -0.0011290307101045696 0.029780378302520703 0 -0.0011557384152721122 0.030000298746116528 0 -0.00094877954261724797 0.029912162097929854 0 -0.0011557384152721122 0.030000298746116528 0 -0.00098954818574908802 0.030112511298721084 0 -0.0002124564913038287 0.027008584573613218 0 -0.0017570380489572968 0.027660334228677263 0 -0.00094877954261724797 0.029912162097929854 0 -0.0011290307101045696 0.029780378302520703 0 -0.00089392561855047858 0.029684766280160174 0 0.0006123892700233538 0.024192051217670981 0 0.0017850430984509772 0.02442672277828925 0 0.0017728130203285267 0.025826886410015924 0 0.0006123892700233538 0.024192051217670981 0 0.0017850430984509772 0.02442672277828925 0 0.0021138399167098245 0.022669123634326705 0 0.0017850430984509772 0.02442672277828925 0 0.0022256663735344059 0.024686789314556715 0 0.0017728130203285267 0.025826886410015924 0 0.0022256663735344059 0.024686789314556715 0 0.0021138399167098245 0.022669123634326705 0 0.0031487149156279272 0.025861831736319472 0 0.0021124798592161024 0.021144239987334092 0 0.0019788655137375787 0.021417438919701631 0 0.0021138399167098245 0.022669123634326705 0 0.0021124798592161024 0.021144239987334092 0 0.0021138399167098245 0.022669123634326705 0 0.0023422732592193909 0.020497501619603908 0 0.0021138399167098245 0.022669123634326705 0 0.0033168076255414634 0.02605647704586251 0 0.0031487149156279272 0.025861831736319472 0 0.0017850430984509772 0.02442672277828925 0 0.0022256663735344059 0.024686789314556715 0 0.0021138399167098245 0.022669123634326705 0 0.002249522343988306 0.022716611194264862 0 0.0027088021734272818 0.023216592825827134 0 0.0021124798592161024 0.021144239987334092 0 0.0019788655137375787 0.021417438919701631 0 0.0019897727264835715 0.021001773818900924 0 0.0019788655137375787 0.021417438919701631 0 0.0018141792218028636 0.020997325254237226 0 0.0019897727264835715 0.021001773818900924 0 0.0019788655137375787 0.021417438919701631 0 0.0018141792218028636 0.020997325254237226 0 0.0016919787738105315 0.021314008413446408 0 0.0019788655137375787 0.021417438919701631 0 0.0019156054370560898 0.021748696929182219 0 0.0016919787738105315 0.021314008413446408 0 0.0019788655137375787 0.021417438919701631 0 0.0019156054370560898 0.021748696929182219 0 0.0021138399167098245 0.022669123634326705 0 0.0010873100634704268 0.02089430856273225 0 0.0014355443158673188 0.021214653418949018 0 0.0011019907559062707 0.02130939290457988 0 0.0010873100634704268 0.02089430856273225 0 0.0014355443158673188 0.021214653418949018 0 0.0015306057566237148 0.020959594141083063 0 0.0014355443158673188 0.021214653418949018 0 0.0015306057566237148 0.020959594141083063 0 0.0016919787738105315 0.021314008413446408 0 0.0015306057566237148 0.020959594141083063 0 0.0018141792218028636 0.020997325254237226 0 0.0016919787738105315 0.021314008413446408 0 0.0019156054370560898 0.021748696929182219 0 0.0016919787738105315 0.021314008413446408 0 0.0015945736788029923 0.021626083847300907 0 0.0019156054370560898 0.021748696929182219 0 0.0015945736788029923 0.021626083847300907 0 0.0020137162511264304 0.022002827170129004 0 0.0014355443158673188 0.021214653418949018 0 0.0016919787738105315 0.021314008413446408 0 0.0015945736788029923 0.021626083847300907 0 0.0014355443158673188 0.021214653418949018 0 0.0013434844770870947 0.021451606104869389 0 0.0011019907559062707 0.02130939290457988 0 0.0014355443158673188 0.021214653418949018 0 0.0015945736788029923 0.021626083847300907 0 0.0013434844770870947 0.021451606104869389 0 0.0015945736788029923 0.021626083847300907 0 0.0013434844770870947 0.021451606104869389 0 0.001258898276975811 0.021632969910708639 0 0.0013434844770870947 0.021451606104869389 0 0.0011019907559062707 0.02130939290457988 0 0.001258898276975811 0.021632969910708639 0 0.0015881006104181926 0.021932616070708188 0 0.00096038825496872133 0.022420537361135515 0 0.00106259024954562 0.021906622668696463 0 0.0015881006104181926 0.021932616070708188 0 0.0024008499281127221 0.022089853065524828 0 0.00096038825496872133 0.022420537361135515 0 0.0015945736788029923 0.021626083847300907 0 0.001258898276975811 0.021632969910708639 0 0.0015881006104181926 0.021932616070708188 0 0.001258898276975811 0.021632969910708639 0 0.0015881006104181926 0.021932616070708188 0 0.00106259024954562 0.021906622668696463 0 0.0015945736788029923 0.021626083847300907 0 0.0015881006104181926 0.021932616070708188 0 0.0020137162511264304 0.022002827170129004 0 0.0015881006104181926 0.021932616070708188 0 0.0020137162511264304 0.022002827170129004 0 0.0024008499281127221 0.022089853065524828 0 0.0019156054370560898 0.021748696929182219 0 0.0021138399167098245 0.022669123634326705 0 0.0020137162511264304 0.022002827170129004 0 0.0021138399167098245 0.022669123634326705 0 0.0020137162511264304 0.022002827170129004 0 0.0024008499281127221 0.022089853065524828 0 -0.0014201564817626973 0.029872147717225812 0 -0.001554159942346187 0.030180624687632225 0 -0.001313539455076608 0.030208933687601941 0 -0.001554159942346187 0.030180624687632225 0 -0.0017970172504648005 0.030475101371231227 0 -0.0017894271871758548 0.030024597900929262 0 -0.0014201564817626973 0.029872147717225812 0 -0.001554159942346187 0.030180624687632225 0 -0.0017894271871758548 0.030024597900929262 0 0.00047678502214511075 0.025994621242688497 0 -0.00038413107488926987 0.026220921538413693 0 -0.001554159942346187 0.030180624687632225 0 -0.001313539455076608 0.030208933687601941 0 -0.0014785144220463634 0.030400742650107452 0 -0.001313539455076608 0.030208933687601941 0 -0.0011138697903730773 0.030209351344469421 0 -0.0011601997643940762 0.030382977779097389 0 -0.0014201564817626973 0.029872147717225812 0 -0.001313539455076608 0.030208933687601941 0 -0.0011557384152721122 0.030000298746116528 0 -0.001313539455076608 0.030208933687601941 0 -0.0011557384152721122 0.030000298746116528 0 -0.0011138697903730773 0.030209351344469421 0 -0.0011557384152721122 0.030000298746116528 0 -0.00098954818574908802 0.030112511298721084 0 -0.0011138697903730773 0.030209351344469421 0 -0.00090909929972467717 0.030276455212068804 0 -0.00098954818574908802 0.030112511298721084 0 -0.0011138697903730773 0.030209351344469421 0 -0.00090909929972467717 0.030276455212068804 0 -0.0011138697903730773 0.030209351344469421 0 -0.0010280700293657068 0.030356259345281342 0 -0.0011138697903730773 0.030209351344469421 0 -0.0010280700293657068 0.030356259345281342 0 -0.0011601997643940762 0.030382977779097389 0 -0.00095053134779127561 0.030466892593741527 0 -0.0010801538077283295 0.030453958230856622 0 -0.0011858344035829715 0.030614498131296585 0 -0.0010801538077283295 0.030453958230856622 0 -0.0011601997643940762 0.030382977779097389 0 -0.0011858344035829715 0.030614498131296585 0 -0.00095053134779127561 0.030466892593741527 0 -0.0010280700293657068 0.030356259345281342 0 -0.0010801538077283295 0.030453958230856622 0 -0.0010280700293657068 0.030356259345281342 0 -0.0010801538077283295 0.030453958230856622 0 -0.0011601997643940762 0.030382977779097389 0 -0.0011601997643940762 0.030382977779097389 0 -0.0013013372869371096 0.030470374846720272 0 -0.0011858344035829715 0.030614498131296585 0 -0.001313539455076608 0.030208933687601941 0 -0.0011601997643940762 0.030382977779097389 0 -0.0013013372869371096 0.030470374846720272 0 -0.001282577268673655 0.030743946202374656 0 -0.0013889963813393327 0.030854602380881727 0 -0.0013013372869371096 0.030470374846720272 0 -0.0011858344035829715 0.030614498131296585 0 -0.001387049548936688 0.030655902492796334 0 -0.001282577268673655 0.030743946202374656 0 -0.0013386187048105699 0.03066594183343686 0 -0.001294909843410189 0.030877440077103958 0 -0.0013315819826252994 0.030975467916370281 0 -0.001449819273066609 0.030915855157325024 0 -0.0010453793160869985 0.030646274329767142 0 -0.0013363568489742519 0.030798269885901522 0 -0.0013277682171066595 0.030676551356570787 0 -0.001294909843410189 0.030877440077103958 0 -0.0011896599968750556 0.030914951623631542 0 -0.0013315819826252994 0.030975467916370281 0 -0.0011177402157717742 0.030575074306517552 0 -0.001282577268673655 0.030743946202374656 0 -0.0012654084134594568 0.030800144843936471 0 -0.0012541575098313688 0.030679098238427141 0 -0.0015360246689898221 0.030829605408256695 0 -0.0013058300245708733 0.031478872279053195 0 -0.0013693584673959902 0.03126112392558162 0 -0.0011772204991228436 0.030884012713501972 0 -0.001294909843410189 0.030877440077103958 0 -0.0011896599968750556 0.030914951623631542 0 -0.0012186820200538091 0.030813400708480116 0 -0.001282577268673655 0.030743946202374656 0 -0.0013332020817640427 0.031860903587192152 0 -0.0013407363881311654 0.031783079464615532 0 -0.0013426073176865234 0.031696002837506898 0 -0.0013092432307259452 0.031975460737914421 0 -0.0013426073176865234 0.031696002837506898 0 -0.0013606828199057995 0.031547348873560574 0 -0.0013092432307259452 0.031975460737914421 0 -0.0013332020817640427 0.031860903587192152 0 -0.0013426073176865234 0.031696002837506898 0 -0.0013477757208669103 0.031872640886061586 0 -0.0013332020817640427 0.031860903587192152 0 -0.0013407363881311654 0.031783079464615532 0 -0.0013531077874610472 0.031794572676276674 0 -0.0013475749289981419 0.031690052239652045 0 -0.0013552820757370733 0.031698900371734548 0 -0.0013531077874610472 0.031794572676276674 0 -0.0013407363881311654 0.031783079464615532 0 -0.0013475749289981419 0.031690052239652045 0 -0.0013531077874610472 0.031794572676276674 0 -0.0013477757208669103 0.031872640886061586 0 -0.0013407363881311654 0.031783079464615532 0 -0.0013475749289981419 0.031690052239652045 0 -0.0013426073176865234 0.031696002837506898 0 -0.0013710216259276212 0.0315742443523035 0 -0.0013407363881311654 0.031783079464615532 0 -0.0013475749289981419 0.031690052239652045 0 -0.0013426073176865234 0.031696002837506898 0 -0.0013606828199057995 0.031547348873560574 0 -0.0013876190001786898 0.031507455439058571 0 -0.0014638910137631459 0.031369298709260841 0 -0.0013426073176865234 0.031696002837506898 0 -0.0013876190001786898 0.031507455439058571 0 -0.0013710216259276212 0.0315742443523035 0 -0.0013426073176865234 0.031696002837506898 0 -0.0013606828199057995 0.031547348873560574 0 -0.0013876190001786898 0.031507455439058571 0 -0.0013710216259276212 0.0315742443523035 0 -0.0014149468728786752 0.031469850316606374 0 -0.0013669234919128908 0.031588747640565018 0 -0.0013876190001786898 0.031507455439058571 0 -0.0013710216259276212 0.0315742443523035 0 -0.0014149468728786752 0.031469850316606374 0 -0.0013876190001786898 0.031507455439058571 0 -0.0014149468728786752 0.031469850316606374 0 -0.0014638910137631459 0.031369298709260841 0 -0.0014149468728786752 0.031469850316606374 0 -0.0014469162357551315 0.031459323256284831 0 -0.0015372985985053428 0.031328805592773679 0 -0.0014149468728786752 0.031469850316606374 0 -0.0014469162357551315 0.031459323256284831 0 -0.0013669234919128908 0.031588747640565018 0 -0.0014020089954436409 0.031536664589897352 0 -0.0014469162357551315 0.031459323256284831 0 -0.0013669234919128908 0.031588747640565018 0 -0.001371399485175683 0.031605046641005816 0 -0.0013669234919128908 0.031588747640565018 0 -0.001363379078308565 0.031674281605153135 0 -0.0013669234919128908 0.031588747640565018 0 -0.001363379078308565 0.031674281605153135 0 -0.0013552820757370733 0.031698900371734548 0 -0.0013672342937135521 0.031752638275698589 0 -0.001363379078308565 0.031674281605153135 0 -0.0013552820757370733 0.031698900371734548 0 -0.0013475749289981419 0.031690052239652045 0 -0.0013710216259276212 0.0315742443523035 0 -0.0013669234919128908 0.031588747640565018 0 -0.0013475749289981419 0.031690052239652045 0 -0.0013669234919128908 0.031588747640565018 0 -0.0013552820757370733 0.031698900371734548 0 -0.0020370839106655641 0.031157431353732768 0 -0.001696686534957871 0.031317338299565824 0 -0.0017583247247118725 0.031175307168694221 0 -0.0017583247247118725 0.031175307168694221 0 -0.0017896053016846797 0.030976979620738147 0 -0.0019227036943466264 0.03103804185442615 0 -0.001696686534957871 0.031317338299565824 0 -0.0017583247247118725 0.031175307168694221 0 -0.0015372985985053428 0.031328805592773679 0 -0.0015442915053949929 0.031389176530698802 0 -0.001696686534957871 0.031317338299565824 0 -0.0015372985985053428 0.031328805592773679 0 -0.0015442915053949929 0.031389176530698802 0 -0.0014469162357551315 0.031459323256284831 0 -0.0015372985985053428 0.031328805592773679 0 -0.0014149468728786752 0.031469850316606374 0 -0.0015372985985053428 0.031328805592773679 0 -0.0014638910137631459 0.031369298709260841 0 -0.0015372985985053428 0.031328805592773679 0 -0.0014638910137631459 0.031369298709260841 0 -0.001610094783118739 0.03111359824190443 0 -0.0017583247247118725 0.031175307168694221 0 -0.0015372985985053428 0.031328805592773679 0 -0.001610094783118739 0.03111359824190443 0 -0.0016729199720256862 0.03097030504931032 0 -0.001610094783118739 0.03111359824190443 0 -0.001449819273066609 0.030915855157325024 0 -0.0016484460725644258 0.030966597932712552 0 -0.0013889963813393327 0.030854602380881727 0 -0.0013315819826252994 0.030975467916370281 0 -0.001610094783118739 0.03111359824190443 0 -0.001449819273066609 0.030915855157325024 0 -0.0013606828199057995 0.031547348873560574 0 -0.0014638910137631459 0.031369298709260841 0 -0.001610094783118739 0.03111359824190443 0 -0.0013693584673959902 0.03126112392558162 0 -0.0016089807442323466 0.031164116619739991 0 -0.0016729199720256862 0.03097030504931032 0 -0.0017838581599528397 0.030789443967073261 0 -0.0016325724912404939 0.030700848690786289 0 -0.0016729199720256862 0.03097030504931032 0 -0.001610094783118739 0.03111359824190443 0 -0.0017896053016846797 0.030976979620738147 0 -0.0017583247247118725 0.031175307168694221 0 -0.001610094783118739 0.03111359824190443 0 -0.0017896053016846797 0.030976979620738147 0 -0.0016729199720256862 0.03097030504931032 0 -0.0017896053016846797 0.030976979620738147 0 -0.0017838581599528397 0.030789443967073261 0 -0.0017896053016846797 0.030976979620738147 0 -0.0017838581599528397 0.030789443967073261 0 -0.0019383481931919645 0.030760685960169371 0 -0.0017838581599528397 0.030789443967073261 0 -0.0016325724912404939 0.030700848690786289 0 -0.0017970172504648005 0.030475101371231227 0 -0.0016325724912404939 0.030700848690786289 0 -0.0015262864836959275 0.030562450363317496 0 -0.0017970172504648005 0.030475101371231227 0 -0.0016058177436365463 0.030696225505169039 0 -0.0013386187048105699 0.03066594183343686 0 -0.0016325724912404939 0.030700848690786289 0 -0.001387049548936688 0.030655902492796334 0 -0.0015262864836959275 0.030562450363317496 0 -0.0016729199720256862 0.03097030504931032 0 -0.0016325724912404939 0.030700848690786289 0 -0.0013363568489742519 0.030798269885901522 0 -0.0016325724912404939 0.030700848690786289 0 -0.0013363568489742519 0.030798269885901522 0 -0.0013277682171066595 0.030676551356570787 0 -0.001387049548936688 0.030655902492796334 0 -0.0015262864836959275 0.030562450363317496 0 -0.0014226311431652437 0.030521753171585713 0 -0.0013013372869371096 0.030470374846720272 0 -0.001387049548936688 0.030655902492796334 0 -0.0014226311431652437 0.030521753171585713 0 -0.001313539455076608 0.030208933687601941 0 -0.0013013372869371096 0.030470374846720272 0 -0.0014785144220463634 0.030400742650107452 0 -0.0013013372869371096 0.030470374846720272 0 -0.0014226311431652437 0.030521753171585713 0 -0.0014785144220463634 0.030400742650107452 0 -0.0015262864836959275 0.030562450363317496 0 -0.0014226311431652437 0.030521753171585713 0 -0.0014785144220463634 0.030400742650107452 0 -0.001554159942346187 0.030180624687632225 0 -0.0014785144220463634 0.030400742650107452 0 -0.0017970172504648005 0.030475101371231227 0 -0.0015262864836959275 0.030562450363317496 0 -0.0014785144220463634 0.030400742650107452 0 -0.0017970172504648005 0.030475101371231227 0 -0.0017970172504648005 0.030475101371231227 0 -0.0022134057087138687 0.030638106091924022 0 -0.0021560184766806095 0.030240435782087641 0 -0.0017970172504648005 0.030475101371231227 0 -0.0022134057087138687 0.030638106091924022 0 -0.0019383481931919645 0.030760685960169371 0 -0.0017838581599528397 0.030789443967073261 0 -0.0017970172504648005 0.030475101371231227 0 -0.0019383481931919645 0.030760685960169371 0 -0.0019383481931919645 0.030760685960169371 0 -0.0021162300740493133 0.030947600351969817 0 -0.0019227036943466264 0.03103804185442615 0 -0.0017896053016846797 0.030976979620738147 0 -0.0019383481931919645 0.030760685960169371 0 -0.0019227036943466264 0.03103804185442615 0 -0.0022134057087138687 0.030638106091924022 0 -0.0019383481931919645 0.030760685960169371 0 -0.0021162300740493133 0.030947600351969817 0 -0.0020370839106655641 0.031157431353732768 0 -0.0021162300740493133 0.030947600351969817 0 -0.0022822665115514481 0.0310027785828716 0 -0.0020370839106655641 0.031157431353732768 0 -0.0017583247247118725 0.031175307168694221 0 -0.0019227036943466264 0.03103804185442615 0 -0.0020370839106655641 0.031157431353732768 0 -0.0021162300740493133 0.030947600351969817 0 -0.0019227036943466264 0.03103804185442615 0 -0.0023570038742467452 0.030981481256188586 0 -0.0023393108793633259 0.030934632449903 0 -0.0023507918531837737 0.030935192144737837 0 -0.0023393108793633259 0.030934632449903 0 -0.0023507918531837737 0.030935192144737837 0 -0.0023299450778532112 0.030941464429952294 0 -0.0023570038742467452 0.030981481256188586 0 -0.0022822665115514481 0.0310027785828716 0 -0.0023507918531837737 0.030935192144737837 0 -0.0021162300740493133 0.030947600351969817 0 -0.0022822665115514481 0.0310027785828716 0 -0.0023507918531837737 0.030935192144737837 0 -0.0021127739188675806 0.03095386816173884 0 -0.0023808621711274439 0.030823968654836994 0 -0.0022134057087138687 0.030638106091924022 0 -0.0023791548751804646 0.030824937559430336 0 -0.002482094035284869 0.030644457107072517 0 -0.0022134057087138687 0.030638106091924022 0 -0.0021162300740493133 0.030947600351969817 0 -0.0023791548751804646 0.030824937559430336 0 -0.0023808621711274439 0.030823968654836994 0 -0.0023617762409682973 0.031257547671291984 0 -0.0023791548751804646 0.030824937559430336 0 -0.002482094035284869 0.030644457107072517 0 -0.0026043092028221067 0.030720868454057519 0 -0.0022134057087138687 0.030638106091924022 0 -0.002482094035284869 0.030644457107072517 0 -0.0024405022139343045 0.030454640609522899 0 -0.0022134057087138687 0.030638106091924022 0 -0.0024405022139343045 0.030454640609522899 0 -0.0021560184766806095 0.030240435782087641 0 -0.0015828565910617381 0.023774097957632398 0 -0.0015162849268575329 0.023258930763299619 0 -0.00010817948663643071 0.022845019107696773 0 -0.00198290203127034 0.027099303364878299 0 -0.0010795644875013243 0.026562773258180874 0 -0.0015828565910617381 0.023774097957632398 0 -0.0015162849268575329 0.023258930763299619 0 -0.0023983190624307523 0.023627848372980872 0 -0.002734475371011486 0.022433802534223658 0 -0.0026362543220157632 0.020799744192607848 0 -0.0040625669543779067 0.022774662963905585 0 -0.0022429226026705628 0.023427460957959331 0 -0.002734475371011486 0.022433802534223658 0 -0.0032555456010843632 0.023086307173546396 0 -0.0022429226026705628 0.023427460957959331 0 -0.002734475371011486 0.022433802534223658 0 -0.0015278392047643279 0.022224667609479051 0 -0.002734475371011486 0.022433802534223658 0 -0.0026362543220157632 0.020799744192607848 0 -0.0015278392047643279 0.022224667609479051 0 -0.0026362543220157632 0.020799744192607848 0 -0.00104188439001883 0.02139186187823133 0 -0.00066497953762271295 0.020012909698859029 0 -0.00104188439001883 0.02139186187823133 0 0.00015408112132919333 0.022109754252390992 0 -0.00066497953762271295 0.020012909698859029 0 -0.0026362543220157632 0.020799744192607848 0 -0.00104188439001883 0.02139186187823133 0 -0.0015278392047643279 0.022224667609479051 0 -0.00104188439001883 0.02139186187823133 0 -0.00060451438812606721 0.022159621202594001 0 -0.0015278392047643279 0.022224667609479051 0 -0.00104188439001883 0.02139186187823133 0 -0.00060451438812606721 0.022159621202594001 0 0.00015408112132919333 0.022109754252390992 0 -0.00060451438812606721 0.022159621202594001 0 -0.0015278392047643279 0.022224667609479051 0 -0.00010817948663643071 0.022845019107696773 0 -0.0022429226026705628 0.023427460957959331 0 -0.0015278392047643279 0.022224667609479051 0 -0.00010817948663643071 0.022845019107696773 0 -0.0017626704233960015 0.023290042305561511 0 -0.00027020823513774741 0.022888396259732036 0 -0.0015828565910617381 0.023774097957632398 0 1.933431856411566e-05 0.022870430265821768 0 -0.00010817948663643071 0.022845019107696773 0 1.933431856411566e-05 0.022870430265821768 0 0.00096038825496872133 0.022420537361135515 0 0.00015408112132919333 0.022109754252390992 0 -0.0017970172504648005 0.030475101371231227 0 -0.0021560184766806095 0.030240435782087641 0 -0.0017894271871758548 0.030024597900929262 0 -0.00060451438812606721 0.022159621202594001 0 -0.00010817948663643071 0.022845019107696773 0 0.00015408112132919333 0.022109754252390992 0 1.933431856411566e-05 0.022870430265821768 0 -0.00010817948663643071 0.022845019107696773 0 0.00015408112132919333 0.022109754252390992 0 -0.0010795644875013243 0.026562773258180874 0 -0.00038413107488926987 0.026220921538413693 0 0.00096038825496872133 0.022420537361135515 0 0.00036404380719113499 0.021936489975339979 0 0.00070069469709424959 0.021908072591626256 0 0.00096038825496872133 0.022420537361135515 0 0.00015408112132919333 0.022109754252390992 0 0.00036404380719113499 0.021936489975339979 0 0.00015408112132919333 0.022109754252390992 0 0.00036404380719113499 0.021936489975339979 0 5.1660907551040258e-06 0.021572860902033305 0 0.00015408112132919333 0.022109754252390992 0 0.00036622817737637896 0.018076284070332297 0 -0.00066497953762271295 0.020012909698859029 0 0.00016612100370233654 0.021960562528880845 0 0.00013649007852498514 0.019882520059244901 0 0.00036404380719113499 0.021936489975339979 0 0.00040052547076782348 0.021647719939922521 0 5.1660907551040258e-06 0.021572860902033305 0 0.00040052547076782348 0.021647719939922521 0 5.1660907551040258e-06 0.021572860902033305 0 0.00027259642893172787 0.021378418267378109 0 0.00096038825496872133 0.022420537361135515 0 0.00106259024954562 0.021906622668696463 0 0.00070069469709424959 0.021908072591626256 0 0.00036404380719113499 0.021936489975339979 0 0.00040052547076782348 0.021647719939922521 0 0.00070069469709424959 0.021908072591626256 0 0.00040052547076782348 0.021647719939922521 0 0.00070069469709424959 0.021908072591626256 0 0.00083797331382108001 0.021582888072815221 0 0.001258898276975811 0.021632969910708639 0 0.00106259024954562 0.021906622668696463 0 0.00083797331382108001 0.021582888072815221 0 0.00106259024954562 0.021906622668696463 0 0.00070069469709424959 0.021908072591626256 0 0.00083797331382108001 0.021582888072815221 0 0.0011019907559062707 0.02130939290457988 0 0.00083797331382108001 0.021582888072815221 0 0.0006912523543050631 0.02103808978235194 0 0.0011019907559062707 0.02130939290457988 0 0.001258898276975811 0.021632969910708639 0 0.00083797331382108001 0.021582888072815221 0 0.00040052547076782348 0.021647719939922521 0 0.00083797331382108001 0.021582888072815221 0 0.00046737397945180952 0.021337399829250342 0 0.00083797331382108001 0.021582888072815221 0 0.00046737397945180952 0.021337399829250342 0 0.0006912523543050631 0.02103808978235194 0 0.00046737397945180952 0.021337399829250342 0 0.0006912523543050631 0.02103808978235194 0 0.0002026235700192663 0.020899810553424367 0 0.0010873100634704268 0.02089430856273225 0 0.0011019907559062707 0.02130939290457988 0 0.0006912523543050631 0.02103808978235194 0 0.00013649007852498514 0.019882520059244901 0 -0.00024298864894719803 0.018841413684880709 0 0.00036622817737637896 0.018076284070332297 0 -0.00019091310387790809 0.017576866334270084 0 -0.00025387836845495993 0.017509256319905298 0 5.1660907551040258e-06 0.021572860902033305 0 0.0002026235700192663 0.020899810553424367 0 -0.00034383339260640001 0.02014859793805842 0 0.00046737397945180952 0.021337399829250342 0 0.00027259642893172787 0.021378418267378109 0 0.0002026235700192663 0.020899810553424367 0 0.00040052547076782348 0.021647719939922521 0 0.00046737397945180952 0.021337399829250342 0 0.00027259642893172787 0.021378418267378109 0 5.1660907551040258e-06 0.021572860902033305 0 0.00027259642893172787 0.021378418267378109 0 0.0002026235700192663 0.020899810553424367 0 -0.00016227695248464635 0.017888538687101802 0 -0.00016448725366605404 0.017602502181855575 0 -0.00012655402460880877 0.01754709276937589 0 -0.00019091310387790809 0.017576866334270084 0 -0.00016227695248464635 0.017888538687101802 0 -0.00016448725366605404 0.017602502181855575 0 0.00036622817737637896 0.018076284070332297 0 -0.00019091310387790809 0.017576866334270084 0 -0.00016227695248464635 0.017888538687101802 0 -0.00019091310387790809 0.017576866334270084 0 -0.00016448725366605404 0.017602502181855575 0 -0.00010933164113954918 0.017453988417077966 0 -0.00016448725366605404 0.017602502181855575 0 -0.00012655402460880877 0.01754709276937589 0 -0.00010933164113954918 0.017453988417077966 0 -0.00012655402460880877 0.01754709276937589 0 -0.00010933164113954918 0.017453988417077966 0 -9.0209227616014947e-05 0.017190880178075414 0 -0.00011603100886381927 0.017610151854226822 0 -0.00012655402460880877 0.01754709276937589 0 -0.00032258056539952954 0.017506953804101139 0 -0.00011603100886381927 0.017610151854226822 0 -0.00016227695248464635 0.017888538687101802 0 -0.00012655402460880877 0.01754709276937589 0 -0.0013425043790820453 0.019198067327555857 0 -0.00020107062366174358 0.017932225873608515 0 0.00036622817737637896 0.018076284070332297 0 -0.00016227695248464635 0.017888538687101802 0 -0.00066497953762271295 0.020012909698859029 0 -0.0026362543220157632 0.020799744192607848 0 -0.00016227695248464635 0.017888538687101802 0 -0.00066497953762271295 0.020012909698859029 0 -0.0001100166259726189 0.017633329591890602 0 -0.00022640281916041686 0.018572421552157894 0 -7.106557638451634e-05 0.018024432084463148 0 -3.4662726040973668e-05 0.017383102489280846 0 -7.106557638451634e-05 0.018024432084463148 0 0.00030781419844120759 0.017889103180535899 0 -0.0001100166259726189 0.017633329591890602 0 -3.4662726040973668e-05 0.017383102489280846 0 -7.106557638451634e-05 0.018024432084463148 0 -3.4662726040973668e-05 0.017383102489280846 0 -0.00010933164113954918 0.017453988417077966 0 -9.0209227616014947e-05 0.017190880178075414 0 -0.0001100166259726189 0.017633329591890602 0 -3.4662726040973668e-05 0.017383102489280846 0 -0.00010933164113954918 0.017453988417077966 0 -0.00019091310387790809 0.017576866334270084 0 -0.0001100166259726189 0.017633329591890602 0 -0.00010933164113954918 0.017453988417077966 0 -0.00019091310387790809 0.017576866334270084 0 -0.0001100166259726189 0.017633329591890602 0 -0.00025387836845495993 0.017509256319905298 0 -0.00034383339260640001 0.02014859793805842 0 0.00054556893235999484 0.020465042991033477 0 0.00026208932126194529 0.019653902661081721 0 0.0002026235700192663 0.020899810553424367 0 -0.00034383339260640001 0.02014859793805842 0 0.00054556893235999484 0.020465042991033477 0 0.0010873100634704268 0.02089430856273225 0 0.0006912523543050631 0.02103808978235194 0 0.00054556893235999484 0.020465042991033477 0 0.0010873100634704268 0.02089430856273225 0 0.00054556893235999484 0.020465042991033477 0 0.0010635478056097826 0.020411742108514316 0 0.0006912523543050631 0.02103808978235194 0 0.0002026235700192663 0.020899810553424367 0 0.00054556893235999484 0.020465042991033477 0 0.00054556893235999484 0.020465042991033477 0 0.00090835368228103872 0.019853472191161636 0 0.0010635478056097826 0.020411742108514316 0 0.00054556893235999484 0.020465042991033477 0 0.00026208932126194529 0.019653902661081721 0 0.00090835368228103872 0.019853472191161636 0 0.00026208932126194529 0.019653902661081721 0 0.00055183478073364621 0.019140275477216456 0 -0.00022640281916041686 0.018572421552157894 0 0.00026208932126194529 0.019653902661081721 0 0.00055183478073364621 0.019140275477216456 0 0.00090835368228103872 0.019853472191161636 0 -0.00024298864894719803 0.018841413684880709 0 -0.00025176305361901386 0.018580745017746144 0 -0.0001100166259726189 0.017633329591890602 0 -0.00025387836845495993 0.017509256319905298 0 -0.00022640281916041686 0.018572421552157894 0 -0.00034383339260640001 0.02014859793805842 0 0.00026208932126194529 0.019653902661081721 0 -0.00022640281916041686 0.018572421552157894 0 0.00055183478073364621 0.019140275477216456 0 8.4116315089568497e-05 0.018814242903519997 0 0.0001525591799895982 0.018948940600358507 0 0.00055183478073364621 0.019140275477216456 0 -0.00022640281916041686 0.018572421552157894 0 8.4116315089568497e-05 0.018814242903519997 0 8.4116315089568497e-05 0.018814242903519997 0 3.8056920801428049e-05 0.019439435475439769 0 0.0001525591799895982 0.018948940600358507 0 8.4116315089568497e-05 0.018814242903519997 0 -1.3490809875571177e-05 0.018690311954333932 0 3.8056920801428049e-05 0.019439435475439769 0 8.4116315089568497e-05 0.018814242903519997 0 -0.00013968855304701292 0.018597792549028713 0 -1.3490809875571177e-05 0.018690311954333932 0 -0.00022640281916041686 0.018572421552157894 0 8.4116315089568497e-05 0.018814242903519997 0 -0.00013968855304701292 0.018597792549028713 0 -0.00013968855304701292 0.018597792549028713 0 -7.106557638451634e-05 0.018024432084463148 0 8.5407235992838255e-06 0.018400778867035148 0 -0.00013968855304701292 0.018597792549028713 0 8.5407235992838255e-06 0.018400778867035148 0 -7.7479362762004133e-05 0.018638677721748646 0 -0.00022640281916041686 0.018572421552157894 0 -0.00013968855304701292 0.018597792549028713 0 -7.106557638451634e-05 0.018024432084463148 0 -7.106557638451634e-05 0.018024432084463148 0 8.5407235992838255e-06 0.018400778867035148 0 0.00030781419844120759 0.017889103180535899 0 8.5407235992838255e-06 0.018400778867035148 0 0.00010600542231850796 0.01854714971620457 0 0.00029400012048122563 0.01842009199891536 0 8.5407235992838255e-06 0.018400778867035148 0 0.00010600542231850796 0.01854714971620457 0 -7.7479362762004133e-05 0.018638677721748646 0 0.00010600542231850796 0.01854714971620457 0 -7.7479362762004133e-05 0.018638677721748646 0 0.00022258545227378797 0.01872070610596771 0 0.00011022876696404162 0.019960548035631159 0 0.00019733359291627695 0.016872583440538758 0 0.00011022876696404162 0.019960548035631159 0 0.00023599296007734775 0.019561253131268493 0 -0.00013968855304701292 0.018597792549028713 0 -7.7479362762004133e-05 0.018638677721748646 0 -1.3490809875571177e-05 0.018690311954333932 0 0.00022595033810087482 0.020709253262670872 0 0.00033449857312499545 0.020550107143868426 0 0.00065787001096393317 0.020532349422990002 0 0.00022595033810087482 0.020709253262670872 0 0.00033449857312499545 0.020550107143868426 0 3.4243757883496958e-05 0.020529262162319456 0 0.00033449857312499545 0.020550107143868426 0 3.4243757883496958e-05 0.020529262162319456 0 -8.8242553982876404e-05 0.020289203924851538 0 3.4243757883496958e-05 0.020529262162319456 0 -0.0001690638037368355 0.020412092315814413 0 -0.00035635799203693097 0.020598383904169109 0 0.00022595033810087482 0.020709253262670872 0 3.4243757883496958e-05 0.020529262162319456 0 -0.00035635799203693097 0.020598383904169109 0 3.4243757883496958e-05 0.020529262162319456 0 -0.0001690638037368355 0.020412092315814413 0 -8.8242553982876404e-05 0.020289203924851538 0 -0.0001690638037368355 0.020412092315814413 0 -8.8242553982876404e-05 0.020289203924851538 0 -0.00030076918940330998 0.020243309377490994 0 -8.8242553982876404e-05 0.020289203924851538 0 4.5715773029282661e-05 0.019268268433973532 0 -0.0010038116207657332 0.020264026467938415 0 -0.00011358493566398554 0.019551862536580596 0 -0.00034956694112571159 0.017571037653797812 0 -8.8242553982876404e-05 0.020289203924851538 0 0.0002180799038052996 0.020005208716348769 0 4.5715773029282661e-05 0.019268268433973532 0 0.00033449857312499545 0.020550107143868426 0 0.0002180799038052996 0.020005208716348769 0 0.00043670983837312962 0.02074853699081412 0 0.00033449857312499545 0.020550107143868426 0 -8.8242553982876404e-05 0.020289203924851538 0 0.0002180799038052996 0.020005208716348769 0 0.0002180799038052996 0.020005208716348769 0 1.2521560671137705e-06 0.019567008135602935 0 0.00043670983837312962 0.02074853699081412 0 0.0002180799038052996 0.020005208716348769 0 1.2521560671137705e-06 0.019567008135602935 0 4.5715773029282661e-05 0.019268268433973532 0 -2.1650056929370632e-06 0.017694473000438277 0 4.5715773029282661e-05 0.019268268433973532 0 -0.0010038116207657332 0.020264026467938415 0 1.2521560671137705e-06 0.019567008135602935 0 -2.1650056929370632e-06 0.017694473000438277 0 4.5715773029282661e-05 0.019268268433973532 0 -3.799224080979047e-07 0.017692889710659122 0 -0.00034956694112571159 0.017571037653797812 0 1.2521560671137705e-06 0.019567008135602935 0 3.731519780687488e-07 0.021442563726764816 0 0.00043670983837312962 0.02074853699081412 0 0.00043670983837312962 0.02074853699081412 0 0.00018626349342565864 0.021730631863296143 0 0.00036326223968739612 0.021035161714078706 0 3.731519780687488e-07 0.021442563726764816 0 0.00043670983837312962 0.02074853699081412 0 0.00018626349342565864 0.021730631863296143 0 0.00036326223968739612 0.021035161714078706 0 0.00024551818815108929 0.020606328123729593 0 -4.0342994306466685e-05 0.021522449118645953 0 0.00043670983837312962 0.02074853699081412 0 0.00036326223968739612 0.021035161714078706 0 0.00065787001096393317 0.020532349422990002 0 0.00033449857312499545 0.020550107143868426 0 0.00043670983837312962 0.02074853699081412 0 0.00065787001096393317 0.020532349422990002 0 0.00036326223968739612 0.021035161714078706 0 0.00065787001096393317 0.020532349422990002 0 0.00024551818815108929 0.020606328123729593 0 0.00023599296007734775 0.019561253131268493 0 -2.2033563287509024e-05 0.019445840982205458 0 0.00065787001096393317 0.020532349422990002 0 0.00024551818815108929 0.020606328123729593 0 3.8056920801428049e-05 0.019439435475439769 0 -0.00046977238483026442 0.01997914077216625 0 -0.00011476459227357746 0.020201117006518655 0 3.8056920801428049e-05 0.019439435475439769 0 0.00024551818815108929 0.020606328123729593 0 -0.00011476459227357746 0.020201117006518655 0 3.8056920801428049e-05 0.019439435475439769 0 -0.00046977238483026442 0.01997914077216625 0 3.8056920801428049e-05 0.019439435475439769 0 -0.00047635777804202545 0.019558332824363294 0 0.000442559944230969 0.020339839048046642 0 0.00099442390721941453 0.021756745558604944 0 -0.00046977238483026442 0.01997914077216625 0 -0.00026963109455500634 0.020737290196606702 0 -0.00011476459227357746 0.020201117006518655 0 0.00024551818815108929 0.020606328123729593 0 -0.00026963109455500634 0.020737290196606702 0 -0.00011476459227357746 0.020201117006518655 0 0.0029602082015251136 0.026807468531918194 0 0.0029098519184599541 0.027051549706783213 0 0.0030703617539790599 0.026747294293405915 0 0.00015766242123702522 0.023675173845114614 0 0.00099442390721941453 0.021756745558604944 0 0.0029602082015251136 0.026807468531918194 0 0.0029098519184599541 0.027051549706783213 0 0.0028655143600355439 0.026838453774947497 0 -0.00046977238483026442 0.01997914077216625 0 -0.00026963109455500634 0.020737290196606702 0 -0.0015165224793980002 0.021542782787644717 0 -0.00046977238483026442 0.01997914077216625 0 -0.0015165224793980002 0.021542782787644717 0 -0.00054196186610032534 0.019569124322231866 0 0.0029602082015251136 0.026807468531918194 0 0.0028655143600355439 0.026838453774947497 0 0.0029310712723555152 0.026713473191633658 0 -0.00021643814118321085 0.022326287074975883 0 -4.0342994306466685e-05 0.021522449118645953 0 -2.6604748141974676e-05 0.022529880701724205 0 0.00015766242123702522 0.023675173845114614 0 -0.00040936857318530886 0.021537909733257077 0 -0.00026963109455500634 0.020737290196606702 0 -0.0015165224793980002 0.021542782787644717 0 -4.0342994306466685e-05 0.021522449118645953 0 0.00024551818815108929 0.020606328123729593 0 -0.00026963109455500634 0.020737290196606702 0 -4.0342994306466685e-05 0.021522449118645953 0 0.00018626349342565864 0.021730631863296143 0 0.00036326223968739612 0.021035161714078706 0 -4.0342994306466685e-05 0.021522449118645953 0 0.00018626349342565864 0.021730631863296143 0 -4.0342994306466685e-05 0.021522449118645953 0 -2.6604748141974676e-05 0.022529880701724205 0 -0.00021643814118321085 0.022326287074975883 0 -2.6604748141974676e-05 0.022529880701724205 0 -0.00011371816860951658 0.023495351786879445 0 0.00015766242123702522 0.023675173845114614 0 -9.6320381011743314e-05 0.023292317953138134 0 -2.6604748141974676e-05 0.022529880701724205 0 -9.1054042693505786e-08 0.023317890552224517 0 -0.00011371816860951658 0.023495351786879445 0 3.731519780687488e-07 0.021442563726764816 0 0.00018626349342565864 0.021730631863296143 0 -9.1054042693505786e-08 0.023317890552224517 0 0.00018626349342565864 0.021730631863296143 0 -2.6604748141974676e-05 0.022529880701724205 0 -9.1054042693505786e-08 0.023317890552224517 0 6.7879505430164836e-07 0.025193681947803064 0 -9.4674462447616559e-05 0.024238500783528922 0 -0.00034881707981268984 0.024902348670181897 0 6.7879505430164836e-07 0.025193681947803064 0 -0.00011371816860951658 0.023495351786879445 0 -9.4674462447616559e-05 0.024238500783528922 0 -9.1054042693505786e-08 0.023317890552224517 0 6.7879505430164836e-07 0.025193681947803064 0 -0.00011371816860951658 0.023495351786879445 0 -0.00011371816860951658 0.023495351786879445 0 -9.4674462447616559e-05 0.024238500783528922 0 1.1029811255384725e-05 0.023925190915992708 0 -9.4674462447616559e-05 0.024238500783528922 0 -0.00026909165353272566 0.024004514083126163 0 -0.00034881707981268984 0.024902348670181897 0 3.3246255140817212e-05 0.028723403046773337 0 0.0016902863651018895 0.025546737278008665 0 -9.4674462447616559e-05 0.024238500783528922 0 -0.00026909165353272566 0.024004514083126163 0 1.1029811255384725e-05 0.023925190915992708 0 3.3246255140817212e-05 0.028723403046773337 0 0.0013969461019738526 0.029861972160933201 0 0.0025189694343274089 0.027106462478721137 0 0.0027277819063176419 0.027084217036619895 0 0.0026605131454272585 0.026855943093626489 0 0.0029098519184599541 0.027051549706783213 0 0.0028031266432762417 0.026963838980884669 0 0.0028655143600355439 0.026838453774947497 0 0.0029098519184599541 0.027051549706783213 0 0.0027277819063176419 0.027084217036619895 0 0.0028031266432762417 0.026963838980884669 0 0.0027277819063176419 0.027084217036619895 0 0.0028031266432762417 0.026963838980884669 0 0.0026605131454272585 0.026855943093626489 0 -0.00034773100045654999 0.023891673385138295 0 -0.00011371816860951658 0.023495351786879445 0 1.1029811255384725e-05 0.023925190915992708 0 0.00015766242123702522 0.023675173845114614 0 0.0016902863651018895 0.025546737278008665 0 0.0028031266432762417 0.026963838980884669 0 0.0028655143600355439 0.026838453774947497 0 0.0026605131454272585 0.026855943093626489 0 -0.00045865351479312198 0.032830895531835047 0 -2.7769381917213788e-05 0.032554129573994263 0 -0.00054390794134193858 0.032614376900053976 0 -2.7769381917213788e-05 0.032554129573994263 0 -0.00021930501131781964 0.031914945516069597 0 -0.00054390794134193858 0.032614376900053976 0 -2.7769381917213788e-05 0.032554129573994263 0 -0.00021930501131781964 0.031914945516069597 0 0.0011492633269595594 0.031263904334762047 0 -0.00021930501131781964 0.031914945516069597 0 0.0011492633269595594 0.031263904334762047 0 -0.00023011096908869875 0.029217411003481141 0 -0.00021930501131781964 0.031914945516069597 0 -0.00023011096908869875 0.029217411003481141 0 -0.0012105483794092333 0.03174810201533184 0 0.0019658217466946427 0.028885527802347943 0 0.0025996968083004932 0.027556355379163296 0 0.0011492633269595594 0.031263904334762047 0 -0.00023011096908869875 0.029217411003481141 0 0.0022889418437087605 0.028717588436216447 0 0.0028067098430021279 0.026646203607823715 0 0.0029610088671605064 0.02660380666156412 0 0.0029464006860774206 0.026448325605364795 0 0.0028067098430021279 0.026646203607823715 0 0.0029310712723555152 0.026713473191633658 0 0.0029610088671605064 0.02660380666156412 0 0.0013969461019738526 0.029861972160933201 0 0.0019658217466946427 0.028885527802347943 0 0.0028655143600355439 0.026838453774947497 0 0.0028067098430021279 0.026646203607823715 0 0.0029310712723555152 0.026713473191633658 0 0.0028655143600355439 0.026838453774947497 0 0.0026605131454272585 0.026855943093626489 0 0.0028067098430021279 0.026646203607823715 0 0.00099442390721941453 0.021756745558604944 0 0.0026957309372952465 0.022848807861365578 0 0.0030067066172468349 0.026675998154724403 0 0.0030703617539790599 0.026747294293405915 0 0.0031102942711008739 0.026526887947969636 0 0.0029602082015251136 0.026807468531918194 0 0.0029310712723555152 0.026713473191633658 0 0.0030067066172468349 0.026675998154724403 0 0.0029602082015251136 0.026807468531918194 0 0.0030067066172468349 0.026675998154724403 0 0.0030703617539790599 0.026747294293405915 0 0.0029310712723555152 0.026713473191633658 0 0.0030067066172468349 0.026675998154724403 0 0.0029610088671605064 0.02660380666156412 0 0.0015613200527707337 0.017617548322344467 0 0.0011644790216543916 0.018348819777633869 0 0.0018630321748160552 0.018929930076813054 0 3.8056920801428049e-05 0.019439435475439769 0 -0.00047635777804202545 0.019558332824363294 0 0.0001525591799895982 0.018948940600358507 0 0.00099442390721941453 0.021756745558604944 0 0.00082528630757409504 0.018275463114955696 0 0.00055183478073364621 0.019140275477216456 0 0.0011644790216543916 0.018348819777633869 0 0.0012643308380348962 0.019181337297804378 0 0.0011644790216543916 0.018348819777633869 0 0.0018630321748160552 0.018929930076813054 0 0.0012643308380348962 0.019181337297804378 0 0.00044570152893291944 0.019252516318130859 0 0.00082528630757409504 0.018275463114955696 0 0.0030067066172468349 0.026675998154724403 0 0.0029610088671605064 0.02660380666156412 0 0.0031102942711008739 0.026526887947969636 0 0.0029610088671605064 0.02660380666156412 0 0.0031102942711008739 0.026526887947969636 0 0.0029464006860774206 0.026448325605364795 0 0.0031102942711008739 0.026526887947969636 0 0.0033168076255414634 0.02605647704586251 0 0.0029464006860774206 0.026448325605364795 0 0.0018630321748160552 0.018929930076813054 0 0.0018125906876519397 0.020029176448386178 0 0.0023422732592193909 0.020497501619603908 0 0.0026957309372952465 0.022848807861365578 0 0.0027088021734272818 0.023216592825827134 0 0.0018630321748160552 0.018929930076813054 0 0.0014778360006998204 0.019676162418401276 0 0.0018125906876519397 0.020029176448386178 0 0.00055183478073364621 0.019140275477216456 0 0.0012643308380348962 0.019181337297804378 0 0.00090835368228103872 0.019853472191161636 0 0.0018630321748160552 0.018929930076813054 0 0.0012643308380348962 0.019181337297804378 0 0.0014778360006998204 0.019676162418401276 0 0.0014778360006998204 0.019676162418401276 0 0.0013985102416151319 0.020195542306249443 0 0.0018125906876519397 0.020029176448386178 0 0.0012643308380348962 0.019181337297804378 0 0.0014778360006998204 0.019676162418401276 0 0.00090835368228103872 0.019853472191161636 0 0.0014778360006998204 0.019676162418401276 0 0.00090835368228103872 0.019853472191161636 0 0.0013985102416151319 0.020195542306249443 0 0.00090835368228103872 0.019853472191161636 0 0.0010635478056097826 0.020411742108514316 0 0.0013985102416151319 0.020195542306249443 0 0.0010635478056097826 0.020411742108514316 0 0.0013985102416151319 0.020195542306249443 0 0.0014142857791136446 0.020628709601902773 0 0.0013985102416151319 0.020195542306249443 0 0.0017488465685645625 0.020464281183072426 0 0.0014142857791136446 0.020628709601902773 0 0.0013985102416151319 0.020195542306249443 0 0.0018125906876519397 0.020029176448386178 0 0.0017488465685645625 0.020464281183072426 0 0.0017488465685645625 0.020464281183072426 0 0.0016964533033009598 0.020757762270724772 0 0.0020053776831517969 0.020725257297386394 0 0.0017488465685645625 0.020464281183072426 0 0.0016964533033009598 0.020757762270724772 0 0.0014142857791136446 0.020628709601902773 0 0.0015306057566237148 0.020959594141083063 0 0.0018141792218028636 0.020997325254237226 0 0.0016964533033009598 0.020757762270724772 0 0.0015306057566237148 0.020959594141083063 0 0.0016964533033009598 0.020757762270724772 0 0.0014142857791136446 0.020628709601902773 0 0.0010873100634704268 0.02089430856273225 0 0.0015306057566237148 0.020959594141083063 0 0.0014142857791136446 0.020628709601902773 0 0.0010873100634704268 0.02089430856273225 0 0.0010635478056097826 0.020411742108514316 0 0.0014142857791136446 0.020628709601902773 0 0.0033168076255414634 0.02605647704586251 0 0.0031487149156279272 0.025861831736319472 0 0.0029464006860774206 0.026448325605364795 0 0.0031487149156279272 0.025861831736319472 0 0.0017728130203285267 0.025826886410015924 0 0.0022889418437087605 0.028717588436216447 0 0.0031313929579334771 0.026015962214167455 0 0.0025996968083004932 0.027556355379163296 0 0.0018125906876519397 0.020029176448386178 0 0.0023422732592193909 0.020497501619603908 0 0.0020301463628565834 0.020468195373012157 0 0.0018125906876519397 0.020029176448386178 0 0.0017488465685645625 0.020464281183072426 0 0.0020301463628565834 0.020468195373012157 0 0.0021124798592161024 0.021144239987334092 0 0.0023422732592193909 0.020497501619603908 0 0.0021469021301872304 0.020618629291999369 0 0.0023422732592193909 0.020497501619603908 0 0.0021469021301872304 0.020618629291999369 0 0.0020301463628565834 0.020468195373012157 0 0.0017488465685645625 0.020464281183072426 0 0.0020301463628565834 0.020468195373012157 0 0.0020053776831517969 0.020725257297386394 0 0.0021469021301872304 0.020618629291999369 0 0.0020301463628565834 0.020468195373012157 0 0.0020053776831517969 0.020725257297386394 0 0.0018141792218028636 0.020997325254237226 0 0.0016964533033009598 0.020757762270724772 0 0.0020053776831517969 0.020725257297386394 0 0.0021124798592161024 0.021144239987334092 0 0.0020053776831517969 0.020725257297386394 0 0.0019897727264835715 0.021001773818900924 0 0.0018141792218028636 0.020997325254237226 0 0.0020053776831517969 0.020725257297386394 0 0.0019897727264835715 0.021001773818900924 0 0.0021124798592161024 0.021144239987334092 0 0.0021469021301872304 0.020618629291999369 0 0.0020053776831517969 0.020725257297386394 0 0.0022256663735344059 0.024686789314556715 0 0.0031487149156279272 0.025861831736319472 0 0.0017728130203285267 0.025826886410015924 0 0.0006123892700233538 0.024192051217670981 0 0.0017728130203285267 0.025826886410015924 0 0.00048949667116739094 0.02682884060889101 0 0.0017728130203285267 0.025826886410015924 0 0.00048949667116739094 0.02682884060889101 0 0.0022889418437087605 0.028717588436216447 0 0.0006123892700233538 0.024192051217670981 0 0.00048949667116739094 0.02682884060889101 0 -0.0021527687933844434 0.02638146272797862 0 0.00048949667116739094 0.02682884060889101 0 -0.00023011096908869875 0.029217411003481141 0 -0.0021527687933844434 0.02638146272797862 0 0.00048949667116739094 0.02682884060889101 0 -0.00023011096908869875 0.029217411003481141 0 0.0022889418437087605 0.028717588436216447 0 -0.0021527687933844434 0.02638146272797862 0 -0.0050784207954471788 0.028416631804134063 0 -0.003399134981151089 0.029995353366046616 0 -0.0012078799206704843 0.031527748988719677 0 -0.0023828361093133983 0.031090194766618433 0 -0.00023011096908869875 0.029217411003481141 0 -0.0021527687933844434 0.02638146272797862 0 -0.0015686309797350796 0.0298252606165685 0 -0.0021527687933844434 0.02638146272797862 0 -0.003399134981151089 0.029995353366046616 0 -0.0015686309797350796 0.0298252606165685 0 -0.00069402545527369258 0.029769450086455693 0 -0.00089392561855047858 0.029684766280160174 0 -0.00062950846840137528 0.029542686628468751 0 -0.0017570380489572968 0.027660334228677263 0 -0.0012078799206704843 0.031527748988719677 0 0.00035741411955414183 0.034511712995043485 0 0.00048646356577942301 0.034633759857165908 0 0.00034892715846637713 0.034768754320618531 0 -0.00069402545527369258 0.029769450086455693 0 -0.00036944520070068636 0.029770824112899698 0 -0.00062950846840137528 0.029542686628468751 0 0.00023146230529346684 0.03216059327480867 0 -0.0012078799206704843 0.031527748988719677 0 -0.0012078799206704843 0.031527748988719677 0 0.00010043360581971902 0.034143208934279461 0 -0.00072549158828858146 0.032963528840965331 0 -0.00068220832769212356 0.032670526791338458 0 -0.00038961350686402062 0.032930206088543759 0 -0.00068220832769212356 0.032670526791338458 0 -0.00038961350686402062 0.032930206088543759 0 -0.00049504950027075257 0.032772483534249698 0 -0.00038961350686402062 0.032930206088543759 0 -0.00049504950027075257 0.032772483534249698 0 -2.7804395358567858e-05 0.033098732464285296 0 -0.00068220832769212356 0.032670526791338458 0 -0.00049504950027075257 0.032772483534249698 0 -0.00077461692860759511 0.032546746940439693 0 -0.00068220832769212356 0.032670526791338458 0 -0.00077461692860759511 0.032546746940439693 0 -0.00093463280874694877 0.032309221450496889 0 -0.00077461692860759511 0.032546746940439693 0 -0.00093463280874694877 0.032309221450496889 0 -0.00094166945292747505 0.032423631591731221 0 -0.00068220832769212356 0.032670526791338458 0 -0.00093463280874694877 0.032309221450496889 0 -0.00096395052205752805 0.032670131787793738 0 -0.00072549158828858146 0.032963528840965331 0 -0.00068220832769212356 0.032670526791338458 0 -0.00096395052205752805 0.032670131787793738 0 -0.00093463280874694877 0.032309221450496889 0 -0.00096395052205752805 0.032670131787793738 0 -0.0012105483794092333 0.03174810201533184 0 -0.00023011096908869875 0.029217411003481141 0 -0.0015686309797350796 0.0298252606165685 0 -0.0012105483794092333 0.03174810201533184 0 -0.003399134981151089 0.029995353366046616 0 -0.0015686309797350796 0.0298252606165685 0 -0.0012105483794092333 0.03174810201533184 0 -0.0023828361093133983 0.031090194766618433 0 -0.001256007330729138 0.031856675197900898 0 -0.00021930501131781964 0.031914945516069597 0 -0.0012105483794092333 0.03174810201533184 0 -0.00094166945292747505 0.032423631591731221 0 -0.00093463280874694877 0.032309221450496889 0 -0.0012105483794092333 0.03174810201533184 0 -0.00094166945292747505 0.032423631591731221 0 -0.00021930501131781964 0.031914945516069597 0 -0.00094166945292747505 0.032423631591731221 0 -0.00054390794134193858 0.032614376900053976 0 -2.9356028744856268e-06 0.027075391316135174 0 0.00012489992888706583 0.029371148963623559 0 1.6895000156099182e-06 0.031601822013683188 0 -0.00094166945292747505 0.032423631591731221 0 -0.00054390794134193858 0.032614376900053976 0 -0.00085068360692956745 0.032628386986322096 0 -0.00094166945292747505 0.032423631591731221 0 -0.00085068360692956745 0.032628386986322096 0 -0.00079555642870529359 0.032559438720888671 0 -0.00077461692860759511 0.032546746940439693 0 -0.00094166945292747505 0.032423631591731221 0 -0.00079555642870529359 0.032559438720888671 0 -0.00045865351479312198 0.032830895531835047 0 -0.00054390794134193858 0.032614376900053976 0 -0.00085068360692956745 0.032628386986322096 0 3.3246255140817212e-05 0.028723403046773337 0 -0.00076210776646348625 0.031731106549682093 0 -0.0013770233495357203 0.030038269463059982 0 -0.00030891441471685534 0.030232848031655084 0 -0.00093455843607350526 0.02905993892114625 0 3.3246255140817212e-05 0.028723403046773337 0 -0.0005222880948797193 0.0267209897294651 0 -0.00030891441471685534 0.030232848031655084 0 -0.00093455843607350526 0.02905993892114625 0 0.00012489992888706583 0.029371148963623559 0 -0.00093455843607350526 0.02905993892114625 0 -2.9356028744856268e-06 0.027075391316135174 0 0.00012489992888706583 0.029371148963623559 0 6.7879505430164836e-07 0.025193681947803064 0 -0.00034881707981268984 0.024902348670181897 0 -2.121808988127421e-06 0.027066466433763734 0 -0.0005222880948797193 0.0267209897294651 0 -3.295344389218399e-07 0.027069503318376844 0 0.00012489992888706583 0.029371148963623559 0 0.00016457522339557767 0.03117657951819432 0 1.6895000156099182e-06 0.031601822013683188 0 -0.00030891441471685534 0.030232848031655084 0 0.00012489992888706583 0.029371148963623559 0 0.00016164239022081289 0.030323077384859249 0 0.00012489992888706583 0.029371148963623559 0 0.00016164239022081289 0.030323077384859249 0 0.00016457522339557767 0.03117657951819432 0 0.00016164239022081289 0.030323077384859249 0 0.00016457522339557767 0.03117657951819432 0 0.0001761969285811387 0.030786407523345407 0 -0.00060782558127113852 0.032450943555554439 0 -0.0002457832333442812 0.032749292579573402 0 -0.0005624799817764047 0.032672201328202144 0 -0.00010442395328987502 0.031677719079444382 0 0.00017177694880033008 0.032358307242456773 0 -0.00060782558127113852 0.032450943555554439 0 -0.0002457832333442812 0.032749292579573402 0 0.00012134087995841373 0.032550952762687761 0 0.00016457522339557767 0.03117657951819432 0 0.0001761969285811387 0.030786407523345407 0 0.00012134087995841373 0.032550952762687761 0 -0.00076210776646348625 0.031731106549682093 0 -0.00010442395328987502 0.031677719079444382 0 -0.00060782558127113852 0.032450943555554439 0 -0.00079555642870529359 0.032559438720888671 0 -0.0005624799817764047 0.032672201328202144 0 -0.00085068360692956745 0.032628386986322096 0 -0.00060782558127113852 0.032450943555554439 0 -0.00079555642870529359 0.032559438720888671 0 -0.00030891441471685534 0.030232848031655084 0 0.00016164239022081289 0.030323077384859249 0 0.0001761969285811387 0.030786407523345407 0 -0.00049504950027075257 0.032772483534249698 0 -0.00077461692860759511 0.032546746940439693 0 -0.0005624799817764047 0.032672201328202144 0 -0.00077461692860759511 0.032546746940439693 0 -0.00079555642870529359 0.032559438720888671 0 -0.0005624799817764047 0.032672201328202144 0 -0.00049504950027075257 0.032772483534249698 0 -0.0005624799817764047 0.032672201328202144 0 -0.00024309395018058352 0.032888845027671733 0 -0.0002457832333442812 0.032749292579573402 0 -0.0005624799817764047 0.032672201328202144 0 -0.00024309395018058352 0.032888845027671733 0 -0.0002457832333442812 0.032749292579573402 0 -0.00024309395018058352 0.032888845027671733 0 7.0668357316708253e-05 0.033099385518339047 0 -0.00024309395018058352 0.032888845027671733 0 7.0668357316708253e-05 0.033099385518339047 0 -2.7804395358567858e-05 0.033098732464285296 0 7.0668357316708253e-05 0.033099385518339047 0 0.00016364542963287555 0.033484784201191727 0 7.4083537672319159e-05 0.033545765186493569 0 7.0668357316708253e-05 0.033099385518339047 0 7.4083537672319159e-05 0.033545765186493569 0 -2.7804395358567858e-05 0.033098732464285296 0 7.0668357316708253e-05 0.033099385518339047 0 0.00016364542963287555 0.033484784201191727 0 0.00012134087995841373 0.032550952762687761 0 -0.0002457832333442812 0.032749292579573402 0 7.0668357316708253e-05 0.033099385518339047 0 0.00012134087995841373 0.032550952762687761 0 0.00016457522339557767 0.03117657951819432 0 0.00012134087995841373 0.032550952762687761 0 0.00018826658342368437 0.033034501610133153 0 0.00012062832010369398 0.031480080513202113 0 8.5711385722314772e-05 0.032445926086313456 0 8.5711385722314772e-05 0.032445926086313456 0 9.3566735415843869e-05 0.033721054078911093 0 0.00016364542963287555 0.033484784201191727 0 0.00012134087995841373 0.032550952762687761 0 0.00018826658342368437 0.033034501610133153 0 0.00016364542963287555 0.033484784201191727 0 0.00018826658342368437 0.033034501610133153 0 7.1068430927399061e-05 0.034186978455217079 0 4.6590254422819983e-05 0.031903789852662699 0 1.6895000156099182e-06 0.031601822013683188 0 1.5298905934732774e-05 0.033262823966002844 0 0.00016457522339557767 0.03117657951819432 0 4.6590254422819983e-05 0.031903789852662699 0 1.6895000156099182e-06 0.031601822013683188 0 1.6895000156099182e-06 0.031601822013683188 0 -5.3794009934439444e-07 0.034999921760830256 0 1.5298905934732774e-05 0.033262823966002844 0 1.2522957923499875e-07 0.034999415588356876 0 9.3566735415843869e-05 0.033721054078911093 0 -5.3794009934439444e-07 0.034999921760830256 0 2.7305444210886485e-07 0.034998190007091048 0 1.5298905934732774e-05 0.033262823966002844 0 0.00016364542963287555 0.033484784201191727 0 7.1068430927399061e-05 0.034186978455217079 0 3.2235017867358531e-05 0.0342741729163668 0 2.9177533301597699e-08 0.034999555308902031 0 7.1068430927399061e-05 0.034186978455217079 0 5.0801655030358989e-09 0.034999548522430236 0 7.1068430927399061e-05 0.034186978455217079 0 5.0801655030358989e-09 0.034999548522430236 0 3.2235017867358531e-05 0.0342741729163668 0 5.0801655030358989e-09 0.034999548522430236 0 -2.1995735493311683e-07 0.034997818927650061 0 3.2235017867358531e-05 0.0342741729163668 0 0.00016364542963287555 0.033484784201191727 0 3.2235017867358531e-05 0.0342741729163668 0 7.4083537672319159e-05 0.033545765186493569 0 1.0033219151679916e-07 0.035000198126162091 0 5.3155448359738417e-05 0.034994291761467428 0 -1.4834713972376898e-07 0.034999665577450753 0 -2.1995735493311683e-07 0.034997818927650061 0 3.2235017867358531e-05 0.0342741729163668 0 7.4083537672319159e-05 0.033545765186493569 0 1.4234209318078053e-07 0.034999628661198254 0 0.00011929606214579406 0.034277870637838256 0 -1.4834713972376898e-07 0.034999665577450753 0 7.712768959494321e-05 0.03489384692917686 0 8.8443515667170907e-06 0.034771381401126053 0 -9.1793245260187477e-09 0.034999993299561619 0 1.8060306250444974e-08 0.035000027112621242 0 1.0967837914595321e-05 0.035007095863520611 0 -3.8886043390689426e-08 0.035000036547258619 0 3.2040904014310646e-05 0.034828273524389601 0 7.712768959494321e-05 0.03489384692917686 0 0.00019652881255852449 0.034717960113612958 0 8.8443515667170907e-06 0.034771381401126053 0 5.3155448359738417e-05 0.034994291761467428 0 7.712768959494321e-05 0.03489384692917686 0 0.00019566601584150911 0.034905858043900818 0 5.3155448359738417e-05 0.034994291761467428 0 -1.4834713972376898e-07 0.034999665577450753 0 7.712768959494321e-05 0.03489384692917686 0 0.00011929606214579406 0.034277870637838256 0 8.2287323462812585e-05 0.033956835627565921 0 -0.00049504950027075257 0.032772483534249698 0 -0.00024309395018058352 0.032888845027671733 0 -2.7804395358567858e-05 0.033098732464285296 0 0.00010043360581971902 0.034143208934279461 0 8.2287323462812585e-05 0.033956835627565921 0 0.00034892715846637713 0.034768754320618531 0 0.00019566601584150911 0.034905858043900818 0 0.00019652881255852449 0.034717960113612958 0 7.712768959494321e-05 0.03489384692917686 0 0.00019566601584150911 0.034905858043900818 0 0.00019652881255852449 0.034717960113612958 0 0.00035741411955414183 0.034511712995043485 0 0.00019652881255852449 0.034717960113612958 0 9.5071822216111451e-05 0.034558748196882538 0 0.00035741411955414183 0.034511712995043485 0 0.00034892715846637713 0.034768754320618531 0 0.00019652881255852449 0.034717960113612958 0 2.4948808082207508e-05 0.034923985666957862 0 6.3547489553292862e-05 0.034972221745024602 0 1.7713100567728368e-05 0.034985080964415438 0 6.3547489553292862e-05 0.034972221745024602 0 1.7713100567728368e-05 0.034985080964415438 0 1.0967837914595321e-05 0.035007095863520611 0 2.4948808082207508e-05 0.034923985666957862 0 -2.6874154331821586e-08 0.034999924866593965 0 1.7713100567728368e-05 0.034985080964415438 0 -2.6874154331821586e-08 0.034999924866593965 0 1.7713100567728368e-05 0.034985080964415438 0 5.2207226927355689e-06 0.034997869375433241 0 1.7713100567728368e-05 0.034985080964415438 0 5.2207226927355689e-06 0.034997869375433241 0 1.0967837914595321e-05 0.035007095863520611 0 1.8060306250444974e-08 0.035000027112621242 0 5.2207226927355689e-06 0.034997869375433241 0 1.0967837914595321e-05 0.035007095863520611 0 -2.6874154331821586e-08 0.034999924866593965 0 1.8060306250444974e-08 0.035000027112621242 0 5.2207226927355689e-06 0.034997869375433241 0 6.3011017725236206e-05 0.035064817830198006 0 3.2040904014310646e-05 0.034828273524389601 0 0.00019652881255852449 0.034717960113612958 0 9.5071822216111451e-05 0.034558748196882538 0 8.8443515667170907e-06 0.034771381401126053 0 -0.0041675058554908936 0.0064245533779799212 0 -0.0047121295601489852 0.0060979473696850701 0 -0.0049789137591200999 0.0062796019439850855 0 -0.0043377047609717174 0.015451754103590934 0 -0.0020519968344120884 0.014447377455560949 0 -0.003303864333723918 0.014061557268267719 0 -0.0039501560862154842 0.0080538025229293028 0 -0.0038189566241891492 0.010880783482164431 0 -0.0037862768711701233 0.0065362338340645455 0 -0.0040148903383833406 0.0058292452392214207 0 -0.0047121295601489852 0.0060979473696850701 0 -0.0039501560862154842 0.0080538025229293028 0 -0.0048770940399076876 0.0062567498888181109 0 -0.0043377047609717174 0.015451754103590934 0 -0.003303864333723918 0.014061557268267719 0 -0.0050605691710068554 0.013346757460382263 0 -0.0043377047609717174 0.015451754103590934 0 -0.0076311532767081814 0.015086053221163079 0 -0.0050605691710068554 0.013346757460382263 0 -0.0039501560862154842 0.0080538025229293028 0 -0.0024824075614849313 0.0064994537461048737 0 -0.00087374579038996061 0.0026262882632541373 0 -0.00086761996555808794 0.0026114195548306131 0 -0.00085776417823162315 0.0026073236985228406 0 -0.0024824075614849313 0.0064994537461048737 0 -0.0016178351081085525 0.0044876584953872341 0 -0.0037862768711701233 0.0065362338340645455 0 -0.0025832167468327082 0.0063150842204902748 0 -0.0033337431252335793 0.0058103609795821893 0 -0.0035684776274656619 0.0063029902008443937 0 -0.0025063078194217416 0.0068807853870443102 0 -0.0019768872008002979 0.0060373556762112228 0 -0.0039501560862154842 0.0080538025229293028 0 -0.0016178351081085525 0.0044876584953872341 0 -0.0025832167468327082 0.0063150842204902748 0 -0.0033337431252335793 0.0058103609795821893 0 -0.0028165855003362723 0.0050078460836761986 0 -0.0033337431252335793 0.0058103609795821893 0 -0.0028165855003362723 0.0050078460836761986 0 -0.0038784315857019157 0.0051218407296147982 0 -0.0038784315857019157 0.0051218407296147982 0 -0.0044186701803390748 0.0055388031358857654 0 -0.0048380656437686017 0.0041812470208561882 0 -0.0044186701803390748 0.0055388031358857654 0 -0.0049010333155719453 0.0053380182432798623 0 -0.0048380656437686017 0.0041812470208561882 0 -0.0037862768711701233 0.0065362338340645455 0 -0.0033337431252335793 0.0058103609795821893 0 -0.0040148903383833406 0.0058292452392214207 0 -0.0033337431252335793 0.0058103609795821893 0 -0.0038784315857019157 0.0051218407296147982 0 -0.0040148903383833406 0.0058292452392214207 0 -0.0038784315857019157 0.0051218407296147982 0 -0.0040148903383833406 0.0058292452392214207 0 -0.0044186701803390748 0.0055388031358857654 0 -0.0040148903383833406 0.0058292452392214207 0 -0.0047121295601489852 0.0060979473696850701 0 -0.0044186701803390748 0.0055388031358857654 0 -0.0047121295601489852 0.0060979473696850701 0 -0.0044186701803390748 0.0055388031358857654 0 -0.0048745002041935106 0.0059703484916539202 0 -0.0044186701803390748 0.0055388031358857654 0 -0.0049010333155719453 0.0053380182432798623 0 -0.0048745002041935106 0.0059703484916539202 0 -0.0048745002041935106 0.0059703484916539202 0 -0.0055994029178031849 0.0062097995665633251 0 -0.0049789137591200999 0.0062796019439850855 0 -0.00486313806237998 0.0057077864442208028 0 -0.0048745002041935106 0.0059703484916539202 0 -0.0055994029178031849 0.0062097995665633251 0 -0.0055649587588655139 0.0078905086427965357 0 -0.0054361041427429015 0.0089271077305220856 0 -0.0054204207003925005 0.011479236424265425 0 -0.0054050976645911158 0.011541704171849411 0 -0.0054185076829676949 0.011496071346479604 0 -0.0047121295601489852 0.0060979473696850701 0 -0.0048745002041935106 0.0059703484916539202 0 -0.0049789137591200999 0.0062796019439850855 0 -0.0055649587588655139 0.0078905086427965357 0 -0.0052646151459491792 0.0061363187798944788 0 -0.005411261018376432 0.011510682510327401 0 -0.0054292821953771187 0.011520439410212158 0 -0.0054246721425957036 0.011570870235822961 0 -0.0054050976645911158 0.011541704171849411 0 -0.005411261018376432 0.011510682510327401 0 -0.0054185076829676949 0.011496071346479604 0 -0.0054050976645911158 0.011541704171849411 0 -0.005411261018376432 0.011510682510327401 0 -0.0054246721425957036 0.011570870235822961 0 -0.0054361041427429015 0.0089271077305220856 0 -0.0059571792142677953 0.0089962669904024642 0 -0.0055994029178031849 0.0062097995665633251 0 -0.0052416503701899608 0.0065911896895192558 0 -0.006052904172928265 0.0068140302025250354 0 -0.0038189566241891492 0.010880783482164431 0 -0.0040421334265086113 0.01063077388890322 0 -0.0041675058554908936 0.0064245533779799212 0 -0.0049789137591200999 0.0062796019439850855 0 -0.0052416503701899608 0.0065911896895192558 0 -0.0055994029178031849 0.0062097995665633251 0 -0.0049789137591200999 0.0062796019439850855 0 -0.0052416503701899608 0.0065911896895192558 0 -0.0020519968344120884 0.014447377455560949 0 -0.0023902895058024684 0.013739385219275162 0 -0.0021245063727051575 0.014470885308963587 0 -0.0023902895058024684 0.013739385219275162 0 -0.0021245063727051575 0.014470885308963587 0 -0.0021475846137045639 0.014585693328642698 0 -0.0020519968344120884 0.014447377455560949 0 -0.0023902895058024684 0.013739385219275162 0 -0.003303864333723918 0.014061557268267719 0 -0.0021245063727051575 0.014470885308963587 0 -0.002179425959024899 0.014653621182743749 0 -0.0022170124277403973 0.014832167994003905 0 -0.0020519968344120884 0.014447377455560949 0 -0.0021245063727051575 0.014470885308963587 0 -0.002179425959024899 0.014653621182743749 0 -0.0021245063727051575 0.014470885308963587 0 -0.0021891490545902881 0.014817812663041462 0 -0.0022170124277403973 0.014832167994003905 0 -0.0021245063727051575 0.014470885308963587 0 -0.0021475846137045639 0.014585693328642698 0 -0.0021891490545902881 0.014817812663041462 0 -0.0021475846137045639 0.014585693328642698 0 -0.0021109252331912892 0.01481957133684616 0 -0.0021891490545902881 0.014817812663041462 0 -0.0023902895058024684 0.013739385219275162 0 -0.00164851807362237 0.01170757998078369 0 -0.0029578522327883506 0.012228099875872235 0 -0.0023902895058024684 0.013739385219275162 0 -0.0021475846137045639 0.014585693328642698 0 -0.0019915481701180257 0.014613381368139389 0 -0.0021109252331912892 0.01481957133684616 0 -0.0019915481701180257 0.014613381368139389 0 -0.0020071943672175662 0.014998426325100017 0 -0.0021707946994601207 0.013467600121142219 0 -0.0021350851097695408 0.014002793997185179 0 -0.0013239787977594843 0.007146711642419556 0 -9.5969277699977883e-05 0.0072762874678655321 0 -0.00164851807362237 0.01170757998078369 0 -0.0029578522327883506 0.012228099875872235 0 -0.0010244043144649827 0.0095070379383450816 0 -0.0021475846137045639 0.014585693328642698 0 -0.0021109252331912892 0.01481957133684616 0 -0.0019915481701180257 0.014613381368139389 0 -0.00073695891871052336 0.00017382631377284977 0 -0.0012149778672983799 -0.00031654962965303951 0 -0.0011620440514626929 -7.3321656674429211e-06 0 -0.00073695891871052336 0.00017382631377284977 0 -6.7869229685553945e-07 0.0029615569857122915 0 -0.004440210072880672 0.0072759952654291461 0 -0.00073695891871052336 0.00017382631377284977 0 -6.7869229685553945e-07 0.0029615569857122915 0 0.00016818066049054659 -0.00095747883764243751 0 -0.00081368385808785906 0.0003424321208736596 0 -0.0028944617805733964 0.0039303470770542812 0 -0.00073695891871052336 0.00017382631377284977 0 -0.0012149778672983799 -0.00031654962965303951 0 -0.0012417263182717699 -0.0011030887251763902 0 -0.0029578522327883506 0.012228099875872235 0 -0.003303864333723918 0.014061557268267719 0 -0.0050605691710068554 0.013346757460382263 0 -0.0013239787977594843 0.007146711642419556 0 -0.005139931619372479 0.013311535479181336 0 -0.0023902895058024684 0.013739385219275162 0 -0.0029578522327883506 0.012228099875872235 0 -0.003303864333723918 0.014061557268267719 0 -6.7869229685553945e-07 0.0029615569857122915 0 -0.004440210072880672 0.0072759952654291461 0 -0.0050605691710068554 0.013346757460382263 0 -0.0024824075614849313 0.0064994537461048737 0 -0.0028944617805733964 0.0039303470770542812 0 -0.0015307192976990057 0.00080937281913268544 0 -0.0011620440514626929 -7.3321656674429211e-06 0 -0.0016588438205025881 0.0001591178919557339 0 -0.0076311532767081814 0.015086053221163079 0 -0.004440210072880672 0.0072759952654291461 0 -0.0050605691710068554 0.013346757460382263 0 -0.0015307192976990057 0.00080937281913268544 0 -0.0016588438205025881 0.0001591178919557339 0 -0.002311432281746482 0.00043459723433038279 0 -0.0024824075614849313 0.0064994537461048737 0 -0.0017947900527815689 0.0014149809792671996 0 -0.0011620440514626929 -7.3321656674429211e-06 0 -0.0016588438205025881 0.0001591178919557339 0 -0.0014489399156606391 -0.00022159020563942191 0 -0.0016588438205025881 0.0001591178919557339 0 -0.0014489399156606391 -0.00022159020563942191 0 -0.0019519212456230019 -0.00036887303281400729 0 -0.0014489399156606391 -0.00022159020563942191 0 -0.0015431937209685483 -0.00094652105779206375 0 -0.0019519212456230019 -0.00036887303281400729 0 -0.0015431937209685483 -0.00094652105779206375 0 -0.0019519212456230019 -0.00036887303281400729 0 -0.0019163163941232247 -0.0015951791673663952 0 -0.0012149778672983799 -0.00031654962965303951 0 -0.0011620440514626929 -7.3321656674429211e-06 0 -0.0014489399156606391 -0.00022159020563942191 0 -0.0012149778672983799 -0.00031654962965303951 0 -0.0015431937209685483 -0.00094652105779206375 0 -0.0012417263182717699 -0.0011030887251763902 0 -0.0012149778672983799 -0.00031654962965303951 0 -0.0014489399156606391 -0.00022159020563942191 0 -0.0015431937209685483 -0.00094652105779206375 0 -0.0019519212456230019 -0.00036887303281400729 0 -0.0032849278051788828 -3.7229333508443612e-05 0 -0.0019163163941232247 -0.0015951791673663952 0 -0.0014563701228927182 0.00043362951671807283 0 -0.0023793763920288403 -0.001800315195100664 0 -0.0024792159928394442 -0.0013958211657024776 0 -0.0025082476987432316 -0.0010208362590798724 0 -0.0019163163941232247 -0.0015951791673663952 0 -0.0024792159928394442 -0.0013958211657024776 0 -0.0028981727754403574 -0.0012260761782682923 0 -0.0025887726421139684 -0.0017275840282436534 0 -0.0011289683847666985 -0.0024957529598542702 0 -0.0020582404865615049 -0.0027366013069358886 0 -0.0014563701228927182 0.00043362951671807283 0 -0.0011289683847666985 -0.0024957529598542702 0 -0.0024792159928394442 -0.0013958211657024776 0 -0.0025082476987432316 -0.0010208362590798724 0 -0.0028981727754403574 -0.0012260761782682923 0 -0.00085640434456283438 0.0025836160940133574 0 -0.00085180558783231133 0.0025944085854852062 0 -0.00085114209922318212 0.0025850867334193711 0 -0.00085640434456283438 0.0025836160940133574 0 -0.00085846286291165787 0.0025984598854111576 0 -0.00085180558783231133 0.0025944085854852062 0 -0.0019519212456230019 -0.00036887303281400729 0 -0.0032849278051788828 -3.7229333508443612e-05 0 -0.002311432281746482 0.00043459723433038279 0 -0.0016588438205025881 0.0001591178919557339 0 -0.0019519212456230019 -0.00036887303281400729 0 -0.002311432281746482 0.00043459723433038279 0 -0.0014563701228927182 0.00043362951671807283 0 -0.0017947900527815689 0.0014149809792671996 0 -0.00094659158558473792 -0.0042870530077004304 0 -0.00096495602328265575 -0.0041467964701101282 0 -0.0010011927572390596 -0.004248324321227342 0 -0.00094659158558473792 -0.0042870530077004304 0 -0.00096495602328265575 -0.0041467964701101282 0 -0.00088923307390801687 -0.0041739590160462751 0 -0.0011901056422606508 -0.0043716034332924834 0 -0.0011289683847666985 -0.0024957529598542702 0 -0.00096495602328265575 -0.0041467964701101282 0 -0.0010291639999185059 -0.0042250579622304055 0 -0.0010011927572390596 -0.004248324321227342 0 -0.00096495602328265575 -0.0041467964701101282 0 -0.001151241243750766 -0.004018339385671644 0 -0.0012199629840287068 -0.0042155978121081704 0 -0.001151241243750766 -0.004018339385671644 0 -0.0012199629840287068 -0.0042155978121081704 0 -0.0014738559158327127 -0.0038436903693118731 0 -0.0011289683847666985 -0.0024957529598542702 0 -0.00061677854969857107 -0.0017262487048240684 0 -0.0014563701228927182 0.00043362951671807283 0 -0.00031050833113193001 0.0021544828126823863 0 -0.0010291639999185059 -0.0042250579622304055 0 -0.0010011927572390596 -0.004248324321227342 0 -0.00099001331717354143 -0.0042527785738472974 0 0.0006461681365410967 0.00038415371296247945 0 7.5994427357774851e-05 5.9263268997041064e-05 0 -0.00051800326956398253 0.00094530188284785586 0 0.0006461681365410967 0.00038415371296247945 0 -0.00051800326956398253 0.00094530188284785586 0 -0.0001674103837824166 0.0014240085212565289 0 -0.0010011927572390596 -0.004248324321227342 0 -0.00099001331717354143 -0.0042527785738472974 0 -0.00095967496672262002 -0.0042404774795683003 0 -0.00094659158558473792 -0.0042870530077004304 0 -0.0010011927572390596 -0.004248324321227342 0 -0.00092904461321263168 -0.0043254488728834859 0 -0.0010225155733710703 -0.0042659466794087563 0 -0.00086815147447387203 -0.0042198340448666039 0 -0.00051800326956398253 0.00094530188284785586 0 -0.0001674103837824166 0.0014240085212565289 0 -0.0010763617949389112 0.0018454098918860831 0 -0.00061677854969857107 -0.0017262487048240684 0 -0.0013232219732830803 -0.0006690706196340882 0 -0.00099001331717354143 -0.0042527785738472974 0 -0.00095967496672262002 -0.0042404774795683003 0 -0.00097603758022584395 -0.0042718845234460089 0 -0.00083834849705758307 0.0025752907797111225 0 -0.00084898062327951106 0.0025787231244558144 0 -0.00085114209922318212 0.0025850867334193711 0 -0.00083834849705758307 0.0025752907797111225 0 -0.00084898062327951106 0.0025787231244558144 0 -0.00085223088718481557 0.0025520033889583683 0 -0.00085223088718481557 0.0025520033889583683 0 -0.00084715413958831511 0.0025897585829114094 0 -0.00083994192562397328 0.0025948056440132363 0 -0.00084898062327951106 0.0025787231244558144 0 -0.00085223088718481557 0.0025520033889583683 0 -0.00084715413958831511 0.0025897585829114094 0 -0.00085223088718481557 0.0025520033889583683 0 -0.00087240833128391379 0.002530601583027679 0 -0.00083994192562397328 0.0025948056440132363 0 -0.00085223088718481557 0.0025520033889583683 0 -0.00095346021958340544 0.0024217414703756753 0 -0.00087240833128391379 0.002530601583027679 0 -0.00083834849705758307 0.0025752907797111225 0 -0.00085223088718481557 0.0025520033889583683 0 -0.00095346021958340544 0.0024217414703756753 0 -0.0001674103837824166 0.0014240085212565289 0 -0.00095346021958340544 0.0024217414703756753 0 -0.0010763617949389112 0.0018454098918860831 0 -0.00031050833113193001 0.0021544828126823863 0 -0.00099408232327066531 0.0023763176503610308 0 -0.00084572002380164783 0.0026014107227746242 0 -0.00085776417823162315 0.0026073236985228406 0 -0.00085180558783231133 0.0025944085854852062 0 -0.00086761996555808794 0.0026114195548306131 0 -0.00084572002380164783 0.0026014107227746242 0 -0.00085776417823162315 0.0026073236985228406 0 -0.0016178351081085525 0.0044876584953872341 0 -0.00055909114035371059 0.0029317521732440937 0 -0.00087374579038996061 0.0026262882632541373 0 -0.00085846286291165787 0.0025984598854111576 0 -0.00085776417823162315 0.0026073236985228406 0 -0.00085846286291165787 0.0025984598854111576 0 -0.00085776417823162315 0.0026073236985228406 0 -0.00085180558783231133 0.0025944085854852062 0 -0.00085640434456283438 0.0025836160940133574 0 -0.00083834849705758307 0.0025752907797111225 0 -0.00085114209922318212 0.0025850867334193711 0 -0.00084898062327951106 0.0025787231244558144 0 -0.00085114209922318212 0.0025850867334193711 0 -0.00084715413958831511 0.0025897585829114094 0 -0.00085180558783231133 0.0025944085854852062 0 -0.00085114209922318212 0.0025850867334193711 0 -0.00084715413958831511 0.0025897585829114094 0 -0.00084572002380164783 0.0026014107227746242 0 -0.00085180558783231133 0.0025944085854852062 0 -0.00084715413958831511 0.0025897585829114094 0 -0.00084715413958831511 0.0025897585829114094 0 -0.00082275871937789041 0.00262356322287906 0 -0.00085306735202574102 0.0026396203556271767 0 -0.00084715413958831511 0.0025897585829114094 0 -0.00085306735202574102 0.0026396203556271767 0 -0.00083994192562397328 0.0025948056440132363 0 -0.0016178351081085525 0.0044876584953872341 0 -0.0012458486664017683 0.0035757479717219514 0 -0.00084572002380164783 0.0026014107227746242 0 -0.00084715413958831511 0.0025897585829114094 0 -0.00082275871937789041 0.00262356322287906 0 -0.0025832167468327082 0.0063150842204902748 0 -0.0028165855003362723 0.0050078460836761986 0 -0.0015983859068012106 0.0045391717326907889 0 -0.00084702898831360673 0.002610726140497014 0 -0.00084572002380164783 0.0026014107227746242 0 -0.00082275871937789041 0.00262356322287906 0 -0.0028165855003362723 0.0050078460836761986 0 -0.0015983859068012106 0.0045391717326907889 0 -0.0026546958365601388 0.0039929204328609039 0 -0.0015983859068012106 0.0045391717326907889 0 -0.0019440958449127627 0.0031835302164981557 0 -0.0026546958365601388 0.0039929204328609039 0 -0.0015983859068012106 0.0045391717326907889 0 -0.0009377788029151196 0.0027272708851365747 0 -0.0019440958449127627 0.0031835302164981557 0 -0.0012458486664017683 0.0035757479717219514 0 -0.00093203561243043233 0.0028124909685670685 0 -0.00085306735202574102 0.0026396203556271767 0 -0.0009377788029151196 0.0027272708851365747 0 -0.00082410137489768586 0.002669121378234779 0 -0.00082275871937789041 0.00262356322287906 0 -0.00085306735202574102 0.0026396203556271767 0 -0.0009377788029151196 0.0027272708851365747 0 -0.0009377788029151196 0.0027272708851365747 0 -0.00071022132290462961 0.0026832659043514949 0 -0.0013650463285349308 0.0022888619968721761 0 -0.00068743147394745795 -0.0011891378641585562 0 -0.0014737690345229494 -0.0016973250497116469 0 -0.0009377788029151196 0.0027272708851365747 0 -0.00082410137489768586 0.002669121378234779 0 -0.00071022132290462961 0.0026832659043514949 0 -0.0009377788029151196 0.0027272708851365747 0 -0.0019440958449127627 0.0031835302164981557 0 -0.0013650463285349308 0.0022888619968721761 0 -0.0023941878615958575 0.0025087411178026753 0 -0.0019440958449127627 0.0031835302164981557 0 -0.0013650463285349308 0.0022888619968721761 0 -0.00089790356298071351 0.0025893449567953716 0 -0.00095346021958340544 0.0024217414703756753 0 -0.00091195987558344001 0.0026891685274466949 0 -0.00088030956791241655 0.00045319418331293371 0 -1.9338940367078504e-05 -0.0028214327001581355 0 -0.00089790356298071351 0.0025893449567953716 0 -0.00095346021958340544 0.0024217414703756753 0 -0.00089065033133370352 0.0025260044703994105 0 -0.00095346021958340544 0.0024217414703756753 0 -0.00089065033133370352 0.0025260044703994105 0 -0.00087240833128391379 0.002530601583027679 0 -0.00089065033133370352 0.0025260044703994105 0 -0.00087240833128391379 0.002530601583027679 0 -0.00085857161049449971 0.0025717416781191236 0 -0.00085857161049449971 0.0025717416781191236 0 -0.00081076461971886981 0.0026218549842785539 0 -0.00091758775347627159 0.0026125625155077963 0 -0.00089790356298071351 0.0025893449567953716 0 -0.00085857161049449971 0.0025717416781191236 0 -0.00091758775347627159 0.0026125625155077963 0 -0.00089790356298071351 0.0025893449567953716 0 -0.00089065033133370352 0.0025260044703994105 0 -0.00085857161049449971 0.0025717416781191236 0 -0.00085857161049449971 0.0025717416781191236 0 -0.00081076461971886981 0.0026218549842785539 0 -0.00083994192562397328 0.0025948056440132363 0 -0.00087240833128391379 0.002530601583027679 0 -0.00085857161049449971 0.0025717416781191236 0 -0.00083994192562397328 0.0025948056440132363 0 -0.00085306735202574102 0.0026396203556271767 0 -0.00083994192562397328 0.0025948056440132363 0 -0.00082410137489768586 0.002669121378234779 0 -0.00081076461971886981 0.0026218549842785539 0 -0.00083994192562397328 0.0025948056440132363 0 -0.00082410137489768586 0.002669121378234779 0 -0.00065650801736387367 -0.0053490942051627136 0 0.00038121980269586461 -0.0049252027297689025 0 -0.00020628064839942669 -0.0062055756866334572 0 -0.00068743147394745795 -0.0011891378641585562 0 -1.9338940367078504e-05 -0.0028214327001581355 0 -0.00081076461971886981 0.0026218549842785539 0 -0.00071022132290462961 0.0026832659043514949 0 -0.00091758775347627159 0.0026125625155077963 0 -0.00081076461971886981 0.0026218549842785539 0 -0.00082410137489768586 0.002669121378234779 0 -0.00071022132290462961 0.0026832659043514949 0 -1.9338940367078504e-05 -0.0028214327001581355 0 0.0010432171927280195 -0.0077872073544822543 0 -0.00020628064839942669 -0.0062055756866334572 0 0.00034068152401882498 -0.0068961110104716885 0 0.00075888122262742148 -0.0061200047280676054 0 0.00038121980269586461 -0.0049252027297689025 0 -0.00020628064839942669 -0.0062055756866334572 0 0.00075888122262742148 -0.0061200047280676054 0 -0.00065650801736387367 -0.0053490942051627136 0 -0.00020628064839942669 -0.0062055756866334572 0 -0.0012158785597904676 -0.0065399130611833185 0 -0.00020628064839942669 -0.0062055756866334572 0 -0.00044335206262358903 -0.0071320910134213432 0 -0.0012158785597904676 -0.0065399130611833185 0 -0.00020628064839942669 -0.0062055756866334572 0 -0.00044335206262358903 -0.0071320910134213432 0 0.00034068152401882498 -0.0068961110104716885 0 -0.0016461819843745077 -0.0057746490647440961 0 -0.0019928588972983894 -0.0065153467811521421 0 -0.0024220962799835211 -0.0062078062374252389 0 -0.0014737690345229494 -0.0016973250497116469 0 -0.0028475626172398548 -0.0028791198810823389 0 -0.0016461819843745077 -0.0057746490647440961 0 -0.0012158785597904676 -0.0065399130611833185 0 -0.0019928588972983894 -0.0065153467811521421 0 -0.0023941878615958575 0.0025087411178026753 0 -0.0013650463285349308 0.0022888619968721761 0 -0.0029836107723543548 0.0016033114194696071 0 -0.00065650801736387367 -0.0053490942051627136 0 -0.0016461819843745077 -0.0057746490647440961 0 -0.0012158785597904676 -0.0065399130611833185 0 -0.0011399270498608379 -0.0075102867361806405 0 -0.00044335206262358903 -0.0071320910134213432 0 -0.0012158785597904676 -0.0065399130611833185 0 -0.0020190611799880184 -0.0071091311919248366 0 -0.0011399270498608379 -0.0075102867361806405 0 -0.0012158785597904676 -0.0065399130611833185 0 -0.0020190611799880184 -0.0071091311919248366 0 -0.0012158785597904676 -0.0065399130611833185 0 -0.0019928588972983894 -0.0065153467811521421 0 -0.0024732982568372881 -0.0069151709174448258 0 -0.0020190611799880184 -0.0071091311919248366 0 -0.0019928588972983894 -0.0065153467811521421 0 -0.0024732982568372881 -0.0069151709174448258 0 -0.0019928588972983894 -0.0065153467811521421 0 -0.0024220962799835211 -0.0062078062374252389 0 -0.0031914553990026761 -0.0024348022285380719 0 -0.004221740697452259 0.0030394913552704412 0 -0.00281878987938983 -0.007032607091241783 0 -0.0024732982568372881 -0.0069151709174448258 0 -0.0029542794036194388 -0.0064550559384259874 0 -0.0024732982568372881 -0.0069151709174448258 0 -0.0029542794036194388 -0.0064550559384259874 0 -0.0024220962799835211 -0.0062078062374252389 0 -0.004221740697452259 0.0030394913552704412 0 -0.0028475626172398548 -0.0028791198810823389 0 -0.004221740697452259 0.0030394913552704412 0 -0.0051852113854535089 0.0077223554924027056 0 -0.004630150464329021 0.00098937390004913569 0 -0.0029836107723543548 0.0016033114194696071 0 -0.0047235937096635951 0.0025674815889102386 0 -0.0023941878615958575 0.0025087411178026753 0 -0.0029836107723543548 0.0016033114194696071 0 -0.0031180571121799928 0.0032064283912460185 0 -0.0023941878615958575 0.0025087411178026753 0 -0.0019440958449127627 0.0031835302164981557 0 -0.0031180571121799928 0.0032064283912460185 0 -0.0019440958449127627 0.0031835302164981557 0 -0.0031180571121799928 0.0032064283912460185 0 -0.0026546958365601388 0.0039929204328609039 0 -0.0047235937096635951 0.0025674815889102386 0 -0.0037981233117483975 0.0040525740728082913 0 -0.0048380656437686017 0.0041812470208561882 0 -0.0051852113854535089 0.0077223554924027056 0 -0.0051648879387651029 0.0077485442243280635 0 -0.0031180571121799928 0.0032064283912460185 0 -0.0047235937096635951 0.0025674815889102386 0 -0.0037981233117483975 0.0040525740728082913 0 -0.0029836107723543548 0.0016033114194696071 0 -0.0031180571121799928 0.0032064283912460185 0 -0.0047235937096635951 0.0025674815889102386 0 -0.0038784315857019157 0.0051218407296147982 0 -0.0037981233117483975 0.0040525740728082913 0 -0.0048380656437686017 0.0041812470208561882 0 -0.0028165855003362723 0.0050078460836761986 0 -0.0037981233117483975 0.0040525740728082913 0 -0.0026546958365601388 0.0039929204328609039 0 -0.0028165855003362723 0.0050078460836761986 0 -0.0038784315857019157 0.0051218407296147982 0 -0.0037981233117483975 0.0040525740728082913 0 -0.0031180571121799928 0.0032064283912460185 0 -0.0037981233117483975 0.0040525740728082913 0 -0.0026546958365601388 0.0039929204328609039 0 -0.005411261018376432 0.011510682510327401 0 -0.0054253309978291933 0.011510112750409564 0 -0.0053876603914577636 0.011538622427885 0 -0.00545844711599277 0.011711414469791367 0 -0.0054719380043498494 0.01168091880845349 0 -0.005411261018376432 0.011510682510327401 0 -0.0053876603914577636 0.011538622427885 0 -0.0054292821953771187 0.011520439410212158 0 -0.005411261018376432 0.011510682510327401 0 -0.0054185076829676949 0.011496071346479604 0 -0.0054253309978291933 0.011510112750409564 0 -0.0055649587588655139 0.0078905086427965357 0 -0.0051648879387651029 0.0077485442243280635 0 -0.0054204207003925005 0.011479236424265425 0 -0.0054185076829676949 0.011496071346479604 0 -0.0054469106617092769 0.011480206627315071 0 -0.0054185076829676949 0.011496071346479604 0 -0.0054469106617092769 0.011480206627315071 0 -0.0054253309978291933 0.011510112750409564 0 -0.0055084506054853604 0.011559291778282063 0 -0.0054469106617092769 0.011480206627315071 0 -0.0054253309978291933 0.011510112750409564 0 -0.0055084506054853604 0.011559291778282063 0 -0.0054253309978291933 0.011510112750409564 0 -0.0053876603914577636 0.011538622427885 0 -0.0055154350810491075 0.011882577934150424 0 -0.005505754206416481 0.011835312093496277 0 -0.0054834929621711452 0.011740401714722766 0 -0.0055154350810491075 0.011882577934150424 0 -0.005505754206416481 0.011835312093496277 0 -0.0055111040460177237 0.011905595056247624 0 -0.00545844711599277 0.011711414469791367 0 -0.0054825590083281087 0.011743810397257743 0 -0.0055012303100214037 0.011717968404636139 0 -0.0055084506054853604 0.011559291778282063 0 -0.0054834929621711452 0.011740401714722766 0 -0.0055084506054853604 0.011559291778282063 0 -0.0053876603914577636 0.011538622427885 0 -0.0054834929621711452 0.011740401714722766 0 -0.0037359334982027675 0.0034327327414508894 0 -0.0038553047629628257 0.0055634170204524143 0 -0.0064537004958180235 0.0046083980403783141 0 -0.004221740697452259 0.0030394913552704412 0 -0.0059351269206697616 0.0089022119154569136 0 -0.0055012303100214037 0.011717968404636139 0 -0.0054834929621711452 0.011740401714722766 0 -0.0054991360203259596 0.011837351330616523 0 -0.005505754206416481 0.011835312093496277 0 -0.0054834929621711452 0.011740401714722766 0 -0.0054991360203259596 0.011837351330616523 0 -0.005505754206416481 0.011835312093496277 0 -0.0054991360203259596 0.011837351330616523 0 -0.0055111040460177237 0.011905595056247624 0 -0.0054991360203259596 0.011837351330616523 0 -0.0055111040460177237 0.011905595056247624 0 -0.0055151851933179412 0.011924301673646156 0 -0.0055111040460177237 0.011905595056247624 0 -0.0054486059229823811 0.011960035098458006 0 -0.0054903557648493598 0.011960139556227547 0 -0.0055111040460177237 0.011905595056247624 0 -0.0054486059229823811 0.011960035098458006 0 -0.0054912809914933747 0.011899677940006795 0 -0.0055284133163211267 0.011892951523247227 0 -0.0055151851933179412 0.011924301673646156 0 -0.0055227675977349133 0.011987165568513813 0 -0.0055111040460177237 0.011905595056247624 0 -0.0055151851933179412 0.011924301673646156 0 -0.0054903557648493598 0.011960139556227547 0 -0.0055151851933179412 0.011924301673646156 0 -0.0055227675977349133 0.011987165568513813 0 -0.0054903557648493598 0.011960139556227547 0 -0.0054802809767419604 0.01207797753360519 0 -0.0055232255129824001 0.012086624614370153 0 -0.0055227675977349133 0.011987165568513813 0 -0.0054802809767419604 0.01207797753360519 0 -0.0055227675977349133 0.011987165568513813 0 -0.0054768302317851703 0.011991996558718519 0 -0.0055227675977349133 0.011987165568513813 0 -0.0054768302317851703 0.011991996558718519 0 -0.0054903557648493598 0.011960139556227547 0 -0.0031781952365531048 0.021088604371595026 0 -0.0018186135473050196 0.0274807042986853 0 -0.0055045698109051442 0.012086075974727646 0 -0.0054802809767419604 0.01207797753360519 0 -0.0056095857786621645 0.012426023767536029 0 -0.0031781952365531048 0.021088604371595026 0 -0.0043214693031594859 0.016206452395783565 0 -0.0022385640493813356 0.023329562709599374 0 -0.0025017126515976098 0.023834306942014858 0 -0.0027406729123443927 0.023709261867291567 0 -0.0052223824720167332 0.011312849809560811 0 -0.0043214693031594859 0.016206452395783565 0 -0.0054802809767419604 0.01207797753360519 0 -0.0054768302317851703 0.011991996558718519 0 -0.0054383011755751113 0.012001802089697139 0 -0.0054383011755751113 0.012001802089697139 0 -0.0054532281155916682 0.011982146208527812 0 -0.0054556432018255437 0.012010770694141085 0 -0.0054532281155916682 0.011982146208527812 0 -0.0054496334638331947 0.012006986308154092 0 -0.0054556432018255437 0.012010770694141085 0 -0.0043214693031594859 0.016206452395783565 0 -0.0045087402348328457 0.014837744244128499 0 -0.0054768302317851703 0.011991996558718519 0 -0.0054383011755751113 0.012001802089697139 0 -0.0054532281155916682 0.011982146208527812 0 -0.0054532281155916682 0.011982146208527812 0 -0.0054486059229823811 0.011960035098458006 0 -0.0054496334638331947 0.012006986308154092 0 -0.0054532281155916682 0.011982146208527812 0 -0.0054486059229823811 0.011960035098458006 0 -0.0054903557648493598 0.011960139556227547 0 -0.0054768302317851703 0.011991996558718519 0 -0.0054532281155916682 0.011982146208527812 0 -0.0054903557648493598 0.011960139556227547 0 -0.0054486059229823811 0.011960035098458006 0 -0.005289297735540279 0.011980186480400144 0 -0.0053836663037636423 0.011894725251034848 0 -0.0054486059229823811 0.011960035098458006 0 -0.0053836663037636423 0.011894725251034848 0 -0.0054912809914933747 0.011899677940006795 0 -0.0054367685268518163 0.01198270639034916 0 -0.0053965109250705863 0.011877624998073984 0 -0.005289297735540279 0.011980186480400144 0 -0.0052399344827046357 0.011893670602355076 0 -0.0053836663037636423 0.011894725251034848 0 -0.0052399344827046357 0.011893670602355076 0 -0.0053836663037636423 0.011894725251034848 0 -0.0053206604329004668 0.011798748184627174 0 -0.0053836663037636423 0.011894725251034848 0 -0.0054285880741419025 0.011828866873045291 0 -0.0053206604329004668 0.011798748184627174 0 -0.0053836663037636423 0.011894725251034848 0 -0.0054285880741419025 0.011828866873045291 0 -0.0054912809914933747 0.011899677940006795 0 -0.0054285880741419025 0.011828866873045291 0 -0.0055283997430930383 0.011841063229489584 0 -0.0054912809914933747 0.011899677940006795 0 -0.0055154350810491075 0.011882577934150424 0 -0.0055283997430930383 0.011841063229489584 0 -0.0054912809914933747 0.011899677940006795 0 -0.0055154350810491075 0.011882577934150424 0 -0.0055111040460177237 0.011905595056247624 0 -0.0054912809914933747 0.011899677940006795 0 -0.002482094035284869 0.030644457107072517 0 -0.0026043092028221067 0.030720868454057519 0 -0.0026246970503298298 0.030598652130534344 0 -0.0023393108793633259 0.030934632449903 0 -0.0023299450778532112 0.030941464429952294 0 -0.0022480771169199397 0.030898312856107182 0 -0.0023299450778532112 0.030941464429952294 0 -0.0022480771169199397 0.030898312856107182 0 -0.0021684729743934998 0.030898576626298486 0 -0.0017857227103056628 0.030059418236551054 0 -0.0021684729743934998 0.030898576626298486 0 -0.0015121774003188564 0.030839917827370462 0 -0.0020760617649883098 0.030912250899542013 0 -0.0022480771169199397 0.030898312856107182 0 -0.0021684729743934998 0.030898576626298486 0 -0.0019183555504898369 0.030484794287978165 0 -0.0021522430353697209 0.030860739100801414 0 -0.0026043092028221067 0.030720868454057519 0 -0.0027527129285909438 0.030649267606104966 0 -0.0026246970503298298 0.030598652130534344 0 -0.0023299450778532112 0.030941464429952294 0 -0.0021684729743934998 0.030898576626298486 0 -0.0015121774003188564 0.030839917827370462 0 -0.0024827321882179517 0.027540816611897067 0 -0.0026350675242733969 0.027368219826446178 0 -0.0023617762409682973 0.031257547671291984 0 -0.0024827321882179517 0.027540816611897067 0 -0.0029130959277998011 0.024192145829151159 0 -0.0028889338154536896 0.024195249911234402 0 -0.0029160498562490166 0.024241376566259555 0 -0.0029130959277998011 0.024192145829151159 0 -0.0029490143399278244 0.024220259264748776 0 -0.0025242978306805465 0.024161381374340443 0 -0.0029130959277998011 0.024192145829151159 0 -0.0028889338154536896 0.024195249911234402 0 -0.0029490143399278244 0.024220259264748776 0 -0.0017857227103056628 0.030059418236551054 0 -0.0015121774003188564 0.030839917827370462 0 -0.00089265437427304333 0.030369523821809203 0 -0.0024827321882179517 0.027540816611897067 0 -0.0018186135473050196 0.0274807042986853 0 -0.0025017126515976098 0.023834306942014858 0 -0.0027406729123443927 0.023709261867291567 0 -0.0027325010821634488 0.02404456097454015 0 -0.0028889338154536896 0.024195249911234402 0 -0.0029490143399278244 0.024220259264748776 0 -0.0027325010821634488 0.02404456097454015 0 -0.003480946599025223 0.017433498553425943 0 -0.003848797247752664 0.017838566317042039 0 -0.0037043685968762481 0.017863685650179078 0 -0.0024827321882179517 0.027540816611897067 0 -0.0030223298318852844 0.023982437283540776 0 -0.0043214693031594859 0.016206452395783565 0 -0.0035691132520882479 0.02135791880911243 0 -0.0032063400183028651 0.02405694264376845 0 -0.0027406729123443927 0.023709261867291567 0 -0.0027325010821634488 0.02404456097454015 0 -0.0025017126515976098 0.023834306942014858 0 -0.0027325010821634488 0.02404456097454015 0 -0.0028162428569434494 0.024192281022616609 0 -0.0028889338154536896 0.024195249911234402 0 -0.0028162428569434494 0.024192281022616609 0 -0.0029160498562490166 0.024241376566259555 0 -0.0028889338154536896 0.024195249911234402 0 -0.0027325010821634488 0.02404456097454015 0 -0.0028162428569434494 0.024192281022616609 0 -0.0053965109250705863 0.011877624998073984 0 -0.0045356203371760733 0.014710379978761061 0 -0.0054496334638331947 0.012006986308154092 0 -0.0054556432018255437 0.012010770694141085 0 -0.0054635996039689196 0.012050312030024697 0 -0.005289297735540279 0.011980186480400144 0 -0.0052399344827046357 0.011893670602355076 0 -0.0051532307846917933 0.011979485039801337 0 -0.003848797247752664 0.017838566317042039 0 -0.0037043685968762481 0.017863685650179078 0 -0.0039231669921808241 0.018264887131680323 0 -0.0045087402348328457 0.014837744244128499 0 -0.0045356203371760733 0.014710379978761061 0 -0.003848797247752664 0.017838566317042039 0 -0.0039231669921808241 0.018264887131680323 0 -0.0042017918616821682 0.018217047065266372 0 -0.0035691132520882479 0.02135791880911243 0 -0.0028299298122174501 0.021722083077936164 0 -0.0045356203371760733 0.014710379978761061 0 -0.0028446131400981316 0.018687184147295036 0 -0.0052399344827046357 0.011893670602355076 0 -0.0050996923434518983 0.01190971852188163 0 -0.0052080421757682094 0.011815274660636949 0 -0.0052399344827046357 0.011893670602355076 0 -0.0051532307846917933 0.011979485039801337 0 -0.0050996923434518983 0.01190971852188163 0 -0.0045356203371760733 0.014710379978761061 0 -0.0026561442549838223 0.015839784667222138 0 -0.0026561442549838223 0.015839784667222138 0 -0.0028446131400981316 0.018687184147295036 0 -0.0012115596320398932 0.018424638033307975 0 -0.00091823676939555368 0.018650734747093972 0 -0.0011628164227821907 0.018722840889914407 0 -0.0036606449021494456 0.016360143973368196 0 -0.0035586328866867236 0.016185755319270981 0 -0.0035329387644850684 0.016327921801634102 0 -0.00093800801889445983 0.018305573560035281 0 -0.00091823676939555368 0.018650734747093972 0 -0.00069501663861160578 0.018071024612425202 0 -0.0012115596320398932 0.018424638033307975 0 -0.00093800801889445983 0.018305573560035281 0 -0.00096326004560564618 0.018038445768801051 0 -0.0012115596320398932 0.018424638033307975 0 -0.00093800801889445983 0.018305573560035281 0 -0.00091823676939555368 0.018650734747093972 0 -0.0027537810879520127 0.024882276413333567 0 -0.0028299298122174501 0.021722083077936164 0 -0.0028832123588978078 0.023859600769595698 0 -0.0029673265223014787 0.023991508307700842 0 -0.0027991440296077051 0.024029057490297535 0 -0.0031191358995205577 0.021671032599252221 0 -0.0028446131400981316 0.018687184147295036 0 -0.0029130959277998011 0.024192145829151159 0 -0.0029673265223014787 0.023991508307700842 0 -0.0027991440296077051 0.024029057490297535 0 -0.0031191358995205577 0.021671032599252221 0 -0.0028299298122174501 0.021722083077936164 0 -0.0028446131400981316 0.018687184147295036 0 -0.0028299298122174501 0.021722083077936164 0 -0.0039231669921808241 0.018264887131680323 0 -0.004174252820751634 0.018351972161707496 0 -0.0042017918616821682 0.018217047065266372 0 -0.0031428739006468657 0.021019248327292656 0 -0.0023395530767904419 0.020773316076775749 0 -0.0024309466179958366 0.020299677616956915 0 -0.0029130959277998011 0.024192145829151159 0 -0.0027991440296077051 0.024029057490297535 0 -0.0025242978306805465 0.024161381374340443 0 -0.0026592673394000761 0.023925275434612162 0 -0.0023983190624307523 0.023627848372980872 0 -0.0025242978306805465 0.024161381374340443 0 -0.0027991440296077051 0.024029057490297535 0 -0.0026592673394000761 0.023925275434612162 0 -0.0025242978306805465 0.024161381374340443 0 -0.0028832123588978078 0.023859600769595698 0 -0.0027991440296077051 0.024029057490297535 0 -0.0026592673394000761 0.023925275434612162 0 -0.00091823676939555368 0.018650734747093972 0 -0.000380785616114043 0.018051879235524221 0 -0.00069501663861160578 0.018071024612425202 0 -0.0052755839166921019 0.024111491639838868 0 -0.0039603607955085258 0.023729400282637536 0 -0.0040625669543779067 0.022774662963905585 0 -0.0028832123588978078 0.023859600769595698 0 -0.0026592673394000761 0.023925275434612162 0 -0.0023983190624307523 0.023627848372980872 0 -0.0031191358995205577 0.021671032599252221 0 -0.0022143251652076649 0.020344512758881779 0 -0.0031191358995205577 0.021671032599252221 0 -0.0034314074924144053 0.023941035359895085 0 -0.0017626704233960015 0.023290042305561511 0 -0.0034314074924144053 0.023941035359895085 0 -0.0022429226026705628 0.023427460957959331 0 -0.0039603607955085258 0.023729400282637536 0 -0.0032555456010843632 0.023086307173546396 0 -0.0015828565910617381 0.023774097957632398 0 -0.0023983190624307523 0.023627848372980872 0 -0.0025242978306805465 0.024161381374340443 0 -0.00198290203127034 0.027099303364878299 0 -0.0026350675242733969 0.027368219826446178 0 -0.002482094035284869 0.030644457107072517 0 -0.0024405022139343045 0.030454640609522899 0 -0.0026246970503298298 0.030598652130534344 0 -0.00011603100886381927 0.017610151854226822 0 -0.00038074570785561027 0.0177302583363977 0 -0.000380785616114043 0.018051879235524221 0 -0.0013425043790820453 0.019198067327555857 0 -0.0022143251652076649 0.020344512758881779 0 -0.00011603100886381927 0.017610151854226822 0 -0.00038074570785561027 0.0177302583363977 0 -0.00032258056539952954 0.017506953804101139 0 -0.002734475371011486 0.022433802534223658 0 -0.0032555456010843632 0.023086307173546396 0 -0.0040625669543779067 0.022774662963905585 0 -0.0039603607955085258 0.023729400282637536 0 -0.0032555456010843632 0.023086307173546396 0 -0.0040625669543779067 0.022774662963905585 0 -0.00069501663861160578 0.018071024612425202 0 -0.00070439115448153028 0.017703514471108725 0 -0.00096326004560564618 0.018038445768801051 0 -0.00038074570785561027 0.0177302583363977 0 -0.000380785616114043 0.018051879235524221 0 -0.00069501663861160578 0.018071024612425202 0 -0.00038074570785561027 0.0177302583363977 0 -0.00069501663861160578 0.018071024612425202 0 -0.00070439115448153028 0.017703514471108725 0 -0.00038074570785561027 0.0177302583363977 0 -0.00070439115448153028 0.017703514471108725 0 -0.00032258056539952954 0.017506953804101139 0 -0.00070439115448153028 0.017703514471108725 0 -0.00090852121351627662 0.017531813516798528 0 -0.0010230655742583549 0.017734179229072135 0 -0.0026561442549838223 0.015839784667222138 0 -0.0031449304395837091 0.01446833142095345 0 -0.00071056668698883608 0.01766418566840167 0 -0.001043577886395246 0.018111410343653433 0 -0.00096116327452817701 0.017977927412511446 0 -0.00085802557436312499 0.01784236177957399 0 -0.0010230655742583549 0.017734179229072135 0 -0.00070439115448153028 0.017703514471108725 0 -0.00085802557436312499 0.01784236177957399 0 -0.0010230655742583549 0.017734179229072135 0 -0.00093800801889445983 0.018305573560035281 0 -0.00069501663861160578 0.018071024612425202 0 -0.00096326004560564618 0.018038445768801051 0 -0.0026561442549838223 0.015839784667222138 0 -0.001043577886395246 0.018111410343653433 0 -0.0052080421757682094 0.011815274660636949 0 -0.0051239719900350025 0.011766652789269496 0 -0.005239188333607878 0.011724240039141274 0 -0.0050996923434518983 0.01190971852188163 0 -0.0052080421757682094 0.011815274660636949 0 -0.0051239719900350025 0.011766652789269496 0 -0.00090852121351627662 0.017531813516798528 0 -0.0010230655742583549 0.017734179229072135 0 -0.0011286919328094935 0.017352824406192038 0 -0.0031449304395837091 0.01446833142095345 0 -0.0030753535292205765 0.014950304512524562 0 -0.0051239719900350025 0.011766652789269496 0 -0.0051416216807144708 0.011640675551625254 0 -0.005239188333607878 0.011724240039141274 0 -0.0035029060850843654 0.01401179496325641 0 -0.0035127592617977444 0.013951984571417997 0 -0.0036263507188568729 0.013978391004563256 0 -0.0030753535292205765 0.014950304512524562 0 -0.0027423997431865661 0.015458774384074014 0 -0.0017328438001640869 0.016313240912642524 0 -0.0017762745040441545 0.016199421268323706 0 -0.0019051986701743842 0.016019683348669028 0 -0.0017328438001640869 0.016313240912642524 0 -0.0016873265680039027 0.016385704121232501 0 -0.0017153097504117975 0.016304978411693583 0 -0.0017328438001640869 0.016313240912642524 0 -0.0017762745040441545 0.016199421268323706 0 -0.0017153097504117975 0.016304978411693583 0 -0.0016873265680039027 0.016385704121232501 0 -0.0017153097504117975 0.016304978411693583 0 -0.0016416577720922993 0.01637191601261757 0 -0.0017762745040441545 0.016199421268323706 0 -0.0017153097504117975 0.016304978411693583 0 -0.0016456525695754344 0.01624169343766136 0 -0.0017153097504117975 0.016304978411693583 0 -0.0016456525695754344 0.01624169343766136 0 -0.0016416577720922993 0.01637191601261757 0 -0.0017762745040441545 0.016199421268323706 0 -0.0016456525695754344 0.01624169343766136 0 -0.0017781515661992543 0.01605133129836148 0 -0.0017762745040441545 0.016199421268323706 0 -0.0019051986701743842 0.016019683348669028 0 -0.0017781515661992543 0.01605133129836148 0 -0.0014667906465587635 0.016435854227956646 0 -0.0011534615131406833 0.016553795233815085 0 -0.001420610324800645 0.016257071748042445 0 -0.0016456525695754344 0.01624169343766136 0 -0.0014667906465587635 0.016435854227956646 0 -0.001420610324800645 0.016257071748042445 0 -0.0016456525695754344 0.01624169343766136 0 -0.0014667906465587635 0.016435854227956646 0 -0.0016416577720922993 0.01637191601261757 0 -0.0014667906465587635 0.016435854227956646 0 -0.0016416577720922993 0.01637191601261757 0 -0.0016074139301771213 0.016567316378772127 0 -0.0016873265680039027 0.016385704121232501 0 -0.0016416577720922993 0.01637191601261757 0 -0.0016074139301771213 0.016567316378772127 0 -0.0014667906465587635 0.016435854227956646 0 -0.0013384708051184884 0.016681242310019686 0 -0.0016074139301771213 0.016567316378772127 0 -0.0014667906465587635 0.016435854227956646 0 -0.0013384708051184884 0.016681242310019686 0 -0.0011534615131406833 0.016553795233815085 0 -0.0013384708051184884 0.016681242310019686 0 -0.0016074139301771213 0.016567316378772127 0 -0.0014261641009805208 0.017047784761787386 0 -0.0016403470819643605 0.017432830417068501 0 -0.001823110337267212 0.016699497061342362 0 -0.0014261641009805208 0.017047784761787386 0 -0.001823110337267212 0.016699497061342362 0 -0.0016074139301771213 0.016567316378772127 0 -0.0014261641009805208 0.017047784761787386 0 -0.0027423997431865661 0.015458774384074014 0 -0.0024558447264039608 0.015512940156220529 0 -0.0017328438001640869 0.016313240912642524 0 -0.0016873265680039027 0.016385704121232501 0 -0.0016074139301771213 0.016567316378772127 0 -0.00084439991237850447 0.016873027204645556 0 -0.00077409777323713227 0.017311467367805006 0 -0.00044461301577762514 0.016976819010649305 0 -0.0014261641009805208 0.017047784761787386 0 -0.0010966252577257714 0.016917946848622079 0 -0.00077409777323713227 0.017311467367805006 0 -0.0013384708051184884 0.016681242310019686 0 -0.0014261641009805208 0.017047784761787386 0 -0.0010966252577257714 0.016917946848622079 0 -0.0010966252577257714 0.016917946848622079 0 -0.0011534615131406833 0.016553795233815085 0 -0.00084439991237850447 0.016873027204645556 0 -0.0013384708051184884 0.016681242310019686 0 -0.0010966252577257714 0.016917946848622079 0 -0.0011534615131406833 0.016553795233815085 0 -0.0011534615131406833 0.016553795233815085 0 -0.00084439991237850447 0.016873027204645556 0 -0.00079499449994308296 0.016610899305877148 0 -0.0010966252577257714 0.016917946848622079 0 -0.00084439991237850447 0.016873027204645556 0 -0.00077409777323713227 0.017311467367805006 0 -0.00090852121351627662 0.017531813516798528 0 -0.0011286919328094935 0.017352824406192038 0 -0.00077409777323713227 0.017311467367805006 0 -0.0030753535292205765 0.014950304512524562 0 -0.00035493701939809109 0.017392451625499034 0 -0.00070439115448153028 0.017703514471108725 0 -0.00090852121351627662 0.017531813516798528 0 -0.00077409777323713227 0.017311467367805006 0 -0.0016403470819643605 0.017432830417068501 0 -0.0014261641009805208 0.017047784761787386 0 -0.00077409777323713227 0.017311467367805006 0 -0.00077409777323713227 0.017311467367805006 0 -0.00028473446731816331 0.017255185282341792 0 -0.00032258056539952954 0.017506953804101139 0 -0.00070439115448153028 0.017703514471108725 0 -0.00077409777323713227 0.017311467367805006 0 -0.00032258056539952954 0.017506953804101139 0 -0.00077409777323713227 0.017311467367805006 0 -0.00044461301577762514 0.016976819010649305 0 -0.00028473446731816331 0.017255185282341792 0 -0.00084439991237850447 0.016873027204645556 0 -0.00044461301577762514 0.016976819010649305 0 -0.00079499449994308296 0.016610899305877148 0 -0.00012655402460880877 0.01754709276937589 0 -0.00028473446731816331 0.017255185282341792 0 -9.0209227616014947e-05 0.017190880178075414 0 -0.00044461301577762514 0.016976819010649305 0 -0.00028473446731816331 0.017255185282341792 0 -9.0209227616014947e-05 0.017190880178075414 0 -0.00012655402460880877 0.01754709276937589 0 -0.00028473446731816331 0.017255185282341792 0 -0.00032258056539952954 0.017506953804101139 0 -0.005449328004430095 0.011664528452990057 0 -0.0053531124702539436 0.011700306289796847 0 -0.0054181753904764922 0.011628128571105607 0 -0.0040421334265086113 0.01063077388890322 0 -0.0045151125518428977 0.011849691349042889 0 -0.0059571792142677953 0.0089962669904024642 0 -0.0045151125518428977 0.011849691349042889 0 -0.005449328004430095 0.011664528452990057 0 -0.0054412468522048694 0.01162693705747654 0 -0.0054181753904764922 0.011628128571105607 0 -0.006052904172928265 0.0068140302025250354 0 -0.0062038845903169618 0.0066588982182927111 0 -0.0067336593195293408 0.007056311513828642 0 -0.0054050976645911158 0.011541704171849411 0 -0.0054412468522048694 0.01162693705747654 0 -0.0054246721425957036 0.011570870235822961 0 -0.005449328004430095 0.011664528452990057 0 -0.0054412468522048694 0.01162693705747654 0 -0.0054246721425957036 0.011570870235822961 0 -0.0055994029178031849 0.0062097995665633251 0 -0.006052904172928265 0.0068140302025250354 0 -0.0062038845903169618 0.0066588982182927111 0 -0.0054719380043498494 0.01168091880845349 0 -0.0054502691285649189 0.011659156215702543 0 -0.0054292821953771187 0.011520439410212158 0 -0.005449328004430095 0.011664528452990057 0 -0.0054246721425957036 0.011570870235822961 0 -0.0054285880741419025 0.011828866873045291 0 -0.0055283997430930383 0.011841063229489584 0 -0.005449328004430095 0.011664528452990057 0 -0.0054285880741419025 0.011828866873045291 0 -0.005449328004430095 0.011664528452990057 0 -0.0053859629688777022 0.011746811043039524 0 -0.0053859629688777022 0.011746811043039524 0 -0.0053206604329004668 0.011798748184627174 0 -0.0053531124702539436 0.011700306289796847 0 -0.0054285880741419025 0.011828866873045291 0 -0.0053859629688777022 0.011746811043039524 0 -0.0053206604329004668 0.011798748184627174 0 -0.0052080421757682094 0.011815274660636949 0 -0.0053206604329004668 0.011798748184627174 0 -0.005239188333607878 0.011724240039141274 0 -0.0053206604329004668 0.011798748184627174 0 -0.005239188333607878 0.011724240039141274 0 -0.0053531124702539436 0.011700306289796847 0 -0.0052399344827046357 0.011893670602355076 0 -0.0052080421757682094 0.011815274660636949 0 -0.0053206604329004668 0.011798748184627174 0 -0.005239188333607878 0.011724240039141274 0 -0.0053531124702539436 0.011700306289796847 0 -0.0052853466060561669 0.011630264717796959 0 -0.005449328004430095 0.011664528452990057 0 -0.0053859629688777022 0.011746811043039524 0 -0.0053531124702539436 0.011700306289796847 0 -0.0053531124702539436 0.011700306289796847 0 -0.0052853466060561669 0.011630264717796959 0 -0.0054181753904764922 0.011628128571105607 0 -0.0026553862741500087 0.014984972620340976 0 -0.0045151125518428977 0.011849691349042889 0 -0.0036220882417465966 0.014009070224591292 0 -0.0036263507188568729 0.013978391004563256 0 -0.0037557950735560156 0.013984018086387875 0 -0.0046876315237450216 0.0127515906655443 0 -0.0045151125518428977 0.011849691349042889 0 -0.0021482085830782406 0.015655369827314233 0 -0.0022406851894849469 0.015362303029736889 0 -0.0022791771534721901 0.015126938558174131 0 -0.0051416216807144708 0.011640675551625254 0 -0.005239188333607878 0.011724240039141274 0 -0.0052853466060561669 0.011630264717796959 0 -0.0030753535292205765 0.014950304512524562 0 -0.0046876315237450216 0.0127515906655443 0 -0.0035029060850843654 0.01401179496325641 0 -0.0036220882417465966 0.014009070224591292 0 -0.0036263507188568729 0.013978391004563256 0 -0.0021482085830782406 0.015655369827314233 0 -0.0020394025125084728 0.015807263152564512 0 -0.0019051986701743842 0.016019683348669028 0 -0.0027423997431865661 0.015458774384074014 0 -0.0026553862741500087 0.014984972620340976 0 -0.0017328438001640869 0.016313240912642524 0 -0.0021482085830782406 0.015655369827314233 0 -0.0019051986701743842 0.016019683348669028 0 -0.0019051986701743842 0.016019683348669028 0 -0.0019212090755942855 0.015868836838579821 0 -0.0017781515661992543 0.01605133129836148 0 -0.0020394025125084728 0.015807263152564512 0 -0.0019051986701743842 0.016019683348669028 0 -0.0019212090755942855 0.015868836838579821 0 -0.0021482085830782406 0.015655369827314233 0 -0.0021648452630239679 0.015582272984388457 0 -0.0022406851894849469 0.015362303029736889 0 -0.0021482085830782406 0.015655369827314233 0 -0.0020394025125084728 0.015807263152564512 0 -0.0021648452630239679 0.015582272984388457 0 -0.0021648452630239679 0.015582272984388457 0 -0.0022406851894849469 0.015362303029736889 0 -0.002269874526679832 0.015350119822889727 0 -0.0022515502499838086 0.015115165511549464 0 -0.0022406851894849469 0.015362303029736889 0 -0.0022704165567429377 0.01510918190232329 0 -0.0022406851894849469 0.015362303029736889 0 -0.0022704165567429377 0.01510918190232329 0 -0.002269874526679832 0.015350119822889727 0 -0.0022515502499838086 0.015115165511549464 0 -0.0022406851894849469 0.015362303029736889 0 -0.0022791771534721901 0.015126938558174131 0 -0.002179425959024899 0.014653621182743749 0 -0.0022515502499838086 0.015115165511549464 0 -0.0022791771534721901 0.015126938558174131 0 -0.002179425959024899 0.014653621182743749 0 -0.0022515502499838086 0.015115165511549464 0 -0.0022170124277403973 0.014832167994003905 0 -0.0021891490545902881 0.014817812663041462 0 -0.0022170124277403973 0.014832167994003905 0 -0.0022704165567429377 0.01510918190232329 0 -0.0022515502499838086 0.015115165511549464 0 -0.0022170124277403973 0.014832167994003905 0 -0.0022704165567429377 0.01510918190232329 0 -0.0021891490545902881 0.014817812663041462 0 -0.0022704165567429377 0.01510918190232329 0 -0.0022003717407619769 0.015068645309589792 0 -0.0022704165567429377 0.01510918190232329 0 -0.0022845990279815099 0.015225367857928388 0 -0.0022003717407619769 0.015068645309589792 0 -0.0022845990279815099 0.015225367857928388 0 -0.0022546201232772939 0.015210592924401217 0 -0.0022003717407619769 0.015068645309589792 0 -0.0022845990279815099 0.015225367857928388 0 -0.0022546201232772939 0.015210592924401217 0 -0.0023245998698281562 0.015258051339920822 0 -0.002297789730031378 0.014933156347176808 0 -0.0028687617810031515 0.012755475194191812 0 -0.0022546201232772939 0.015210592924401217 0 -0.0023245998698281562 0.015258051339920822 0 -0.0021729487795569304 0.015230998799939874 0 -0.0024010674451283892 0.014203352719606826 0 -0.0023429869602778876 0.014304115289494379 0 -0.0024314517365719027 0.014193834526999396 0 -0.0022845990279815099 0.015225367857928388 0 -0.0022925143302103385 0.015326117097819093 0 -0.0023245998698281562 0.015258051339920822 0 -0.0022925143302103385 0.015326117097819093 0 -0.0022819853153661024 0.01512723198860449 0 -0.0023245998698281562 0.015258051339920822 0 -0.0022925143302103385 0.015326117097819093 0 -0.002269874526679832 0.015350119822889727 0 -0.0021880141095902794 0.015484054862397723 0 -0.0022704165567429377 0.01510918190232329 0 -0.0022845990279815099 0.015225367857928388 0 -0.002269874526679832 0.015350119822889727 0 -0.0022845990279815099 0.015225367857928388 0 -0.0022925143302103385 0.015326117097819093 0 -0.002269874526679832 0.015350119822889727 0 -0.0021648452630239679 0.015582272984388457 0 -0.002269874526679832 0.015350119822889727 0 -0.0021880141095902794 0.015484054862397723 0 -0.0021648452630239679 0.015582272984388457 0 -0.0021880141095902794 0.015484054862397723 0 -0.0020591570752298504 0.015680048347705814 0 -0.0021880141095902794 0.015484054862397723 0 -0.0020591570752298504 0.015680048347705814 0 -0.0020669943505253765 0.015509798764710916 0 -0.0019212090755942855 0.015868836838579821 0 -0.0017781515661992543 0.01605133129836148 0 -0.001745822558723748 0.015890856401980648 0 -0.0020394025125084728 0.015807263152564512 0 -0.0021648452630239679 0.015582272984388457 0 -0.0020591570752298504 0.015680048347705814 0 -0.0020394025125084728 0.015807263152564512 0 -0.0019212090755942855 0.015868836838579821 0 -0.0020591570752298504 0.015680048347705814 0 -0.0019212090755942855 0.015868836838579821 0 -0.0020591570752298504 0.015680048347705814 0 -0.0019066554942073651 0.015708231994299805 0 -0.0020591570752298504 0.015680048347705814 0 -0.0019066554942073651 0.015708231994299805 0 -0.0020669943505253765 0.015509798764710916 0 -0.0019066554942073651 0.015708231994299805 0 -0.001745822558723748 0.015890856401980648 0 -0.001691303976672459 0.015646238856441924 0 -0.0019212090755942855 0.015868836838579821 0 -0.0019066554942073651 0.015708231994299805 0 -0.001745822558723748 0.015890856401980648 0 -0.0019066554942073651 0.015708231994299805 0 -0.0019798646842072612 0.015353983472536466 0 -0.001691303976672459 0.015646238856441924 0 -0.0019066554942073651 0.015708231994299805 0 -0.0020669943505253765 0.015509798764710916 0 -0.0019798646842072612 0.015353983472536466 0 -0.0019798646842072612 0.015353983472536466 0 -0.001691303976672459 0.015646238856441924 0 -0.0016367053997983451 0.015288574414243753 0 -0.0019798646842072612 0.015353983472536466 0 -0.002182817222411512 0.015362022033864999 0 -0.0022819853153661024 0.01512723198860449 0 -0.0022925143302103385 0.015326117097819093 0 -0.002182817222411512 0.015362022033864999 0 -0.0022819853153661024 0.01512723198860449 0 -0.0022925143302103385 0.015326117097819093 0 -0.0021880141095902794 0.015484054862397723 0 -0.002182817222411512 0.015362022033864999 0 -0.0021880141095902794 0.015484054862397723 0 -0.0020669943505253765 0.015509798764710916 0 -0.002182817222411512 0.015362022033864999 0 -0.0020669943505253765 0.015509798764710916 0 -0.0019798646842072612 0.015353983472536466 0 -0.002182817222411512 0.015362022033864999 0 -0.0021726707581686626 0.014782893585211275 0 -0.0018503113716479588 0.014718291620102417 0 -0.0019798646842072612 0.015353983472536466 0 -0.0018414990316415207 0.01472762645695349 0 -0.0016367053997983451 0.015288574414243753 0 -0.0019798646842072612 0.015353983472536466 0 -0.0022819853153661024 0.01512723198860449 0 -0.0018414990316415207 0.01472762645695349 0 -0.0018414990316415207 0.01472762645695349 0 -0.0014535448848342737 0.014545530187549633 0 -0.0017405666935377368 0.014262337461630333 0 -0.0018414990316415207 0.01472762645695349 0 -0.0020872513227932071 0.014221882714628657 0 -0.0017405666935377368 0.014262337461630333 0 -0.0021479364241748641 0.014498885248752711 0 -0.0018414990316415207 0.01472762645695349 0 -0.0020872513227932071 0.014221882714628657 0 -0.0021479364241748641 0.014498885248752711 0 -0.0022753840991023271 0.014226074855342503 0 -0.0020872513227932071 0.014221882714628657 0 -0.0022753840991023271 0.014226074855342503 0 -0.0023736713608665944 0.014257207629472343 0 -0.0022932161921794749 0.014329884384727383 0 -0.0023736713608665944 0.014257207629472343 0 -0.0025015054607337248 0.014003822543398964 0 -0.0024130158296178979 0.014222043053022481 0 -0.0022753840991023271 0.014226074855342503 0 -0.0023736713608665944 0.014257207629472343 0 -0.0025015054607337248 0.014003822543398964 0 -0.0023736713608665944 0.014257207629472343 0 -0.0023429869602778876 0.014304115289494379 0 -0.0022932161921794749 0.014329884384727383 0 -0.0023736713608665944 0.014257207629472343 0 -0.0024010674451283892 0.014203352719606826 0 -0.0024130158296178979 0.014222043053022481 0 -0.0023736713608665944 0.014257207629472343 0 -0.0024010674451283892 0.014203352719606826 0 -0.0023429869602778876 0.014304115289494379 0 -0.0021479364241748641 0.014498885248752711 0 -0.0023429869602778876 0.014304115289494379 0 -0.0022932161921794749 0.014329884384727383 0 -0.0021726707581686626 0.014782893585211275 0 -0.002297789730031378 0.014933156347176808 0 -0.0021479364241748641 0.014498885248752711 0 -0.0022753840991023271 0.014226074855342503 0 -0.0022932161921794749 0.014329884384727383 0 5.9031947586907898e-05 0.016848163361516014 0 0.00019344224585341398 0.016693547022662979 0 -3.4662726040973668e-05 0.017383102489280846 0 1.2595024025217458e-05 0.016833549241344271 0 0.00030781419844120759 0.017889103180535899 0 -0.00044461301577762514 0.016976819010649305 0 -9.0209227616014947e-05 0.017190880178075414 0 1.2595024025217458e-05 0.016833549241344271 0 -3.4662726040973668e-05 0.017383102489280846 0 -9.0209227616014947e-05 0.017190880178075414 0 1.2595024025217458e-05 0.016833549241344271 0 1.2595024025217458e-05 0.016833549241344271 0 -0.0008102027860057042 0.016220792753375176 0 -0.00079499449994308296 0.016610899305877148 0 -0.00044461301577762514 0.016976819010649305 0 1.2595024025217458e-05 0.016833549241344271 0 -0.00079499449994308296 0.016610899305877148 0 1.2595024025217458e-05 0.016833549241344271 0 -0.00071794645012214975 0.015677270852980523 0 -0.0008102027860057042 0.016220792753375176 0 1.2595024025217458e-05 0.016833549241344271 0 -0.00071794645012214975 0.015677270852980523 0 0.00015304053004797094 0.015403944726923614 0 -0.00071794645012214975 0.015677270852980523 0 -0.0012663875447342324 0.015722273391429592 0 -0.0008102027860057042 0.016220792753375176 0 -0.0012663875447342324 0.015722273391429592 0 -0.0008102027860057042 0.016220792753375176 0 -0.0011507805314752892 0.016224397376804995 0 -0.0008102027860057042 0.016220792753375176 0 -0.00079499449994308296 0.016610899305877148 0 -0.0011507805314752892 0.016224397376804995 0 -0.0011534615131406833 0.016553795233815085 0 -0.00079499449994308296 0.016610899305877148 0 -0.0011507805314752892 0.016224397376804995 0 -0.0011534615131406833 0.016553795233815085 0 -0.0011507805314752892 0.016224397376804995 0 -0.001420610324800645 0.016257071748042445 0 -0.0011507805314752892 0.016224397376804995 0 -0.0014965563876467465 0.015953754945257255 0 -0.001420610324800645 0.016257071748042445 0 -0.0012663875447342324 0.015722273391429592 0 -0.0011507805314752892 0.016224397376804995 0 -0.0014965563876467465 0.015953754945257255 0 -0.0014965563876467465 0.015953754945257255 0 -0.001420610324800645 0.016257071748042445 0 -0.0016173493053108019 0.016054047732264851 0 -0.0016456525695754344 0.01624169343766136 0 -0.001420610324800645 0.016257071748042445 0 -0.0016173493053108019 0.016054047732264851 0 -0.0017781515661992543 0.01605133129836148 0 -0.0016173493053108019 0.016054047732264851 0 -0.001745822558723748 0.015890856401980648 0 -0.0016456525695754344 0.01624169343766136 0 -0.0017781515661992543 0.01605133129836148 0 -0.0016173493053108019 0.016054047732264851 0 -0.0014965563876467465 0.015953754945257255 0 -0.001745822558723748 0.015890856401980648 0 -0.001691303976672459 0.015646238856441924 0 -0.0014965563876467465 0.015953754945257255 0 -0.0016173493053108019 0.016054047732264851 0 -0.001745822558723748 0.015890856401980648 0 -0.0012663875447342324 0.015722273391429592 0 -0.0014965563876467465 0.015953754945257255 0 -0.001691303976672459 0.015646238856441924 0 -0.0012663875447342324 0.015722273391429592 0 -0.001691303976672459 0.015646238856441924 0 -0.0016367053997983451 0.015288574414243753 0 -0.0018414990316415207 0.01472762645695349 0 -0.0012716563194973762 0.015066421738229946 0 -0.0016367053997983451 0.015288574414243753 0 -0.0012663875447342324 0.015722273391429592 0 -0.0012716563194973762 0.015066421738229946 0 -0.0016367053997983451 0.015288574414243753 0 -0.0018414990316415207 0.01472762645695349 0 -0.0012716563194973762 0.015066421738229946 0 -0.0014535448848342737 0.014545530187549633 0 -0.0012716563194973762 0.015066421738229946 0 -0.0014535448848342737 0.014545530187549633 0 -0.00097534819298931562 0.0144597634455112 0 -0.0012716563194973762 0.015066421738229946 0 -0.00097534819298931562 0.0144597634455112 0 -0.00059703797922396268 0.015009655595861524 0 -0.00097534819298931562 0.0144597634455112 0 -0.00059703797922396268 0.015009655595861524 0 -0.00043730891454280913 0.014470691530688433 0 -0.00071794645012214975 0.015677270852980523 0 -0.0012663875447342324 0.015722273391429592 0 -0.0012716563194973762 0.015066421738229946 0 -0.00071794645012214975 0.015677270852980523 0 -0.0012716563194973762 0.015066421738229946 0 -0.00059703797922396268 0.015009655595861524 0 -0.00071794645012214975 0.015677270852980523 0 -0.00059703797922396268 0.015009655595861524 0 0.00015304053004797094 0.015403944726923614 0 -0.00059703797922396268 0.015009655595861524 0 0.00014248563016558324 0.014603084868638415 0 0.00015304053004797094 0.015403944726923614 0 -0.00059703797922396268 0.015009655595861524 0 0.00014248563016558324 0.014603084868638415 0 -0.00043730891454280913 0.014470691530688433 0 8.5407235992838255e-06 0.018400778867035148 0 0.00029400012048122563 0.01842009199891536 0 0.00030781419844120759 0.017889103180535899 0 0.00022971865479376531 0.01640703482396438 0 0.00019344224585341398 0.016693547022662979 0 -7.9938123291906286e-05 0.013696099801485029 0 0.00012724733164942083 0.013982008031931618 0 0.00020424510220804097 0.013528850611761145 0 0.00019733359291627695 0.016872583440538758 0 -0.00034956694112571159 0.017571037653797812 0 -0.0001690638037368355 0.020412092315814413 0 -0.00035635799203693097 0.020598383904169109 0 -0.00030076918940330998 0.020243309377490994 0 -7.9938123291906286e-05 0.013696099801485029 0 0.00012724733164942083 0.013982008031931618 0 -0.00023174301771328268 0.013848936577249449 0 0.00019733359291627695 0.016872583440538758 0 -0.00049363528419928767 0.014302241401133316 0 0.00017748732277423552 0.013954919055768761 0 -0.00017922334928583783 0.014206169857456924 0 -0.00023174301771328268 0.013848936577249449 0 0.00014248563016558324 0.014603084868638415 0 0.00017748732277423552 0.013954919055768761 0 -0.00017922334928583783 0.014206169857456924 0 0.00010600542231850796 0.01854714971620457 0 0.00029400012048122563 0.01842009199891536 0 0.00022258545227378797 0.01872070610596771 0 0.00022971865479376531 0.01640703482396438 0 0.00019733359291627695 0.016872583440538758 0 -0.00017922334928583783 0.014206169857456924 0 -0.00055553156923552293 0.014112820846808092 0 -0.00023174301771328268 0.013848936577249449 0 -0.00097534819298931562 0.0144597634455112 0 -0.00043730891454280913 0.014470691530688433 0 -0.00055553156923552293 0.014112820846808092 0 0.00014248563016558324 0.014603084868638415 0 -0.00017922334928583783 0.014206169857456924 0 -0.00043730891454280913 0.014470691530688433 0 -0.00017922334928583783 0.014206169857456924 0 -0.00043730891454280913 0.014470691530688433 0 -0.00055553156923552293 0.014112820846808092 0 -0.00057801236936359194 0.013803193791208743 0 -0.00023174301771328268 0.013848936577249449 0 -0.0005586080972670637 0.013385199167798388 0 -7.9938123291906286e-05 0.013696099801485029 0 -0.00023174301771328268 0.013848936577249449 0 -0.0005586080972670637 0.013385199167798388 0 -0.00055553156923552293 0.014112820846808092 0 -0.00057801236936359194 0.013803193791208743 0 -0.00023174301771328268 0.013848936577249449 0 -0.00057801236936359194 0.013803193791208743 0 -0.00096670597530917825 0.013864040163783892 0 -0.0005586080972670637 0.013385199167798388 0 -0.00055553156923552293 0.014112820846808092 0 -0.00057801236936359194 0.013803193791208743 0 -0.00096670597530917825 0.013864040163783892 0 -0.00097534819298931562 0.0144597634455112 0 -0.00096670597530917825 0.013864040163783892 0 -0.0013448764325626904 0.014180016132894387 0 -0.00097534819298931562 0.0144597634455112 0 -0.00055553156923552293 0.014112820846808092 0 -0.00096670597530917825 0.013864040163783892 0 -0.0014535448848342737 0.014545530187549633 0 -0.00097534819298931562 0.0144597634455112 0 -0.0013448764325626904 0.014180016132894387 0 -0.0014535448848342737 0.014545530187549633 0 -0.0013448764325626904 0.014180016132894387 0 -0.0017405666935377368 0.014262337461630333 0 -0.0013448764325626904 0.014180016132894387 0 -0.001560464727693379 0.014039237486046609 0 -0.0017405666935377368 0.014262337461630333 0 -0.0013448764325626904 0.014180016132894387 0 -0.001560464727693379 0.014039237486046609 0 -0.0013200839877575885 0.013867686701161668 0 -0.0013200839877575885 0.013867686701161668 0 -0.0013332825892366526 0.013283324603280749 0 -0.0016204607363107728 0.013843691845291644 0 -0.00096670597530917825 0.013864040163783892 0 -0.0013200839877575885 0.013867686701161668 0 -0.0013332825892366526 0.013283324603280749 0 -0.001560464727693379 0.014039237486046609 0 -0.0013200839877575885 0.013867686701161668 0 -0.0016204607363107728 0.013843691845291644 0 -0.00096670597530917825 0.013864040163783892 0 -0.0013448764325626904 0.014180016132894387 0 -0.0013200839877575885 0.013867686701161668 0 -0.00050384753566947728 0.014392409206417 0 -0.001117358556774576 0.013834630560255337 0 -0.00050384753566947728 0.014392409206417 0 -0.0002291292236072185 0.014987902290891471 0 0.00013689599362983699 0.0137685591534115 0 0.00010313954916286175 0.013667848452273713 0 -7.7990163396005226e-05 0.01357702661831324 0 0.00010313954916286175 0.013667848452273713 0 7.433134067612649e-07 0.014024183091074638 0 -7.4637226402355857e-07 0.012795806817323275 0 0.00010313954916286175 0.013667848452273713 0 7.433134067612649e-07 0.014024183091074638 0 -1.5053783178675481e-06 0.013951830276677088 0 0.00013689599362983699 0.0137685591534115 0 0.00010313954916286175 0.013667848452273713 0 -1.5053783178675481e-06 0.013951830276677088 0 7.433134067612649e-07 0.014024183091074638 0 -1.5053783178675481e-06 0.013951830276677088 0 -7.6630675070202313e-07 0.015253852170874044 0 -0.00052453939201128842 0.015945940795377138 0 -1.094326549079106e-06 0.015256443064937874 0 9.9475833936059794e-05 0.016183441676982019 0 -0.0002291292236072185 0.014987902290891471 0 2.3530289330194677e-08 0.015254667144938 0 -0.00096670597530917825 0.013864040163783892 0 -0.0013332825892366526 0.013283324603280749 0 -0.0005586080972670637 0.013385199167798388 0 -0.00050384753566947728 0.014392409206417 0 -0.00034664544868269644 0.014632829186233275 0 -0.00087863626204747814 0.016274117719914008 0 -0.00052453939201128842 0.015945940795377138 0 -1.4364920341486664e-05 0.01639491695004839 0 -0.00052453939201128842 0.015945940795377138 0 -1.4364920341486664e-05 0.01639491695004839 0 9.9475833936059794e-05 0.016183441676982019 0 -1.4364920341486664e-05 0.01639491695004839 0 9.9475833936059794e-05 0.016183441676982019 0 7.0008336447929275e-05 0.01649077597650854 0 -1.094326549079106e-06 0.015256443064937874 0 9.9475833936059794e-05 0.016183441676982019 0 1.1336585648946833e-06 0.016474373977171917 0 9.9475833936059794e-05 0.016183441676982019 0 1.1336585648946833e-06 0.016474373977171917 0 7.0008336447929275e-05 0.01649077597650854 0 -1.1765635373199892e-06 0.017687402807709387 0 1.1336585648946833e-06 0.016474373977171917 0 7.0008336447929275e-05 0.01649077597650854 0 -0.00034664544868269644 0.014632829186233275 0 -0.00034956694112571159 0.017571037653797812 0 -7.9938123291906286e-05 0.013696099801485029 0 -0.0005586080972670637 0.013385199167798388 0 0.00020424510220804097 0.013528850611761145 0 -0.0022244713657950436 0.013948260634128426 0 -0.0018847801632468169 0.013526521026345002 0 -0.0022595623865495473 0.013502009847735133 0 -0.0024579642241225269 0.014319136365403936 0 -0.0014223431171879245 0.012552327222610868 0 -0.0023429267965516293 0.013746223293010746 0 -0.0022244713657950436 0.013948260634128426 0 -0.0022595623865495473 0.013502009847735133 0 -0.0025681077783822914 0.0065853953099881705 0 -0.0032157073765866212 0.0054547988824038369 0 -0.0023429267965516293 0.013746223293010746 0 -0.0022595623865495473 0.013502009847735133 0 -0.002477306720719781 0.013540956731459653 0 -0.0028000640865656168 -0.0010841332149948476 0 -0.0030070965021067766 -0.00043121557578068635 0 -0.0026825813040769315 -0.00075003179754703055 0 -0.0023429267965516293 0.013746223293010746 0 -0.0025015054607337248 0.014003822543398964 0 -0.002477306720719781 0.013540956731459653 0 -0.0022753840991023271 0.014226074855342503 0 -0.0025015054607337248 0.014003822543398964 0 -0.0022244713657950436 0.013948260634128426 0 -0.0023429267965516293 0.013746223293010746 0 -0.0025015054607337248 0.014003822543398964 0 -0.0022244713657950436 0.013948260634128426 0 -0.0022753840991023271 0.014226074855342503 0 -0.0022244713657950436 0.013948260634128426 0 -0.0020872513227932071 0.014221882714628657 0 -0.0022244713657950436 0.013948260634128426 0 -0.0020872513227932071 0.014221882714628657 0 -0.0020397350908647944 0.013909449429178985 0 -0.0020872513227932071 0.014221882714628657 0 -0.0019193503334227031 0.01406395087109083 0 -0.0020397350908647944 0.013909449429178985 0 -0.0020872513227932071 0.014221882714628657 0 -0.0019193503334227031 0.01406395087109083 0 -0.0017405666935377368 0.014262337461630333 0 -0.0019193503334227031 0.01406395087109083 0 -0.0017405666935377368 0.014262337461630333 0 -0.0017503550890557746 0.014027568428117679 0 -0.0019193503334227031 0.01406395087109083 0 -0.0017503550890557746 0.014027568428117679 0 -0.0018647597737716439 0.013883612138649023 0 -0.001560464727693379 0.014039237486046609 0 -0.0017405666935377368 0.014262337461630333 0 -0.0017503550890557746 0.014027568428117679 0 -0.0013332825892366526 0.013283324603280749 0 -0.0016204607363107728 0.013843691845291644 0 -0.0017885018559211754 0.013723025292789509 0 -0.0016204607363107728 0.013843691845291644 0 -0.0018647597737716439 0.013883612138649023 0 -0.0017500153296186719 0.013762337700209114 0 -0.001560464727693379 0.014039237486046609 0 -0.0017503550890557746 0.014027568428117679 0 -0.0016204607363107728 0.013843691845291644 0 -0.0017503550890557746 0.014027568428117679 0 -0.0016204607363107728 0.013843691845291644 0 -0.0018647597737716439 0.013883612138649023 0 -0.0015767315570062188 0.014016970152898265 0 -0.001117358556774576 0.013834630560255337 0 -0.0018647597737716439 0.013883612138649023 0 -0.0017844083499374032 0.013808942387386175 0 -0.0019533359049207699 0.013819544596240614 0 -0.0015199944259794134 0.013694106757381542 0 -0.001117358556774576 0.013834630560255337 0 -0.0022244713657950436 0.013948260634128426 0 -0.0020397350908647944 0.013909449429178985 0 -0.0020668641519877374 0.013716578036634368 0 -0.0018647597737716439 0.013883612138649023 0 -0.0020397350908647944 0.013909449429178985 0 -0.0019533359049207699 0.013819544596240614 0 -0.0019193503334227031 0.01406395087109083 0 -0.0018647597737716439 0.013883612138649023 0 -0.0020397350908647944 0.013909449429178985 0 -0.0017844083499374032 0.013808942387386175 0 -0.0019533359049207699 0.013819544596240614 0 -0.0019823939746824856 0.013714344604102922 0 -0.0020397350908647944 0.013909449429178985 0 -0.0019533359049207699 0.013819544596240614 0 -0.0020668641519877374 0.013716578036634368 0 -0.0019533359049207699 0.013819544596240614 0 -0.0020668641519877374 0.013716578036634368 0 -0.0019823939746824856 0.013714344604102922 0 6.6135651913723973e-06 0.011248492358640998 0 3.8362230959905722e-06 0.011114899104066914 0 -2.4951467208383752e-05 0.010787715225450764 0 -0.0010586761958522658 0.0078917090415242374 0 -0.0011439114303985619 0.0080104915907866225 0 -0.00074560585411829919 0.0079306081658494076 0 -0.0014223431171879245 0.012552327222610868 0 -0.0017655158623215265 0.012823997936766337 0 -0.0014223431171879245 0.012552327222610868 0 -0.00091415207893338131 0.011690381095335435 0 -0.0020568590772217623 0.013701735805958608 0 -0.0019823939746824856 0.013714344604102922 0 -0.0020151535717898685 0.013640678585034295 0 -0.0017844083499374032 0.013808942387386175 0 -0.0019823939746824856 0.013714344604102922 0 -0.0020151535717898685 0.013640678585034295 0 -0.00091415207893338131 0.011690381095335435 0 -0.00021475812541407087 0.012552679357783911 0 -0.0006097849134993192 0.013854999284111744 0 -0.00041663109376119991 0.013725947762601264 0 -0.00047790461033489208 0.013572746052975029 0 6.6135651913723973e-06 0.011248492358640998 0 1.862459906215635e-05 0.011494348373255065 0 3.8362230959905722e-06 0.011114899104066914 0 0.00013689599362983699 0.0137685591534115 0 -0.00041663109376119991 0.013725947762601264 0 -7.7990163396005226e-05 0.01357702661831324 0 -0.00033722607193099354 0.014030888571789885 0 -0.0006097849134993192 0.013854999284111744 0 -0.00041663109376119991 0.013725947762601264 0 -0.00050384753566947728 0.014392409206417 0 -0.00020337693234096979 0.013661282774360515 0 -7.9884055434922856e-05 0.013781671855739305 0 -0.00033722607193099354 0.014030888571789885 0 -0.00041663109376119991 0.013725947762601264 0 -0.001117358556774576 0.013834630560255337 0 -0.00091415207893338131 0.011690381095335435 0 -7.7990163396005226e-05 0.01357702661831324 0 -0.00047790461033489208 0.013572746052975029 0 -7.4637226402355857e-07 0.012795806817323275 0 -0.00041663109376119991 0.013725947762601264 0 -7.7990163396005226e-05 0.01357702661831324 0 -0.00047790461033489208 0.013572746052975029 0 -0.00021475812541407087 0.012552679357783911 0 -3.4329875509791154e-08 0.012793663797832132 0 0.00010313954916286175 0.013667848452273713 0 -7.7990163396005226e-05 0.01357702661831324 0 -7.4637226402355857e-07 0.012795806817323275 0 1.862459906215635e-05 0.011494348373255065 0 -8.7823664715641985e-07 0.012791771465996415 0 8.6424192341559179e-07 0.010888000338402983 0 1.862459906215635e-05 0.011494348373255065 0 3.8362230959905722e-06 0.011114899104066914 0 8.6424192341559179e-07 0.010888000338402983 0 8.6424192341559179e-07 0.010888000338402983 0 -2.4951467208383752e-05 0.010787715225450764 0 -8.7460887843148046e-07 0.008982718681552088 0 3.8362230959905722e-06 0.011114899104066914 0 8.6424192341559179e-07 0.010888000338402983 0 -2.4951467208383752e-05 0.010787715225450764 0 -0.0011439114303985619 0.0080104915907866225 0 -0.00066061570342864121 0.0083437260973295777 0 -0.00074560585411829919 0.0079306081658494076 0 -0.0010586761958522658 0.0078917090415242374 0 -0.00059725488682491014 0.0079016885799194983 0 -0.00074560585411829919 0.0079306081658494076 0 -0.0014223431171879245 0.012552327222610868 0 -0.0014097197158487648 0.0085154742788559213 0 -0.00091415207893338131 0.011690381095335435 0 -0.00031892482719300062 0.0093431175687204732 0 -0.00066061570342864121 0.0083437260973295777 0 -0.00049802519636542623 0.0080825761602473286 0 -0.00074560585411829919 0.0079306081658494076 0 -0.00066061570342864121 0.0083437260973295777 0 -0.00049802519636542623 0.0080825761602473286 0 -0.00030625237630599078 0.0081902003821068218 0 -0.00049802519636542623 0.0080825761602473286 0 -0.00056934623650246451 0.0078788837482168562 0 -0.00074560585411829919 0.0079306081658494076 0 -0.0014097197158487648 0.0085154742788559213 0 -0.00089595534852179284 0.0083168272270691384 0 -0.0042922703258901802 0.00067774830384167333 0 -0.0043122948617136201 0.00074760101894617696 0 -0.0037433598342753089 0.00050414602220702584 0 -0.0016502851659742576 0.0067605963578818368 0 -0.0027319815807716205 0.0068988146704493459 0 -0.0026584719303007678 0.0066558117628130117 0 -0.0014097197158487648 0.0085154742788559213 0 -0.0032157073765866212 0.0054547988824038369 0 -0.00049802519636542623 0.0080825761602473286 0 -0.00056934623650246451 0.0078788837482168562 0 -0.00020732353306681536 0.0080437781505600867 0 -0.0014097197158487648 0.0085154742788559213 0 -0.0025525641619579455 0.0056075263308079824 0 -0.00056934623650246451 0.0078788837482168562 0 -0.00016991100417545278 0.0079040028136640739 0 -0.00020732353306681536 0.0080437781505600867 0 -0.0032157073765866212 0.0054547988824038369 0 -0.0025525641619579455 0.0056075263308079824 0 -0.0025525641619579455 0.0056075263308079824 0 -0.0023738388272011666 0.006386542187870727 0 -0.00020732353306681536 0.0080437781505600867 0 -0.00030625237630599078 0.0081902003821068218 0 -6.2753551417853599e-05 0.0081301470503298053 0 -0.00049802519636542623 0.0080825761602473286 0 -0.00020732353306681536 0.0080437781505600867 0 -0.00030625237630599078 0.0081902003821068218 0 -0.00014017296437780853 0.0080104896137476993 0 -0.00020732353306681536 0.0080437781505600867 0 -6.2753551417853599e-05 0.0081301470503298053 0 -0.00030625237630599078 0.0081902003821068218 0 -6.2753551417853599e-05 0.0081301470503298053 0 -0.00014594322712261783 0.008360629506240851 0 -0.00066061570342864121 0.0083437260973295777 0 -0.00014594322712261783 0.008360629506240851 0 -2.4028275602904235e-07 0.0089774626397515923 0 -0.00031892482719300062 0.0093431175687204732 0 2.4003081289612041e-07 0.0089818821871280891 0 -6.2753551417853599e-05 0.0081301470503298053 0 -0.00014594322712261783 0.008360629506240851 0 0.00010343641724484048 0.0081627630982871856 0 -0.00066061570342864121 0.0083437260973295777 0 -0.00030625237630599078 0.0081902003821068218 0 -0.00014594322712261783 0.008360629506240851 0 -0.00014594322712261783 0.008360629506240851 0 -2.4028275602904235e-07 0.0089774626397515923 0 0.00010343641724484048 0.0081627630982871856 0 0.00010343641724484048 0.0081627630982871856 0 1.504943509372892e-07 0.0074035128100372119 0 -6.5636547957823018e-06 0.0081873168937407551 0 -2.4028275602904235e-07 0.0089774626397515923 0 0.00010343641724484048 0.0081627630982871856 0 1.504943509372892e-07 0.0074035128100372119 0 1.504943509372892e-07 0.0074035128100372119 0 -6.5636547957823018e-06 0.0081873168937407551 0 -0.00043816589259474385 0.0077387608548084089 0 9.4944166088860757e-08 0.0073991306681772439 0 -0.00028538247515088141 0.006742367681549598 0 -0.00014017296437780853 0.0080104896137476993 0 -6.2753551417853599e-05 0.0081301470503298053 0 -6.5636547957823018e-06 0.0081873168937407551 0 -0.0043122948617136201 0.00074760101894617696 0 -0.003607900041312648 0.0007395881508134892 0 -0.0037433598342753089 0.00050414602220702584 0 -0.0025525641619579455 0.0056075263308079824 0 -0.0018317529417999031 0.0043671607643228604 0 -6.2753551417853599e-05 0.0081301470503298053 0 0.00010343641724484048 0.0081627630982871856 0 -6.5636547957823018e-06 0.0081873168937407551 0 3.7599085757723639e-07 0.0053175001360007811 0 -7.0098007201449386e-06 0.0044597671934258447 0 -3.450951652421609e-05 0.0037333809662737031 0 -7.0098007201449386e-06 0.0044597671934258447 0 2.0191926627196226e-06 0.003717765686086406 0 -3.450951652421609e-05 0.0037333809662737031 0 -7.0098007201449386e-06 0.0044597671934258447 0 -0.00015691806611204694 0.0055813500783322622 0 -0.0001001522514253781 0.0044799786822945107 0 3.7599085757723639e-07 0.0053175001360007811 0 -7.0098007201449386e-06 0.0044597671934258447 0 -0.00015691806611204694 0.0055813500783322622 0 -1.1689445662689872e-06 0.0073978806829150942 0 3.7599085757723639e-07 0.0053175001360007811 0 -0.00015691806611204694 0.0055813500783322622 0 -0.003607900041312648 0.0007395881508134892 0 -0.0025013128955855318 0.00085101943788627916 0 -0.0029993466289461408 0.00022917812164228871 0 -0.0025013128955855318 0.00085101943788627916 0 -0.0021456021812544246 0.00058174884011197726 0 -0.0029993466289461408 0.00022917812164228871 0 -6.5636547957823018e-06 0.0081873168937407551 0 -0.00043816589259474385 0.0077387608548084089 0 -0.00086816955256491235 0.0080481124976153878 0 -0.0018317529417999031 0.0043671607643228604 0 -0.0013239509869231627 0.0039177369026827738 0 -0.00028538247515088141 0.006742367681549598 0 -0.0013239509869231627 0.0039177369026827738 0 -0.0025768899451444833 0.00093686511649163778 0 -0.0021456021812544246 0.00058174884011197726 0 -0.0015009704360255255 0.0012272164332325377 0 -0.0013239509869231627 0.0039177369026827738 0 -0.00063241980774534278 0.002408370451017122 0 -7.0098007201449386e-06 0.0044597671934258447 0 -0.0001001522514253781 0.0044799786822945107 0 2.0191926627196226e-06 0.003717765686086406 0 -0.0013239509869231627 0.0039177369026827738 0 -0.0013100008360381269 0.0018184042984656032 0 -0.0021456021812544246 0.00058174884011197726 0 -0.0014827163656634191 0.0002213217332594622 0 -0.0015009704360255255 0.0012272164332325377 0 -0.0021456021812544246 0.00058174884011197726 0 -0.0017985411722538189 -0.00030782749261718803 0 -0.0029993466289461408 0.00022917812164228871 0 -0.0018036212982066721 -0.00032308953142157079 0 -0.0025128536139448058 -0.00019457460303941917 0 -0.0021456021812544246 0.00058174884011197726 0 -0.0017985411722538189 -0.00030782749261718803 0 -0.0014827163656634191 0.0002213217332594622 0 -0.0017985411722538189 -0.00030782749261718803 0 -0.0021002620513369472 -0.00070464042290519944 0 -0.001959185219098822 -0.00095659988591961906 0 -0.0021002620513369472 -0.00070464042290519944 0 -0.0020868033610942482 -0.0011781728851636547 0 -0.001959185219098822 -0.00095659988591961906 0 -0.0020868033610942482 -0.0011781728851636547 0 -0.0018669499091358594 -0.0014605824237855886 0 -0.0018737139099601642 -0.0017077064523464559 0 -0.0020868033610942482 -0.0011781728851636547 0 -0.0018669499091358594 -0.0014605824237855886 0 -0.001959185219098822 -0.00095659988591961906 0 -0.0017985411722538189 -0.00030782749261718803 0 -0.001959185219098822 -0.00095659988591961906 0 -0.0016570832604998601 -0.0013350098638526245 0 -0.0017985411722538189 -0.00030782749261718803 0 -0.0016570832604998601 -0.0013350098638526245 0 -0.0012579767153040084 -0.00067419424171517351 0 -0.0018669499091358594 -0.0014605824237855886 0 -0.001959185219098822 -0.00095659988591961906 0 -0.0016570832604998601 -0.0013350098638526245 0 -0.0030070965021067766 -0.00043121557578068635 0 -0.0026825813040769315 -0.00075003179754703055 0 -0.0024631755751777667 -0.0006026364739458121 0 -0.0032157073765866212 0.0054547988824038369 0 -0.0030975827890954198 -0.00045543493586132344 0 -0.0026825813040769315 -0.00075003179754703055 0 -0.0024631755751777667 -0.0006026364739458121 0 -0.0024827542375804638 -0.00094789575404156294 0 -0.003607900041312648 0.0007395881508134892 0 -0.0029993466289461408 0.00022917812164228871 0 -0.0037433598342753089 0.00050414602220702584 0 -0.0021002620513369472 -0.00070464042290519944 0 -0.0024631755751777667 -0.0006026364739458121 0 -0.002281027133321136 -0.00091090708386920116 0 -0.0021002620513369472 -0.00070464042290519944 0 -0.0020868033610942482 -0.0011781728851636547 0 -0.002281027133321136 -0.00091090708386920116 0 -0.0025128536139448058 -0.00019457460303941917 0 -0.0030975827890954198 -0.00045543493586132344 0 -0.0024631755751777667 -0.0006026364739458121 0 -0.002281027133321136 -0.00091090708386920116 0 -0.0024827542375804638 -0.00094789575404156294 0 -0.002281027133321136 -0.00091090708386920116 0 -0.0022800832196572512 -0.0011431798638987189 0 -0.0024827542375804638 -0.00094789575404156294 0 -0.0020868033610942482 -0.0011781728851636547 0 -0.0022800832196572512 -0.0011431798638987189 0 -0.0021251822216382674 -0.0016024862781167783 0 -0.0020868033610942482 -0.0011781728851636547 0 -0.002281027133321136 -0.00091090708386920116 0 -0.0022800832196572512 -0.0011431798638987189 0 -0.0022800832196572512 -0.0011431798638987189 0 -0.0024315416271241926 -0.0013007270045487717 0 -0.0024827542375804638 -0.00094789575404156294 0 -0.0028000640865656168 -0.0010841332149948476 0 -0.0024315416271241926 -0.0013007270045487717 0 -0.0024827542375804638 -0.00094789575404156294 0 -0.0028000640865656168 -0.0010841332149948476 0 -0.0026825813040769315 -0.00075003179754703055 0 -0.0024827542375804638 -0.00094789575404156294 0 -0.0028000640865656168 -0.0010841332149948476 0 -0.0024315416271241926 -0.0013007270045487717 0 -0.0024542130122978344 -0.0017221466255325335 0 -0.0024315416271241926 -0.0013007270045487717 0 -0.0024542130122978344 -0.0017221466255325335 0 -0.0021251822216382674 -0.0016024862781167783 0 -0.0025681077783822914 0.0065853953099881705 0 -0.0027276722674313058 0.0066054348345115426 0 -0.0027276722674313058 0.0066054348345115426 0 -9.3093455920498035e-05 0.0042216017204292433 0 -0.0024010674451283892 0.014203352719606826 0 -0.0024130158296178979 0.014222043053022481 0 -0.0023381713213557653 0.014072051549905941 0 -0.0024542130122978344 -0.0017221466255325335 0 -0.0019262890684522496 -0.0019850407383792817 0 -0.0020096061814016252 -0.0023618487093803771 0 -0.0019262890684522496 -0.0019850407383792817 0 -0.0021251822216382674 -0.0016024862781167783 0 -0.0016413266411752921 -0.002092856919493684 0 -0.0024542130122978344 -0.0017221466255325335 0 -0.0019262890684522496 -0.0019850407383792817 0 -0.0021251822216382674 -0.0016024862781167783 0 -0.0019262890684522496 -0.0019850407383792817 0 -0.0016413266411752921 -0.002092856919493684 0 -0.0015028138934585996 -0.0021942651010051066 0 -0.0022800832196572512 -0.0011431798638987189 0 -0.0024315416271241926 -0.0013007270045487717 0 -0.0021251822216382674 -0.0016024862781167783 0 -0.0020868033610942482 -0.0011781728851636547 0 -0.0021251822216382674 -0.0016024862781167783 0 -0.0018737139099601642 -0.0017077064523464559 0 -0.0021251822216382674 -0.0016024862781167783 0 -0.0018737139099601642 -0.0017077064523464559 0 -0.0016413266411752921 -0.002092856919493684 0 -0.0018669499091358594 -0.0014605824237855886 0 -0.0018737139099601642 -0.0017077064523464559 0 -0.0016366350321986658 -0.0021249797507726744 0 -0.0018669499091358594 -0.0014605824237855886 0 -0.0016570832604998601 -0.0013350098638526245 0 -0.0016366350321986658 -0.0021249797507726744 0 -0.0016366350321986658 -0.0021249797507726744 0 -0.0015217865048626033 -0.0023788188764569352 0 -0.0015336333514382311 -0.0026163502500146261 0 -0.0016366350321986658 -0.0021249797507726744 0 -0.0016413266411752921 -0.002092856919493684 0 -0.0015217865048626033 -0.0023788188764569352 0 -0.0018737139099601642 -0.0017077064523464559 0 -0.0016366350321986658 -0.0021249797507726744 0 -0.0016413266411752921 -0.002092856919493684 0 -0.0016413266411752921 -0.002092856919493684 0 -0.0013260124916478523 -0.0022782464060712463 0 -0.0015217865048626033 -0.0023788188764569352 0 -0.0016413266411752921 -0.002092856919493684 0 -0.0013260124916478523 -0.0022782464060712463 0 -0.0015028138934585996 -0.0021942651010051066 0 -0.0013260124916478523 -0.0022782464060712463 0 -0.0014728848260706013 -0.0019537824508595999 0 -0.00091603393083085024 -0.0023015029096010724 0 -0.0013260124916478523 -0.0022782464060712463 0 -0.00091603393083085024 -0.0023015029096010724 0 -0.0015028138934585996 -0.0021942651010051066 0 -0.0015217865048626033 -0.0023788188764569352 0 -0.0016700840748161676 -0.0023270172016154767 0 -0.0014728848260706013 -0.0019537824508595999 0 -0.0013260124916478523 -0.0022782464060712463 0 -0.0015217865048626033 -0.0023788188764569352 0 -0.0014728848260706013 -0.0019537824508595999 0 -0.0015217865048626033 -0.0023788188764569352 0 -0.0016700840748161676 -0.0023270172016154767 0 -0.0015336333514382311 -0.0026163502500146261 0 -0.0015431937209685483 -0.00094652105779206375 0 -0.0014728848260706013 -0.0019537824508595999 0 -0.0019163163941232247 -0.0015951791673663952 0 -0.0016700840748161676 -0.0023270172016154767 0 -0.0014728848260706013 -0.0019537824508595999 0 -0.0019163163941232247 -0.0015951791673663952 0 -0.0015431937209685483 -0.00094652105779206375 0 -0.0014728848260706013 -0.0019537824508595999 0 -0.0012417263182717699 -0.0011030887251763902 0 -0.0014728848260706013 -0.0019537824508595999 0 -0.00091603393083085024 -0.0023015029096010724 0 -0.0012417263182717699 -0.0011030887251763902 0 -0.00091603393083085024 -0.0023015029096010724 0 -0.0012417263182717699 -0.0011030887251763902 0 -0.0007306179041521476 -0.0011126090098502312 0 -0.00091603393083085024 -0.0023015029096010724 0 -0.0007306179041521476 -0.0011126090098502312 0 0.00016818066049054659 -0.00095747883764243751 0 -0.00073695891871052336 0.00017382631377284977 0 -0.0012417263182717699 -0.0011030887251763902 0 -0.0007306179041521476 -0.0011126090098502312 0 -0.00073695891871052336 0.00017382631377284977 0 -0.0007306179041521476 -0.0011126090098502312 0 0.00016818066049054659 -0.00095747883764243751 0 -6.7869229685553945e-07 0.0029615569857122915 0 0.00016818066049054659 -0.00095747883764243751 0 0.0023121754716216155 -0.0019520934821164611 0 -0.00091603393083085024 -0.0023015029096010724 0 0.0023121754716216155 -0.0019520934821164611 0 0.0029776350550520798 -0.0042227313683988041 0 -0.0021350851097695408 0.014002793997185179 0 -9.5969277699977883e-05 0.0072762874678655321 0 -0.00091603393083085024 -0.0023015029096010724 0 0.00016818066049054659 -0.00095747883764243751 0 0.0023121754716216155 -0.0019520934821164611 0 -9.5969277699977883e-05 0.0072762874678655321 0 -9.3093455920498035e-05 0.0042216017204292433 0 -0.0021109252331912892 0.01481957133684616 0 -0.0020071943672175662 0.014998426325100017 0 -0.0022003717407619769 0.015068645309589792 0 -0.0021109252331912892 0.01481957133684616 0 -0.0021891490545902881 0.014817812663041462 0 -0.0022003717407619769 0.015068645309589792 0 -0.0020071943672175662 0.014998426325100017 0 -0.0022003717407619769 0.015068645309589792 0 -0.0021729487795569304 0.015230998799939874 0 -0.0024130158296178979 0.014222043053022481 0 -0.0022534699737849725 0.014013572797561049 0 -0.0023381713213557653 0.014072051549905941 0 0.00030020242608466702 0.0066354669820604933 0 -0.00044207844385470916 0.0090783620767044496 0 -0.0020088541427543826 0.0097050974164354358 0 -9.5969277699977883e-05 0.0072762874678655321 0 -0.0028687617810031515 0.012755475194191812 0 -9.3093455920498035e-05 0.0042216017204292433 0 -0.0028687617810031515 0.012755475194191812 0 -0.0022546201232772939 0.015210592924401217 0 -0.0022003717407619769 0.015068645309589792 0 -0.0021729487795569304 0.015230998799939874 0 -0.0027775490600815112 0.014073485675648995 0 -0.0028687617810031515 0.012755475194191812 0 3.3688525258378045e-05 -0.0036795215075349505 0 -9.3093455920498035e-05 0.0042216017204292433 0 -0.0019262890684522496 -0.0019850407383792817 0 -0.0020096061814016252 -0.0023618487093803771 0 -0.0015028138934585996 -0.0021942651010051066 0 -0.00091603393083085024 -0.0023015029096010724 0 -0.0020096061814016252 -0.0023618487093803771 0 -0.0015028138934585996 -0.0021942651010051066 0 -0.00099083461037706194 -0.0035531834905594586 0 -0.0010603764133894058 -0.0037756469137906214 0 -0.0012569194717689681 -0.0033148892355390194 0 -0.00099083461037706194 -0.0035531834905594586 0 -0.0012569194717689681 -0.0033148892355390194 0 -0.0012267264065977687 -0.0029930493895014717 0 -0.00099083461037706194 -0.0035531834905594586 0 -0.00088288661638550876 -0.0039290993481394098 0 -0.00084016351661604844 -0.0041188439830617974 0 -0.00099083461037706194 -0.0035531834905594586 0 -0.00088288661638550876 -0.0039290993481394098 0 -0.0010603764133894058 -0.0037756469137906214 0 -0.00096495602328265575 -0.0041467964701101282 0 -0.00088288661638550876 -0.0039290993481394098 0 -0.00088923307390801687 -0.0041739590160462751 0 -0.00096495602328265575 -0.0041467964701101282 0 -0.00088288661638550876 -0.0039290993481394098 0 -0.0010603764133894058 -0.0037756469137906214 0 -0.001151241243750766 -0.004018339385671644 0 -0.0010603764133894058 -0.0037756469137906214 0 -0.0014738559158327127 -0.0038436903693118731 0 -0.0010603764133894058 -0.0037756469137906214 0 -0.0014738559158327127 -0.0038436903693118731 0 -0.0012569194717689681 -0.0033148892355390194 0 -0.00096495602328265575 -0.0041467964701101282 0 -0.001151241243750766 -0.004018339385671644 0 -0.0010603764133894058 -0.0037756469137906214 0 -0.0014738559158327127 -0.0038436903693118731 0 -0.0018575614116999395 -0.0027259727716955609 0 -0.0012569194717689681 -0.0033148892355390194 0 -0.0024792159928394442 -0.0013958211657024776 0 -0.0025887726421139684 -0.0017275840282436534 0 -0.0019163163941232247 -0.0015951791673663952 0 -0.0020582404865615049 -0.0027366013069358886 0 -0.0018741466941643876 -0.0027932884622450214 0 -0.0025887726421139684 -0.0017275840282436534 0 -0.0019163163941232247 -0.0015951791673663952 0 -0.0018575614116999395 -0.0027259727716955609 0 -0.0016700840748161676 -0.0023270172016154767 0 -0.0019163163941232247 -0.0015951791673663952 0 -0.0018575614116999395 -0.0027259727716955609 0 -0.0018575614116999395 -0.0027259727716955609 0 -0.0012267264065977687 -0.0029930493895014717 0 -0.0015336333514382311 -0.0026163502500146261 0 -0.0016700840748161676 -0.0023270172016154767 0 -0.0018575614116999395 -0.0027259727716955609 0 -0.0015336333514382311 -0.0026163502500146261 0 -0.0018575614116999395 -0.0027259727716955609 0 -0.0012569194717689681 -0.0033148892355390194 0 -0.0012267264065977687 -0.0029930493895014717 0 -0.0012267264065977687 -0.0029930493895014717 0 -0.00098220809887043922 -0.0023254136204517474 0 -0.00093061423784996657 -0.0035201970667150797 0 -0.0012267264065977687 -0.0029930493895014717 0 -0.0015336333514382311 -0.0026163502500146261 0 -0.00098220809887043922 -0.0023254136204517474 0 -0.0016570832604998601 -0.0013350098638526245 0 -0.0016366350321986658 -0.0021249797507726744 0 -0.00098220809887043922 -0.0023254136204517474 0 -0.0016366350321986658 -0.0021249797507726744 0 -0.0015336333514382311 -0.0026163502500146261 0 -0.00098220809887043922 -0.0023254136204517474 0 -0.00098220809887043922 -0.0023254136204517474 0 -0.00093061423784996657 -0.0035201970667150797 0 -0.00088253164556868085 -0.0036959445065223914 0 -0.00099083461037706194 -0.0035531834905594586 0 -0.0012267264065977687 -0.0029930493895014717 0 -0.00093061423784996657 -0.0035201970667150797 0 -0.00099083461037706194 -0.0035531834905594586 0 -0.00093061423784996657 -0.0035201970667150797 0 -0.00084016351661604844 -0.0041188439830617974 0 -0.00093061423784996657 -0.0035201970667150797 0 -0.00084016351661604844 -0.0041188439830617974 0 -0.00090774953660540108 -0.0041803883471774545 0 -0.00093061423784996657 -0.0035201970667150797 0 -0.00088253164556868085 -0.0036959445065223914 0 -0.00090774953660540108 -0.0041803883471774545 0 -0.00088253164556868085 -0.0036959445065223914 0 -0.00091161610732050933 -0.0044196074207468157 0 -0.00090774953660540108 -0.0041803883471774545 0 0.00050398382281059034 -0.00054219990363335926 0 4.4884220240501318e-05 0.00028648354053683792 0 0.00036658601656435364 0.00049136295767604964 0 0.00050398382281059034 -0.00054219990363335926 0 0.00036658601656435364 0.00049136295767604964 0 0.00047694966080619465 6.6993408923106816e-05 0 -0.00028939973195193431 -0.002150669256537255 0 -0.00022657353065969288 -0.0022105242921921513 0 -0.0016570832604998601 -0.0013350098638526245 0 -0.00098220809887043922 -0.0023254136204517474 0 -0.0012579767153040084 -0.00067419424171517351 0 -0.00098220809887043922 -0.0023254136204517474 0 -0.00043519303602922968 -0.00056298169819522716 0 -0.0012579767153040084 -0.00067419424171517351 0 -0.0010021201700091964 -0.0023852171888797719 0 -0.00028939973195193431 -0.002150669256537255 0 -0.00098220809887043922 -0.0023254136204517474 0 0.00050398382281059034 -0.00054219990363335926 0 -0.00043519303602922968 -0.00056298169819522716 0 0.00050398382281059034 -0.00054219990363335926 0 -0.00043519303602922968 -0.00056298169819522716 0 4.4884220240501318e-05 0.00028648354053683792 0 -0.00043519303602922968 -0.00056298169819522716 0 4.4884220240501318e-05 0.00028648354053683792 0 -0.00078025986846675473 0.00038409426688102805 0 -0.00043519303602922968 -0.00056298169819522716 0 -0.00078025986846675473 0.00038409426688102805 0 -0.0012579767153040084 -0.00067419424171517351 0 -0.00078025986846675473 0.00038409426688102805 0 -0.0014827163656634191 0.0002213217332594622 0 -0.0012579767153040084 -0.00067419424171517351 0 -0.0017985411722538189 -0.00030782749261718803 0 -0.0014827163656634191 0.0002213217332594622 0 -0.0012579767153040084 -0.00067419424171517351 0 2.0191926627196226e-06 0.003717765686086406 0 -0.00012296142279473232 0.0019166531133980296 0 -3.450951652421609e-05 0.0037333809662737031 0 -0.00063241980774534278 0.002408370451017122 0 -2.0648989902984042e-05 0.0021181010769519698 0 -0.00078025986846675473 0.00038409426688102805 0 -0.0015009704360255255 0.0012272164332325377 0 -0.00012296142279473232 0.0019166531133980296 0 -0.00078025986846675473 0.00038409426688102805 0 -0.0014827163656634191 0.0002213217332594622 0 -0.0015009704360255255 0.0012272164332325377 0 4.4884220240501318e-05 0.00028648354053683792 0 -0.00012296142279473232 0.0019166531133980296 0 0.00036658601656435364 0.00049136295767604964 0 4.4884220240501318e-05 0.00028648354053683792 0 -0.00078025986846675473 0.00038409426688102805 0 -0.00012296142279473232 0.0019166531133980296 0 -0.00012296142279473232 0.0019166531133980296 0 -6.1989723612625928e-07 0.003235200137486341 0 9.1345839541872351e-07 0.0011541180629398929 0 -0.00012296142279473232 0.0019166531133980296 0 -6.1989723612625928e-07 0.003235200137486341 0 -3.450951652421609e-05 0.0037333809662737031 0 3.7599085757723639e-07 0.0053175001360007811 0 -6.1989723612625928e-07 0.003235200137486341 0 -3.450951652421609e-05 0.0037333809662737031 0 0.00036658601656435364 0.00049136295767604964 0 0.00030778745862994773 -0.00011156827112486305 0 0.00047694966080619465 6.6993408923106816e-05 0 -0.00012296142279473232 0.0019166531133980296 0 0.00036658601656435364 0.00049136295767604964 0 9.1345839541872351e-07 0.0011541180629398929 0 0.00036658601656435364 0.00049136295767604964 0 9.1345839541872351e-07 0.0011541180629398929 0 0.00030778745862994773 -0.00011156827112486305 0 9.1345839541872351e-07 0.0011541180629398929 0 6.8774773897846668e-07 -0.00092744214733281012 0 0.00030778745862994773 -0.00011156827112486305 0 6.8774773897846668e-07 -0.00092744214733281012 0 0.00030778745862994773 -0.00011156827112486305 0 -1.0992956129107417e-05 -0.0010084886179477324 0 0.00030778745862994773 -0.00011156827112486305 0 -1.0992956129107417e-05 -0.0010084886179477324 0 0.00047694966080619465 6.6993408923106816e-05 0 -0.00035132450760573357 -0.0028003435798008023 0 -0.00022657353065969288 -0.0022105242921921513 0 6.8774773897846668e-07 -0.00092744214733281012 0 -1.0992956129107417e-05 -0.0010084886179477324 0 -9.6461594912970064e-07 -0.003009491658460877 0 -1.0992956129107417e-05 -0.0010084886179477324 0 -9.6461594912970064e-07 -0.003009491658460877 0 -0.00012479612896585887 -0.0036752345799971361 0 -0.00012479612896585887 -0.0036752345799971361 0 4.1046492146187123e-07 -0.0050923102224673476 0 4.9320768706022951e-05 -0.0048063134009192184 0 -9.6461594912970064e-07 -0.003009491658460877 0 -0.00012479612896585887 -0.0036752345799971361 0 4.1046492146187123e-07 -0.0050923102224673476 0 -0.0002867846554172457 -0.0048413549282226446 0 4.9320768706022951e-05 -0.0048063134009192184 0 1.9861894239723376e-05 -0.005309857936841046 0 -0.00012479612896585887 -0.0036752345799971361 0 -0.0002867846554172457 -0.0048413549282226446 0 4.9320768706022951e-05 -0.0048063134009192184 0 -0.00035132450760573357 -0.0028003435798008023 0 -8.8523772869270325e-05 -0.0034677435301240195 0 -0.00089402803007537811 -0.004576139735688131 0 -0.0002867846554172457 -0.0048413549282226446 0 -0.00078377301045718002 -0.0047693041796850371 0 -0.00089402803007537811 -0.004576139735688131 0 -0.00012479612896585887 -0.0036752345799971361 0 -0.0002867846554172457 -0.0048413549282226446 0 -0.0002867846554172457 -0.0048413549282226446 0 -0.00043985797231070833 -0.005069328288067298 0 -0.00078377301045718002 -0.0047693041796850371 0 -0.0002867846554172457 -0.0048413549282226446 0 -6.6456307803826551e-05 -0.0054215056660078141 0 1.9861894239723376e-05 -0.005309857936841046 0 -0.0002867846554172457 -0.0048413549282226446 0 -0.00043985797231070833 -0.005069328288067298 0 -6.6456307803826551e-05 -0.0054215056660078141 0 -6.6456307803826551e-05 -0.0054215056660078141 0 -0.00034322858772371068 -0.0052534541889788294 0 -7.3129096750504632e-05 -0.0054996790911241381 0 -0.00043985797231070833 -0.005069328288067298 0 -6.6456307803826551e-05 -0.0054215056660078141 0 -0.00034322858772371068 -0.0052534541889788294 0 -0.00043985797231070833 -0.005069328288067298 0 -0.00064679464684371511 -0.0050019308906801155 0 -0.00078377301045718002 -0.0047693041796850371 0 -0.00043985797231070833 -0.005069328288067298 0 -0.00034322858772371068 -0.0052534541889788294 0 -0.00064679464684371511 -0.0050019308906801155 0 -0.00034322858772371068 -0.0052534541889788294 0 -0.00064679464684371511 -0.0050019308906801155 0 -0.0005263515424269381 -0.0054039715226490963 0 -0.00064679464684371511 -0.0050019308906801155 0 -0.00084246323143919778 -0.0046455799195168224 0 -0.00078377301045718002 -0.0047693041796850371 0 -0.00064679464684371511 -0.0050019308906801155 0 -0.00084246323143919778 -0.0046455799195168224 0 -0.00079289333488700476 -0.0048056366166644021 0 -0.00084246323143919778 -0.0046455799195168224 0 -0.00091161610732050933 -0.0044196074207468157 0 -0.00090774953660540108 -0.0041803883471774545 0 -0.00089402803007537811 -0.004576139735688131 0 -0.00091161610732050933 -0.0044196074207468157 0 -0.00078377301045718002 -0.0047693041796850371 0 -0.00084246323143919778 -0.0046455799195168224 0 -0.00091161610732050933 -0.0044196074207468157 0 -0.00078377301045718002 -0.0047693041796850371 0 3.8000279909658845e-06 -0.0071358618229879593 0 5.5248176525917388e-05 -0.0073937673681623035 0 0.00017417866722237236 -0.0077103177409312777 0 3.8000279909658845e-06 -0.0071358618229879593 0 0.00011298972213333639 -0.0073764259135242882 0 0.00017417866722237236 -0.0077103177409312777 0 2.0652195574800754e-07 -0.007173648039934582 0 0.00013196237431638961 -0.0083626597140892388 0 3.8000279909658845e-06 -0.0071358618229879593 0 1.1710070702913079e-07 -0.0071700447919206709 0 0.00011298972213333639 -0.0073764259135242882 0 -2.6614946177152207e-07 -0.0071737390224298168 0 -1.429747390314619e-07 -0.0088353873707937482 0 -2.9862294077599823e-05 -0.0092519398470680466 0 3.8000279909658845e-06 -0.0071358618229879593 0 1.1710070702913079e-07 -0.0071700447919206709 0 5.3917234680914512e-05 -0.0064421569466420973 0 3.8000279909658845e-06 -0.0071358618229879593 0 5.3917234680914512e-05 -0.0064421569466420973 0 5.5248176525917388e-05 -0.0073937673681623035 0 5.3917234680914512e-05 -0.0064421569466420973 0 0.000124100478087117 -0.0055929428903992067 0 9.6219723688603152e-05 -0.0058027373114196675 0 1.1710070702913079e-07 -0.0071700447919206709 0 5.3917234680914512e-05 -0.0064421569466420973 0 0.000124100478087117 -0.0055929428903992067 0 1.1710070702913079e-07 -0.0071700447919206709 0 4.1046492146187123e-07 -0.0050923102224673476 0 0.000124100478087117 -0.0055929428903992067 0 4.1046492146187123e-07 -0.0050923102224673476 0 4.9320768706022951e-05 -0.0048063134009192184 0 0.000124100478087117 -0.0055929428903992067 0 4.9320768706022951e-05 -0.0048063134009192184 0 0.000124100478087117 -0.0055929428903992067 0 1.9861894239723376e-05 -0.005309857936841046 0 0.000124100478087117 -0.0055929428903992067 0 1.9861894239723376e-05 -0.005309857936841046 0 9.6219723688603152e-05 -0.0058027373114196675 0 -6.6456307803826551e-05 -0.0054215056660078141 0 1.9861894239723376e-05 -0.005309857936841046 0 9.6219723688603152e-05 -0.0058027373114196675 0 -6.6456307803826551e-05 -0.0054215056660078141 0 7.2555193351220559e-05 -0.0060459211402991483 0 9.6219723688603152e-05 -0.0058027373114196675 0 -0.00031424263078632558 -0.0066103064710389646 0 -0.0002544204071529723 -0.0072485122003641449 0 -0.00030076404960156512 -0.0069843907228963418 0 -0.00023757617059590524 -0.0060377745651316924 0 -5.4819616380420098e-05 -0.0066695030041529412 0 -6.6456307803826551e-05 -0.0054215056660078141 0 -7.3129096750504632e-05 -0.0054996790911241381 0 7.2555193351220559e-05 -0.0060459211402991483 0 -0.0002544204071529723 -0.0072485122003641449 0 -0.00013536186139562824 -0.0075243097791519858 0 -0.00030076404960156512 -0.0069843907228963418 0 5.3917234680914512e-05 -0.0064421569466420973 0 7.2555193351220559e-05 -0.0060459211402991483 0 9.6219723688603152e-05 -0.0058027373114196675 0 -5.4819616380420098e-05 -0.0066695030041529412 0 6.0205168622925299e-05 -0.0072378153433489698 0 5.3917234680914512e-05 -0.0064421569466420973 0 7.2555193351220559e-05 -0.0060459211402991483 0 5.5248176525917388e-05 -0.0073937673681623035 0 -0.0002544204071529723 -0.0072485122003641449 0 5.5248176525917388e-05 -0.0073937673681623035 0 -0.00013536186139562824 -0.0075243097791519858 0 5.5248176525917388e-05 -0.0073937673681623035 0 -0.00013536186139562824 -0.0075243097791519858 0 0.00033649660089979958 -0.0081515953022048629 0 5.5248176525917388e-05 -0.0073937673681623035 0 0.00034732902121669085 -0.0082622820594501108 0 0.00017417866722237236 -0.0077103177409312777 0 0.00056388321791362936 -0.0050317288504834259 0 0.0003694086400351585 -0.0054400428287985419 0 0.0011871394656761921 -0.0057614818556081943 0 8.5783518894233735e-05 -0.0079756029789081837 0 -0.00013536186139562824 -0.0075243097791519858 0 0.00033649660089979958 -0.0081515953022048629 0 8.5783518894233735e-05 -0.0079756029789081837 0 -0.00013536186139562824 -0.0075243097791519858 0 -0.00026919511284212986 -0.0071941012440227036 0 -0.00011836992135392312 -0.0048839070234649295 0 -7.4691449180629358e-05 -0.0052227900193495503 0 0.0003694086400351585 -0.0054400428287985419 0 0.00025588482605469519 -0.0065781270154701352 0 -0.00013535297664095982 -0.0060153455291649385 0 0.00056388321791362936 -0.0050317288504834259 0 -0.00011836992135392312 -0.0048839070234649295 0 0.0003694086400351585 -0.0054400428287985419 0 -0.00027108755361874919 -0.0049022397292897892 0 -0.00034466799372825252 -0.0049897434096446997 0 -7.4691449180629358e-05 -0.0052227900193495503 0 -0.00011836992135392312 -0.0048839070234649295 0 -0.00027108755361874919 -0.0049022397292897892 0 -7.4691449180629358e-05 -0.0052227900193495503 0 -0.00013536186139562824 -0.0075243097791519858 0 -0.00026919511284212986 -0.0071941012440227036 0 -0.00030076404960156512 -0.0069843907228963418 0 -0.00031424263078632558 -0.0066103064710389646 0 -0.00030076404960156512 -0.0069843907228963418 0 -0.00034546785567640399 -0.0062607115293887286 0 -0.00026919511284212986 -0.0071941012440227036 0 -0.00030076404960156512 -0.0069843907228963418 0 -0.00034546785567640399 -0.0062607115293887286 0 -0.00013535297664095982 -0.0060153455291649385 0 -0.0003798620585048556 -0.0054165598323235942 0 -0.00011836992135392312 -0.0048839070234649295 0 -0.00027108755361874919 -0.0049022397292897892 0 -0.0004583635714900019 -0.004580514528152317 0 -0.00027108755361874919 -0.0049022397292897892 0 -0.00038025889264381815 -0.0048165472546602564 0 -0.0004583635714900019 -0.004580514528152317 0 -0.00027108755361874919 -0.0049022397292897892 0 -0.00038025889264381815 -0.0048165472546602564 0 -0.00034466799372825252 -0.0049897434096446997 0 -0.00038025889264381815 -0.0048165472546602564 0 -0.0004583635714900019 -0.004580514528152317 0 -0.00045157994594375878 -0.004497335362225045 0 -0.0001902787166690091 -0.0053623176953429517 0 -0.00047849319002209683 -0.0044915149268981418 0 -0.00033191382673812867 -0.0044134150419865986 0 -0.00024153400646824015 -0.0043603018164057377 0 -0.00045157994594375878 -0.004497335362225045 0 -0.00038025889264381815 -0.0048165472546602564 0 -0.00034699639185397198 -0.0050467377197084941 0 -0.00045157994594375878 -0.004497335362225045 0 -0.00038025889264381815 -0.0048165472546602564 0 -0.00034466799372825252 -0.0049897434096446997 0 -0.00034699639185397198 -0.0050467377197084941 0 -0.00022119006514645099 -0.005222021679292835 0 -0.0001902787166690091 -0.0053623176953429517 0 -0.00033191382673812867 -0.0044134150419865986 0 -0.00024153400646824015 -0.0043603018164057377 0 -0.0002577580477980314 -0.0044249051125759961 0 -0.0002577580477980314 -0.0044249051125759961 0 -0.00035714034879801026 -0.0044143738806303205 0 -0.00032328090360642255 -0.0044443632069365501 0 -0.00033191382673812867 -0.0044134150419865986 0 -0.0002577580477980314 -0.0044249051125759961 0 -0.00035714034879801026 -0.0044143738806303205 0 -0.00024153400646824015 -0.0043603018164057377 0 -0.0002577580477980314 -0.0044249051125759961 0 -4.109377492269827e-05 -0.0045269477942683004 0 -0.0001902787166690091 -0.0053623176953429517 0 0.00022125567428053474 -0.0059369169208041625 0 -4.109377492269827e-05 -0.0045269477942683004 0 -0.00032328090360642255 -0.0044443632069365501 0 -0.00031667517028897599 -0.0045652052108536142 0 -0.0002577580477980314 -0.0044249051125759961 0 -4.109377492269827e-05 -0.0045269477942683004 0 -0.00032328090360642255 -0.0044443632069365501 0 0.00035071841914282703 -0.006784596735143541 0 0.0004158389587791408 -0.0072225788239144604 0 0.00051932419886987406 -0.006992633936780024 0 0.0004158389587791408 -0.0072225788239144604 0 0.00051932419886987406 -0.006992633936780024 0 0.00081211569157967512 -0.0073579277013337691 0 0.00051932419886987406 -0.006992633936780024 0 0.00076034733215864724 -0.0069298143238303092 0 0.00081211569157967512 -0.0073579277013337691 0 0.00035071841914282703 -0.006784596735143541 0 0.00051932419886987406 -0.006992633936780024 0 0.00076034733215864724 -0.0069298143238303092 0 -0.00034868389918741693 -0.0051378472028143687 0 -7.4691449180629358e-05 -0.0052227900193495503 0 0.00011887999951273995 -0.0056664914141207412 0 -0.0001902787166690091 -0.0053623176953429517 0 0.00052135595938888294 -0.0063658960908385132 0 -0.00034466799372825252 -0.0049897434096446997 0 -0.00034868389918741693 -0.0051378472028143687 0 -7.4691449180629358e-05 -0.0052227900193495503 0 -7.4691449180629358e-05 -0.0052227900193495503 0 0.00011887999951273995 -0.0056664914141207412 0 0.0003694086400351585 -0.0054400428287985419 0 0.00011887999951273995 -0.0056664914141207412 0 0.0003694086400351585 -0.0054400428287985419 0 0.00071139619785832737 -0.0061453105819294397 0 0.00052135595938888294 -0.0063658960908385132 0 0.00092253959961806267 -0.0065877906993284724 0 0.00076034733215864724 -0.0069298143238303092 0 0.001135450016860358 -0.0070507771585060185 0 0.00081211569157967512 -0.0073579277013337691 0 0.001135450016860358 -0.0070507771585060185 0 0.0012252144135168977 -0.0073771906772402609 0 0.00081211569157967512 -0.0073579277013337691 0 0.0003694086400351585 -0.0054400428287985419 0 0.00071139619785832737 -0.0061453105819294397 0 0.0011871394656761921 -0.0057614818556081943 0 -0.00077148844812157801 -0.0042273111400630697 0 -0.00057455776688795077 -0.0047274207962187545 0 -0.00084016351661604844 -0.0041188439830617974 0 -0.00079289333488700476 -0.0048056366166644021 0 -0.00064422469952943903 -0.0052461832308378052 0 -0.00084016351661604844 -0.0041188439830617974 0 -0.00058026171900038993 -0.0042292437488447472 0 -0.00065804456383810293 -0.0042429689618294969 0 -0.00084246323143919778 -0.0046455799195168224 0 -0.00090774953660540108 -0.0041803883471774545 0 -0.00079289333488700476 -0.0048056366166644021 0 -0.00084016351661604844 -0.0041188439830617974 0 -0.00090774953660540108 -0.0041803883471774545 0 -0.00079289333488700476 -0.0048056366166644021 0 -0.00064679464684371511 -0.0050019308906801155 0 -0.00079289333488700476 -0.0048056366166644021 0 -0.0005263515424269381 -0.0054039715226490963 0 -0.00079289333488700476 -0.0048056366166644021 0 -0.0005263515424269381 -0.0054039715226490963 0 -0.00064422469952943903 -0.0052461832308378052 0 -0.00034322858772371068 -0.0052534541889788294 0 -7.3129096750504632e-05 -0.0054996790911241381 0 -0.0005263515424269381 -0.0054039715226490963 0 -0.00023757617059590524 -0.0060377745651316924 0 -0.00051575390190987641 -0.0055497873117195595 0 -0.00031424263078632558 -0.0066103064710389646 0 -0.0005263515424269381 -0.0054039715226490963 0 -0.00034546785567640399 -0.0062607115293887286 0 -0.0004583635714900019 -0.004580514528152317 0 -0.00058026171900038993 -0.0042292437488447472 0 -0.00049516352327022865 -0.0043749304539311929 0 -0.0003798620585048556 -0.0054165598323235942 0 -0.00057455776688795077 -0.0047274207962187545 0 -0.0004583635714900019 -0.004580514528152317 0 -0.00045157994594375878 -0.004497335362225045 0 -0.00049516352327022865 -0.0043749304539311929 0 -0.00058026171900038993 -0.0042292437488447472 0 -0.00049516352327022865 -0.0043749304539311929 0 -0.00065804456383810293 -0.0042429689618294969 0 -0.0005263515424269381 -0.0054039715226490963 0 -0.00034546785567640399 -0.0062607115293887286 0 -0.00064422469952943903 -0.0052461832308378052 0 -0.00049516352327022865 -0.0043749304539311929 0 -0.00053059857272108851 -0.0043465056734523725 0 -0.00065804456383810293 -0.0042429689618294969 0 -0.00049516352327022865 -0.0043749304539311929 0 -0.00053059857272108851 -0.0043465056734523725 0 -0.00043501671026243164 -0.0043932554822421893 0 -0.00053059857272108851 -0.0043465056734523725 0 -0.00043501671026243164 -0.0043932554822421893 0 -0.0004784664741094882 -0.0044189631292983114 0 -0.00053059857272108851 -0.0043465056734523725 0 -0.00061491204869633831 -0.0043246904717105343 0 -0.0004784664741094882 -0.0044189631292983114 0 -0.00053059857272108851 -0.0043465056734523725 0 -0.00061491204869633831 -0.0043246904717105343 0 -0.00065804456383810293 -0.0042429689618294969 0 -0.00033191382673812867 -0.0044134150419865986 0 -0.00045157994594375878 -0.004497335362225045 0 -0.00035714034879801026 -0.0044143738806303205 0 -0.00045157994594375878 -0.004497335362225045 0 -0.00043501671026243164 -0.0043932554822421893 0 -0.00035714034879801026 -0.0044143738806303205 0 -0.00045157994594375878 -0.004497335362225045 0 -0.00049516352327022865 -0.0043749304539311929 0 -0.00043501671026243164 -0.0043932554822421893 0 -0.00043501671026243164 -0.0043932554822421893 0 -0.00035714034879801026 -0.0044143738806303205 0 -0.00032328090360642255 -0.0044443632069365501 0 -0.00043501671026243164 -0.0043932554822421893 0 -0.00032328090360642255 -0.0044443632069365501 0 -0.0004784664741094882 -0.0044189631292983114 0 -0.0004784664741094882 -0.0044189631292983114 0 -0.00051784251113555241 -0.0045493082336181597 0 -0.00031667517028897599 -0.0045652052108536142 0 -0.00032328090360642255 -0.0044443632069365501 0 -0.0004784664741094882 -0.0044189631292983114 0 -0.00031667517028897599 -0.0045652052108536142 0 -0.00061491204869633831 -0.0043246904717105343 0 -0.0004784664741094882 -0.0044189631292983114 0 -0.00060210880425919393 -0.0044212084951927256 0 -0.0004784664741094882 -0.0044189631292983114 0 -0.00060210880425919393 -0.0044212084951927256 0 -0.00051784251113555241 -0.0045493082336181597 0 -0.00060210880425919393 -0.0044212084951927256 0 -0.00073222015329680343 -0.0043242781832338404 0 -0.00068248493809215432 -0.0045104066540316654 0 -0.00073222015329680343 -0.0043242781832338404 0 -0.00071513929503063843 -0.0042344305792202585 0 -0.00081774317206307332 -0.0041596871426836501 0 -0.00061491204869633831 -0.0043246904717105343 0 -0.00073222015329680343 -0.0043242781832338404 0 -0.00071513929503063843 -0.0042344305792202585 0 -0.00061491204869633831 -0.0043246904717105343 0 -0.00060210880425919393 -0.0044212084951927256 0 -0.00073222015329680343 -0.0043242781832338404 0 -0.00084016351661604844 -0.0041188439830617974 0 -0.00065804456383810293 -0.0042429689618294969 0 -0.0007978270152334834 -0.0041352175205283202 0 -0.00061491204869633831 -0.0043246904717105343 0 -0.00071513929503063843 -0.0042344305792202585 0 -0.00065804456383810293 -0.0042429689618294969 0 -0.00071513929503063843 -0.0042344305792202585 0 -0.00065804456383810293 -0.0042429689618294969 0 -0.0007978270152334834 -0.0041352175205283202 0 -0.00088288661638550876 -0.0039290993481394098 0 -0.00084016351661604844 -0.0041188439830617974 0 -0.0007978270152334834 -0.0041352175205283202 0 -0.00088288661638550876 -0.0039290993481394098 0 -0.0007978270152334834 -0.0041352175205283202 0 -0.00081774317206307332 -0.0041596871426836501 0 -0.00071513929503063843 -0.0042344305792202585 0 -0.0007978270152334834 -0.0041352175205283202 0 -0.00081774317206307332 -0.0041596871426836501 0 -0.00088288661638550876 -0.0039290993481394098 0 -0.00081774317206307332 -0.0041596871426836501 0 -0.00088923307390801687 -0.0041739590160462751 0 -0.00073222015329680343 -0.0043242781832338404 0 -0.00081774317206307332 -0.0041596871426836501 0 -0.00085565500026019853 -0.0042962006015496998 0 -0.00081774317206307332 -0.0041596871426836501 0 -0.00088923307390801687 -0.0041739590160462751 0 -0.00085565500026019853 -0.0042962006015496998 0 -0.00094659158558473792 -0.0042870530077004304 0 -0.00085508322877900168 -0.0044792622433386551 0 -0.00087963296709257799 -0.004758059672969832 0 -0.00094659158558473792 -0.0042870530077004304 0 -0.00088923307390801687 -0.0041739590160462751 0 -0.00085565500026019853 -0.0042962006015496998 0 -0.00085565500026019853 -0.0042962006015496998 0 -0.00085508322877900168 -0.0044792622433386551 0 -0.00078225477939239288 -0.0044462178665938988 0 -0.00094659158558473792 -0.0042870530077004304 0 -0.00085565500026019853 -0.0042962006015496998 0 -0.00085508322877900168 -0.0044792622433386551 0 -0.00073222015329680343 -0.0043242781832338404 0 -0.00068248493809215432 -0.0045104066540316654 0 -0.00078225477939239288 -0.0044462178665938988 0 -0.00073222015329680343 -0.0043242781832338404 0 -0.00085565500026019853 -0.0042962006015496998 0 -0.00078225477939239288 -0.0044462178665938988 0 -0.00085508322877900168 -0.0044792622433386551 0 -0.00078225477939239288 -0.0044462178665938988 0 -0.00077226666577285175 -0.0045834845745157124 0 -0.00068248493809215432 -0.0045104066540316654 0 -0.00077226666577285175 -0.0045834845745157124 0 -0.0006624336770583479 -0.0047523580691788535 0 -0.00068248493809215432 -0.0045104066540316654 0 -0.00078225477939239288 -0.0044462178665938988 0 -0.00077226666577285175 -0.0045834845745157124 0 -0.00087963296709257799 -0.004758059672969832 0 -0.00072967107018516095 -0.0051825910570843436 0 -0.0006624336770583479 -0.0047523580691788535 0 -0.00077226666577285175 -0.0045834845745157124 0 -0.00087963296709257799 -0.004758059672969832 0 -0.0006624336770583479 -0.0047523580691788535 0 -0.00091644753127743668 -0.0043204419898218438 0 -0.00092904461321263168 -0.0043254488728834859 0 -0.0008930822281764697 -0.0043528289148882307 0 -0.00080321193758261047 -0.0045646679021840199 0 -0.001298357605526817 -0.0048411884360005791 0 -0.00085508322877900168 -0.0044792622433386551 0 -0.00077226666577285175 -0.0045834845745157124 0 -0.00087963296709257799 -0.004758059672969832 0 -0.00094659158558473792 -0.0042870530077004304 0 -0.00091644753127743668 -0.0043204419898218438 0 -0.00092904461321263168 -0.0043254488728834859 0 -0.00097160675338149529 -0.0043250961636123525 0 -0.00080321193758261047 -0.0045646679021840199 0 -0.00095967496672262002 -0.0042404774795683003 0 -0.00093372619350415916 -0.0042712379751609414 0 -0.00097603758022584395 -0.0042718845234460089 0 -0.00093372619350415916 -0.0042712379751609414 0 -0.0009172797683242108 -0.0043105746290226735 0 -0.00088250244151475798 -0.0042590536544671034 0 -0.00086815147447387203 -0.0042198340448666039 0 -0.001298357605526817 -0.0048411884360005791 0 -0.00095967496672262002 -0.0042404774795683003 0 -0.00093372619350415916 -0.0042712379751609414 0 -0.00088250244151475798 -0.0042590536544671034 0 -0.0009172797683242108 -0.0043105746290226735 0 -0.00087126448709305227 -0.0043432483046478183 0 -0.00088250244151475798 -0.0042590536544671034 0 -0.00093372619350415916 -0.0042712379751609414 0 -0.0009172797683242108 -0.0043105746290226735 0 -0.00097603758022584395 -0.0042718845234460089 0 -0.0013232219732830803 -0.0006690706196340882 0 -0.0001694199267486173 -0.0037645708120793517 0 -0.00095346021958340544 0.0024217414703756753 0 -0.0010763617949389112 0.0018454098918860831 0 -0.0014440773157461165 0.0025433768219909449 0 -0.0009172797683242108 -0.0043105746290226735 0 -0.00097603758022584395 -0.0042718845234460089 0 -0.00093329178921713538 -0.0043447743496635109 0 0.00063942835836852338 -0.0080486682070015653 0 0.00052050210329786391 -0.0080749458684142919 0 0.0006291151650405823 -0.0081448388850917687 0 0.00063942835836852338 -0.0080486682070015653 0 0.00070889565628375344 -0.0081271091306717204 0 0.0006291151650405823 -0.0081448388850917687 0 -0.0011503748257155008 -0.0067591777957952985 0 -0.0010674245769715389 -0.006254296375021404 0 -0.00045033715085499986 -0.0065358466013877153 0 -0.00051739229658785062 -0.0061272969562711733 0 -0.00078388736339882008 -0.006511575056183723 0 -0.00051739229658785062 -0.0061272969562711733 0 -0.00022073531793824131 -0.0064295447592299911 0 -0.0007964325724925149 -0.0043331613878702623 0 -0.00087126448709305227 -0.0043432483046478183 0 -0.00088250244151475798 -0.0042590536544671034 0 -0.001298357605526817 -0.0048411884360005791 0 -0.00071176708541164833 -0.0060811776692064837 0 -0.00051739229658785062 -0.0061272969562711733 0 -0.001298357605526817 -0.0048411884360005791 0 -0.00072967107018516095 -0.0051825910570843436 0 -0.00038649641599891306 -0.0057000615896350528 0 -0.00037430904145096557 -0.0051983829537813513 0 -0.0011503748257155008 -0.0067591777957952985 0 -0.002464352048450958 -0.0057212230366675007 0 -0.0010674245769715389 -0.006254296375021404 0 -0.00038649641599891306 -0.0057000615896350528 0 -0.00037430904145096557 -0.0051983829537813513 0 -0.00014721971767028456 -0.0055521395852660719 0 -0.00037430904145096557 -0.0051983829537813513 0 -0.00053396676867105311 -0.0049385502100401362 0 -0.00039223031579534048 -0.0047781272667360153 0 -0.00037430904145096557 -0.0051983829537813513 0 -0.00039223031579534048 -0.0047781272667360153 0 -0.00016425038225052803 -0.0049666925971061076 0 -0.00072967107018516095 -0.0051825910570843436 0 -0.00053396676867105311 -0.0049385502100401362 0 -0.0006624336770583479 -0.0047523580691788535 0 -0.00072967107018516095 -0.0051825910570843436 0 -0.00037430904145096557 -0.0051983829537813513 0 -0.00053396676867105311 -0.0049385502100401362 0 -0.00053396676867105311 -0.0049385502100401362 0 -0.0006624336770583479 -0.0047523580691788535 0 -0.00039223031579534048 -0.0047781272667360153 0 -0.0006624336770583479 -0.0047523580691788535 0 -0.00051784251113555241 -0.0045493082336181597 0 -0.00039223031579534048 -0.0047781272667360153 0 -0.00068248493809215432 -0.0045104066540316654 0 -0.0006624336770583479 -0.0047523580691788535 0 -0.00051784251113555241 -0.0045493082336181597 0 -0.00060210880425919393 -0.0044212084951927256 0 -0.00068248493809215432 -0.0045104066540316654 0 -0.00051784251113555241 -0.0045493082336181597 0 -0.00039223031579534048 -0.0047781272667360153 0 -9.3643344656508666e-05 -0.0047048907358779755 0 -0.00016425038225052803 -0.0049666925971061076 0 -0.00039223031579534048 -0.0047781272667360153 0 -0.00031667517028897599 -0.0045652052108536142 0 -9.3643344656508666e-05 -0.0047048907358779755 0 -0.00051784251113555241 -0.0045493082336181597 0 -0.00039223031579534048 -0.0047781272667360153 0 -0.00031667517028897599 -0.0045652052108536142 0 -4.109377492269827e-05 -0.0045269477942683004 0 -9.3643344656508666e-05 -0.0047048907358779755 0 0.00030405583273043448 -0.0049076723604768021 0 -4.109377492269827e-05 -0.0045269477942683004 0 -0.00031667517028897599 -0.0045652052108536142 0 -9.3643344656508666e-05 -0.0047048907358779755 0 0.0004158389587791408 -0.0072225788239144604 0 0.00051355639438230099 -0.0076525280590398021 0 0.00081211569157967512 -0.0073579277013337691 0 0.00022125567428053474 -0.0059369169208041625 0 0.00041600388155796841 -0.006286065966226247 0 0.00051355639438230099 -0.0076525280590398021 0 0.00077948131947549299 -0.0077387371969094062 0 0.00069214296244437482 -0.0080142011563750851 0 0.00051355639438230099 -0.0076525280590398021 0 0.00081211569157967512 -0.0073579277013337691 0 0.00077948131947549299 -0.0077387371969094062 0 -9.3643344656508666e-05 -0.0047048907358779755 0 0.00030405583273043448 -0.0049076723604768021 0 -0.00016425038225052803 -0.0049666925971061076 0 0.00030405583273043448 -0.0049076723604768021 0 -0.00016425038225052803 -0.0049666925971061076 0 3.391599400403028e-05 -0.005346473472357267 0 -0.00037430904145096557 -0.0051983829537813513 0 -0.00016425038225052803 -0.0049666925971061076 0 3.391599400403028e-05 -0.005346473472357267 0 0.0012252144135168977 -0.0073771906772402609 0 0.00081211569157967512 -0.0073579277013337691 0 0.00099134925144776266 -0.007628236045179866 0 0.00081211569157967512 -0.0073579277013337691 0 0.00077948131947549299 -0.0077387371969094062 0 0.00099134925144776266 -0.007628236045179866 0 0.00077948131947549299 -0.0077387371969094062 0 0.00099134925144776266 -0.007628236045179866 0 0.00097805788492788515 -0.0078604102770948505 0 0.0012252144135168977 -0.0073771906772402609 0 0.00099134925144776266 -0.007628236045179866 0 0.0011977802460058987 -0.0077722046799556079 0 0.00099134925144776266 -0.007628236045179866 0 0.00097805788492788515 -0.0078604102770948505 0 0.0011977802460058987 -0.0077722046799556079 0 0.00097805788492788515 -0.0078604102770948505 0 0.0011080080490290629 -0.0080086442856275378 0 0.00095121931196841627 -0.0080633637826792118 0 0.0011080080490290629 -0.0080086442856275378 0 0.0010344128967002401 -0.0081976463431750815 0 0.0012603226354757091 -0.0081007204825817806 0 0.00097805788492788515 -0.0078604102770948505 0 0.0011977802460058987 -0.0077722046799556079 0 0.0011080080490290629 -0.0080086442856275378 0 0.0011977802460058987 -0.0077722046799556079 0 0.0011080080490290629 -0.0080086442856275378 0 0.0012591710581364587 -0.0079871648851690819 0 0.00097805788492788515 -0.0078604102770948505 0 0.0008298384683961391 -0.0079688548432173979 0 0.00095121931196841627 -0.0080633637826792118 0 0.00077948131947549299 -0.0077387371969094062 0 0.00097805788492788515 -0.0078604102770948505 0 0.0008298384683961391 -0.0079688548432173979 0 0.0008298384683961391 -0.0079688548432173979 0 0.00085722512770385322 -0.0080623203640788812 0 0.00095121931196841627 -0.0080633637826792118 0 0.0008298384683961391 -0.0079688548432173979 0 0.00085722512770385322 -0.0080623203640788812 0 0.00079098388607024071 -0.008021852488996211 0 0.00085722512770385322 -0.0080623203640788812 0 0.00080604556317649288 -0.0080210307743664843 0 0.00087576702925004732 -0.0080960898769584979 0 0.00085722512770385322 -0.0080623203640788812 0 0.00094753416202099339 -0.0081626378884773268 0 0.00087576702925004732 -0.0080960898769584979 0 0.00085722512770385322 -0.0080623203640788812 0 0.00094753416202099339 -0.0081626378884773268 0 0.00095121931196841627 -0.0080633637826792118 0 0.0011080080490290629 -0.0080086442856275378 0 0.00095121931196841627 -0.0080633637826792118 0 0.0010344128967002401 -0.0081976463431750815 0 0.00094753416202099339 -0.0081626378884773268 0 0.00095121931196841627 -0.0080633637826792118 0 0.0010344128967002401 -0.0081976463431750815 0 0.00030405583273043448 -0.0049076723604768021 0 3.391599400403028e-05 -0.005346473472357267 0 0.00074703165046795565 -0.0058427317543934291 0 0.00015496376072741012 -0.0058232011781609305 0 3.391599400403028e-05 -0.005346473472357267 0 0.00074703165046795565 -0.0058427317543934291 0 -0.00038649641599891306 -0.0057000615896350528 0 0.00015496376072741012 -0.0058232011781609305 0 -0.00014721971767028456 -0.0055521395852660719 0 0.00015496376072741012 -0.0058232011781609305 0 -0.00014721971767028456 -0.0055521395852660719 0 3.391599400403028e-05 -0.005346473472357267 0 -0.00037430904145096557 -0.0051983829537813513 0 -0.00014721971767028456 -0.0055521395852660719 0 3.391599400403028e-05 -0.005346473472357267 0 0.00077948131947549299 -0.0077387371969094062 0 0.0008298384683961391 -0.0079688548432173979 0 0.00069214296244437482 -0.0080142011563750851 0 0.00041600388155796841 -0.006286065966226247 0 0.00069888187967239899 -0.0069575876068137732 0 0.0008298384683961391 -0.0079688548432173979 0 0.00069214296244437482 -0.0080142011563750851 0 0.00079098388607024071 -0.008021852488996211 0 0.00069214296244437482 -0.0080142011563750851 0 0.00080604556317649288 -0.0080210307743664843 0 0.00085777710636210553 -0.0079504474146508478 0 0.00074703165046795565 -0.0058427317543934291 0 0.00065724699414244252 -0.0068058297023164578 0 0.00085777710636210553 -0.0079504474146508478 0 0.00015496376072741012 -0.0058232011781609305 0 0.00074703165046795565 -0.0058427317543934291 0 0.00065724699414244252 -0.0068058297023164578 0 0.00069888187967239899 -0.0069575876068137732 0 0.00084564108154706094 -0.007850384542339937 0 0.00085722512770385322 -0.0080623203640788812 0 0.00079098388607024071 -0.008021852488996211 0 0.00080604556317649288 -0.0080210307743664843 0 0.00069214296244437482 -0.0080142011563750851 0 0.00079098388607024071 -0.008021852488996211 0 0.00080604556317649288 -0.0080210307743664843 0 0.00065724699414244252 -0.0068058297023164578 0 0.00031686625535573245 -0.0074537678230736249 0 0.00085777710636210553 -0.0079504474146508478 0 0.00031686625535573245 -0.0074537678230736249 0 -0.00045033715085499986 -0.0065358466013877153 0 -0.0002826829458104731 -0.0075609047503150889 0 0.00065724699414244252 -0.0068058297023164578 0 0.00031686625535573245 -0.0074537678230736249 0 -0.00045033715085499986 -0.0065358466013877153 0 -0.0010674245769715389 -0.006254296375021404 0 0.00065724699414244252 -0.0068058297023164578 0 -0.00045033715085499986 -0.0065358466013877153 0 -0.00038649641599891306 -0.0057000615896350528 0 0.00015496376072741012 -0.0058232011781609305 0 0.00065724699414244252 -0.0068058297023164578 0 -0.00071176708541164833 -0.0060811776692064837 0 0.00063230223266146535 -0.0067113428081273831 0 -0.0012248995457357858 -0.0068406726672412699 0 -0.00045033715085499986 -0.0065358466013877153 0 -0.0002826829458104731 -0.0075609047503150889 0 -0.00051739229658785062 -0.0061272969562711733 0 0.00036328707240464191 -0.0079011179573059975 0 0.00070889565628375344 -0.0081271091306717204 0 0.00069315340210872507 -0.0082029954866837968 0 0.0006291151650405823 -0.0081448388850917687 0 0.00070889565628375344 -0.0081271091306717204 0 0.00069315340210872507 -0.0082029954866837968 0 0.00072633275037107571 -0.0082071108321585765 0 0.00070889565628375344 -0.0081271091306717204 0 0.00072633275037107571 -0.0082071108321585765 0 0.000714517408070054 -0.008196092610368232 0 0.00036328707240464191 -0.0079011179573059975 0 0.00059852051374698913 -0.0081130248619846537 0 0.00031686625535573245 -0.0074537678230736249 0 -0.0002826829458104731 -0.0075609047503150889 0 0.000714517408070054 -0.008196092610368232 0 0.00031686625535573245 -0.0074537678230736249 0 0.00085777710636210553 -0.0079504474146508478 0 0.000714517408070054 -0.008196092610368232 0 0.00085777710636210553 -0.0079504474146508478 0 0.00085472033092285986 -0.0081287273613375993 0 0.000714517408070054 -0.008196092610368232 0 0.00080604556317649288 -0.0080210307743664843 0 0.00085777710636210553 -0.0079504474146508478 0 0.00087576702925004732 -0.0080960898769584979 0 0.00085777710636210553 -0.0079504474146508478 0 0.00085472033092285986 -0.0081287273613375993 0 0.00087576702925004732 -0.0080960898769584979 0 0.00085472033092285986 -0.0081287273613375993 0 0.00079434629104017246 -0.008226527856020311 0 0.000881125045553758 -0.008197981383195942 0 0.00085472033092285986 -0.0081287273613375993 0 0.00087576702925004732 -0.0080960898769584979 0 0.000881125045553758 -0.008197981383195942 0 0.00072633275037107571 -0.0082071108321585765 0 0.000714517408070054 -0.008196092610368232 0 0.00079434629104017246 -0.008226527856020311 0 0.00085472033092285986 -0.0081287273613375993 0 0.000714517408070054 -0.008196092610368232 0 0.00079434629104017246 -0.008226527856020311 0 0.00072633275037107571 -0.0082071108321585765 0 0.00077082770790294131 -0.0082524519316116689 0 0.00079434629104017246 -0.008226527856020311 0 0.00077082770790294131 -0.0082524519316116689 0 0.00079434629104017246 -0.008226527856020311 0 0.0008071178188391331 -0.0082745177575374463 0 0.00079434629104017246 -0.008226527856020311 0 0.00084754349942754465 -0.008272284441441187 0 0.000881125045553758 -0.008197981383195942 0 0.00079434629104017246 -0.008226527856020311 0 0.0008071178188391331 -0.0082745177575374463 0 0.00084754349942754465 -0.008272284441441187 0 0.00084754349942754465 -0.008272284441441187 0 0.00082875223863264639 -0.0083125621521478663 0 0.00087057163683347549 -0.0083262205611376334 0 0.0008071178188391331 -0.0082745177575374463 0 0.00084754349942754465 -0.008272284441441187 0 0.00082875223863264639 -0.0083125621521478663 0 0.00082875223863264639 -0.0083125621521478663 0 0.00087057163683347549 -0.0083262205611376334 0 0.00084588183113814077 -0.0083456198499333237 0 0.00077082770790294131 -0.0082524519316116689 0 0.0008071178188391331 -0.0082745177575374463 0 0.00079702381843915369 -0.0083051466375385075 0 0.00079702381843915369 -0.0083051466375385075 0 0.00075210623280514343 -0.0082961888931626093 0 0.00079221520574218921 -0.008344344427256678 0 0.00077082770790294131 -0.0082524519316116689 0 0.00079702381843915369 -0.0083051466375385075 0 0.00075210623280514343 -0.0082961888931626093 0 0.0008071178188391331 -0.0082745177575374463 0 0.00082875223863264639 -0.0083125621521478663 0 0.00079702381843915369 -0.0083051466375385075 0 0.00082875223863264639 -0.0083125621521478663 0 0.00079702381843915369 -0.0083051466375385075 0 0.00081898091378835593 -0.0083420473154576357 0 0.00077082770790294131 -0.0082524519316116689 0 0.00075210623280514343 -0.0082961888931626093 0 0.00072331184576717908 -0.0082435328992140639 0 0.00075210623280514343 -0.0082961888931626093 0 0.00072331184576717908 -0.0082435328992140639 0 0.00067336877044318129 -0.0082675864330572883 0 0.00069315340210872507 -0.0082029954866837968 0 0.00072331184576717908 -0.0082435328992140639 0 0.00067336877044318129 -0.0082675864330572883 0 0.00069315340210872507 -0.0082029954866837968 0 0.00072633275037107571 -0.0082071108321585765 0 0.00072331184576717908 -0.0082435328992140639 0 0.00072633275037107571 -0.0082071108321585765 0 0.00077082770790294131 -0.0082524519316116689 0 0.00072331184576717908 -0.0082435328992140639 0 0.00099979372649003427 -0.0082444512277177976 0 0.0010273364450927045 -0.0083142581255777719 0 0.0010141652183324077 -0.0082746632912095216 0 0.0010344128967002401 -0.0081976463431750815 0 0.00099979372649003427 -0.0082444512277177976 0 0.0010141652183324077 -0.0082746632912095216 0 0.00094753416202099339 -0.0081626378884773268 0 0.0010344128967002401 -0.0081976463431750815 0 0.00099979372649003427 -0.0082444512277177976 0 0.00099979372649003427 -0.0082444512277177976 0 0.00094251868365618303 -0.0082141055387694971 0 0.00097420342842074613 -0.0083022844127546361 0 0.00094753416202099339 -0.0081626378884773268 0 0.00094251868365618303 -0.0082141055387694971 0 0.00087576702925004732 -0.0080960898769584979 0 0.00094753416202099339 -0.0081626378884773268 0 0.00099979372649003427 -0.0082444512277177976 0 0.00094251868365618303 -0.0082141055387694971 0 0.00094251868365618303 -0.0082141055387694971 0 0.00087576702925004732 -0.0080960898769584979 0 0.000881125045553758 -0.008197981383195942 0 0.00094251868365618303 -0.0082141055387694971 0 0.000881125045553758 -0.008197981383195942 0 0.00090931210727723962 -0.0082807734350394992 0 0.00084754349942754465 -0.008272284441441187 0 0.000881125045553758 -0.008197981383195942 0 0.00090931210727723962 -0.0082807734350394992 0 0.00090931210727723962 -0.0082807734350394992 0 0.00087057163683347549 -0.0083262205611376334 0 0.00091393914104584894 -0.0083605303086473695 0 0.00084754349942754465 -0.008272284441441187 0 0.00090931210727723962 -0.0082807734350394992 0 0.00087057163683347549 -0.0083262205611376334 0 0.00090931210727723962 -0.0082807734350394992 0 0.00097420342842074613 -0.0083022844127546361 0 0.00091393914104584894 -0.0083605303086473695 0 0.00094251868365618303 -0.0082141055387694971 0 0.00090931210727723962 -0.0082807734350394992 0 0.00097420342842074613 -0.0083022844127546361 0 0.00097420342842074613 -0.0083022844127546361 0 0.00099150643728783384 -0.0084119945730327175 0 0.00091393914104584894 -0.0083605303086473695 0 0.00097420342842074613 -0.0083022844127546361 0 0.00099150643728783384 -0.0084119945730327175 0 0.0010273364450927045 -0.0083142581255777719 0 0.0035286816610046578 -0.020953456421488187 0 0.0023598470575635065 -0.021327992821642477 0 0.0025925840848083082 -0.022260988678689742 0 0.00099979372649003427 -0.0082444512277177976 0 0.00097420342842074613 -0.0083022844127546361 0 0.0010273364450927045 -0.0083142581255777719 0 0.002190902144200466 -0.015002956812913696 0 0.0018353619053721466 -0.015225343976007853 0 0.002190902144200466 -0.015002956812913696 0 0.0019321499657475897 -0.019293244763419759 0 0.0021586906099944295 -0.017155221951076723 0 0.0017498137365749324 -0.016500924383775459 0 0.001489396653019633 -0.017358824415478251 0 0.002190902144200466 -0.015002956812913696 0 0.00075955664048609861 -0.0095724087390402363 0 0.0013521378512215982 -0.012492666974156713 0 0.0014845694865550649 -0.012289002367534319 0 0.0015904806524408921 -0.012401401927772112 0 0.002190902144200466 -0.015002956812913696 0 0.0015884295791558606 -0.012439517937987305 0 0.00099150643728783384 -0.0084119945730327175 0 0.00091393914104584894 -0.0083605303086473695 0 0.00085771992033781838 -0.008412675868528759 0 0.00091393914104584894 -0.0083605303086473695 0 0.00086877622552214862 -0.0083699882049482494 0 0.00085771992033781838 -0.008412675868528759 0 0.00087057163683347549 -0.0083262205611376334 0 0.00091393914104584894 -0.0083605303086473695 0 0.00086877622552214862 -0.0083699882049482494 0 0.00078505008359597067 -0.0084183445549705933 0 0.00082641867873826512 -0.0084178434625366907 0 0.00082752803855451061 -0.0084051284619505017 0 0.0015884295791558606 -0.012439517937987305 0 0.00075955664048609861 -0.0095724087390402363 0 0.00078505008359597067 -0.0084183445549705933 0 0.00082752803855451061 -0.0084051284619505017 0 0.00085135054604396586 -0.0083776409851510081 0 0.0021586906099944295 -0.017155221951076723 0 0.0026804170085798318 -0.016406526977236175 0 0.0017498137365749324 -0.016500924383775459 0 0.0026804170085798318 -0.016406526977236175 0 0.0017498137365749324 -0.016500924383775459 0 0.002013336272588837 -0.01568395033065946 0 0.00080531463285039016 -0.0083816654612395517 0 0.00073372705267217857 -0.0083404260738792133 0 0.00075522899432748964 -0.0084178850114655767 0 0.00080531463285039016 -0.0083816654612395517 0 0.00073372705267217857 -0.0083404260738792133 0 0.00079221520574218921 -0.008344344427256678 0 0.00075210623280514343 -0.0082961888931626093 0 0.00073372705267217857 -0.0083404260738792133 0 0.00067336877044318129 -0.0082675864330572883 0 0.00075210623280514343 -0.0082961888931626093 0 0.00073372705267217857 -0.0083404260738792133 0 0.00079221520574218921 -0.008344344427256678 0 0.00079702381843915369 -0.0083051466375385075 0 0.00081898091378835593 -0.0083420473154576357 0 0.00079221520574218921 -0.008344344427256678 0 0.00081898091378835593 -0.0083420473154576357 0 0.00079221520574218921 -0.008344344427256678 0 0.00081927352518378082 -0.0083725258729306674 0 0.00087057163683347549 -0.0083262205611376334 0 0.00086877622552214862 -0.0083699882049482494 0 0.00084588183113814077 -0.0083456198499333237 0 0.00081898091378835593 -0.0083420473154576357 0 0.00084588183113814077 -0.0083456198499333237 0 0.00083818507614159007 -0.0083658160932862623 0 0.00082875223863264639 -0.0083125621521478663 0 0.00081898091378835593 -0.0083420473154576357 0 0.00084588183113814077 -0.0083456198499333237 0 0.00081898091378835593 -0.0083420473154576357 0 0.00083818507614159007 -0.0083658160932862623 0 0.00081927352518378082 -0.0083725258729306674 0 0.00086877622552214862 -0.0083699882049482494 0 0.00084588183113814077 -0.0083456198499333237 0 0.00083818507614159007 -0.0083658160932862623 0 0.00086877622552214862 -0.0083699882049482494 0 0.00083818507614159007 -0.0083658160932862623 0 0.00084462946918813122 -0.0083923027939507323 0 0.00086877622552214862 -0.0083699882049482494 0 0.00084462946918813122 -0.0083923027939507323 0 0.00085771992033781838 -0.008412675868528759 0 0.00065280400551812176 -0.0093418347283011054 0 0.00075955664048609861 -0.0095724087390402363 0 0.00083818507614159007 -0.0083658160932862623 0 0.00084462946918813122 -0.0083923027939507323 0 0.00081927352518378082 -0.0083725258729306674 0 0.00084462946918813122 -0.0083923027939507323 0 0.00083018461412485067 -0.0083980155308237946 0 0.00081927352518378082 -0.0083725258729306674 0 0.00094028805943930217 -0.0091788755943948402 0 0.00075955664048609861 -0.0095724087390402363 0 0.00084462946918813122 -0.0083923027939507323 0 0.00083018461412485067 -0.0083980155308237946 0 0.00085042411286637175 -0.0084004273820874869 0 0.00080531463285039016 -0.0083816654612395517 0 0.00079221520574218921 -0.008344344427256678 0 0.00081927352518378082 -0.0083725258729306674 0 0.00080531463285039016 -0.0083816654612395517 0 0.00083018461412485067 -0.0083980155308237946 0 0.00081927352518378082 -0.0083725258729306674 0 0.00080531463285039016 -0.0083816654612395517 0 0.00083018461412485067 -0.0083980155308237946 0 0.00083369360974911073 -0.0083937897075251691 0 0.00080531463285039016 -0.0083816654612395517 0 0.00083369360974911073 -0.0083937897075251691 0 0.00083310966834225877 -0.0083873491016312682 0 0.00083018461412485067 -0.0083980155308237946 0 0.00082641867873826512 -0.0084178434625366907 0 0.00082752803855451061 -0.0084051284619505017 0 0.00083018461412485067 -0.0083980155308237946 0 0.00083369360974911073 -0.0083937897075251691 0 0.00082752803855451061 -0.0084051284619505017 0 0.00083369360974911073 -0.0083937897075251691 0 0.00082752803855451061 -0.0084051284619505017 0 0.00085135054604396586 -0.0083776409851510081 0 0.00083369360974911073 -0.0083937897075251691 0 0.00085135054604396586 -0.0083776409851510081 0 0.00083310966834225877 -0.0083873491016312682 0 0.00083310966834225877 -0.0083873491016312682 0 0.00075522899432748964 -0.0084178850114655767 0 0.00090724743822025438 -0.0083162822368383436 0 0.00080531463285039016 -0.0083816654612395517 0 0.00083310966834225877 -0.0083873491016312682 0 0.00075522899432748964 -0.0084178850114655767 0 0.0010959824536192798 -0.0082083257489996876 0 0.001092528569080452 -0.008196290360170732 0 0.0010315219412941504 -0.0082511068546134835 0 0.0010959824536192798 -0.0082083257489996876 0 0.001092528569080452 -0.008196290360170732 0 0.0011470132779908982 -0.0080284466483704475 0 0.00073372705267217857 -0.0083404260738792133 0 0.00075522899432748964 -0.0084178850114655767 0 0.00058374930947861195 -0.0083291495158689163 0 0.00073372705267217857 -0.0083404260738792133 0 0.00058374930947861195 -0.0083291495158689163 0 0.00067336877044318129 -0.0082675864330572883 0 0.00092936500875768341 -0.008309958117855662 0 0.00079282025067821057 -0.0081264718964492357 0 0.0011470132779908982 -0.0080284466483704475 0 0.0011148308464850691 -0.0079745890563865489 0 0.0010684545339581274 -0.008143179490984644 0 0.001092528569080452 -0.008196290360170732 0 0.0011470132779908982 -0.0080284466483704475 0 0.0010684545339581274 -0.008143179490984644 0 0.0013860961830561315 -0.0081146921510658818 0 0.0011206317257183235 -0.0080517499130395818 0 0.0010970306737477309 -0.0079301657150816201 0 0.0013860961830561315 -0.0081146921510658818 0 0.0011206317257183235 -0.0080517499130395818 0 0.0010936435824475789 -0.0082197852446164645 0 0.0010432171927280195 -0.0077872073544822543 0 0.0010297610178846102 -0.0076170939227538153 0 0.0011206317257183235 -0.0080517499130395818 0 0.00095838981915426897 -0.0079596606743876329 0 0.0010936435824475789 -0.0082197852446164645 0 0.00034068152401882498 -0.0068961110104716885 0 0.00075888122262742148 -0.0061200047280676054 0 0.0010749191809281903 -0.0073502147956256824 0 0.00095838981915426897 -0.0079596606743876329 0 0.0010970306737477309 -0.0079301657150816201 0 0.00098631707513875113 -0.0078006081229486405 0 0.0011206317257183235 -0.0080517499130395818 0 0.00095838981915426897 -0.0079596606743876329 0 0.0010970306737477309 -0.0079301657150816201 0 0.0011148308464850691 -0.0079745890563865489 0 0.0010684545339581274 -0.008143179490984644 0 0.0010970306737477309 -0.0079301657150816201 0 0.0012340588999929486 -0.0081651979908364206 0 0.0011113056937358714 -0.0079437834849336621 0 0.0011148308464850691 -0.0079745890563865489 0 0.0010970306737477309 -0.0079301657150816201 0 0.0011018778301581512 -0.0078652462086489343 0 0.0011148308464850691 -0.0079745890563865489 0 0.0011018778301581512 -0.0078652462086489343 0 0.0011168789485130582 -0.0077919922791975117 0 0.0010970306737477309 -0.0079301657150816201 0 0.0011018778301581512 -0.0078652462086489343 0 0.0010636856181361252 -0.0078236909359138563 0 0.0011018778301581512 -0.0078652462086489343 0 0.0010636856181361252 -0.0078236909359138563 0 0.0011168789485130582 -0.0077919922791975117 0 0.0010636856181361252 -0.0078236909359138563 0 0.0010534462393335237 -0.0077572806513538962 0 0.0011168789485130582 -0.0077919922791975117 0 0.0004312708884913909 -0.0081961776076752077 0 0.00047405740463553635 -0.0081763058556231678 0 0.00051363327556889517 -0.00821263280253034 0 0.00084662822082022082 -0.0077111406960977515 0 0.00095838981915426897 -0.0079596606743876329 0 0.00098631707513875113 -0.0078006081229486405 0 0.0010970306737477309 -0.0079301657150816201 0 0.0010636856181361252 -0.0078236909359138563 0 0.00098631707513875113 -0.0078006081229486405 0 0.0010534462393335237 -0.0077572806513538962 0 0.00098631707513875113 -0.0078006081229486405 0 0.0010435789492434077 -0.0076457423542500343 0 0.0010636856181361252 -0.0078236909359138563 0 0.0010534462393335237 -0.0077572806513538962 0 0.00098631707513875113 -0.0078006081229486405 0 -0.00095346021958340544 0.0024217414703756753 0 -0.00091195987558344001 0.0026891685274466949 0 -0.0014440773157461165 0.0025433768219909449 0 0.00084662822082022082 -0.0077111406960977515 0 0.00098631707513875113 -0.0078006081229486405 0 0.0010435789492434077 -0.0076457423542500343 0 -1.9338940367078504e-05 -0.0028214327001581355 0 -0.0001694199267486173 -0.0037645708120793517 0 0.00052050210329786391 -0.0080749458684142919 0 0.00037374733171727313 -0.0080961889009113896 0 0.00043744417808640608 -0.0081482081804358075 0 -0.0009172797683242108 -0.0043105746290226735 0 -0.00087126448709305227 -0.0043432483046478183 0 -0.00093329178921713538 -0.0043447743496635109 0 -0.00022073531793824131 -0.0064295447592299911 0 -0.0001694199267486173 -0.0037645708120793517 0 0.00052050210329786391 -0.0080749458684142919 0 0.00043744417808640608 -0.0081482081804358075 0 0.0005013581945212429 -0.0081579196454342039 0 0.00047405740463553635 -0.0081763058556231678 0 0.00043744417808640608 -0.0081482081804358075 0 0.0005013581945212429 -0.0081579196454342039 0 0.0004312708884913909 -0.0081961776076752077 0 0.00047405740463553635 -0.0081763058556231678 0 0.00043744417808640608 -0.0081482081804358075 0 0.0010534462393335237 -0.0077572806513538962 0 0.0011168789485130582 -0.0077919922791975117 0 0.0010435789492434077 -0.0076457423542500343 0 0.001075368907180447 -0.0081781600281313118 0 -0.0001694199267486173 -0.0037645708120793517 0 0.0004312708884913909 -0.0081961776076752077 0 0.00037374733171727313 -0.0080961889009113896 0 0.00043744417808640608 -0.0081482081804358075 0 0.00052050210329786391 -0.0080749458684142919 0 0.0006291151650405823 -0.0081448388850917687 0 0.00056967977512817011 -0.0082026550613460199 0 0.00052050210329786391 -0.0080749458684142919 0 0.0005013581945212429 -0.0081579196454342039 0 0.00056967977512817011 -0.0082026550613460199 0 0.00069315340210872507 -0.0082029954866837968 0 0.0006291151650405823 -0.0081448388850917687 0 0.0006428669036971312 -0.0082041143785829915 0 0.0006291151650405823 -0.0081448388850917687 0 0.0006428669036971312 -0.0082041143785829915 0 0.00056967977512817011 -0.0082026550613460199 0 0.0006428669036971312 -0.0082041143785829915 0 0.00067336877044318129 -0.0082675864330572883 0 0.00056967977512817011 -0.0082026550613460199 0 0.00058374930947861195 -0.0083291495158689163 0 0.00067336877044318129 -0.0082675864330572883 0 0.00056967977512817011 -0.0082026550613460199 0 0.00069315340210872507 -0.0082029954866837968 0 0.0006428669036971312 -0.0082041143785829915 0 0.00067336877044318129 -0.0082675864330572883 0 0.00058374930947861195 -0.0083291495158689163 0 0.00051363327556889517 -0.00821263280253034 0 0.00056967977512817011 -0.0082026550613460199 0 0.00079282025067821057 -0.0081264718964492357 0 0.001075368907180447 -0.0081781600281313118 0 0.0011470132779908982 -0.0080284466483704475 0 0.0011148308464850691 -0.0079745890563865489 0 0.0011168789485130582 -0.0077919922791975117 0 0.00058374930947861195 -0.0083291495158689163 0 0.0004312708884913909 -0.0081961776076752077 0 0.00051363327556889517 -0.00821263280253034 0 0.0005013581945212429 -0.0081579196454342039 0 0.00051363327556889517 -0.00821263280253034 0 0.00056967977512817011 -0.0082026550613460199 0 0.00047405740463553635 -0.0081763058556231678 0 0.0005013581945212429 -0.0081579196454342039 0 0.00051363327556889517 -0.00821263280253034 0 -0.0020898274540198229 -0.022286184945734859 0 -0.0021086639780530294 -0.023160651832073924 0 -0.0027638177833246959 -0.022522117260497149 0 -0.0020898274540198229 -0.022286184945734859 0 -0.0014229169612831407 -0.022328879698936585 0 -0.0021086639780530294 -0.023160651832073924 0 -0.0014229169612831407 -0.022328879698936585 0 -0.0014724917993488042 -0.023219524458423603 0 -0.0021086639780530294 -0.023160651832073924 0 -0.0014229169612831407 -0.022328879698936585 0 -0.0014724917993488042 -0.023219524458423603 0 -0.00087674010107116368 -0.022804448525599499 0 -0.0014229169612831407 -0.022328879698936585 0 -0.00051748062336679054 -0.021945779735554609 0 -0.00087674010107116368 -0.022804448525599499 0 -0.0014724917993488042 -0.023219524458423603 0 -0.00087674010107116368 -0.022804448525599499 0 -0.0010451706536142415 -0.023816771480758753 0 -0.0014724917993488042 -0.023219524458423603 0 -0.0018076705057136165 -0.024155035279393007 0 -0.0010451706536142415 -0.023816771480758753 0 -0.0021086639780530294 -0.023160651832073924 0 -0.0024707941137993654 -0.024154780228121123 0 -0.0018076705057136165 -0.024155035279393007 0 -0.0014724917993488042 -0.023219524458423603 0 -0.0021086639780530294 -0.023160651832073924 0 -0.0018076705057136165 -0.024155035279393007 0 -0.0021086639780530294 -0.023160651832073924 0 -0.0028870429316729686 -0.023478829863761048 0 -0.0024707941137993654 -0.024154780228121123 0 -0.0028870429316729686 -0.023478829863761048 0 -0.0024707941137993654 -0.024154780228121123 0 -0.0029938731254592144 -0.024176809692070943 0 -0.0033809831122779488 -0.023816986982066014 0 -0.0028870429316729686 -0.023478829863761048 0 -0.0029938731254592144 -0.024176809692070943 0 -0.0033809831122779488 -0.023816986982066014 0 -0.0028870429316729686 -0.023478829863761048 0 -0.0037414459248743129 -0.023108461448606711 0 -0.0033809831122779488 -0.023816986982066014 0 -0.0037414459248743129 -0.023108461448606711 0 -0.0045906238504582779 -0.024101418345684189 0 -0.0037414459248743129 -0.023108461448606711 0 -0.003586566277367741 -0.022161783357017031 0 -0.0043833733381727054 -0.022261481082619362 0 -0.0037414459248743129 -0.023108461448606711 0 -0.0027638177833246959 -0.022522117260497149 0 -0.003586566277367741 -0.022161783357017031 0 -0.0028870429316729686 -0.023478829863761048 0 -0.0037414459248743129 -0.023108461448606711 0 -0.0027638177833246959 -0.022522117260497149 0 -0.0021086639780530294 -0.023160651832073924 0 -0.0028870429316729686 -0.023478829863761048 0 -0.0027638177833246959 -0.022522117260497149 0 -0.0027638177833246959 -0.022522117260497149 0 -0.0031688672884602758 -0.021545556252592177 0 -0.003586566277367741 -0.022161783357017031 0 -0.0027638177833246959 -0.022522117260497149 0 -0.0031688672884602758 -0.021545556252592177 0 -0.0024280141419551998 -0.021634561214096095 0 -0.003586566277367741 -0.022161783357017031 0 -0.0038748822243439515 -0.021390320507047009 0 -0.0043833733381727054 -0.022261481082619362 0 -0.0031688672884602758 -0.021545556252592177 0 -0.003586566277367741 -0.022161783357017031 0 -0.0038748822243439515 -0.021390320507047009 0 -0.0038748822243439515 -0.021390320507047009 0 -0.0030039436369956193 -0.020812139718243371 0 -0.0044219580416931855 -0.020527204862808186 0 -0.0031323170684429465 -0.020724715046939492 0 -0.0043474230499117479 -0.020538050021299555 0 -0.0031688672884602758 -0.021545556252592177 0 -0.0030039436369956193 -0.020812139718243371 0 -0.0024280141419551998 -0.021634561214096095 0 -0.0031688672884602758 -0.021545556252592177 0 -0.0038748822243439515 -0.021390320507047009 0 -0.0030039436369956193 -0.020812139718243371 0 -0.0030039436369956193 -0.020812139718243371 0 -0.0024280141419551998 -0.021634561214096095 0 -0.0016067005641990412 -0.021100788110738334 0 -0.0032044505582491433 -0.020696193686468901 0 -0.0020871916878732791 -0.020882294108812139 0 -0.0024482652207928001 -0.020264689180455969 0 -0.0031323170684429465 -0.020724715046939492 0 -0.0018332020615371607 -0.02120675854877389 0 -0.0020898274540198229 -0.022286184945734859 0 -0.0027638177833246959 -0.022522117260497149 0 -0.0024280141419551998 -0.021634561214096095 0 -0.0024280141419551998 -0.021634561214096095 0 -0.0017403770104155514 -0.021794597926704917 0 -0.0016067005641990412 -0.021100788110738334 0 -0.0020898274540198229 -0.022286184945734859 0 -0.0024280141419551998 -0.021634561214096095 0 -0.0017403770104155514 -0.021794597926704917 0 -0.0020898274540198229 -0.022286184945734859 0 -0.0014229169612831407 -0.022328879698936585 0 -0.0017403770104155514 -0.021794597926704917 0 -0.0011212837625076077 -0.021697446143912044 0 -0.0016067005641990412 -0.021100788110738334 0 -0.00030990006643335995 -0.021381684712649007 0 -0.0014229169612831407 -0.022328879698936585 0 -0.0011212837625076077 -0.021697446143912044 0 -0.00051748062336679054 -0.021945779735554609 0 -0.0014229169612831407 -0.022328879698936585 0 -0.0017403770104155514 -0.021794597926704917 0 -0.0011212837625076077 -0.021697446143912044 0 -0.0017403770104155514 -0.021794597926704917 0 -0.0011212837625076077 -0.021697446143912044 0 -0.0016067005641990412 -0.021100788110738334 0 -0.0014607244035727072 -0.018495695033750984 0 -0.0021253058381424227 -0.018129440989273635 0 -0.0020871916878732791 -0.020882294108812139 0 -0.001727393788679515 -0.020678583573717896 0 -0.0010182573784057976 -0.021065826055716851 0 -0.0018332020615371607 -0.02120675854877389 0 -0.00056525979692437233 -0.019540603872231527 0 -0.0020871916878732791 -0.020882294108812139 0 -0.001727393788679515 -0.020678583573717896 0 -0.0024482652207928001 -0.020264689180455969 0 -0.0010880637769149532 -0.016430243182464326 0 -0.00025329518289538781 -0.016517899506365705 0 -0.00034587692030138361 -0.016869975057106659 0 -0.0010880637769149532 -0.016430243182464326 0 -0.00025329518289538781 -0.016517899506365705 0 -0.00068218215323720172 -0.015991811663327121 0 -0.0014607244035727072 -0.018495695033750984 0 -0.00056525979692437233 -0.019540603872231527 0 -0.00025329518289538781 -0.016517899506365705 0 -0.00020611006425692554 -0.016899046160371405 0 -0.00034587692030138361 -0.016869975057106659 0 -0.00025329518289538781 -0.016517899506365705 0 -9.7344202282926231e-05 -0.016115544231943734 0 -0.00068218215323720172 -0.015991811663327121 0 -0.00025329518289538781 -0.016517899506365705 0 0.00028701778232572138 -0.016641692664736172 0 -9.7344202282926231e-05 -0.016115544231943734 0 0.00028701778232572138 -0.016641692664736172 0 0.00055954082474389197 -0.016236618927218983 0 -9.7344202282926231e-05 -0.016115544231943734 0 0.00028701778232572138 -0.016641692664736172 0 -2.1885905675674039e-05 -0.016734018647975288 0 8.4502749246122689e-05 -0.016877414344968648 0 -0.00025329518289538781 -0.016517899506365705 0 -2.1885905675674039e-05 -0.016734018647975288 0 -0.00020611006425692554 -0.016899046160371405 0 -0.00025329518289538781 -0.016517899506365705 0 0.00028701778232572138 -0.016641692664736172 0 -2.1885905675674039e-05 -0.016734018647975288 0 -2.1885905675674039e-05 -0.016734018647975288 0 -0.00020611006425692554 -0.016899046160371405 0 8.4502749246122689e-05 -0.016877414344968648 0 -0.00020611006425692554 -0.016899046160371405 0 8.4502749246122689e-05 -0.016877414344968648 0 0.00023636242360219246 -0.017210681426571939 0 -0.00020611006425692554 -0.016899046160371405 0 0.00023636242360219246 -0.017210681426571939 0 -0.00034481979315145896 -0.016871633845615974 0 0.00030972377524226072 -0.021762600934935376 0 -0.00051748062336679054 -0.021945779735554609 0 -0.0003006084935179399 -0.022470414835320689 0 0.00018604811522986817 -0.019471583586605279 0 -0.00056525979692437233 -0.019540603872231527 0 0.00030972377524226072 -0.021762600934935376 0 -0.00051748062336679054 -0.021945779735554609 0 -0.00030990006643335995 -0.021381684712649007 0 0.00028701778232572138 -0.016641692664736172 0 8.4502749246122689e-05 -0.016877414344968648 0 0.00023636242360219246 -0.017210681426571939 0 -0.0011212837625076077 -0.021697446143912044 0 -0.00051748062336679054 -0.021945779735554609 0 -0.00030990006643335995 -0.021381684712649007 0 -0.00059667237151495988 -0.019246750321956746 0 -0.00056525979692437233 -0.019540603872231527 0 0.0017498137365749324 -0.016500924383775459 0 0.00094037629017642286 -0.016784393911801931 0 0.0010405790045540351 -0.01584791942203656 0 0.00094037629017642286 -0.016784393911801931 0 0.00055954082474389197 -0.016236618927218983 0 0.0010405790045540351 -0.01584791942203656 0 0.00028701778232572138 -0.016641692664736172 0 0.00094037629017642286 -0.016784393911801931 0 0.00055954082474389197 -0.016236618927218983 0 0.00023636242360219246 -0.017210681426571939 0 0.00094037629017642286 -0.016784393911801931 0 0.00081776455815044645 -0.017557113925719132 0 0.00028701778232572138 -0.016641692664736172 0 0.00023636242360219246 -0.017210681426571939 0 0.00094037629017642286 -0.016784393911801931 0 0.00094037629017642286 -0.016784393911801931 0 0.001489396653019633 -0.017358824415478251 0 0.00081776455815044645 -0.017557113925719132 0 0.00018604811522986817 -0.019471583586605279 0 0.00088235506248337473 -0.020806883799059046 0 0.0019321499657475897 -0.019293244763419759 0 0.00088235506248337473 -0.020806883799059046 0 0.0017498137365749324 -0.016500924383775459 0 0.00094037629017642286 -0.016784393911801931 0 0.001489396653019633 -0.017358824415478251 0 0.0023598470575635065 -0.021327992821642477 0 0.0017187648464193643 -0.021847386065535556 0 0.0012892762450210263 -0.021748802507415062 0 0.0023598470575635065 -0.021327992821642477 0 0.0025925840848083082 -0.022260988678689742 0 0.0019501315240610883 -0.02202305688943261 0 0.0023598470575635065 -0.021327992821642477 0 0.0019501315240610883 -0.02202305688943261 0 0.0017187648464193643 -0.021847386065535556 0 0.0019501315240610883 -0.02202305688943261 0 0.0015408289451600752 -0.022144262469451215 0 0.0017187648464193643 -0.021847386065535556 0 0.0025925840848083082 -0.022260988678689742 0 0.0019501315240610883 -0.02202305688943261 0 0.0016835381569312779 -0.022498046226539149 0 0.0016835381569312779 -0.022498046226539149 0 0.0010296626115480008 -0.022392148698873411 0 0.0011436799064952065 -0.022979425213709354 0 0.0016835381569312779 -0.022498046226539149 0 0.0015408289451600752 -0.022144262469451215 0 0.0010296626115480008 -0.022392148698873411 0 0.0015408289451600752 -0.022144262469451215 0 0.0013780790043405723 -0.021981466623256778 0 0.0010296626115480008 -0.022392148698873411 0 0.0019501315240610883 -0.02202305688943261 0 0.0016835381569312779 -0.022498046226539149 0 0.0015408289451600752 -0.022144262469451215 0 0.0015408289451600752 -0.022144262469451215 0 0.0017187648464193643 -0.021847386065535556 0 0.0013780790043405723 -0.021981466623256778 0 0.0012892762450210263 -0.021748802507415062 0 0.0013780790043405723 -0.021981466623256778 0 0.0010296626115480008 -0.022392148698873411 0 0.0017187648464193643 -0.021847386065535556 0 0.0012892762450210263 -0.021748802507415062 0 0.0013780790043405723 -0.021981466623256778 0 0.0010296626115480008 -0.022392148698873411 0 0.0011436799064952065 -0.022979425213709354 0 0.0004562881318427378 -0.023047175030319469 0 0.0011436799064952065 -0.022979425213709354 0 0.00087849501849937377 -0.023570631547697965 0 0.0004562881318427378 -0.023047175030319469 0 0.0011436799064952065 -0.022979425213709354 0 0.00087849501849937377 -0.023570631547697965 0 0.0017100933891777237 -0.023360357006755046 0 0.0016835381569312779 -0.022498046226539149 0 0.0011436799064952065 -0.022979425213709354 0 0.0017100933891777237 -0.023360357006755046 0 0.0018353619053721466 -0.015225343976007853 0 0.0013206007099588293 -0.01588111759742725 0 0.0010273364450927045 -0.0083142581255777719 0 0.00095591029162475779 -0.008310917017180822 0 0.0010141652183324077 -0.0082746632912095216 0 0.0025925840848083082 -0.022260988678689742 0 0.0016835381569312779 -0.022498046226539149 0 0.0017100933891777237 -0.023360357006755046 0 -0.00051748062336679054 -0.021945779735554609 0 -0.0003006084935179399 -0.022470414835320689 0 -0.00087674010107116368 -0.022804448525599499 0 -0.0003006084935179399 -0.022470414835320689 0 -0.00087674010107116368 -0.022804448525599499 0 -0.00034685496648938783 -0.023284021311204599 0 0.0010296626115480008 -0.022392148698873411 0 -0.0003006084935179399 -0.022470414835320689 0 0.0004562881318427378 -0.023047175030319469 0 0.00030972377524226072 -0.021762600934935376 0 0.00092067246023525419 -0.022122916000035235 0 -0.0003006084935179399 -0.022470414835320689 0 0.0012892762450210263 -0.021748802507415062 0 0.0010296626115480008 -0.022392148698873411 0 -0.0003006084935179399 -0.022470414835320689 0 0.00088235506248337473 -0.020806883799059046 0 -0.00017900967169859718 -0.022727293559059183 0 -0.0003006084935179399 -0.022470414835320689 0 0.0004562881318427378 -0.023047175030319469 0 -0.00034685496648938783 -0.023284021311204599 0 0.00087849501849937377 -0.023570631547697965 0 0.0004562881318427378 -0.023047175030319469 0 0.00020965346327425053 -0.023673200227400527 0 0.0004562881318427378 -0.023047175030319469 0 -0.00034685496648938783 -0.023284021311204599 0 0.00020965346327425053 -0.023673200227400527 0 -0.00087674010107116368 -0.022804448525599499 0 -0.00034685496648938783 -0.023284021311204599 0 -0.0010451706536142415 -0.023816771480758753 0 -0.00034685496648938783 -0.023284021311204599 0 -0.00037012139974894304 -0.023965366068001544 0 -0.0010451706536142415 -0.023816771480758753 0 -0.00078146679374536878 -0.024325119904546291 0 -0.00037012139974894304 -0.023965366068001544 0 -0.0010451706536142415 -0.023816771480758753 0 -0.00037012139974894304 -0.023965366068001544 0 0.00015313336705922572 -0.02413198981502274 0 -0.00023282810955441838 -0.024541185198698259 0 -0.00078146679374536878 -0.024325119904546291 0 -0.00037012139974894304 -0.023965366068001544 0 -0.00023282810955441838 -0.024541185198698259 0 -0.00034685496648938783 -0.023284021311204599 0 -0.00037012139974894304 -0.023965366068001544 0 0.00020965346327425053 -0.023673200227400527 0 -0.00037012139974894304 -0.023965366068001544 0 0.00020965346327425053 -0.023673200227400527 0 0.00015313336705922572 -0.02413198981502274 0 0.00020965346327425053 -0.023673200227400527 0 0.0005415662084469723 -0.023926280212440341 0 0.00015313336705922572 -0.02413198981502274 0 0.00015313336705922572 -0.02413198981502274 0 -0.00023282810955441838 -0.024541185198698259 0 0.00093223812262703033 -0.024330267103798511 0 -0.00021920722714403575 -0.024700298749020678 0 0.000834981267532603 -0.016177821835888551 0 0.00087849501849937377 -0.023570631547697965 0 0.00020965346327425053 -0.023673200227400527 0 0.0005415662084469723 -0.023926280212440341 0 0.0005415662084469723 -0.023926280212440341 0 0.00015313336705922572 -0.02413198981502274 0 0.00093223812262703033 -0.024330267103798511 0 0.00056493236375681458 -0.0087471418518243853 0 0.00031890192244983214 -0.0087288351749441797 0 0.00047093566313677625 -0.0088636327612913231 0 0.0010349520273348982 -0.024206515344278492 0 2.7861948520010348e-05 -0.023930421957766825 0 -0.00034254050150395968 -0.024410756516255541 0 0.0010349520273348982 -0.024206515344278492 0 2.7861948520010348e-05 -0.023930421957766825 0 0.0015498319777347133 -0.023453535930241513 0 0.00026433834067730801 -0.011814169933080366 0 -2.5997747972798019e-05 -0.01614102309363305 0 0.00026433834067730801 -0.011814169933080366 0 0.000834981267532603 -0.016177821835888551 0 0.00072616799377390768 -0.0083331752722870592 0 0.00047093566313677625 -0.0088636327612913231 0 0.00084774130149970731 -0.0086938332093855729 0 0.00026433834067730801 -0.011814169933080366 0 0.0010879565442648111 -0.008158562971339425 0 2.7861948520010348e-05 -0.023930421957766825 0 -0.00034254050150395968 -0.024410756516255541 0 -0.0012053264559651936 -0.024591851246929662 0 -0.0019195140808438468 -0.017303789140287486 0 -0.0017571790097166895 -0.016907433850448683 0 -0.0015732399031582571 -0.018246834087169678 0 -0.00021920722714403575 -0.024700298749020678 0 -0.0010096652936659833 -0.024468239180084169 0 -0.00078146679374536878 -0.024325119904546291 0 -0.00023282810955441838 -0.024541185198698259 0 -0.0012053264559651936 -0.024591851246929662 0 -0.0019195140808438468 -0.017303789140287486 0 -0.0024219390435851144 -0.017146624662806219 0 -0.0017571790097166895 -0.016907433850448683 0 -0.0019195140808438468 -0.017303789140287486 0 -0.002141141922656234 -0.017498811729438516 0 -0.0024219390435851144 -0.017146624662806219 0 -0.002141141922656234 -0.017498811729438516 0 -0.0024219390435851144 -0.017146624662806219 0 -0.0026188036434417494 -0.01744607267619766 0 0.0010344128967002401 -0.0081976463431750815 0 0.0012950250378433255 -0.0081655752077979017 0 0.0012603226354757091 -0.0081007204825817806 0 0.00093528748123250191 -0.0082588711137467612 0 0.0013846327478208803 -0.0079945991820966986 0 0.0010344128967002401 -0.0081976463431750815 0 0.0010141652183324077 -0.0082746632912095216 0 0.00099136037422644903 -0.0083823840801453952 0 0.00095591029162475779 -0.008310917017180822 0 0.0010141652183324077 -0.0082746632912095216 0 0.00099136037422644903 -0.0083823840801453952 0 0.00095591029162475779 -0.008310917017180822 0 0.00099136037422644903 -0.0083823840801453952 0 0.00081843734955666669 -0.0085129463189678838 0 0.0013846327478208803 -0.0079945991820966986 0 0.000834981267532603 -0.016177821835888551 0 0.0012950250378433255 -0.0081655752077979017 0 0.0011721756247952033 -0.0081640155974531618 0 0.0012881670560270977 -0.0081524088947590324 0 0.0013206007099588293 -0.01588111759742725 0 0.000834981267532603 -0.016177821835888551 0 0.00087849501849937377 -0.023570631547697965 0 0.0017100933891777237 -0.023360357006755046 0 0.00093223812262703033 -0.024330267103798511 0 0.00087849501849937377 -0.023570631547697965 0 0.0005415662084469723 -0.023926280212440341 0 0.00093223812262703033 -0.024330267103798511 0 0.0012185957908204634 -0.0082020638099225638 0 0.0013803228391496649 -0.008133949228542851 0 0.00084774130149970731 -0.0086938332093855729 0 0.0011489741884887852 -0.0083093774196169624 0 0.0019305854291855145 -0.0078713148287023749 0 0.00026433834067730801 -0.011814169933080366 0 0.0013672353549546712 -0.0084819477849509186 0 0.0011135848225925764 -0.0082427086303030993 0 0.0011721756247952033 -0.0081640155974531618 0 0.0012185957908204634 -0.0082020638099225638 0 0.00072616799377390768 -0.0083331752722870592 0 0.0012185957908204634 -0.0082020638099225638 0 0.00084774130149970731 -0.0086938332093855729 0 0.0011721756247952033 -0.0081640155974531618 0 0.0012185957908204634 -0.0082020638099225638 0 0.0012881670560270977 -0.0081524088947590324 0 0.0012950250378433255 -0.0081655752077979017 0 0.0012881670560270977 -0.0081524088947590324 0 0.0012603226354757091 -0.0081007204825817806 0 0.0012881670560270977 -0.0081524088947590324 0 0.0013803228391496649 -0.008133949228542851 0 0.0012603226354757091 -0.0081007204825817806 0 0.0012185957908204634 -0.0082020638099225638 0 0.0012881670560270977 -0.0081524088947590324 0 0.0013803228391496649 -0.008133949228542851 0 0.0013803228391496649 -0.008133949228542851 0 0.0012591710581364587 -0.0079871648851690819 0 0.0013818849753257823 -0.0078639532835902432 0 0.0013803228391496649 -0.008133949228542851 0 0.0012591710581364587 -0.0079871648851690819 0 0.0012603226354757091 -0.0081007204825817806 0 0.0011080080490290629 -0.0080086442856275378 0 0.0012591710581364587 -0.0079871648851690819 0 0.0012603226354757091 -0.0081007204825817806 0 0.0011977802460058987 -0.0077722046799556079 0 0.0012591710581364587 -0.0079871648851690819 0 0.0013818849753257823 -0.0078639532835902432 0 0.0013803228391496649 -0.008133949228542851 0 0.0013818849753257823 -0.0078639532835902432 0 0.0016132533875796106 -0.007844041050100916 0 0.0011977802460058987 -0.0077722046799556079 0 0.0013818849753257823 -0.0078639532835902432 0 0.0015078010254849963 -0.0075784203753173959 0 0.0013818849753257823 -0.0078639532835902432 0 0.0015078010254849963 -0.0075784203753173959 0 0.0016132533875796106 -0.007844041050100916 0 0.0013803228391496649 -0.008133949228542851 0 0.0016132533875796106 -0.007844041050100916 0 0.0019663069416268756 -0.007984813536581252 0 0.0015078010254849963 -0.0075784203753173959 0 0.0016132533875796106 -0.007844041050100916 0 0.0018190849794187882 -0.0076682037798366598 0 0.0016132533875796106 -0.007844041050100916 0 0.0018190849794187882 -0.0076682037798366598 0 0.0019663069416268756 -0.007984813536581252 0 0.0018259658336348546 -0.0073911391769445967 0 0.0021790518537030579 -0.0071050241257576878 0 0.0015563808384473962 -0.0071043657936287058 0 0.0015078010254849963 -0.0075784203753173959 0 0.0018259658336348546 -0.0073911391769445967 0 0.0015563808384473962 -0.0071043657936287058 0 0.0018190849794187882 -0.0076682037798366598 0 0.0018259658336348546 -0.0073911391769445967 0 0.0021456500035662894 -0.0075141778154589924 0 0.0015078010254849963 -0.0075784203753173959 0 0.0018190849794187882 -0.0076682037798366598 0 0.0018259658336348546 -0.0073911391769445967 0 0.0012252144135168977 -0.0073771906772402609 0 0.0015078010254849963 -0.0075784203753173959 0 0.0015563808384473962 -0.0071043657936287058 0 0.0012252144135168977 -0.0073771906772402609 0 0.0011977802460058987 -0.0077722046799556079 0 0.0015078010254849963 -0.0075784203753173959 0 -2.5997747972798019e-05 -0.01614102309363305 0 -0.00023999821780897287 -0.012968442177110793 0 0.00031890192244983214 -0.0087288351749441797 0 0.00027025698152099569 -0.0090410854179800108 0 0.00047093566313677625 -0.0088636327612913231 0 -0.0019195140808438468 -0.017303789140287486 0 -0.002141141922656234 -0.017498811729438516 0 -0.0015732399031582571 -0.018246834087169678 0 -0.002141141922656234 -0.017498811729438516 0 -0.0015732399031582571 -0.018246834087169678 0 -0.0025111203612046521 -0.017842835381567525 0 -0.002141141922656234 -0.017498811729438516 0 -0.0025111203612046521 -0.017842835381567525 0 -0.0026188036434417494 -0.01744607267619766 0 0.0018190849794187882 -0.0076682037798366598 0 0.0019663069416268756 -0.007984813536581252 0 0.0021456500035662894 -0.0075141778154589924 0 0.00027025698152099569 -0.0090410854179800108 0 0.00047093566313677625 -0.0088636327612913231 0 0.00084774130149970731 -0.0086938332093855729 0 0.0026078007983717077 -0.0078321373908255363 0 0.0019663069416268756 -0.007984813536581252 0 0.0021456500035662894 -0.0075141778154589924 0 -0.00023999821780897287 -0.012968442177110793 0 0.0019305854291855145 -0.0078713148287023749 0 0.0026078007983717077 -0.0078321373908255363 0 0.0021456500035662894 -0.0075141778154589924 0 0.0025571171582624806 -0.006954468086516067 0 0.0018259658336348546 -0.0073911391769445967 0 0.0021456500035662894 -0.0075141778154589924 0 0.0021790518537030579 -0.0071050241257576878 0 0.0021456500035662894 -0.0075141778154589924 0 0.0021790518537030579 -0.0071050241257576878 0 0.0025571171582624806 -0.006954468086516067 0 -0.0014045503571753102 -0.017898946974476818 0 -0.002185089039129231 -0.01906989224085712 0 -0.0011592514012839701 -0.019921332962417129 0 -0.00023999821780897287 -0.012968442177110793 0 0.00075712188487112085 -0.01333848650426827 0 -0.002185089039129231 -0.01906989224085712 0 -0.0035033076694416282 -0.018780437789689065 0 -0.0037752403422981473 -0.020188355086468972 0 -0.0014045503571753102 -0.017898946974476818 0 -0.002185089039129231 -0.01906989224085712 0 -0.0035033076694416282 -0.018780437789689065 0 -0.0040051048845464827 -0.019645861115998843 0 -0.0051673388406835155 -0.019424771506116469 0 -0.0035033076694416282 -0.018780437789689065 0 -0.0055133881688057161 -0.019702834288321661 0 -0.0037752403422981473 -0.020188355086468972 0 -0.0035556024734929468 -0.019007325707914153 0 -0.0042899229158110024 -0.017915690578856881 0 -0.0055133881688057161 -0.019702834288321661 0 -0.0035556024734929468 -0.019007325707914153 0 -0.0042899229158110024 -0.017915690578856881 0 -0.0032772933671222507 -0.017640169177362497 0 -0.0042899229158110024 -0.017915690578856881 0 -0.0032772933671222507 -0.017640169177362497 0 -0.0038296934951242141 -0.017424838150554768 0 -0.0042899229158110024 -0.017915690578856881 0 -0.0048102943129430045 -0.017437243026873449 0 -0.0052954429516875534 -0.017837778163878396 0 -0.0015732399031582571 -0.018246834087169678 0 -0.0035556024734929468 -0.019007325707914153 0 -0.0025111203612046521 -0.017842835381567525 0 -0.00023999821780897287 -0.012968442177110793 0 -0.0040051048845464827 -0.019645861115998843 0 -0.0035556024734929468 -0.019007325707914153 0 -0.0032772933671222507 -0.017640169177362497 0 -0.0025111203612046521 -0.017842835381567525 0 -0.0032772933671222507 -0.017640169177362497 0 -0.0025111203612046521 -0.017842835381567525 0 -0.0026188036434417494 -0.01744607267619766 0 -0.0024219390435851144 -0.017146624662806219 0 -0.0017571790097166895 -0.016907433850448683 0 -0.0034703938976099846 -0.016863338552454862 0 -0.0032772933671222507 -0.017640169177362497 0 -0.0026188036434417494 -0.01744607267619766 0 -0.0028998832083328911 -0.017230039093397771 0 -0.00034254050150395968 -0.024410756516255541 0 -0.0012053264559651936 -0.024591851246929662 0 -0.0016000533764244668 -0.024734210806130443 0 -0.0024219390435851144 -0.017146624662806219 0 -0.0026188036434417494 -0.01744607267619766 0 -0.0028998832083328911 -0.017230039093397771 0 -2.5997747972798019e-05 -0.01614102309363305 0 -0.0028277728304074864 -0.021006507080689938 0 -0.0024219390435851144 -0.017146624662806219 0 -0.0028998832083328911 -0.017230039093397771 0 -0.0034703938976099846 -0.016863338552454862 0 -0.00078146679374536878 -0.024325119904546291 0 -0.0012053264559651936 -0.024591851246929662 0 -0.0011121891578396137 -0.024347477829202498 0 -0.0012053264559651936 -0.024591851246929662 0 -0.0011121891578396137 -0.024347477829202498 0 -0.0014462162580538224 -0.024320370287878101 0 -0.0012053264559651936 -0.024591851246929662 0 -0.0016000533764244668 -0.024734210806130443 0 -0.0014462162580538224 -0.024320370287878101 0 -0.0016000533764244668 -0.024734210806130443 0 -0.001822797755436817 -0.024478369024860995 0 -0.0014462162580538224 -0.024320370287878101 0 -0.0032772933671222507 -0.017640169177362497 0 -0.0028998832083328911 -0.017230039093397771 0 -0.0034703938976099846 -0.016863338552454862 0 -0.0032772933671222507 -0.017640169177362497 0 -0.0034703938976099846 -0.016863338552454862 0 -0.0038296934951242141 -0.017424838150554768 0 -0.0028277728304074864 -0.021006507080689938 0 -0.0031310947755352403 -0.023062421161838827 0 -0.0016000533764244668 -0.024734210806130443 0 -0.001822797755436817 -0.024478369024860995 0 -0.0023707254794571742 -0.024682743055704587 0 -0.0042899229158110024 -0.017915690578856881 0 -0.0038296934951242141 -0.017424838150554768 0 -0.0042807185558555016 -0.017280982321273765 0 -0.0034703938976099846 -0.016863338552454862 0 -0.0042807185558555016 -0.017280982321273765 0 -0.0050549007537828861 -0.016878559361551901 0 -0.0034703938976099846 -0.016863338552454862 0 -0.0038296934951242141 -0.017424838150554768 0 -0.0042807185558555016 -0.017280982321273765 0 -0.0048102943129430045 -0.017437243026873449 0 -0.0042807185558555016 -0.017280982321273765 0 -0.0050549007537828861 -0.016878559361551901 0 -0.0042899229158110024 -0.017915690578856881 0 -0.0048102943129430045 -0.017437243026873449 0 -0.0042807185558555016 -0.017280982321273765 0 -0.0024707941137993654 -0.024154780228121123 0 -0.0018076705057136165 -0.024155035279393007 0 -0.002731338011605119 -0.025204518140481549 0 -0.001822797755436817 -0.024478369024860995 0 -0.0018076705057136165 -0.024155035279393007 0 -0.0014462162580538224 -0.024320370287878101 0 -0.001953869734138892 -0.024645423386592865 0 -0.0031310947755352403 -0.023062421161838827 0 -0.001822797755436817 -0.024478369024860995 0 -0.0018076705057136165 -0.024155035279393007 0 -0.0023707254794571742 -0.024682743055704587 0 -0.0018076705057136165 -0.024155035279393007 0 -0.0010451706536142415 -0.023816771480758753 0 -0.0014462162580538224 -0.024320370287878101 0 -0.0010451706536142415 -0.023816771480758753 0 -0.0011121891578396137 -0.024347477829202498 0 -0.0014462162580538224 -0.024320370287878101 0 -0.00078146679374536878 -0.024325119904546291 0 -0.0010451706536142415 -0.023816771480758753 0 -0.0011121891578396137 -0.024347477829202498 0 -0.0033809831122779488 -0.023816986982066014 0 -0.0033530790345281686 -0.024727721266565101 0 -0.0045906238504582779 -0.024101418345684189 0 -0.0033530790345281686 -0.024727721266565101 0 -0.0035927799848447825 -0.025224332492922438 0 -0.0036501869393705945 -0.025293219323378521 0 -0.0033995371812742849 -0.024763028504947718 0 -0.0040085967111113518 -0.024729292745827341 0 -0.0033809831122779488 -0.023816986982066014 0 -0.0029938731254592144 -0.024176809692070943 0 -0.0033530790345281686 -0.024727721266565101 0 -0.0024707941137993654 -0.024154780228121123 0 -0.0029384069505209794 -0.024696370938612003 0 -0.002731338011605119 -0.025204518140481549 0 -0.0024707941137993654 -0.024154780228121123 0 -0.0029938731254592144 -0.024176809692070943 0 -0.0029384069505209794 -0.024696370938612003 0 -0.0029384069505209794 -0.024696370938612003 0 -0.0033530790345281686 -0.024727721266565101 0 -0.0031372194062166568 -0.025145183867027424 0 -0.0029938731254592144 -0.024176809692070943 0 -0.0029384069505209794 -0.024696370938612003 0 -0.0033530790345281686 -0.024727721266565101 0 -0.0031310947755352403 -0.023062421161838827 0 -0.0048318074997827981 -0.021504243991999836 0 -0.0031372194062166568 -0.025145183867027424 0 -0.0030006881606691278 -0.025150410578465014 0 -0.0034169672090536441 -0.025380069089726991 0 -0.0050549007537828861 -0.016878559361551901 0 -0.0062720769915641525 -0.018089278352189049 0 -0.0052954429516875534 -0.017837778163878396 0 -0.0029384069505209794 -0.024696370938612003 0 -0.0031372194062166568 -0.025145183867027424 0 -0.002731338011605119 -0.025204518140481549 0 -0.0030430830295556195 -0.023742810579729271 0 -0.0031310947755352403 -0.023062421161838827 0 -0.0048102943129430045 -0.017437243026873449 0 -0.0050549007537828861 -0.016878559361551901 0 -0.0052954429516875534 -0.017837778163878396 0 -0.0033530790345281686 -0.024727721266565101 0 -0.0031372194062166568 -0.025145183867027424 0 -0.0035927799848447825 -0.025224332492922438 0 -0.0031372194062166568 -0.025145183867027424 0 -0.0035927799848447825 -0.025224332492922438 0 -0.0034169672090536441 -0.025380069089726991 0 -0.0048318074997827981 -0.021504243991999836 0 -0.0055911096000060192 -0.022230153730671481 0 -0.0034169672090536441 -0.025380069089726991 0 -0.003586958079882299 -0.025337865477970352 0 -0.0035988722041209887 -0.025326205809878963 0 -0.0035927799848447825 -0.025224332492922438 0 -0.0034169672090536441 -0.025380069089726991 0 -0.003586958079882299 -0.025337865477970352 0 -0.0042899229158110024 -0.017915690578856881 0 -0.0052954429516875534 -0.017837778163878396 0 -0.0055133881688057161 -0.019702834288321661 0 -0.0062720769915641525 -0.018089278352189049 0 -0.0052954429516875534 -0.017837778163878396 0 -0.0055133881688057161 -0.019702834288321661 0 -0.0055133881688057161 -0.019702834288321661 0 -0.0068082050607481629 -0.020641890505568482 0 -0.0075004361832419235 -0.019323786982731486 0 -0.0062720769915641525 -0.018089278352189049 0 -0.0055133881688057161 -0.019702834288321661 0 -0.0075004361832419235 -0.019323786982731486 0 -0.0068082050607481629 -0.020641890505568482 0 -0.0070268027402866267 -0.022093342366307583 0 -0.0052373755424923443 -0.021534210012643936 0 -0.0070268027402866267 -0.022093342366307583 0 -0.0052373755424923443 -0.021534210012643936 0 -0.0052815733193801624 -0.023831115969249968 0 -0.0055133881688057161 -0.019702834288321661 0 -0.0068082050607481629 -0.020641890505568482 0 -0.0052373755424923443 -0.021534210012643936 0 -0.0055133881688057161 -0.019702834288321661 0 -0.0052373755424923443 -0.021534210012643936 0 -0.0037752403422981473 -0.020188355086468972 0 -0.0052373755424923443 -0.021534210012643936 0 -0.0037752403422981473 -0.020188355086468972 0 -0.0036106363228024666 -0.021484087694437531 0 -0.0037752403422981473 -0.020188355086468972 0 -0.0025214601140962243 -0.020527800545227005 0 -0.0036106363228024666 -0.021484087694437531 0 -0.002185089039129231 -0.01906989224085712 0 -0.0037752403422981473 -0.020188355086468972 0 -0.0025214601140962243 -0.020527800545227005 0 -0.0036106363228024666 -0.021484087694437531 0 -0.0025589124340373872 -0.021949819602967699 0 -0.0038213983497083757 -0.022852592815256499 0 -0.0025214601140962243 -0.020527800545227005 0 -0.0036106363228024666 -0.021484087694437531 0 -0.0025589124340373872 -0.021949819602967699 0 -0.0052373755424923443 -0.021534210012643936 0 -0.0036106363228024666 -0.021484087694437531 0 -0.0038213983497083757 -0.022852592815256499 0 -0.0038213983497083757 -0.022852592815256499 0 -0.0030972275773650535 -0.02407689343735853 0 -0.0052815733193801624 -0.023831115969249968 0 -0.0052373755424923443 -0.021534210012643936 0 -0.0038213983497083757 -0.022852592815256499 0 -0.0052815733193801624 -0.023831115969249968 0 -0.0025589124340373872 -0.021949819602967699 0 -0.0038213983497083757 -0.022852592815256499 0 -0.0019353973081032319 -0.023021214959339856 0 -0.0038213983497083757 -0.022852592815256499 0 -0.0030972275773650535 -0.02407689343735853 0 -0.0019353973081032319 -0.023021214959339856 0 -0.0018726969289648858 -0.017075248917157886 0 -0.0046561794408550737 -0.0163874230958806 0 -0.0030972275773650535 -0.02407689343735853 0 -0.005437540664012583 -0.024224594681171687 0 -0.0052815733193801624 -0.023831115969249968 0 -0.00080825547059786202 -0.0089861115792734328 0 -0.0032289568300640551 -0.0091737628055049269 0 -0.0015578037699251496 -0.010610792631246504 0 -0.005437540664012583 -0.024224594681171687 0 -0.0054560709610365458 -0.024273474474392473 0 -0.0052815733193801624 -0.023831115969249968 0 -0.005437540664012583 -0.024224594681171687 0 -0.0054560709610365458 -0.024273474474392473 0 -0.0053167333029175414 -0.02414691642678669 0 -0.0032289568300640551 -0.0091737628055049269 0 -0.0039385145529665516 -0.011061192198868884 0 -0.0056909026485238434 -0.0095083008661389773 0 -0.0046561794408550737 -0.0163874230958806 0 -0.0038952165044317155 -0.018586907381185229 0 -0.0055891515472637418 -0.024820508890431508 0 -0.0054560709610365458 -0.024273474474392473 0 -0.0052815733193801624 -0.023831115969249968 0 -0.0055891515472637418 -0.024820508890431508 0 -0.0054560709610365458 -0.024273474474392473 0 -0.0053028774196775177 -0.024509564509072983 0 -0.0066068639409099803 -0.023229627387834833 0 -0.0051699583236089917 -0.02399338196620451 0 0.00092253959961806267 -0.0065877906993284724 0 0.001512844892768125 -0.0068637932365500087 0 0.00071139619785832737 -0.0061453105819294397 0 0.0011871394656761921 -0.0057614818556081943 0 0.0013902170835119959 -0.0066085809315058796 0 0.001135450016860358 -0.0070507771585060185 0 0.0012252144135168977 -0.0073771906772402609 0 0.0015563808384473962 -0.0071043657936287058 0 0.0021790518537030579 -0.0071050241257576878 0 0.0013902170835119959 -0.0066085809315058796 0 0.0020897956943148241 -0.0064169129278399675 0 0.0011871394656761921 -0.0057614818556081943 0 0.0013902170835119959 -0.0066085809315058796 0 0.0020897956943148241 -0.0064169129278399675 0 0.0021491776713450277 -0.007090789820358186 0 0.001512844892768125 -0.0068637932365500087 0 0.0011871394656761921 -0.0057614818556081943 0 0.0020897956943148241 -0.0064169129278399675 0 0.0018663567412277584 -0.0056372812506237059 0 0.0024111244024547025 -0.0059548906598890141 0 0.0020897956943148241 -0.0064169129278399675 0 0.0018663567412277584 -0.0056372812506237059 0 0.00087061809072656144 -0.014314266936874296 0 0.00075712188487112085 -0.01333848650426827 0 0.0024111244024547025 -0.0059548906598890141 0 0.0020897956943148241 -0.0064169129278399675 0 0.0025571171582624806 -0.006954468086516067 0 0.0021790518537030579 -0.0071050241257576878 0 0.0020897956943148241 -0.0064169129278399675 0 0.0025571171582624806 -0.006954468086516067 0 -0.0025214601140962243 -0.020527800545227005 0 -0.00092755019546051861 -0.021866205899531008 0 -0.0011592514012839701 -0.019921332962417129 0 -0.002185089039129231 -0.01906989224085712 0 -0.0025214601140962243 -0.020527800545227005 0 -0.0011592514012839701 -0.019921332962417129 0 -0.0025214601140962243 -0.020527800545227005 0 -0.0025589124340373872 -0.021949819602967699 0 -0.00092755019546051861 -0.021866205899531008 0 -0.0025589124340373872 -0.021949819602967699 0 -0.00092755019546051861 -0.021866205899531008 0 -0.0019353973081032319 -0.023021214959339856 0 -0.00092755019546051861 -0.021866205899531008 0 -0.0019353973081032319 -0.023021214959339856 0 -0.00066743197993891497 -0.023755007492785793 0 -0.00080825547059786202 -0.0089861115792734328 0 9.5827247755897343e-05 -0.0092328560671344952 0 -0.00010908981323853417 -0.010123212088567731 0 -0.0018726969289648858 -0.017075248917157886 0 -0.00029108663127665196 -0.012645473621456191 0 -0.00080825547059786202 -0.0089861115792734328 0 9.5827247755897343e-05 -0.0092328560671344952 0 0.00049077546097729783 -0.0088263592834805244 0 -0.0030972275773650535 -0.02407689343735853 0 -0.0019353973081032319 -0.023021214959339856 0 -0.00066743197993891497 -0.023755007492785793 0 9.5827247755897343e-05 -0.0092328560671344952 0 0.00049077546097729783 -0.0088263592834805244 0 0.00046311750778723655 -0.0089828441721054031 0 -0.00029108663127665196 -0.012645473621456191 0 -0.00031147125375864904 -0.010435115116653125 0 9.5827247755897343e-05 -0.0092328560671344952 0 0.00046311750778723655 -0.0089828441721054031 0 0.000310979351991515 -0.0093505735318255498 0 0.00046311750778723655 -0.0089828441721054031 0 0.00045521708779490443 -0.009150629345552351 0 0.000310979351991515 -0.0093505735318255498 0 0.00046323390597581158 -0.0089437732264056359 0 0.00046311750778723655 -0.0089828441721054031 0 0.00053090478449984498 -0.0088631321102753628 0 0.00046311750778723655 -0.0089828441721054031 0 0.00053090478449984498 -0.0088631321102753628 0 0.00045521708779490443 -0.009150629345552351 0 0.0024111244024547025 -0.0059548906598890141 0 0.002249483982357971 -0.0051402290437719371 0 0.0018663567412277584 -0.0056372812506237059 0 0.00087061809072656144 -0.014314266936874296 0 -0.00029108663127665196 -0.012645473621456191 0 0.0011871394656761921 -0.0057614818556081943 0 0.0018663567412277584 -0.0056372812506237059 0 0.0013739548938840537 -0.0051091952409028892 0 0.002249483982357971 -0.0051402290437719371 0 0.0018663567412277584 -0.0056372812506237059 0 0.0013739548938840537 -0.0051091952409028892 0 0.00046323390597581158 -0.0089437732264056359 0 0.00053090478449984498 -0.0088631321102753628 0 0.00048140546260395689 -0.0085481744346228468 0 -0.00029108663127665196 -0.012645473621456191 0 0.0013493355481540275 -0.0061307468664535004 0 0.00053090478449984498 -0.0088631321102753628 0 0.00048140546260395689 -0.0085481744346228468 0 0.00033649660089979958 -0.0081515953022048629 0 8.5783518894233735e-05 -0.0079756029789081837 0 0.00048140546260395689 -0.0085481744346228468 0 0.00033649660089979958 -0.0081515953022048629 0 0.00025588482605469519 -0.0065781270154701352 0 0.0013493355481540275 -0.0061307468664535004 0 0.00056388321791362936 -0.0050317288504834259 0 0.0011871394656761921 -0.0057614818556081943 0 0.0013739548938840537 -0.0051091952409028892 0 5.5248176525917388e-05 -0.0073937673681623035 0 0.00034732902121669085 -0.0082622820594501108 0 0.00033649660089979958 -0.0081515953022048629 0 0.00034732902121669085 -0.0082622820594501108 0 0.00033649660089979958 -0.0081515953022048629 0 0.00052546805159130628 -0.0088133731003139353 0 0.00053090478449984498 -0.0088631321102753628 0 0.00033649660089979958 -0.0081515953022048629 0 0.00052546805159130628 -0.0088133731003139353 0 0.00053090478449984498 -0.0088631321102753628 0 0.00052546805159130628 -0.0088133731003139353 0 0.00047359931988983874 -0.0094137815881506631 0 0.00052546805159130628 -0.0088133731003139353 0 0.00057460122915947232 -0.0093630024263237979 0 0.00047359931988983874 -0.0094137815881506631 0 0.00034732902121669085 -0.0082622820594501108 0 0.00052546805159130628 -0.0088133731003139353 0 0.00057460122915947232 -0.0093630024263237979 0 0.00057460122915947232 -0.0093630024263237979 0 0.00047359931988983874 -0.0094137815881506631 0 0.00026937924433951524 -0.010883878322312314 0 0.00053090478449984498 -0.0088631321102753628 0 0.00045521708779490443 -0.009150629345552351 0 0.00047359931988983874 -0.0094137815881506631 0 0.00045521708779490443 -0.009150629345552351 0 0.000310979351991515 -0.0093505735318255498 0 0.00047359931988983874 -0.0094137815881506631 0 0.000310979351991515 -0.0093505735318255498 0 0.00047359931988983874 -0.0094137815881506631 0 -0.00010908981323853417 -0.010123212088567731 0 9.5827247755897343e-05 -0.0092328560671344952 0 0.000310979351991515 -0.0093505735318255498 0 -0.00010908981323853417 -0.010123212088567731 0 0.00047359931988983874 -0.0094137815881506631 0 -0.00010908981323853417 -0.010123212088567731 0 0.00026937924433951524 -0.010883878322312314 0 -0.00010908981323853417 -0.010123212088567731 0 0.00026937924433951524 -0.010883878322312314 0 -0.00051453955694903133 -0.01162130560694789 0 0.00026937924433951524 -0.010883878322312314 0 1.0900556738603724e-06 -0.012158423154102753 0 -0.00042793233281712559 -0.012537529764097392 0 0.00026937924433951524 -0.010883878322312314 0 -0.00051453955694903133 -0.01162130560694789 0 -0.00042793233281712559 -0.012537529764097392 0 1.0900556738603724e-06 -0.012158423154102753 0 0.00021024708619267899 -0.011181107133635345 0 3.9063779185147922e-07 -0.010495711899143011 0 0.00026937924433951524 -0.010883878322312314 0 1.0900556738603724e-06 -0.012158423154102753 0 0.00021024708619267899 -0.011181107133635345 0 0.00026937924433951524 -0.010883878322312314 0 0.00021024708619267899 -0.011181107133635345 0 0.00014493296107796777 -0.010836963008463383 0 0.00021130046736285327 -0.010624827277893852 0 0.00028604803587658183 -0.0097008831178549432 0 0.00057460122915947232 -0.0093630024263237979 0 0.00026937924433951524 -0.010883878322312314 0 0.00056080366410392194 -0.0085835153776141638 0 0.00034732902121669085 -0.0082622820594501108 0 0.00057460122915947232 -0.0093630024263237979 0 0.00056080366410392194 -0.0085835153776141638 0 0.00014493296107796777 -0.010836963008463383 0 3.9063779185147922e-07 -0.010495711899143011 0 -2.9862294077599823e-05 -0.0092519398470680466 0 0.00021024708619267899 -0.011181107133635345 0 0.00014493296107796777 -0.010836963008463383 0 3.9063779185147922e-07 -0.010495711899143011 0 3.9063779185147922e-07 -0.010495711899143011 0 -1.429747390314619e-07 -0.0088353873707937482 0 -2.9862294077599823e-05 -0.0092519398470680466 0 0.00028604803587658183 -0.0097008831178549432 0 0.00013196237431638961 -0.0083626597140892388 0 0.00056080366410392194 -0.0085835153776141638 0 0.00011298972213333639 -0.0073764259135242882 0 0.00017417866722237236 -0.0077103177409312777 0 0.00034732902121669085 -0.0082622820594501108 0 0.00056080366410392194 -0.0085835153776141638 0 0.00017417866722237236 -0.0077103177409312777 0 -0.0020882957875195127 -0.014018915881581778 0 -0.0016355403034891516 -0.014029581072290357 0 -9.2710819506954523e-05 -0.01740008218326955 0 -0.00050921114362443513 -0.018510736166333374 0 -0.00054864363520361467 -0.015578579920426456 0 -0.00050921114362443513 -0.018510736166333374 0 -0.0016758917910514274 -0.013482204370307132 0 -0.00054864363520361467 -0.015578579920426456 0 -9.2710819506954523e-05 -0.01740008218326955 0 7.1060627772313951e-05 -0.018381047770332476 0 -0.00050921114362443513 -0.018510736166333374 0 -4.1950690122052403e-05 -0.017940965940831156 0 7.1060627772313951e-05 -0.018381047770332476 0 -1.3506289648392037e-05 -0.018453093877084555 0 -9.2710819506954523e-05 -0.01740008218326955 0 -4.1950690122052403e-05 -0.017940965940831156 0 7.1060627772313951e-05 -0.018381047770332476 0 7.1060627772313951e-05 -0.018381047770332476 0 -0.00050921114362443513 -0.018510736166333374 0 9.8536096117218995e-05 -0.019020052045180095 0 -0.00050921114362443513 -0.018510736166333374 0 9.8536096117218995e-05 -0.019020052045180095 0 6.4149658546485842e-05 -0.019611773872727622 0 -0.0020882957875195127 -0.014018915881581778 0 -0.0038952165044317155 -0.018586907381185229 0 -0.0032289568300640551 -0.0091737628055049269 0 -0.0039385145529665516 -0.011061192198868884 0 -0.0015578037699251496 -0.010610792631246504 0 -0.00080825547059786202 -0.0089861115792734328 0 -0.00010908981323853417 -0.010123212088567731 0 -0.0015578037699251496 -0.010610792631246504 0 -0.00010908981323853417 -0.010123212088567731 0 -0.0015578037699251496 -0.010610792631246504 0 -0.00051453955694903133 -0.01162130560694789 0 -0.0015578037699251496 -0.010610792631246504 0 -0.00051453955694903133 -0.01162130560694789 0 -0.0016758917910514274 -0.013482204370307132 0 -0.0039385145529665516 -0.011061192198868884 0 -0.0015578037699251496 -0.010610792631246504 0 -0.0016758917910514274 -0.013482204370307132 0 -0.0016758917910514274 -0.013482204370307132 0 -0.0014891623747329459 -0.013322741656012641 0 -0.00054864363520361467 -0.015578579920426456 0 -0.0016758917910514274 -0.013482204370307132 0 -0.00042793233281712559 -0.012537529764097392 0 -0.0014891623747329459 -0.013322741656012641 0 -0.00051453955694903133 -0.01162130560694789 0 -0.0016758917910514274 -0.013482204370307132 0 -0.00042793233281712559 -0.012537529764097392 0 -0.00042793233281712559 -0.012537529764097392 0 -3.1252185460620747e-06 -0.01381587307410807 0 -0.0014891623747329459 -0.013322741656012641 0 1.0900556738603724e-06 -0.012158423154102753 0 -0.00042793233281712559 -0.012537529764097392 0 -3.1252185460620747e-06 -0.01381587307410807 0 -5.917684132207105e-07 -0.013820249595536599 0 -4.8483267654874599e-05 -0.015811812017659025 0 2.2779109279570452e-07 -0.015459020536274974 0 -1.2906360261586006e-07 -0.013819540586381487 0 -0.0006013075058154384 -0.014507483023625499 0 -4.8483267654874599e-05 -0.015811812017659025 0 2.2779109279570452e-07 -0.015459020536274974 0 8.7901828816562715e-05 -0.016265101623383956 0 2.2779109279570452e-07 -0.015459020536274974 0 8.7901828816562715e-05 -0.016265101623383956 0 4.5015226157533775e-07 -0.017098296182774506 0 -4.8483267654874599e-05 -0.015811812017659025 0 8.7901828816562715e-05 -0.016265101623383956 0 9.4298101774039944e-05 -0.016490203732762079 0 -0.0014891623747329459 -0.013322741656012641 0 -0.00054864363520361467 -0.015578579920426456 0 0.00050739899992014587 -0.014791670716550106 0 -0.0006013075058154384 -0.014507483023625499 0 -5.7877099912047909e-05 -0.016325690819166665 0 -0.00033904422895554288 -0.016005842815590043 0 -5.7877099912047909e-05 -0.016325690819166665 0 -4.1950690122052403e-05 -0.017940965940831156 0 -4.0986901984045089e-05 -0.017619601884605991 0 -1.3506289648392037e-05 -0.018453093877084555 0 -9.2710819506954523e-05 -0.01740008218326955 0 -0.00054864363520361467 -0.015578579920426456 0 -4.0986901984045089e-05 -0.017619601884605991 0 -9.2710819506954523e-05 -0.01740008218326955 0 -4.1950690122052403e-05 -0.017940965940831156 0 -4.0986901984045089e-05 -0.017619601884605991 0 -0.00054864363520361467 -0.015578579920426456 0 -4.0986901984045089e-05 -0.017619601884605991 0 -8.9624451514767734e-05 -0.017374989778688881 0 6.2212652746152465e-05 -0.016525292381762771 0 -5.7877099912047909e-05 -0.016325690819166665 0 -4.0986901984045089e-05 -0.017619601884605991 0 -0.00010209829846695361 -0.018757687115103797 0 -1.3506289648392037e-05 -0.018453093877084555 0 -4.0986901984045089e-05 -0.017619601884605991 0 7.5544536459560307e-05 -0.01767744387402375 0 -0.00010209829846695361 -0.018757687115103797 0 -5.7877099912047909e-05 -0.016325690819166665 0 -5.6945839329538059e-05 -0.0179268696708096 0 9.4298101774039944e-05 -0.016490203732762079 0 4.5476070915611955e-05 -0.016666763985625971 0 -5.1145695999424509e-05 -0.016998897534991227 0 8.7901828816562715e-05 -0.016265101623383956 0 9.4298101774039944e-05 -0.016490203732762079 0 4.5476070915611955e-05 -0.016666763985625971 0 8.7901828816562715e-05 -0.016265101623383956 0 4.5476070915611955e-05 -0.016666763985625971 0 4.5015226157533775e-07 -0.017098296182774506 0 4.5476070915611955e-05 -0.016666763985625971 0 4.5015226157533775e-07 -0.017098296182774506 0 -5.1145695999424509e-05 -0.016998897534991227 0 -0.00010209829846695361 -0.018757687115103797 0 -2.9486450187991567e-07 -0.018740817383371265 0 -1.8646692597053948e-05 -0.019057009827419733 0 4.5015226157533775e-07 -0.017098296182774506 0 -5.1145695999424509e-05 -0.016998897534991227 0 -7.8096679247632373e-07 -0.018736646230308199 0 -5.6945839329538059e-05 -0.0179268696708096 0 1.4504240771973038e-07 -0.018737540075228359 0 -2.9486450187991567e-07 -0.018740817383371265 0 -1.8646692597053948e-05 -0.019057009827419733 0 0.00017797546475326032 -0.019902926815804294 0 -1.8646692597053948e-05 -0.019057009827419733 0 0.00014706697650441306 -0.019151184800586526 0 0.00017797546475326032 -0.019902926815804294 0 -1.8646692597053948e-05 -0.019057009827419733 0 -1.3506289648392037e-05 -0.018453093877084555 0 0.00014706697650441306 -0.019151184800586526 0 -0.00010209829846695361 -0.018757687115103797 0 -1.8646692597053948e-05 -0.019057009827419733 0 -1.3506289648392037e-05 -0.018453093877084555 0 7.1060627772313951e-05 -0.018381047770332476 0 -1.3506289648392037e-05 -0.018453093877084555 0 0.00014706697650441306 -0.019151184800586526 0 7.1060627772313951e-05 -0.018381047770332476 0 0.00014706697650441306 -0.019151184800586526 0 9.8536096117218995e-05 -0.019020052045180095 0 0.00014706697650441306 -0.019151184800586526 0 0.00024826545051643932 -0.019812224082066981 0 0.00022464430003923361 -0.019518487513218257 0 0.00014706697650441306 -0.019151184800586526 0 0.00024826545051643932 -0.019812224082066981 0 0.00017797546475326032 -0.019902926815804294 0 0.00024826545051643932 -0.019812224082066981 0 0.00022464430003923361 -0.019518487513218257 0 0.00029959969080074072 -0.019943849562212179 0 0.00022464430003923361 -0.019518487513218257 0 9.8536096117218995e-05 -0.019020052045180095 0 6.4149658546485842e-05 -0.019611773872727622 0 0.00014706697650441306 -0.019151184800586526 0 0.00022464430003923361 -0.019518487513218257 0 9.8536096117218995e-05 -0.019020052045180095 0 0.00021593863501892069 -0.02044673206028845 0 0.00010407137185363573 -0.021334429730286739 0 1.6479365514937791e-05 -0.020709993650327406 0 0.00021593863501892069 -0.02044673206028845 0 1.6479365514937791e-05 -0.020709993650327406 0 0.00029959969080074072 -0.019943849562212179 0 0.00024826545051643932 -0.019812224082066981 0 0.00021593863501892069 -0.02044673206028845 0 0.00029959969080074072 -0.019943849562212179 0 0.00024826545051643932 -0.019812224082066981 0 0.00021593863501892069 -0.02044673206028845 0 0.00017797546475326032 -0.019902926815804294 0 0.00021593863501892069 -0.02044673206028845 0 0.00013493229956105501 -0.020663410055369796 0 0.00010407137185363573 -0.021334429730286739 0 0.00013493229956105501 -0.020663410055369796 0 1.1072533457855172e-06 -0.021084359261354234 0 0.00010407137185363573 -0.021334429730286739 0 -2.9486450187991567e-07 -0.018740817383371265 0 0.00017797546475326032 -0.019902926815804294 0 1.1072533457855172e-06 -0.021084359261354234 0 0.00021593863501892069 -0.02044673206028845 0 0.00013493229956105501 -0.020663410055369796 0 0.00017797546475326032 -0.019902926815804294 0 0.00013493229956105501 -0.020663410055369796 0 0.00017797546475326032 -0.019902926815804294 0 1.1072533457855172e-06 -0.021084359261354234 0 1.1072533457855172e-06 -0.021084359261354234 0 -0.00035373118390926616 -0.023968204943346651 0 -2.017326631986955e-06 -0.024327718077813514 0 1.1072533457855172e-06 -0.021084359261354234 0 -0.00035373118390926616 -0.023968204943346651 0 -6.0444690051495263e-06 -0.022227894027369816 0 1.1072533457855172e-06 -0.021084359261354234 0 -6.0444690051495263e-06 -0.022227894027369816 0 0.00010407137185363573 -0.021334429730286739 0 -0.00035373118390926616 -0.023968204943346651 0 -6.0444690051495263e-06 -0.022227894027369816 0 -0.00068433133305999814 -0.021871505717563525 0 -2.017326631986955e-06 -0.024327718077813514 0 -0.00019073374947595816 -0.02593430167455087 0 5.5782374875905153e-06 -0.028088489950260587 0 -0.00019073374947595816 -0.02593430167455087 0 -0.00029750739077514713 -0.027111022980680508 0 5.5782374875905153e-06 -0.028088489950260587 0 -0.00035373118390926616 -0.023968204943346651 0 -2.017326631986955e-06 -0.024327718077813514 0 -0.00019073374947595816 -0.02593430167455087 0 -0.00039409573835367129 -0.02423178239596371 0 -0.00057162498681726989 -0.024022263876468913 0 -0.00019073374947595816 -0.02593430167455087 0 -0.00029750739077514713 -0.027111022980680508 0 -0.00062253431428971578 -0.026773523785244977 0 -0.00035373118390926616 -0.023968204943346651 0 -0.00019073374947595816 -0.02593430167455087 0 -0.00062253431428971578 -0.026773523785244977 0 -0.00053504101361616244 -0.0280188209559919 0 -0.00090364685288741968 -0.02607301993278623 0 -0.00029750739077514713 -0.027111022980680508 0 -0.00033957891507188794 -0.028823807864579064 0 -0.0015681367842262121 -0.029494390259689598 0 -0.00068433133305999814 -0.021871505717563525 0 -6.160451303406418e-05 -0.021542435065786646 0 -0.00027622702288486532 -0.02157060059010233 0 -0.00029750739077514713 -0.027111022980680508 0 -0.00062253431428971578 -0.026773523785244977 0 -0.00054922603406201578 -0.02698703734155446 0 -0.00057162498681726989 -0.024022263876468913 0 -0.00090364685288741968 -0.02607301993278623 0 -6.160451303406418e-05 -0.021542435065786646 0 -0.00027622702288486532 -0.02157060059010233 0 -0.00030828743904219499 -0.021851062444238473 0 -0.0015681367842262121 -0.029494390259689598 0 -0.00062820889678453433 -0.029679401903818865 0 -0.00080461926418281193 -0.03050766807868914 0 -0.00033957891507188794 -0.028823807864579064 0 -0.0015681367842262121 -0.029494390259689598 0 -0.00062820889678453433 -0.029679401903818865 0 0.00010407137185363573 -0.021334429730286739 0 -0.00021189101642184291 -0.021450897706446176 0 1.6479365514937791e-05 -0.020709993650327406 0 -6.0444690051495263e-06 -0.022227894027369816 0 0.00010407137185363573 -0.021334429730286739 0 -0.00021189101642184291 -0.021450897706446176 0 -0.00068433133305999814 -0.021871505717563525 0 -0.00021189101642184291 -0.021450897706446176 0 -0.00027622702288486532 -0.02157060059010233 0 -6.0444690051495263e-06 -0.022227894027369816 0 -0.00068433133305999814 -0.021871505717563525 0 -0.00021189101642184291 -0.021450897706446176 0 -0.00021189101642184291 -0.021450897706446176 0 -0.00027622702288486532 -0.02157060059010233 0 -0.00030828743904219499 -0.021851062444238473 0 -0.00021189101642184291 -0.021450897706446176 0 1.6479365514937791e-05 -0.020709993650327406 0 -0.00030828743904219499 -0.021851062444238473 0 -0.0025465175723219154 -0.022668632734721576 0 -0.0014109925880949855 -0.023228643945568582 0 -0.0032766847307296103 -0.02444773394732094 0 -0.00122308834061926 -0.021635089212355081 0 -0.00026027965940699844 -0.021826219878382819 0 -0.0025465175723219154 -0.022668632734721576 0 -0.0014109925880949855 -0.023228643945568582 0 -0.00030828743904219499 -0.021851062444238473 0 -0.0014109925880949855 -0.023228643945568582 0 -0.00030828743904219499 -0.021851062444238473 0 0.00013667128011100521 -0.022832539817983881 0 -0.0014109925880949855 -0.023228643945568582 0 -0.00060075226871036328 -0.025051137685602218 0 0.00013667128011100521 -0.022832539817983881 0 -0.0014519954783574626 -0.026522191516960954 0 -0.0007934613149830174 -0.024566592989799844 0 -0.0014109925880949855 -0.023228643945568582 0 -0.00060075226871036328 -0.025051137685602218 0 -0.002204187687396953 -0.025470487262338758 0 -0.0014109925880949855 -0.023228643945568582 0 -0.002204187687396953 -0.025470487262338758 0 -0.0032766847307296103 -0.02444773394732094 0 -0.00062820889678453433 -0.029679401903818865 0 -0.00080461926418281193 -0.03050766807868914 0 -0.00030468427090689002 -0.030204525432612556 0 -0.00080461926418281193 -0.03050766807868914 0 -0.00031670678831941754 -0.030643422183471096 0 -0.00030468427090689002 -0.030204525432612556 0 -6.160451303406418e-05 -0.021542435065786646 0 -0.00030828743904219499 -0.021851062444238473 0 0.00013667128011100521 -0.022832539817983881 0 -0.00090364685288741968 -0.02607301993278623 0 -0.00097832382120980406 -0.029018603468908201 0 -0.00090364685288741968 -0.02607301993278623 0 -0.0007934613149830174 -0.024566592989799844 0 -0.0014765209590105136 -0.026154380465655179 0 -0.0011984354522288003 -0.027023424312956023 0 -0.001902449596007836 -0.027014612252829678 0 -0.0021819810868990495 -0.027888155940616943 0 -0.001902449596007836 -0.027014612252829678 0 -0.0016633354057270567 -0.027586488990510426 0 -0.0011984354522288003 -0.027023424312956023 0 -0.001902449596007836 -0.027014612252829678 0 -0.0016633354057270567 -0.027586488990510426 0 -0.0021819810868990495 -0.027888155940616943 0 -0.0016633354057270567 -0.027586488990510426 0 -0.0017733806665873714 -0.028087749487773404 0 -0.00097832382120980406 -0.029018603468908201 0 -0.0005426124555325116 -0.029226940863808851 0 -0.0011984354522288003 -0.027023424312956023 0 -0.0016633354057270567 -0.027586488990510426 0 -0.00082285351119817008 -0.027859509685254098 0 -0.00080461926418281193 -0.03050766807868914 0 -0.00031670678831941754 -0.030643422183471096 0 -0.00015989037681028817 -0.030710345292925215 0 -0.00031670678831941754 -0.030643422183471096 0 -0.00015989037681028817 -0.030710345292925215 0 -0.00019703172116902789 -0.030717317677200359 0 -0.0005426124555325116 -0.029226940863808851 0 -0.00028358658128686988 -0.029806993981436315 0 -0.00082285351119817008 -0.027859509685254098 0 -0.0014122337859397765 -0.028733249703723408 0 -0.0017733806665873714 -0.028087749487773404 0 -0.00082285351119817008 -0.027859509685254098 0 -0.0014122337859397765 -0.028733249703723408 0 -0.00026554752468545788 -0.029841627781686208 0 -0.0016633354057270567 -0.027586488990510426 0 -0.00082285351119817008 -0.027859509685254098 0 -0.0017733806665873714 -0.028087749487773404 0 -0.0014122337859397765 -0.028733249703723408 0 -0.0017733806665873714 -0.028087749487773404 0 -0.0021811031697922998 -0.028138605909120293 0 -0.0014122337859397765 -0.028733249703723408 0 -0.0012035381588582168 -0.029689442659277306 0 -0.0021811031697922998 -0.028138605909120293 0 -0.0012035381588582168 -0.029689442659277306 0 -0.0021811031697922998 -0.028138605909120293 0 -0.0017116119202831796 -0.03107244881109281 0 -0.0012035381588582168 -0.029689442659277306 0 -0.00026554752468545788 -0.029841627781686208 0 -0.00050874498934274412 -0.03066019745120745 0 -0.0014122337859397765 -0.028733249703723408 0 -0.0012035381588582168 -0.029689442659277306 0 -0.00026554752468545788 -0.029841627781686208 0 -0.00060075226871036328 -0.025051137685602218 0 -0.002204187687396953 -0.025470487262338758 0 -0.0019120772644975795 -0.027366545335524829 0 -0.002204187687396953 -0.025470487262338758 0 -0.0019120772644975795 -0.027366545335524829 0 -0.0025215610675239529 -0.026612169751976562 0 -0.0021819810868990495 -0.027888155940616943 0 -0.0017733806665873714 -0.028087749487773404 0 -0.0021811031697922998 -0.028138605909120293 0 -0.0014519954783574626 -0.026522191516960954 0 -0.0018425838571551622 -0.027272523774541112 0 -0.0021819810868990495 -0.027888155940616943 0 -0.0021811031697922998 -0.028138605909120293 0 -0.0019120772644975795 -0.027366545335524829 0 -0.0021811031697922998 -0.028138605909120293 0 -0.0019120772644975795 -0.027366545335524829 0 -0.0020378950087324727 -0.027599134107120116 0 -0.0019120772644975795 -0.027366545335524829 0 -0.0026329907975204008 -0.027260153890705668 0 -0.0020378950087324727 -0.027599134107120116 0 -0.0019120772644975795 -0.027366545335524829 0 -0.0025215610675239529 -0.026612169751976562 0 -0.0026329907975204008 -0.027260153890705668 0 -0.0031819580317017605 -0.025944541460317733 0 -0.0038009987681449087 -0.026435877569083849 0 -0.0026329907975204008 -0.027260153890705668 0 -0.0025215610675239529 -0.026612169751976562 0 -0.0031819580317017605 -0.025944541460317733 0 -0.0026329907975204008 -0.027260153890705668 0 -0.0031819580317017605 -0.025944541460317733 0 -0.003903795566671643 -0.025528859863586453 0 -0.0032766847307296103 -0.02444773394732094 0 -0.002204187687396953 -0.025470487262338758 0 -0.0031819580317017605 -0.025944541460317733 0 -0.0032766847307296103 -0.02444773394732094 0 -0.002204187687396953 -0.025470487262338758 0 -0.0025215610675239529 -0.026612169751976562 0 -0.0031819580317017605 -0.025944541460317733 0 -0.003903795566671643 -0.025528859863586453 0 -0.0045777592336987234 -0.025721667576709305 0 -0.0045126314674683744 -0.024872764623349568 0 -0.0031819580317017605 -0.025944541460317733 0 -0.003903795566671643 -0.025528859863586453 0 -0.0038009987681449087 -0.026435877569083849 0 -0.003903795566671643 -0.025528859863586453 0 -0.0038009987681449087 -0.026435877569083849 0 -0.0045777592336987234 -0.025721667576709305 0 -0.0038009987681449087 -0.026435877569083849 0 -0.0051985887017666939 -0.026487074771227075 0 -0.003570838137663364 -0.027637700471531218 0 -0.0038009987681449087 -0.026435877569083849 0 -0.0051985887017666939 -0.026487074771227075 0 -0.0045777592336987234 -0.025721667576709305 0 -0.0052739999901929464 -0.024184968191583198 0 -0.0050482710151019232 -0.025863267987886147 0 -0.0068082050607481629 -0.020641890505568482 0 -0.0070268027402866267 -0.022093342366307583 0 -0.0086950456626319981 -0.020573039058092969 0 -0.0068082050607481629 -0.020641890505568482 0 -0.0086950456626319981 -0.020573039058092969 0 -0.0075004361832419235 -0.019323786982731486 0 -0.0055891515472637418 -0.024820508890431508 0 -0.0050143667804095444 -0.025031118508158604 0 -0.0053028774196775177 -0.024509564509072983 0 -0.0066068639409099803 -0.023229627387834833 0 -0.0052739999901929464 -0.024184968191583198 0 -0.0055891515472637418 -0.024820508890431508 0 -0.0049602343030682519 -0.025948780374807866 0 -0.0050143667804095444 -0.025031118508158604 0 -0.0050143667804095444 -0.025031118508158604 0 -0.0045777592336987234 -0.025721667576709305 0 -0.0045126314674683744 -0.024872764623349568 0 -0.0049602343030682519 -0.025948780374807866 0 -0.0050143667804095444 -0.025031118508158604 0 -0.0045777592336987234 -0.025721667576709305 0 -0.0045126314674683744 -0.024872764623349568 0 -0.0054370518158792054 -0.024020820934673462 0 -0.0044255877484807452 -0.023093761293637154 0 -0.0050143667804095444 -0.025031118508158604 0 -0.0045126314674683744 -0.024872764623349568 0 -0.0049465542152357387 -0.024407513992603547 0 -0.0046809812408102076 -0.024705380845866484 0 -0.0049133957340107897 -0.024480854028022386 0 -0.0050143667804095444 -0.025031118508158604 0 -0.0049465542152357387 -0.024407513992603547 0 -0.0053028774196775177 -0.024509564509072983 0 -0.0049465542152357387 -0.024407513992603547 0 -0.0053028774196775177 -0.024509564509072983 0 -0.0053167333029175414 -0.02414691642678669 0 -0.0054560709610365458 -0.024273474474392473 0 -0.0053028774196775177 -0.024509564509072983 0 -0.0053167333029175414 -0.02414691642678669 0 -0.0049133957340107897 -0.024480854028022386 0 -0.0038952165044317155 -0.018586907381185229 0 -0.0038952165044317155 -0.018586907381185229 0 -0.0018770213867405517 -0.021907579330957067 0 -0.0054370518158792054 -0.024020820934673462 0 -0.0062549026347833905 -0.023232587720888376 0 -0.0044255877484807452 -0.023093761293637154 0 0.00022464430003923361 -0.019518487513218257 0 6.4149658546485842e-05 -0.019611773872727622 0 0.00029959969080074072 -0.019943849562212179 0 -0.00122308834061926 -0.021635089212355081 0 -0.0018770213867405517 -0.021907579330957067 0 -0.0025465175723219154 -0.022668632734721576 0 -0.0044255877484807452 -0.023093761293637154 0 -0.0032766847307296103 -0.02444773394732094 0 -0.003903795566671643 -0.025528859863586453 0 -0.0045126314674683744 -0.024872764623349568 0 -0.0032766847307296103 -0.02444773394732094 0 -0.0045126314674683744 -0.024872764623349568 0 -0.0044255877484807452 -0.023093761293637154 0 -0.0032766847307296103 -0.02444773394732094 0 3.8372132365586749e-07 -0.034998530764113953 0 0.00019521722948593779 -0.03281704352193518 0 4.2605468395689135e-07 -0.028810723627995354 0 0.00021323999571424171 -0.033917445505288607 0 1.7306396766279259e-07 -0.034998293199327568 0 0.00019521722948593779 -0.03281704352193518 0 0.00021323999571424171 -0.033917445505288607 0 1.7306396766279259e-07 -0.034998293199327568 0 0.00023361413591723424 -0.034015204709653059 0 0.00021323999571424171 -0.033917445505288607 0 0.00014157778159983706 -0.033614399216951724 0 0.00023361413591723424 -0.034015204709653059 0 0.0005008236986184146 -0.032822923388085866 0 0.00025069578398696947 -0.033751305168521116 0 1.7306396766279259e-07 -0.034998293199327568 0 3.8372132365586749e-07 -0.034998530764113953 0 0.00019521722948593779 -0.03281704352193518 0 0.00019521722948593779 -0.03281704352193518 0 0.00014157778159983706 -0.033614399216951724 0 -7.505752835079753e-05 -0.03234840575616383 0 0.00021323999571424171 -0.033917445505288607 0 0.00019521722948593779 -0.03281704352193518 0 0.00014157778159983706 -0.033614399216951724 0 0.0010032345344356537 -0.032042326359259937 0 0.0010389136001424926 -0.030547274839394543 0 0.00091909634830021289 -0.031855217240113441 0 0.0005008236986184146 -0.032822923388085866 0 0.00049317658711945755 -0.031438455629801805 0 -2.017326631986955e-06 -0.024327718077813514 0 4.2605468395689135e-07 -0.028810723627995354 0 5.5782374875905153e-06 -0.028088489950260587 0 0.00019521722948593779 -0.03281704352193518 0 -7.505752835079753e-05 -0.03234840575616383 0 -0.00021527526224109962 -0.030458776113743521 0 0.00068647359331987267 -0.030242469205936654 0 0.0010389136001424926 -0.030547274839394543 0 0.00074217483267472936 -0.031129956534953197 0 0.0010389136001424926 -0.030547274839394543 0 0.00074217483267472936 -0.031129956534953197 0 0.00091909634830021289 -0.031855217240113441 0 0.00068647359331987267 -0.030242469205936654 0 0.00029121948169116217 -0.030464113208435502 0 0.00074217483267472936 -0.031129956534953197 0 0.00068647359331987267 -0.030242469205936654 0 0.00036772749132076016 -0.029616371713501052 0 0.00029121948169116217 -0.030464113208435502 0 0.00068647359331987267 -0.030242469205936654 0 0.00068423665374396257 -0.029157571258434871 0 0.00036772749132076016 -0.029616371713501052 0 0.00068647359331987267 -0.030242469205936654 0 0.0010389136001424926 -0.030547274839394543 0 0.00068423665374396257 -0.029157571258434871 0 0.00049317658711945755 -0.031438455629801805 0 0.00028749926857318076 -0.029798270206023356 0 0.00019521722948593779 -0.03281704352193518 0 4.2605468395689135e-07 -0.028810723627995354 0 -0.00021527526224109962 -0.030458776113743521 0 4.2605468395689135e-07 -0.028810723627995354 0 -0.00021527526224109962 -0.030458776113743521 0 5.5782374875905153e-06 -0.028088489950260587 0 0.00028749926857318076 -0.029798270206023356 0 3.1272601258114514e-06 -0.02840184458751889 0 0.00068423665374396257 -0.029157571258434871 0 5.5782374875905153e-06 -0.028088489950260587 0 4.5293129995183849e-05 -0.028553163041391796 0 -0.00029750739077514713 -0.027111022980680508 0 5.5782374875905153e-06 -0.028088489950260587 0 4.5293129995183849e-05 -0.028553163041391796 0 -0.00029750739077514713 -0.027111022980680508 0 -0.00033957891507188794 -0.028823807864579064 0 4.5293129995183849e-05 -0.028553163041391796 0 -0.00033957891507188794 -0.028823807864579064 0 4.5293129995183849e-05 -0.028553163041391796 0 -5.4319591084138896e-05 -0.029496556104265038 0 0.00068423665374396257 -0.029157571258434871 0 4.5293129995183849e-05 -0.028553163041391796 0 0.00036772749132076016 -0.029616371713501052 0 4.5293129995183849e-05 -0.028553163041391796 0 0.00036772749132076016 -0.029616371713501052 0 -5.4319591084138896e-05 -0.029496556104265038 0 0.00036772749132076016 -0.029616371713501052 0 -5.4319591084138896e-05 -0.029496556104265038 0 0.00029121948169116217 -0.030464113208435502 0 -5.4319591084138896e-05 -0.029496556104265038 0 -0.00030468427090689002 -0.030204525432612556 0 0.00029121948169116217 -0.030464113208435502 0 -0.00062820889678453433 -0.029679401903818865 0 -5.4319591084138896e-05 -0.029496556104265038 0 -0.00030468427090689002 -0.030204525432612556 0 -0.00033957891507188794 -0.028823807864579064 0 -0.00062820889678453433 -0.029679401903818865 0 -5.4319591084138896e-05 -0.029496556104265038 0 -0.00030468427090689002 -0.030204525432612556 0 0.00029121948169116217 -0.030464113208435502 0 -9.7068265914323953e-05 -0.030691655909267077 0 -0.00031670678831941754 -0.030643422183471096 0 -0.00030468427090689002 -0.030204525432612556 0 -9.7068265914323953e-05 -0.030691655909267077 0 0.00029121948169116217 -0.030464113208435502 0 0.00017258699974036909 -0.030850105517065844 0 0.00050962520932230611 -0.031236393944570451 0 0.00029121948169116217 -0.030464113208435502 0 0.00017258699974036909 -0.030850105517065844 0 -9.7068265914323953e-05 -0.030691655909267077 0 0.00017258699974036909 -0.030850105517065844 0 4.1446691967553036e-05 -0.030935939349222261 0 -9.7068265914323953e-05 -0.030691655909267077 0 0.00017258699974036909 -0.030850105517065844 0 4.1446691967553036e-05 -0.030935939349222261 0 0.00050962520932230611 -0.031236393944570451 0 4.1446691967553036e-05 -0.030935939349222261 0 -9.7068265914323953e-05 -0.030691655909267077 0 -0.00019703172116902789 -0.030717317677200359 0 -0.00031670678831941754 -0.030643422183471096 0 -9.7068265914323953e-05 -0.030691655909267077 0 -0.00019703172116902789 -0.030717317677200359 0 -0.00015989037681028817 -0.030710345292925215 0 -0.00024513521176080388 -0.030437642543359664 0 -0.00026554752468545788 -0.029841627781686208 0 -0.00015989037681028817 -0.030710345292925215 0 -0.00019703172116902789 -0.030717317677200359 0 -0.00024513521176080388 -0.030437642543359664 0 4.1446691967553036e-05 -0.030935939349222261 0 -0.00019703172116902789 -0.030717317677200359 0 -0.00024513521176080388 -0.030437642543359664 0 5.4230723577178488e-05 -0.030364515625973837 0 -0.00026554752468545788 -0.029841627781686208 0 -0.00050874498934274412 -0.03066019745120745 0 -0.00024513521176080388 -0.030437642543359664 0 5.4230723577178488e-05 -0.030364515625973837 0 -0.00026554752468545788 -0.029841627781686208 0 -0.00024513521176080388 -0.030437642543359664 0 5.4230723577178488e-05 -0.030364515625973837 0 0.00061908096927504048 -0.03007355257425354 0 5.4230723577178488e-05 -0.030364515625973837 0 0.00061908096927504048 -0.03007355257425354 0 0.0010041944000847873 -0.031025757869928925 0 4.1446691967553036e-05 -0.030935939349222261 0 -0.00024513521176080388 -0.030437642543359664 0 0.0003110316316033732 -0.031560449643769022 0 -0.00012126681100864741 -0.030504897940417133 0 0.00049259580046720323 -0.030834142751999555 0 4.1446691967553036e-05 -0.030935939349222261 0 0.0003110316316033732 -0.031560449643769022 0 0.00050962520932230611 -0.031236393944570451 0 0.0003110316316033732 -0.031560449643769022 0 0.00079613355756715681 -0.031777436452736653 0 0.00050962520932230611 -0.031236393944570451 0 0.00061908096927504048 -0.03007355257425354 0 0.0018353191175897337 -0.030418355996362632 0 0.0010041944000847873 -0.031025757869928925 0 0.00049259580046720323 -0.030834142751999555 0 0.0013883609587755218 -0.031063322360956963 0 0.00078433668693635931 -0.031951053827658851 0 0.00079613355756715681 -0.031777436452736653 0 0.00085729867800302291 -0.03196009405844253 0 0.0003110316316033732 -0.031560449643769022 0 0.00078433668693635931 -0.031951053827658851 0 0.00079613355756715681 -0.031777436452736653 0 0.00050962520932230611 -0.031236393944570451 0 0.00074217483267472936 -0.031129956534953197 0 0.00088239559002512827 -0.031925921985650529 0 0.00079613355756715681 -0.031777436452736653 0 0.00050962520932230611 -0.031236393944570451 0 0.00088239559002512827 -0.031925921985650529 0 0.00029121948169116217 -0.030464113208435502 0 0.00050962520932230611 -0.031236393944570451 0 0.00074217483267472936 -0.031129956534953197 0 0.00074217483267472936 -0.031129956534953197 0 0.00091909634830021289 -0.031855217240113441 0 0.00088239559002512827 -0.031925921985650529 0 0.0010032345344356537 -0.032042326359259937 0 0.00091909634830021289 -0.031855217240113441 0 0.00073158659011031044 -0.032918768698448626 0 0.00091909634830021289 -0.031855217240113441 0 0.00073158659011031044 -0.032918768698448626 0 0.00084337034037702287 -0.03255040975854287 0 0.0010032345344356537 -0.032042326359259937 0 0.00073158659011031044 -0.032918768698448626 0 0.00023361413591723424 -0.034015204709653059 0 0.00084337034037702287 -0.03255040975854287 0 0.00070714896224295524 -0.032498578755282496 0 0.00012725698305218145 -0.033935140265573788 0 0.00073158659011031044 -0.032918768698448626 0 0.00084337034037702287 -0.03255040975854287 0 0.00012725698305218145 -0.033935140265573788 0 0.00084337034037702287 -0.03255040975854287 0 0.00087421704715612151 -0.032176945836655584 0 0.00070714896224295524 -0.032498578755282496 0 0.00084337034037702287 -0.03255040975854287 0 0.00088239559002512827 -0.031925921985650529 0 0.00087421704715612151 -0.032176945836655584 0 0.00091909634830021289 -0.031855217240113441 0 0.00084337034037702287 -0.03255040975854287 0 0.00088239559002512827 -0.031925921985650529 0 0.00079613355756715681 -0.031777436452736653 0 0.00088239559002512827 -0.031925921985650529 0 0.00087421704715612151 -0.032176945836655584 0 0.00079613355756715681 -0.031777436452736653 0 0.00087421704715612151 -0.032176945836655584 0 0.00085729867800302291 -0.03196009405844253 0 0.00087421704715612151 -0.032176945836655584 0 0.00085729867800302291 -0.03196009405844253 0 0.00077633568175189437 -0.03205998389037587 0 0.00078433668693635931 -0.031951053827658851 0 0.00085729867800302291 -0.03196009405844253 0 0.00082873370056620662 -0.031933843148945672 0 0.00078433668693635931 -0.031951053827658851 0 0.00082873370056620662 -0.031933843148945672 0 0.00081236877791015605 -0.031889461374727035 0 0.0013883609587755218 -0.031063322360956963 0 0.0012259041899737194 -0.032487708512817313 0 0.00085729867800302291 -0.03196009405844253 0 0.00082873370056620662 -0.031933843148945672 0 0.00077633568175189437 -0.03205998389037587 0 0.00070918254586308167 -0.031872142412194826 0 0.00077633568175189437 -0.03205998389037587 0 0.00038184863912240019 -0.032186968263262783 0 0.00014007076474305488 -0.033843738467489289 0 0.00017228206164308289 -0.033270155755520475 0 0.00082873370056620662 -0.031933843148945672 0 0.00070918254586308167 -0.031872142412194826 0 0.00081236877791015605 -0.031889461374727035 0 0.00014007076474305488 -0.033843738467489289 0 0.0012259041899737194 -0.032487708512817313 0 0.00082873370056620662 -0.031933843148945672 0 0.00070918254586308167 -0.031872142412194826 0 0.00077633568175189437 -0.03205998389037587 0 0.00087421704715612151 -0.032176945836655584 0 0.00077633568175189437 -0.03205998389037587 0 0.00070714896224295524 -0.032498578755282496 0 0.00077633568175189437 -0.03205998389037587 0 0.00070714896224295524 -0.032498578755282496 0 0.00038184863912240019 -0.032186968263262783 0 0.00070714896224295524 -0.032498578755282496 0 0.00038184863912240019 -0.032186968263262783 0 0.00012725698305218145 -0.033935140265573788 0 3.9333538960551445e-05 -0.034540920316666376 0 -0.00017781603111958233 -0.034437844859865119 0 0.00012725698305218145 -0.033935140265573788 0 -0.00036775148527066706 -0.034812666390400711 0 3.9333538960551445e-05 -0.034540920316666376 0 -0.00017781603111958233 -0.034437844859865119 0 1.6244314780410558e-05 -0.034987729573090424 0 4.2768642797619894e-06 -0.034999167288776077 0 5.5663768702593233e-06 -0.034994255675276698 0 0.00014007076474305488 -0.033843738467489289 0 -7.4834367906293059e-05 -0.034939977616353722 0 4.2768642797619894e-06 -0.034999167288776077 0 5.5663768702593233e-06 -0.034994255675276698 0 1.1698272440198236e-09 -0.034999993272892306 0 3.9333538960551445e-05 -0.034540920316666376 0 6.513326685399809e-07 -0.034995576599463792 0 0.00012725698305218145 -0.033935140265573788 0 -7.4834367906293059e-05 -0.034939977616353722 0 2.3403614906967407e-07 -0.034999693250596868 0 4.2768642797619894e-06 -0.034999167288776077 0 1.1698272440198236e-09 -0.034999993272892306 0 1.186776178397599e-09 -0.035000005711876184 0 6.513326685399809e-07 -0.034995576599463792 0 0.00012725698305218145 -0.033935140265573788 0 0.00023361413591723424 -0.034015204709653059 0 1.7306396766279259e-07 -0.034998293199327568 0 6.513326685399809e-07 -0.034995576599463792 0 0.00023361413591723424 -0.034015204709653059 0 0.00017228206164308289 -0.033270155755520475 0 8.0140650649900062e-05 -0.033841700042041588 0 0.00073158659011031044 -0.032918768698448626 0 0.00012725698305218145 -0.033935140265573788 0 0.00023361413591723424 -0.034015204709653059 0 2.96746711998502e-05 -0.034928437390480467 0 1.9551180335749347e-08 -0.03499989156393174 0 2.664040499300043e-08 -0.034999876367083495 0 2.96746711998502e-05 -0.034928437390480467 0 3.2804847427044701e-05 -0.034933685888042069 0 8.2992158254420318e-05 -0.034817561524387003 0 3.2804847427044701e-05 -0.034933685888042069 0 1.9551180335749347e-08 -0.03499989156393174 0 -1.3137280011570738e-08 -0.034999992105247138 0 2.96746711998502e-05 -0.034928437390480467 0 3.2804847427044701e-05 -0.034933685888042069 0 1.9551180335749347e-08 -0.03499989156393174 0 1.194334872164602e-08 -0.034999968798998318 0 -8.6857454343617804e-06 -0.035070819120763909 0 3.2804847427044701e-05 -0.034933685888042069 0 -1.3137280011570738e-08 -0.034999992105247138 0 3.5096505048216265e-05 -0.03498925046662725 0 1.1698272440198236e-09 -0.034999993272892306 0 3.0871663047553462e-09 -0.034999987110828676 0 5.5726163149181442e-06 -0.034990708996835547 0 5.5663768702593233e-06 -0.034994255675276698 0 1.1698272440198236e-09 -0.034999993272892306 0 5.5726163149181442e-06 -0.034990708996835547 0 1.6244314780410558e-05 -0.034987729573090424 0 5.5663768702593233e-06 -0.034994255675276698 0 5.5726163149181442e-06 -0.034990708996835547 0 3.2804847427044701e-05 -0.034933685888042069 0 3.5096505048216265e-05 -0.03498925046662725 0 8.3027153513737112e-05 -0.034940606955932756 0 8.3027153513737112e-05 -0.034940606955932756 0 0.00011691911365617643 -0.035021843163135336 0 0.00019323732863939548 -0.034898334361610821 0 8.3027153513737112e-05 -0.034940606955932756 0 0.00019323732863939548 -0.034898334361610821 0 0.00010447552276436402 -0.034831144442523401 0 1.6244314780410558e-05 -0.034987729573090424 0 5.5726163149181442e-06 -0.034990708996835547 0 1.9516736371376142e-05 -0.034981989015810164 0 3.5096505048216265e-05 -0.03498925046662725 0 8.3027153513737112e-05 -0.034940606955932756 0 0.00011691911365617643 -0.035021843163135336 0 -8.6857454343617804e-06 -0.035070819120763909 0 0.00043826690100937852 -0.033989656934485815 0 0.00013791322625604036 -0.03365663308299368 0 0.000448582914553459 -0.033053607004295223 0 0.00077778721649301693 -0.033169966175237313 0 0.00014007076474305488 -0.033843738467489289 0 0.00043826690100937852 -0.033989656934485815 0 0.00043826690100937852 -0.033989656934485815 0 0.0012259041899737194 -0.032487708512817313 0 0.0012259041899737194 -0.032487708512817313 0 0.0012739271305101589 -0.032593760325438557 0 0.00073038950678971492 -0.033461472559929165 0 0.00059652274055445906 -0.033693426875477446 0 0.00030073672784889852 -0.033800292291955483 0 0.0018353191175897337 -0.030418355996362632 0 0.0028866125141529904 -0.03082381495440846 0 0.0019839306143142367 -0.031544071417610377 0 0.00082282475643622442 -0.03349963232546168 0 0.00073038950678971492 -0.033461472559929165 0 0.00059652274055445906 -0.033693426875477446 0 0.00043826690100937852 -0.033989656934485815 0 0.00036190087877939486 -0.034494484091901291 0 0.00059652274055445906 -0.033693426875477446 0 0.00056498015392914057 -0.033987188020698486 0 0.00030073672784889852 -0.033800292291955483 0 0.00082282475643622442 -0.03349963232546168 0 0.00059652274055445906 -0.033693426875477446 0 0.00056498015392914057 -0.033987188020698486 0 0.00036190087877939486 -0.034494484091901291 0 0.0002545155326045074 -0.034488678050549559 0 8.2992158254420318e-05 -0.034817561524387003 0 0.00023022231403361682 -0.034502448491960519 0 0.00012532731648879031 -0.034752693385709667 0 0.00019323732863939548 -0.034898334361610821 0 0.00010447552276436402 -0.034831144442523401 0 0.00023022231403361682 -0.034502448491960519 0 0.00010447552276436402 -0.034831144442523401 0 8.2992158254420318e-05 -0.034817561524387003 0 0.00023022231403361682 -0.034502448491960519 0 3.2804847427044701e-05 -0.034933685888042069 0 0.00010447552276436402 -0.034831144442523401 0 8.2992158254420318e-05 -0.034817561524387003 0 3.2804847427044701e-05 -0.034933685888042069 0 8.3027153513737112e-05 -0.034940606955932756 0 0.00010447552276436402 -0.034831144442523401 0 0.00023022231403361682 -0.034502448491960519 0 -2.6316576162086896e-06 -0.034041725786985617 0 5.6230339331866536e-05 -0.034382753855036509 0 -2.6316576162086896e-06 -0.034041725786985617 0 -5.5787366317826834e-05 -0.034218236375613796 0 5.6230339331866536e-05 -0.034382753855036509 0 0.00056498015392914057 -0.033987188020698486 0 0.00023022231403361682 -0.034502448491960519 0 0.0002451561631670902 -0.034109769412151908 0 0.00023022231403361682 -0.034502448491960519 0 -2.6316576162086896e-06 -0.034041725786985617 0 0.0002451561631670902 -0.034109769412151908 0 0.00056498015392914057 -0.033987188020698486 0 0.0002451561631670902 -0.034109769412151908 0 0.00030073672784889852 -0.033800292291955483 0 -2.6316576162086896e-06 -0.034041725786985617 0 0.0002451561631670902 -0.034109769412151908 0 0.00030073672784889852 -0.033800292291955483 0 0.0018353191175897337 -0.030418355996362632 0 0.0019839306143142367 -0.031544071417610377 0 0.0010041944000847873 -0.031025757869928925 0 0.001125870303537923 -0.032420177554872733 0 0.0019839306143142367 -0.031544071417610377 0 0.0010041944000847873 -0.031025757869928925 0 0.00050008822715661469 -0.033262457350268532 0 0.0012739271305101589 -0.032593760325438557 0 0.001125870303537923 -0.032420177554872733 0 0.00014496433828109937 -0.031426386063615482 0 -0.00013600885857297716 -0.032439562580893061 0 0.001125870303537923 -0.032420177554872733 0 0.0010041944000847873 -0.031025757869928925 0 0.00014496433828109937 -0.031426386063615482 0 5.4230723577178488e-05 -0.030364515625973837 0 0.0010041944000847873 -0.031025757869928925 0 0.00014496433828109937 -0.031426386063615482 0 5.4230723577178488e-05 -0.030364515625973837 0 0.00014496433828109937 -0.031426386063615482 0 -0.00050874498934274412 -0.03066019745120745 0 0.00014496433828109937 -0.031426386063615482 0 -0.00050874498934274412 -0.03066019745120745 0 -0.00062363621532606265 -0.031688684117397212 0 0.00014496433828109937 -0.031426386063615482 0 -0.00062363621532606265 -0.031688684117397212 0 -0.00013600885857297716 -0.032439562580893061 0 -0.00062363621532606265 -0.031688684117397212 0 -0.00013600885857297716 -0.032439562580893061 0 -0.0010701795956785812 -0.03286881106269688 0 -0.00013600885857297716 -0.032439562580893061 0 -0.00016684204756443676 -0.033766048510736626 0 -0.0010701795956785812 -0.03286881106269688 0 0.00050008822715661469 -0.033262457350268532 0 -0.00013655996476018959 -0.03375004864402565 0 0.001125870303537923 -0.032420177554872733 0 -0.00013600885857297716 -0.032439562580893061 0 -0.00016684204756443676 -0.033766048510736626 0 -2.6316576162086896e-06 -0.034041725786985617 0 -5.5787366317826834e-05 -0.034218236375613796 0 -0.00016684204756443676 -0.033766048510736626 0 -5.5787366317826834e-05 -0.034218236375613796 0 -0.00016684204756443676 -0.033766048510736626 0 -0.00031629984948752804 -0.034332713653956071 0 -0.0022394664311778593 -0.027025982586813026 0 -0.0023482466808987961 -0.027371457069416495 0 -0.0022609284251677744 -0.027050003106741237 0 -0.0012389869881736511 -0.030736202495992633 0 -0.0016979297963231319 -0.030116516687218684 0 -0.00016684204756443676 -0.033766048510736626 0 -0.00031629984948752804 -0.034332713653956071 0 -0.0010701795956785812 -0.03286881106269688 0 -0.0022394664311778593 -0.027025982586813026 0 -0.0021186293850893817 -0.027097161220575254 0 -0.0022030305338657241 -0.027008094276017004 0 -0.0022394664311778593 -0.027025982586813026 0 -0.0022609284251677744 -0.027050003106741237 0 -0.0022030305338657241 -0.027008094276017004 0 -5.5787366317826834e-05 -0.034218236375613796 0 -8.2927188850010161e-05 -0.034669762446523533 0 5.6230339331866536e-05 -0.034382753855036509 0 -0.0012389869881736511 -0.030736202495992633 0 -0.0012074664974753078 -0.030667599339454045 0 -5.5787366317826834e-05 -0.034218236375613796 0 -0.00031629984948752804 -0.034332713653956071 0 -8.2927188850010161e-05 -0.034669762446523533 0 -0.0022394664311778593 -0.027025982586813026 0 -0.0019766640326290504 -0.027116756131800226 0 -0.0021186293850893817 -0.027097161220575254 0 -0.0021186293850893817 -0.027097161220575254 0 -0.0022030305338657241 -0.027008094276017004 0 -0.0021726186341600902 -0.027081179220750411 0 -0.0021186293850893817 -0.027097161220575254 0 -0.0020806703429990378 -0.027201330325275726 0 -0.002144512238999224 -0.02718001635833486 0 -0.0021186293850893817 -0.027097161220575254 0 -0.0021726186341600902 -0.027081179220750411 0 -0.002144512238999224 -0.02718001635833486 0 -0.0021186293850893817 -0.027097161220575254 0 -0.0020806703429990378 -0.027201330325275726 0 -0.0020059250045556848 -0.027208271872293965 0 -0.0020806703429990378 -0.027201330325275726 0 -0.0020707795076431055 -0.027269773888017025 0 -0.001999518657992725 -0.027278268907827339 0 -0.0020806703429990378 -0.027201330325275726 0 -0.0020707795076431055 -0.027269773888017025 0 -0.002144512238999224 -0.02718001635833486 0 -0.0020707795076431055 -0.027269773888017025 0 -0.0019940686014842763 -0.027347386204923912 0 -0.0021770972024503215 -0.02728905327539561 0 -0.00039967796002160662 -0.029763335073031971 0 -0.00097216059025748104 -0.028670354866966164 0 -0.0020707795076431055 -0.027269773888017025 0 -0.002144512238999224 -0.02718001635833486 0 -0.0021770972024503215 -0.02728905327539561 0 0.00079860510448333147 -0.030214176074336418 0 0.00085191588250092972 -0.030113018895491634 0 0.00037534075265221556 -0.030140461109137807 0 -0.0019918952342919639 -0.027361815025867337 0 -0.0019957498154046754 -0.027335792695607847 0 -0.0017720345247943254 -0.027378072787378974 0 -0.0019957498154046754 -0.027335792695607847 0 -0.001999518657992725 -0.027278268907827339 0 -0.0017720345247943254 -0.027378072787378974 0 -0.00039967796002160662 -0.029763335073031971 0 -3.6998321563227076e-05 -0.032057585069099982 0 -0.0020707795076431055 -0.027269773888017025 0 -0.0019940686014842763 -0.027347386204923912 0 -0.0019957498154046754 -0.027335792695607847 0 -0.0020707795076431055 -0.027269773888017025 0 -0.0019957498154046754 -0.027335792695607847 0 -0.001999518657992725 -0.027278268907827339 0 -0.00039967796002160662 -0.029763335073031971 0 -0.00050016939962445155 -0.029365567621704846 0 -0.001999518657992725 -0.027278268907827339 0 -0.0020059250045556848 -0.027208271872293965 0 -0.0017720345247943254 -0.027378072787378974 0 -0.0019766640326290504 -0.027116756131800226 0 -0.0020059250045556848 -0.027208271872293965 0 -0.0017720345247943254 -0.027378072787378974 0 -0.0019766640326290504 -0.027116756131800226 0 -0.0021186293850893817 -0.027097161220575254 0 -0.0020059250045556848 -0.027208271872293965 0 -0.0020806703429990378 -0.027201330325275726 0 -0.001999518657992725 -0.027278268907827339 0 -0.0020059250045556848 -0.027208271872293965 0 -0.0012074664974753078 -0.030667599339454045 0 -3.6998321563227076e-05 -0.032057585069099982 0 -8.2927188850010161e-05 -0.034669762446523533 0 5.6563950871918686e-05 -0.034726100383075387 0 1.5131336475634789e-05 -0.0348149865602334 0 0.00092374322683208521 -0.0322085564108196 0 0.0008413375125360487 -0.03222927587535937 0 0.00087178406781959468 -0.032180121932145769 0 -3.6998321563227076e-05 -0.032057585069099982 0 0.00055684030364175515 -0.033722089049825897 0 0.0008413375125360487 -0.03222927587535937 0 0.00080695453196860689 -0.032179026870364169 0 0.00087178406781959468 -0.032180121932145769 0 -3.6998321563227076e-05 -0.032057585069099982 0 -3.3211271344057254e-05 -0.034784588490211196 0 7.918521271715881e-05 -0.034820444855339062 0 8.3484131684809733e-05 -0.034849672773705792 0 6.3138442289028391e-05 -0.03485092773360212 0 4.0919424879100827e-05 -0.034805439044386273 0 7.918521271715881e-05 -0.034820444855339062 0 6.3138442289028391e-05 -0.03485092773360212 0 5.6563950871918686e-05 -0.034726100383075387 0 1.5131336475634789e-05 -0.0348149865602334 0 7.918521271715881e-05 -0.034820444855339062 0 5.6563950871918686e-05 -0.034726100383075387 0 7.918521271715881e-05 -0.034820444855339062 0 0.00010757665604662122 -0.0347939837102203 0 5.6563950871918686e-05 -0.034726100383075387 0 0.00013521194225544318 -0.0347102686158118 0 0.00010757665604662122 -0.0347939837102203 0 5.6563950871918686e-05 -0.034726100383075387 0 0.00012025208517312338 -0.034592430045516563 0 0.00013521194225544318 -0.0347102686158118 0 -8.2927188850010161e-05 -0.034669762446523533 0 5.6563950871918686e-05 -0.034726100383075387 0 0.00012025208517312338 -0.034592430045516563 0 -8.2927188850010161e-05 -0.034669762446523533 0 5.6230339331866536e-05 -0.034382753855036509 0 0.00012025208517312338 -0.034592430045516563 0 0.00023022231403361682 -0.034502448491960519 0 0.00012025208517312338 -0.034592430045516563 0 0.00013521194225544318 -0.0347102686158118 0 0.00023022231403361682 -0.034502448491960519 0 5.6230339331866536e-05 -0.034382753855036509 0 0.00012025208517312338 -0.034592430045516563 0 0.00023022231403361682 -0.034502448491960519 0 0.00012532731648879031 -0.034752693385709667 0 0.00013521194225544318 -0.0347102686158118 0 8.2992158254420318e-05 -0.034817561524387003 0 0.00012532731648879031 -0.034752693385709667 0 5.8582657497600835e-05 -0.034893332798968453 0 0.00012532731648879031 -0.034752693385709667 0 0.00010483895216119036 -0.034826544080313222 0 5.8582657497600835e-05 -0.034893332798968453 0 0.00010483895216119036 -0.034826544080313222 0 0.00013521194225544318 -0.0347102686158118 0 0.00010757665604662122 -0.0347939837102203 0 0.00012532731648879031 -0.034752693385709667 0 0.00010483895216119036 -0.034826544080313222 0 0.00013521194225544318 -0.0347102686158118 0 7.918521271715881e-05 -0.034820444855339062 0 0.00010757665604662122 -0.0347939837102203 0 9.5917545643923351e-05 -0.034849639741014099 0 0.00010757665604662122 -0.0347939837102203 0 9.5917545643923351e-05 -0.034849639741014099 0 9.0042050789475289e-05 -0.034875035665099863 0 7.918521271715881e-05 -0.034820444855339062 0 8.3484131684809733e-05 -0.034849672773705792 0 9.5917545643923351e-05 -0.034849639741014099 0 8.3484131684809733e-05 -0.034849672773705792 0 9.5917545643923351e-05 -0.034849639741014099 0 9.1667560811262462e-05 -0.034875016101188483 0 9.5917545643923351e-05 -0.034849639741014099 0 8.6849438914535828e-05 -0.034886887060689632 0 9.1667560811262462e-05 -0.034875016101188483 0 9.5917545643923351e-05 -0.034849639741014099 0 8.6849438914535828e-05 -0.034886887060689632 0 9.0042050789475289e-05 -0.034875035665099863 0 0.00010483895216119036 -0.034826544080313222 0 0.00010757665604662122 -0.0347939837102203 0 9.0042050789475289e-05 -0.034875035665099863 0 0.00010483895216119036 -0.034826544080313222 0 9.0042050789475289e-05 -0.034875035665099863 0 5.3656745557416811e-05 -0.034929205687924722 0 9.0042050789475289e-05 -0.034875035665099863 0 5.3656745557416811e-05 -0.034929205687924722 0 4.9352694517346843e-05 -0.034944206090843588 0 8.6849438914535828e-05 -0.034886887060689632 0 9.0042050789475289e-05 -0.034875035665099863 0 4.9352694517346843e-05 -0.034944206090843588 0 5.3656745557416811e-05 -0.034929205687924722 0 5.0383180269785764e-08 -0.034999952667296191 0 4.9352694517346843e-05 -0.034944206090843588 0 5.3656745557416811e-05 -0.034929205687924722 0 5.0383180269785764e-08 -0.034999952667296191 0 4.2563025861410048e-08 -0.034999885122971849 0 4.2563025861410048e-08 -0.034999885122971849 0 5.8582657497600835e-05 -0.034893332798968453 0 2.664040499300043e-08 -0.034999876367083495 0 5.3656745557416811e-05 -0.034929205687924722 0 4.2563025861410048e-08 -0.034999885122971849 0 5.8582657497600835e-05 -0.034893332798968453 0 0.00010483895216119036 -0.034826544080313222 0 5.3656745557416811e-05 -0.034929205687924722 0 5.8582657497600835e-05 -0.034893332798968453 0 2.96746711998502e-05 -0.034928437390480467 0 8.2992158254420318e-05 -0.034817561524387003 0 5.8582657497600835e-05 -0.034893332798968453 0 2.96746711998502e-05 -0.034928437390480467 0 5.8582657497600835e-05 -0.034893332798968453 0 2.664040499300043e-08 -0.034999876367083495 0 -0.0034682042755488167 -0.025537316236789384 0 -0.0033032634061289706 -0.025756033980824426 0 -0.0031657167006712171 -0.025424071940438761 0 -0.0033032634061289706 -0.025756033980824426 0 -0.0031657167006712171 -0.025424071940438761 0 -0.0030569789096470176 -0.025907166679812962 0 -0.0033032634061289706 -0.025756033980824426 0 -0.0030569789096470176 -0.025907166679812962 0 -0.003312203719139508 -0.026112248034326602 0 -0.0033032634061289706 -0.025756033980824426 0 -0.0034574503866263849 -0.025812192271125228 0 -0.003312203719139508 -0.026112248034326602 0 -0.0034682042755488167 -0.025537316236789384 0 -0.0034574503866263849 -0.025812192271125228 0 -0.0036121214320274432 -0.025467998402284725 0 -0.0034682042755488167 -0.025537316236789384 0 -0.0033032634061289706 -0.025756033980824426 0 -0.0034574503866263849 -0.025812192271125228 0 -0.0036121214320274432 -0.025467998402284725 0 -0.0036501869393705945 -0.025293219323378521 0 -0.00358669536440707 -0.025761734223813951 0 -0.0034574503866263849 -0.025812192271125228 0 -0.0036121214320274432 -0.025467998402284725 0 -0.00358669536440707 -0.025761734223813951 0 -0.0035927799848447825 -0.025224332492922438 0 -0.0036121214320274432 -0.025467998402284725 0 -0.0036501869393705945 -0.025293219323378521 0 -0.0035927799848447825 -0.025224332492922438 0 -0.0036011357778393659 -0.025368301576173907 0 -0.003586958079882299 -0.025337865477970352 0 -0.0035927799848447825 -0.025224332492922438 0 -0.0036121214320274432 -0.025467998402284725 0 -0.0036011357778393659 -0.025368301576173907 0 -0.0034682042755488167 -0.025537316236789384 0 -0.0036121214320274432 -0.025467998402284725 0 -0.0036011357778393659 -0.025368301576173907 0 -0.0036011357778393659 -0.025368301576173907 0 -0.0035752030549602745 -0.025304472958254855 0 -0.00345983540560951 -0.025272601391636867 0 -0.0036011357778393659 -0.025368301576173907 0 -0.003586958079882299 -0.025337865477970352 0 -0.0035752030549602745 -0.025304472958254855 0 -0.003586958079882299 -0.025337865477970352 0 -0.0035988722041209887 -0.025326205809878963 0 -0.0035752030549602745 -0.025304472958254855 0 -0.0035894724650386125 -0.025232524808996317 0 -0.0035988722041209887 -0.025326205809878963 0 -0.0035752030549602745 -0.025304472958254855 0 -0.0052739999901929464 -0.024184968191583198 0 -0.0055911096000060192 -0.022230153730671481 0 -0.0035894724650386125 -0.025232524808996317 0 -0.0035752030549602745 -0.025304472958254855 0 -0.00345983540560951 -0.025272601391636867 0 -0.0052739999901929464 -0.024184968191583198 0 -0.0032792831086815165 -0.026764388671452605 0 -0.0038009987681449087 -0.026435877569083849 0 -0.003570838137663364 -0.027637700471531218 0 -0.0026329907975204008 -0.027260153890705668 0 -0.0034682042755488167 -0.025537316236789384 0 -0.0036011357778393659 -0.025368301576173907 0 -0.00345983540560951 -0.025272601391636867 0 -0.0032792831086815165 -0.026764388671452605 0 -0.0028841697877764879 -0.026555861242182479 0 -0.0034682042755488167 -0.025537316236789384 0 -0.00345983540560951 -0.025272601391636867 0 -0.0031657167006712171 -0.025424071940438761 0 -0.003570838137663364 -0.027637700471531218 0 -0.0024335630215145446 -0.027862470884643827 0 -0.0026329907975204008 -0.027260153890705668 0 -0.0024335630215145446 -0.027862470884643827 0 -0.0026329907975204008 -0.027260153890705668 0 -0.0020378950087324727 -0.027599134107120116 0 -0.0020378950087324727 -0.027599134107120116 0 -0.0021462368004095829 -0.027635409099073922 0 -0.002191336437551985 -0.027483241354717771 0 -0.0024335630215145446 -0.027862470884643827 0 -0.0020378950087324727 -0.027599134107120116 0 -0.0021462368004095829 -0.027635409099073922 0 -0.0012035381588582168 -0.029689442659277306 0 -0.00050874498934274412 -0.03066019745120745 0 -0.0017116119202831796 -0.03107244881109281 0 -0.00050874498934274412 -0.03066019745120745 0 -0.00062363621532606265 -0.031688684117397212 0 -0.0017116119202831796 -0.03107244881109281 0 -0.0021899446399238319 -0.028276986986045742 0 -0.0019661610343556899 -0.029347492890902251 0 -0.0021811031697922998 -0.028138605909120293 0 -0.0020378950087324727 -0.027599134107120116 0 -0.0022965578460671229 -0.027623792249415274 0 -0.0020378950087324727 -0.027599134107120116 0 -0.0022965578460671229 -0.027623792249415274 0 -0.002191336437551985 -0.027483241354717771 0 -0.0019661610343556899 -0.029347492890902251 0 -0.0016979297963231319 -0.030116516687218684 0 -0.0022965578460671229 -0.027623792249415274 0 -0.0023482466808987961 -0.027371457069416495 0 -0.002191336437551985 -0.027483241354717771 0 -0.00062363621532606265 -0.031688684117397212 0 -0.0017116119202831796 -0.03107244881109281 0 -0.0010701795956785812 -0.03286881106269688 0 -0.002191336437551985 -0.027483241354717771 0 -0.0022170141631575112 -0.027247105353081929 0 -0.0020498840435354757 -0.027442985574661054 0 -0.0023482466808987961 -0.027371457069416495 0 -0.002191336437551985 -0.027483241354717771 0 -0.0022170141631575112 -0.027247105353081929 0 -0.0022170141631575112 -0.027247105353081929 0 -0.0020498840435354757 -0.027442985574661054 0 -0.0021867515705527901 -0.026841252549222296 0 -0.0023587305976181805 -0.026690762351165548 0 -0.0022210224639114475 -0.026796395732528115 0 -0.0023482466808987961 -0.027371457069416495 0 -0.0022170141631575112 -0.027247105353081929 0 -0.0022609284251677744 -0.027050003106741237 0 -0.0022170141631575112 -0.027247105353081929 0 -0.0022609284251677744 -0.027050003106741237 0 -0.0021867515705527901 -0.026841252549222296 0 -0.0031657167006712171 -0.025424071940438761 0 -0.002621629722245064 -0.025908054476116493 0 -0.0030569789096470176 -0.025907166679812962 0 -0.0028841697877764879 -0.026555861242182479 0 -0.0023587305976181805 -0.026690762351165548 0 -0.0024335630215145446 -0.027862470884643827 0 -0.0021462368004095829 -0.027635409099073922 0 -0.0020498840435354757 -0.027442985574661054 0 -0.0021462368004095829 -0.027635409099073922 0 -0.002191336437551985 -0.027483241354717771 0 -0.0020498840435354757 -0.027442985574661054 0 -0.002621629722245064 -0.025908054476116493 0 -0.0028243408845651735 -0.026336023259308755 0 -0.0021867515705527901 -0.026841252549222296 0 -0.0030569789096470176 -0.025907166679812962 0 -0.0028243408845651735 -0.026336023259308755 0 -0.003312203719139508 -0.026112248034326602 0 -0.002621629722245064 -0.025908054476116493 0 -0.0030569789096470176 -0.025907166679812962 0 -0.0028243408845651735 -0.026336023259308755 0 -0.0028243408845651735 -0.026336023259308755 0 -0.0026942166899064134 -0.026897726521383444 0 -0.0034257195269859525 -0.026402425380997296 0 -0.0028243408845651735 -0.026336023259308755 0 -0.0021867515705527901 -0.026841252549222296 0 -0.0023788050303627725 -0.026884776070619225 0 -0.0028243408845651735 -0.026336023259308755 0 -0.0026942166899064134 -0.026897726521383444 0 -0.0023788050303627725 -0.026884776070619225 0 -0.0022678263281094148 -0.027178052209223248 0 -0.0023747887583770643 -0.027006955323540482 0 -0.0026942166899064134 -0.026897726521383444 0 -0.0023788050303627725 -0.026884776070619225 0 -0.0022416568458470559 -0.027100809752008223 0 -0.0023677998358829994 -0.026995153936732103 0 -0.0024522948153938378 -0.027018154577741281 0 -0.0025025235552052767 -0.026913853259502414 0 -0.0022678263281094148 -0.027178052209223248 0 -0.0038994236859259245 -0.025351593659656876 0 -0.0022609284251677744 -0.027050003106741237 0 -0.0022030305338657241 -0.027008094276017004 0 -0.0021867515705527901 -0.026841252549222296 0 -0.0022030305338657241 -0.027008094276017004 0 -0.0021867515705527901 -0.026841252549222296 0 -0.0022072553528943023 -0.027009198581127838 0 -0.0021867515705527901 -0.026841252549222296 0 -0.0023788050303627725 -0.026884776070619225 0 -0.0022072553528943023 -0.027009198581127838 0 -0.0023788050303627725 -0.026884776070619225 0 -0.0022072553528943023 -0.027009198581127838 0 -0.0022416568458470559 -0.027100809752008223 0 -0.0022072553528943023 -0.027009198581127838 0 -0.0021950838101959663 -0.027122714384092864 0 -0.0022416568458470559 -0.027100809752008223 0 -0.0022072553528943023 -0.027009198581127838 0 -0.0021726186341600902 -0.027081179220750411 0 -0.0021950838101959663 -0.027122714384092864 0 -0.0022030305338657241 -0.027008094276017004 0 -0.0022072553528943023 -0.027009198581127838 0 -0.0021726186341600902 -0.027081179220750411 0 -0.002144512238999224 -0.02718001635833486 0 -0.0021950838101959663 -0.027122714384092864 0 -0.0022009975645609046 -0.027180774207456477 0 -0.0021726186341600902 -0.027081179220750411 0 -0.002144512238999224 -0.02718001635833486 0 -0.0021950838101959663 -0.027122714384092864 0 -0.0021950838101959663 -0.027122714384092864 0 -0.0022009975645609046 -0.027180774207456477 0 -0.0022416568458470559 -0.027100809752008223 0 -0.0023677998358829994 -0.026995153936732103 0 -0.0022416568458470559 -0.027100809752008223 0 -0.0022807192607756043 -0.027132351293883087 0 -0.0022009975645609046 -0.027180774207456477 0 -0.0022416568458470559 -0.027100809752008223 0 -0.0022807192607756043 -0.027132351293883087 0 -0.00097216059025748104 -0.028670354866966164 0 -0.00098301677485039519 -0.028062830309008826 0 -0.0022807192607756043 -0.027132351293883087 0 -0.0021770972024503215 -0.02728905327539561 0 -0.002359261626499431 -0.027305392832467409 0 -0.002144512238999224 -0.02718001635833486 0 -0.0022009975645609046 -0.027180774207456477 0 -0.0021770972024503215 -0.02728905327539561 0 -0.0022009975645609046 -0.027180774207456477 0 -0.0022807192607756043 -0.027132351293883087 0 -0.0021770972024503215 -0.02728905327539561 0 -0.0023677998358829994 -0.026995153936732103 0 -0.0023819674621685934 -0.027092316775174624 0 -0.0024522948153938378 -0.027018154577741281 0 -0.0023677998358829994 -0.026995153936732103 0 -0.0022807192607756043 -0.027132351293883087 0 -0.0023819674621685934 -0.027092316775174624 0 -0.0025744810497970627 -0.026951323209248815 0 -0.00098301677485039519 -0.028062830309008826 0 -0.0022807192607756043 -0.027132351293883087 0 -0.0023819674621685934 -0.027092316775174624 0 -0.0023278883535298128 -0.027161608913194978 0 -0.0023819674621685934 -0.027092316775174624 0 -0.0024093796035772742 -0.027152781955326593 0 -0.0023278883535298128 -0.027161608913194978 0 -0.0023819674621685934 -0.027092316775174624 0 -0.0024740448799560398 -0.027078262644920498 0 -0.0024093796035772742 -0.027152781955326593 0 -0.0024740448799560398 -0.027078262644920498 0 -0.0025022133128081293 -0.027133418606986252 0 -0.0024093796035772742 -0.027152781955326593 0 -0.0024740448799560398 -0.027078262644920498 0 -0.0025540221700622433 -0.02706161128210522 0 -0.0025022133128081293 -0.027133418606986252 0 -0.004228834804071966 -0.024020463083351651 0 -0.0045102045985073898 -0.024631119130637535 0 -0.0024740448799560398 -0.027078262644920498 0 -0.0025540221700622433 -0.02706161128210522 0 -0.0025314155815482119 -0.02700020225470539 0 -0.0058952556571914803 -0.021191126441126376 0 -0.006371738181547024 -0.022246251351113459 0 -0.0054085874820786828 -0.022275705882897043 0 -0.0024740448799560398 -0.027078262644920498 0 -0.0025314155815482119 -0.02700020225470539 0 -0.0024522948153938378 -0.027018154577741281 0 -0.0023819674621685934 -0.027092316775174624 0 -0.0024740448799560398 -0.027078262644920498 0 -0.0024522948153938378 -0.027018154577741281 0 -0.0025314155815482119 -0.02700020225470539 0 -0.0024522948153938378 -0.027018154577741281 0 -0.0025025235552052767 -0.026913853259502414 0 -0.006371738181547024 -0.022246251351113459 0 -0.0061065834915997805 -0.022991718268155513 0 -0.0068193580306065973 -0.02327434111867371 0 -0.006371738181547024 -0.022246251351113459 0 -0.0061065834915997805 -0.022991718268155513 0 -0.0054085874820786828 -0.022275705882897043 0 -0.0045102045985073898 -0.024631119130637535 0 -0.0038994236859259245 -0.025351593659656876 0 -0.0061065834915997805 -0.022991718268155513 0 -0.0068193580306065973 -0.02327434111867371 0 -0.0057029055475150657 -0.023659703190587873 0 -0.0038994236859259245 -0.025351593659656876 0 -0.0048851813662409886 -0.024601642707565142 0 -0.0034574503866263849 -0.025812192271125228 0 -0.0033556408802340792 -0.026128196406738944 0 -0.00358669536440707 -0.025761734223813951 0 -0.0034574503866263849 -0.025812192271125228 0 -0.003312203719139508 -0.026112248034326602 0 -0.0033556408802340792 -0.026128196406738944 0 -0.0028243408845651735 -0.026336023259308755 0 -0.003312203719139508 -0.026112248034326602 0 -0.0034257195269859525 -0.026402425380997296 0 -0.0036753010910133819 -0.026038179976396333 0 -0.0038994236859259245 -0.025351593659656876 0 -0.0037414459248743129 -0.023108461448606711 0 -0.0045906238504582779 -0.024101418345684189 0 -0.0050019600352409809 -0.023067344595209132 0 -0.0045906238504582779 -0.024101418345684189 0 -0.0057029055475150657 -0.023659703190587873 0 -0.0050019600352409809 -0.023067344595209132 0 -0.0061065834915997805 -0.022991718268155513 0 -0.0057029055475150657 -0.023659703190587873 0 -0.0050019600352409809 -0.023067344595209132 0 -0.0040085967111113518 -0.024729292745827341 0 -0.0048851813662409886 -0.024601642707565142 0 -0.0061065834915997805 -0.022991718268155513 0 -0.0050019600352409809 -0.023067344595209132 0 -0.0054085874820786828 -0.022275705882897043 0 -0.0050019600352409809 -0.023067344595209132 0 -0.0043833733381727054 -0.022261481082619362 0 -0.0054085874820786828 -0.022275705882897043 0 -0.0037414459248743129 -0.023108461448606711 0 -0.0050019600352409809 -0.023067344595209132 0 -0.0043833733381727054 -0.022261481082619362 0 -0.0038748822243439515 -0.021390320507047009 0 -0.0043833733381727054 -0.022261481082619362 0 -0.0048396729045259929 -0.021500881651928309 0 -0.0043833733381727054 -0.022261481082619362 0 -0.0048396729045259929 -0.021500881651928309 0 -0.0054085874820786828 -0.022275705882897043 0 -0.0058952556571914803 -0.021191126441126376 0 -0.0048396729045259929 -0.021500881651928309 0 -0.0054085874820786828 -0.022275705882897043 0 -0.0058952556571914803 -0.021191126441126376 0 -0.0048396729045259929 -0.021500881651928309 0 -0.0050623845507140972 -0.020797417514761867 0 -0.004228834804071966 -0.024020463083351651 0 -0.003468441963901395 -0.024378026152510029 0 -0.0058952556571914803 -0.021191126441126376 0 -0.0050623845507140972 -0.020797417514761867 0 -0.0053974470835575624 -0.020156216445280963 0 -0.0038748822243439515 -0.021390320507047009 0 -0.004551702383654709 -0.021052981474664775 0 -0.0044219580416931855 -0.020527204862808186 0 -0.0038748822243439515 -0.021390320507047009 0 -0.0048396729045259929 -0.021500881651928309 0 -0.004551702383654709 -0.021052981474664775 0 -0.0048396729045259929 -0.021500881651928309 0 -0.0050623845507140972 -0.020797417514761867 0 -0.004551702383654709 -0.021052981474664775 0 -0.0050623845507140972 -0.020797417514761867 0 -0.004551702383654709 -0.021052981474664775 0 -0.0044219580416931855 -0.020527204862808186 0 -0.003468441963901395 -0.024378026152510029 0 -0.004481517830081232 -0.02047771953550493 0 -0.0041903533619746681 -0.021175216549398891 0 -0.0040651945685633269 -0.021058886667526512 0 -0.0040129267685281291 -0.021113635587128862 0 -0.0050623845507140972 -0.020797417514761867 0 -0.0044219580416931855 -0.020527204862808186 0 -0.0053974470835575624 -0.020156216445280963 0 -0.0044219580416931855 -0.020527204862808186 0 -0.0053974470835575624 -0.020156216445280963 0 -0.0042330750689393119 -0.019976818661984364 0 -0.00184243082956121 -0.027777075605321683 0 -0.0015735152507560743 -0.02877683416486166 0 -0.0024517111411758042 -0.029069142127627266 0 -0.00184243082956121 -0.027777075605321683 0 -0.0015735152507560743 -0.02877683416486166 0 -0.0011935478938141443 -0.028213353382207654 0 -0.003468441963901395 -0.024378026152510029 0 -0.0036301359544626639 -0.02307709088690502 0 -0.0041903533619746681 -0.021175216549398891 0 -0.0040651945685633269 -0.021058886667526512 0 -0.0040926836447805698 -0.020947101626422122 0 -0.0040651945685633269 -0.021058886667526512 0 -0.0040926836447805698 -0.020947101626422122 0 -0.0039660751655729706 -0.021000211042970608 0 -0.0036301359544626639 -0.02307709088690502 0 -0.0039906105704906481 -0.017044244323360665 0 -0.0040651945685633269 -0.021058886667526512 0 -0.0040129267685281291 -0.021113635587128862 0 -0.0039660751655729706 -0.021000211042970608 0 -0.0036772482413383908 -0.013739205753603314 0 -0.0031281844758766554 -0.014035241732801686 0 -0.0033503051346384801 -0.013522090333449548 0 -0.0036301359544626639 -0.02307709088690502 0 -0.0033192362854040426 -0.020154253620521645 0 -0.0036772482413383908 -0.013739205753603314 0 -0.0034662136542805868 -0.013335168528577301 0 -0.0033503051346384801 -0.013522090333449548 0 -0.0033192362854040426 -0.020154253620521645 0 -0.0047397567463449359 -0.013992232634705464 0 -0.0024681871223460102 -0.029006190260566153 0 -0.0028041211714323489 -0.029740362095300271 0 -0.0022982607621478174 -0.029654298785193513 0 -0.0024681871223460102 -0.029006190260566153 0 -0.0018212469879263502 -0.029475816824921997 0 -0.0022982607621478174 -0.029654298785193513 0 -0.0015735152507560743 -0.02877683416486166 0 -0.0024517111411758042 -0.029069142127627266 0 -0.0018212469879263502 -0.029475816824921997 0 -0.0015735152507560743 -0.02877683416486166 0 -0.0018212469879263502 -0.029475816824921997 0 -0.0012688754523108295 -0.029292629044734682 0 -0.0036301359544626639 -0.02307709088690502 0 -0.00067068572528133214 -0.029479732115343927 0 -0.0018212469879263502 -0.029475816824921997 0 -0.0018651206587003643 -0.03028614363776725 0 -0.00093503458801955704 -0.029841647630742124 0 -0.0018212469879263502 -0.029475816824921997 0 -0.0018651206587003643 -0.03028614363776725 0 -0.0022982607621478174 -0.029654298785193513 0 -0.0036291807908613318 -0.013048119610715055 0 -0.00352584694078407 -0.013214833450599837 0 -0.0031443454785472446 -0.013117000995773672 0 -0.0024863678813273633 -0.022275854518930393 0 -0.0033192362854040426 -0.020154253620521645 0 -0.0018651206587003643 -0.03028614363776725 0 -0.0026543015477414932 -0.030004156158502746 0 -0.0022982607621478174 -0.029654298785193513 0 -0.0026543015477414932 -0.030004156158502746 0 -0.0028041211714323489 -0.029740362095300271 0 -0.0022982607621478174 -0.029654298785193513 0 -0.00093503458801955704 -0.029841647630742124 0 8.9839583513906429e-05 -0.029600220282369308 0 -0.00061068899296429485 -0.030894435553994765 0 -0.00030376409731057907 -0.030688630163073875 0 -0.00061068899296429485 -0.030894435553994765 0 -0.00028554540863354264 -0.031032524875916571 0 -0.00014963084827440093 -0.030155364567745261 0 -0.00057221392315878587 -0.030862434701346905 0 -0.0018651206587003643 -0.03028614363776725 0 -0.00093503458801955704 -0.029841647630742124 0 -0.001239379726897153 -0.030786706729021444 0 -0.00093503458801955704 -0.029841647630742124 0 -0.001239379726897153 -0.030786706729021444 0 -0.00061068899296429485 -0.030894435553994765 0 -0.00093503458801955704 -0.029841647630742124 0 -0.0012688754523108295 -0.029292629044734682 0 -0.00085811193049303641 -0.028836513414316284 0 -0.0018212469879263502 -0.029475816824921997 0 -0.00093503458801955704 -0.029841647630742124 0 -0.0012688754523108295 -0.029292629044734682 0 -0.0015735152507560743 -0.02877683416486166 0 -0.0012688754523108295 -0.029292629044734682 0 -0.00085811193049303641 -0.028836513414316284 0 -0.00093503458801955704 -0.029841647630742124 0 8.9839583513906429e-05 -0.029600220282369308 0 -0.00085811193049303641 -0.028836513414316284 0 8.9839583513906429e-05 -0.029600220282369308 0 -0.00016996729267235706 -0.028306945345284985 0 -0.00085811193049303641 -0.028836513414316284 0 -0.00016996729267235706 -0.028306945345284985 0 -0.00085811193049303641 -0.028836513414316284 0 -0.0011935478938141443 -0.028213353382207654 0 -0.0015735152507560743 -0.02877683416486166 0 -0.00085811193049303641 -0.028836513414316284 0 -0.0011935478938141443 -0.028213353382207654 0 -0.00016996729267235706 -0.028306945345284985 0 -0.0011935478938141443 -0.028213353382207654 0 -0.00077816809930611149 -0.027673583854620695 0 -0.00184243082956121 -0.027777075605321683 0 -0.0011935478938141443 -0.028213353382207654 0 -0.00077816809930611149 -0.027673583854620695 0 -0.0025540221700622433 -0.02706161128210522 0 -0.0025845558801684968 -0.027110774632115649 0 -0.0025022133128081293 -0.027133418606986252 0 -0.003468441963901395 -0.024378026152510029 0 -0.0014663701324910865 -0.027599848985913677 0 -0.00016996729267235706 -0.028306945345284985 0 -0.00077816809930611149 -0.027673583854620695 0 0.00024881200449973105 -0.02757584727101144 0 -0.0014663701324910865 -0.027599848985913677 0 -0.0010179278818112654 -0.027292494354805966 0 -0.0010179278818112654 -0.027292494354805966 0 -0.00098301677485039519 -0.028062830309008826 0 0.00024881200449973105 -0.02757584727101144 0 0.0012115248191934978 -0.027460341486753359 0 0.00065744252594889961 -0.028483128682549975 0 -0.00016996729267235706 -0.028306945345284985 0 0.00024881200449973105 -0.02757584727101144 0 0.00065744252594889961 -0.028483128682549975 0 2.3601930090976855e-05 -0.030170221819632772 0 8.598595997512619e-05 -0.030367973637405437 0 -0.00012124888037769925 -0.030425314314449812 0 -0.00098301677485039519 -0.028062830309008826 0 0.00045626591053243387 -0.029525094491568291 0 8.598595997512619e-05 -0.030367973637405437 0 -0.00012124888037769925 -0.030425314314449812 0 0.00021661337838092419 -0.030549873355463494 0 8.9839583513906429e-05 -0.029600220282369308 0 -0.00016996729267235706 -0.028306945345284985 0 0.00065744252594889961 -0.028483128682549975 0 0.00037534075265221556 -0.030140461109137807 0 0.00046508861589684769 -0.030382349264420357 0 0.0002233658187518052 -0.030322341486976361 0 2.3601930090976855e-05 -0.030170221819632772 0 8.598595997512619e-05 -0.030367973637405437 0 0.0002233658187518052 -0.030322341486976361 0 0.00037534075265221556 -0.030140461109137807 0 2.3601930090976855e-05 -0.030170221819632772 0 0.0002233658187518052 -0.030322341486976361 0 0.00046508861589684769 -0.030382349264420357 0 0.0002233658187518052 -0.030322341486976361 0 0.00021661337838092419 -0.030549873355463494 0 8.598595997512619e-05 -0.030367973637405437 0 0.0002233658187518052 -0.030322341486976361 0 0.00021661337838092419 -0.030549873355463494 0 0.00048099943356925506 -0.030494843510647063 0 0.00022301642035976138 -0.03074048635716628 0 0.00047283892183619798 -0.030624815981223883 0 0.00042367270674717309 -0.03102459538794616 0 0.00064855757715009108 -0.03096491527933861 0 0.00047283892183619798 -0.030624815981223883 0 0.00042367270674717309 -0.03102459538794616 0 0.00022179804618234689 -0.030937522036683183 0 0.00042367270674717309 -0.03102459538794616 0 0.00022179804618234689 -0.030937522036683183 0 0.00028013721156968296 -0.03121919120556638 0 0.00022179804618234689 -0.030937522036683183 0 0.00028013721156968296 -0.03121919120556638 0 3.9542525882994793e-05 -0.031101751874081127 0 0.00028013721156968296 -0.03121919120556638 0 0.00050094656792270707 -0.031492152040059361 0 0.00056262719555797423 -0.031253541183993427 0 0.00042367270674717309 -0.03102459538794616 0 0.00028013721156968296 -0.03121919120556638 0 0.00056262719555797423 -0.031253541183993427 0 -0.00014963084827440093 -0.030155364567745261 0 0.00045626591053243387 -0.029525094491568291 0 -0.00030376409731057907 -0.030688630163073875 0 -0.00012124888037769925 -0.030425314314449812 0 -1.1240791351507405e-05 -0.03074913404264908 0 0.00022301642035976138 -0.03074048635716628 0 -3.3519288360990948e-06 -0.030922957620394511 0 -0.00012124888037769925 -0.030425314314449812 0 0.00021661337838092419 -0.030549873355463494 0 -1.1240791351507405e-05 -0.03074913404264908 0 3.9542525882994793e-05 -0.031101751874081127 0 -5.8476986477059103e-06 -0.031230384259226984 0 0.00016906420229973758 -0.031328551234940973 0 0.00028013721156968296 -0.03121919120556638 0 3.9542525882994793e-05 -0.031101751874081127 0 0.00016906420229973758 -0.031328551234940973 0 -3.3519288360990948e-06 -0.030922957620394511 0 -0.00027088828700163312 -0.03105011630459633 0 -0.00030376409731057907 -0.030688630163073875 0 -1.1240791351507405e-05 -0.03074913404264908 0 -0.00028554540863354264 -0.031032524875916571 0 3.9542525882994793e-05 -0.031101751874081127 0 -5.8476986477059103e-06 -0.031230384259226984 0 -0.00028554540863354264 -0.031032524875916571 0 -0.00013398805609602589 -0.031352670069837489 0 -5.8476986477059103e-06 -0.031230384259226984 0 -0.00028554540863354264 -0.031032524875916571 0 -0.00013398805609602589 -0.031352670069837489 0 -0.00028554540863354264 -0.031032524875916571 0 -0.00043556118510153539 -0.031291467139538814 0 -0.00013398805609602589 -0.031352670069837489 0 -5.8476986477059103e-06 -0.031230384259226984 0 0.0001050242980763669 -0.031416605009804081 0 -5.8476986477059103e-06 -0.031230384259226984 0 0.00016906420229973758 -0.031328551234940973 0 0.0001050242980763669 -0.031416605009804081 0 0.00016906420229973758 -0.031328551234940973 0 0.0001050242980763669 -0.031416605009804081 0 0.000282355374847163 -0.031572353808314739 0 -0.00013398805609602589 -0.031352670069837489 0 0.0001050242980763669 -0.031416605009804081 0 9.4637248647999253e-05 -0.031634710292077574 0 9.4637248647999253e-05 -0.031634710292077574 0 0.000282355374847163 -0.031572353808314739 0 0.00032188823571369497 -0.031809072476036836 0 0.0001050242980763669 -0.031416605009804081 0 9.4637248647999253e-05 -0.031634710292077574 0 0.000282355374847163 -0.031572353808314739 0 -0.00013398805609602589 -0.031352670069837489 0 9.4637248647999253e-05 -0.031634710292077574 0 -0.00039847150294160141 -0.031696784234630022 0 0.00028013721156968296 -0.03121919120556638 0 0.00050094656792270707 -0.031492152040059361 0 0.00033949391219667172 -0.031550386377218138 0 0.00050094656792270707 -0.031492152040059361 0 0.00033949391219667172 -0.031550386377218138 0 0.00048800791394281194 -0.031743537372873491 0 0.00016906420229973758 -0.031328551234940973 0 0.00033949391219667172 -0.031550386377218138 0 0.000282355374847163 -0.031572353808314739 0 0.00028013721156968296 -0.03121919120556638 0 0.00016906420229973758 -0.031328551234940973 0 0.00033949391219667172 -0.031550386377218138 0 0.000282355374847163 -0.031572353808314739 0 0.00042795943215859027 -0.03167619567349244 0 0.00032188823571369497 -0.031809072476036836 0 0.00033949391219667172 -0.031550386377218138 0 0.000282355374847163 -0.031572353808314739 0 0.00042795943215859027 -0.03167619567349244 0 0.00030623971129814498 -0.031945773336912994 0 0.00048800791394281194 -0.031743537372873491 0 0.0006020385081166109 -0.032010364289285255 0 0.00033949391219667172 -0.031550386377218138 0 0.00030623971129814498 -0.031945773336912994 0 0.00048800791394281194 -0.031743537372873491 0 0.00034516124105454424 -0.031610937664634992 0 0.00036997772505650562 -0.031777649384753665 0 0.00030623971129814498 -0.031945773336912994 0 0.00034523477180091428 -0.032230815926441801 0 0.0006020385081166109 -0.032010364289285255 0 0.00036997772505650562 -0.031777649384753665 0 0.00058384332490785205 -0.032179361035775018 0 0.00042795943215859027 -0.03167619567349244 0 0.00045111286369436688 -0.031800707978247696 0 0.00032188823571369497 -0.031809072476036836 0 0.0010311867973864992 -0.031987612616717107 0 0.00063011163600879157 -0.032345814402136443 0 0.00032188823571369497 -0.031809072476036836 0 0.00058384332490785205 -0.032179361035775018 0 0.00039247261968792765 -0.031765169583016568 0 0.00055561996160133559 -0.032883729325080109 0 0.00060392863240094519 -0.032902771210700794 0 0.00056225359710261179 -0.032927976993105262 0 0.0010311867973864992 -0.031987612616717107 0 0.00063011163600879157 -0.032345814402136443 0 0.0011042806063751463 -0.032553608542552577 0 0.00058384332490785205 -0.032179361035775018 0 0.00084689072069453605 -0.033204022529303115 0 -2.5943844178671806e-05 -0.032027364727383704 0 -0.00040385043300280216 -0.032178802396585299 0 -0.00039847150294160141 -0.031696784234630022 0 9.4637248647999253e-05 -0.031634710292077574 0 -2.5943844178671806e-05 -0.032027364727383704 0 -0.00039847150294160141 -0.031696784234630022 0 -2.5943844178671806e-05 -0.032027364727383704 0 0.00032188823571369497 -0.031809072476036836 0 0.00022723410878504614 -0.032406685932203888 0 9.4637248647999253e-05 -0.031634710292077574 0 -2.5943844178671806e-05 -0.032027364727383704 0 0.00032188823571369497 -0.031809072476036836 0 0.00063011163600879157 -0.032345814402136443 0 0.00032188823571369497 -0.031809072476036836 0 0.00022723410878504614 -0.032406685932203888 0 -2.5943844178671806e-05 -0.032027364727383704 0 -0.00010267807644141798 -0.03244663706694436 0 -0.00040385043300280216 -0.032178802396585299 0 -2.5943844178671806e-05 -0.032027364727383704 0 0.00022723410878504614 -0.032406685932203888 0 -0.00010267807644141798 -0.03244663706694436 0 -0.00010267807644141798 -0.03244663706694436 0 -0.00034791409933885269 -0.032467435824731904 0 -0.00040385043300280216 -0.032178802396585299 0 -0.00034791409933885269 -0.032467435824731904 0 -0.00040385043300280216 -0.032178802396585299 0 -0.00071209807481288265 -0.032503160821001902 0 -0.00040385043300280216 -0.032178802396585299 0 -0.0011845384803878813 -0.031958437026637192 0 -0.00039847150294160141 -0.031696784234630022 0 -0.00040385043300280216 -0.032178802396585299 0 -0.0011845384803878813 -0.031958437026637192 0 -0.00071209807481288265 -0.032503160821001902 0 -0.0019363760106209627 -0.028311885607066326 0 -0.00089326292572912901 -0.03061818769867819 0 -0.0016872192048582306 -0.031042083710203353 0 -0.0016217395086000907 -0.029942141093457015 0 -0.0008056297920456375 -0.031596471127768519 0 -0.0019363760106209627 -0.028311885607066326 0 -0.0029056882566669217 -0.030485728902868839 0 -0.003561716100753311 -0.028943870862847478 0 -0.0019363760106209627 -0.028311885607066326 0 -0.0029056882566669217 -0.030485728902868839 0 -0.0016872192048582306 -0.031042083710203353 0 -0.0029056882566669217 -0.030485728902868839 0 -0.0047534559792715252 -0.030065793894492432 0 -0.003561716100753311 -0.028943870862847478 0 -0.0047534559792715252 -0.030065793894492432 0 -0.003561716100753311 -0.028943870862847478 0 -0.0045052334717105794 -0.027390102549402055 0 -0.0019363760106209627 -0.028311885607066326 0 -0.003561716100753311 -0.028943870862847478 0 -0.0030359403429740424 -0.026049242871780894 0 -0.0011845384803878813 -0.031958437026637192 0 -0.0018680726664267074 -0.031200428893346798 0 -0.00094234201329231634 -0.031452776505794693 0 -0.0016217395086000907 -0.029942141093457015 0 -0.0023931202909354822 -0.029484888931006627 0 -0.0045052334717105794 -0.027390102549402055 0 -0.0045746888381145391 -0.025598072968214581 0 -0.0030359403429740424 -0.026049242871780894 0 -0.003561716100753311 -0.028943870862847478 0 -0.0045052334717105794 -0.027390102549402055 0 -0.0030359403429740424 -0.026049242871780894 0 -0.0041864394058016901 -0.023769497473983336 0 -0.0045746888381145391 -0.025598072968214581 0 -0.005493458800574111 -0.024561431421103591 0 -0.0041864394058016901 -0.023769497473983336 0 -0.0045746888381145391 -0.025598072968214581 0 -0.0030359403429740424 -0.026049242871780894 0 -0.0024863678813273633 -0.022275854518930393 0 -0.0023931202909354822 -0.029484888931006627 0 -0.0018680726664267074 -0.031200428893346798 0 -0.001239379726897153 -0.030786706729021444 0 -0.00094234201329231634 -0.031452776505794693 0 -0.0018651206587003643 -0.03028614363776725 0 -0.0026543015477414932 -0.030004156158502746 0 -0.0018680726664267074 -0.031200428893346798 0 -0.0018651206587003643 -0.03028614363776725 0 -0.0018680726664267074 -0.031200428893346798 0 -0.001239379726897153 -0.030786706729021444 0 -0.001239379726897153 -0.030786706729021444 0 -0.00061068899296429485 -0.030894435553994765 0 -0.00094234201329231634 -0.031452776505794693 0 -0.00061068899296429485 -0.030894435553994765 0 -0.00043556118510153539 -0.031291467139538814 0 -0.00094234201329231634 -0.031452776505794693 0 -0.00061068899296429485 -0.030894435553994765 0 -0.00028554540863354264 -0.031032524875916571 0 -0.00043556118510153539 -0.031291467139538814 0 -0.00043556118510153539 -0.031291467139538814 0 -0.00039847150294160141 -0.031696784234630022 0 -0.00094234201329231634 -0.031452776505794693 0 -0.00013398805609602589 -0.031352670069837489 0 -0.00043556118510153539 -0.031291467139538814 0 -0.00039847150294160141 -0.031696784234630022 0 -0.0011845384803878813 -0.031958437026637192 0 -0.00039847150294160141 -0.031696784234630022 0 -0.00094234201329231634 -0.031452776505794693 0 3.4982567649431087e-05 -0.035001588720238681 0 1.4222235319763319e-08 -0.035000005343744617 0 1.3659692190301214e-05 -0.034986018183537228 0 1.4222235319763319e-08 -0.035000005343744617 0 1.3659692190301214e-05 -0.034986018183537228 0 2.0914058610766728e-08 -0.034999948893593952 0 3.4982567649431087e-05 -0.035001588720238681 0 6.4227385739104768e-05 -0.034973642605900475 0 1.3659692190301214e-05 -0.034986018183537228 0 3.4982567649431087e-05 -0.035001588720238681 0 9.357333837820643e-05 -0.034992964591742899 0 6.4227385739104768e-05 -0.034973642605900475 0 3.4982567649431087e-05 -0.035001588720238681 0 5.0411555026335e-05 -0.035038988271271686 0 9.357333837820643e-05 -0.034992964591742899 0 3.4982567649431087e-05 -0.035001588720238681 0 1.4222235319763319e-08 -0.035000005343744617 0 5.0411555026335e-05 -0.035038988271271686 0 -1.0953370798200587e-08 -0.034993743742304739 0 0.00012204490210705534 -0.034893184738936073 0 1.4222235319763319e-08 -0.035000005343744617 0 2.1243108585912987e-08 -0.034993821292198385 0 5.0411555026335e-05 -0.035038988271271686 0 3.6891852576862417e-05 -0.03494861366506901 0 -2.2755006977531687e-08 -0.034993530512937639 0 0.0001214129393238253 -0.034814112159825376 0 3.6891852576862417e-05 -0.03494861366506901 0 -2.2755006977531687e-08 -0.034993530512937639 0 4.9352694517346843e-05 -0.034944206090843588 0 5.0383180269785764e-08 -0.034999952667296191 0 -2.2755006977531687e-08 -0.034993530512937639 0 4.9352694517346843e-05 -0.034944206090843588 0 3.6891852576862417e-05 -0.03494861366506901 0 4.9352694517346843e-05 -0.034944206090843588 0 7.4220246377136619e-05 -0.034904828213473252 0 4.2161331276283076e-05 -0.034936716132896249 0 0.00012332936706554599 -0.034901972832243756 0 8.6849438914535828e-05 -0.034886887060689632 0 4.9352694517346843e-05 -0.034944206090843588 0 7.4220246377136619e-05 -0.034904828213473252 0 3.6891852576862417e-05 -0.03494861366506901 0 0.00016733590101322837 -0.03490503468220927 0 0.0001214129393238253 -0.034814112159825376 0 0.00016733590101322837 -0.03490503468220927 0 0.0001214129393238253 -0.034814112159825376 0 0.00027718058229852648 -0.034823802087769411 0 0.0001214129393238253 -0.034814112159825376 0 0.00027718058229852648 -0.034823802087769411 0 0.00030469796366519082 -0.0346781830441431 0 0.00012332936706554599 -0.034901972832243756 0 0.00018659551699632293 -0.034985444337729987 0 0.00016733590101322837 -0.03490503468220927 0 0.00027718058229852648 -0.034823802087769411 0 0.00033991343803537643 -0.034910742284510896 0 8.6849438914535828e-05 -0.034886887060689632 0 7.4220246377136619e-05 -0.034904828213473252 0 9.1667560811262462e-05 -0.034875016101188483 0 0.00033991343803537643 -0.034910742284510896 0 0.0003902300545833941 -0.034845116354824381 0 0.00048191359322499082 -0.034896597489766826 0 0.00027718058229852648 -0.034823802087769411 0 0.00038152528434246116 -0.034770875738031976 0 0.00030469796366519082 -0.0346781830441431 0 0.0003902300545833941 -0.034845116354824381 0 0.00038152528434246116 -0.034770875738031976 0 0.00043843218249697602 -0.034793302144743778 0 0.00027718058229852648 -0.034823802087769411 0 0.00033991343803537643 -0.034910742284510896 0 0.0003902300545833941 -0.034845116354824381 0 0.00027718058229852648 -0.034823802087769411 0 0.0003902300545833941 -0.034845116354824381 0 0.00038152528434246116 -0.034770875738031976 0 0.00013589804438376009 -0.035060793005491302 0 0.00061078619589438458 -0.033380098382970576 0 0.00038152528434246116 -0.034770875738031976 0 0.00030469796366519082 -0.0346781830441431 0 0.00050225254513241839 -0.034729702484069154 0 5.0411555026335e-05 -0.035038988271271686 0 0.0001591808890688998 -0.035039239674517851 0 9.357333837820643e-05 -0.034992964591742899 0 0.00012204490210705534 -0.034893184738936073 0 0.00013589804438376009 -0.035060793005491302 0 0.0001591808890688998 -0.035039239674517851 0 9.357333837820643e-05 -0.034992964591742899 0 0.0001518561117389084 -0.034965035455732103 0 0.0001591808890688998 -0.035039239674517851 0 0.00021024832483082571 -0.034963116803457012 0 0.00026954334842748502 -0.034995168724547984 0 0.0001591808890688998 -0.035039239674517851 0 0.00021024832483082571 -0.034963116803457012 0 0.0001518561117389084 -0.034965035455732103 0 0.00021024832483082571 -0.034963116803457012 0 0.00026954334842748502 -0.034995168724547984 0 0.00024175598511184544 -0.034935113724116673 0 0.00076174240037122113 -0.03187869576181436 0 0.0008554652518941335 -0.031937175985002793 0 0.00093907873236312705 -0.031789638377798475 0 0.0011115293374533615 -0.031716806297664393 0 0.00093907873236312705 -0.031789638377798475 0 0.001058649013262828 -0.031805643681414836 0 0.00061078619589438458 -0.033380098382970576 0 0.0011992854773455277 -0.03145305605294052 0 0.0008554652518941335 -0.031937175985002793 0 0.00095807027036101775 -0.031951586747704742 0 0.00093907873236312705 -0.031789638377798475 0 0.0008554652518941335 -0.031937175985002793 0 0.00076171062283186862 -0.032025508305770153 0 0.00087125358029517736 -0.032031098619297912 0 0.0008554652518941335 -0.031937175985002793 0 0.00087125358029517736 -0.032031098619297912 0 0.00095807027036101775 -0.031951586747704742 0 0.00061078619589438458 -0.033380098382970576 0 0.00064004662087632704 -0.033273854826565703 0 0.00076174240037122113 -0.03187869576181436 0 0.0008554652518941335 -0.031937175985002793 0 0.00076171062283186862 -0.032025508305770153 0 0.00030469796366519082 -0.0346781830441431 0 0.00051465928077922397 -0.034556737948062924 0 0.00050225254513241839 -0.034729702484069154 0 0.00064004662087632704 -0.033273854826565703 0 0.0005192841405431089 -0.033909085582522813 0 0.00076171062283186862 -0.032025508305770153 0 0.0007624254807957441 -0.032147307215521344 0 0.0008341064939984225 -0.032114814966322645 0 0.00050225254513241839 -0.034729702484069154 0 0.00046324272022910037 -0.034844112776293928 0 0.00048293326568053709 -0.034880085339581632 0 0.00038152528434246116 -0.034770875738031976 0 0.00043843218249697602 -0.034793302144743778 0 0.00050225254513241839 -0.034729702484069154 0 0.00043843218249697602 -0.034793302144743778 0 0.00050225254513241839 -0.034729702484069154 0 0.00046324272022910037 -0.034844112776293928 0 0.0003902300545833941 -0.034845116354824381 0 0.00043843218249697602 -0.034793302144743778 0 0.00046324272022910037 -0.034844112776293928 0 0.00033991343803537643 -0.034910742284510896 0 0.00048191359322499082 -0.034896597489766826 0 0.00051152541328126856 -0.034918897408538346 0 8.3484131684809733e-05 -0.034849672773705792 0 9.1667560811262462e-05 -0.034875016101188483 0 6.3138442289028391e-05 -0.03485092773360212 0 0.0003902300545833941 -0.034845116354824381 0 0.00046324272022910037 -0.034844112776293928 0 0.00048191359322499082 -0.034896597489766826 0 0.00018659551699632293 -0.034985444337729987 0 0.00055684030364175515 -0.033722089049825897 0 0.00067513831715362523 -0.034443533658383839 0 0.0005192841405431089 -0.033909085582522813 0 0.00046324272022910037 -0.034844112776293928 0 0.00048292195343594351 -0.034876822446296765 0 0.00048191359322499082 -0.034896597489766826 0 0.0007624254807957441 -0.032147307215521344 0 0.00078672296982918929 -0.032181039726480655 0 0.0008341064939984225 -0.032114814966322645 0 0.0005192841405431089 -0.033909085582522813 0 0.00055684030364175515 -0.033722089049825897 0 0.00048275241600621166 -0.034875423340494309 0 0.00048191359322499082 -0.034896597489766826 0 0.00051152541328126856 -0.034918897408538346 0 0.0005192841405431089 -0.033909085582522813 0 0.00050677815160197418 -0.034167201564739999 0 0.00087178406781959468 -0.032180121932145769 0 0.0008341064939984225 -0.032114814966322645 0 0.00094029550681205463 -0.032111278949817711 0 0.00055684030364175515 -0.033722089049825897 0 0.0008278956863983721 -0.032290803150786807 0 0.00078672296982918929 -0.032181039726480655 0 0.00087178406781959468 -0.032180121932145769 0 0.0008341064939984225 -0.032114814966322645 0 0.00076171062283186862 -0.032025508305770153 0 0.0008341064939984225 -0.032114814966322645 0 0.00087125358029517736 -0.032031098619297912 0 0.0008341064939984225 -0.032114814966322645 0 0.00087125358029517736 -0.032031098619297912 0 0.00094029550681205463 -0.032111278949817711 0 0.00094497365540162814 -0.030613185283660159 0 0.00069577634879386754 -0.030699193213157654 0 0.00097961678798827033 -0.031042027370542759 0 0.00087125358029517736 -0.032031098619297912 0 0.00094029550681205463 -0.032111278949817711 0 0.00095807027036101775 -0.031951586747704742 0 0.0010735099454261773 -0.031668682602747647 0 0.00095245933564711157 -0.031425918532257673 0 0.00079860510448333147 -0.030214176074336418 0 0.00085191588250092972 -0.030113018895491634 0 0.00094497365540162814 -0.030613185283660159 0 -0.00039967796002160662 -0.029763335073031971 0 0.0010735099454261773 -0.031668682602747647 0 0.00079860510448333147 -0.030214176074336418 0 0.00094497365540162814 -0.030613185283660159 0 0.00072363232227090353 -0.03053784296571389 0 0.00092374322683208521 -0.0322085564108196 0 0.00087178406781959468 -0.032180121932145769 0 0.00094029550681205463 -0.032111278949817711 0 0.00079860510448333147 -0.030214176074336418 0 0.00037534075265221556 -0.030140461109137807 0 0.00046508861589684769 -0.030382349264420357 0 0.00078726082949339196 -0.030225456223762062 0 0.00048099943356925506 -0.030494843510647063 0 0.00079860510448333147 -0.030214176074336418 0 0.00047283892183619798 -0.030624815981223883 0 0.00072363232227090353 -0.03053784296571389 0 0.00047283892183619798 -0.030624815981223883 0 0.00069577634879386754 -0.030699193213157654 0 0.00064855757715009108 -0.03096491527933861 0 0.00069577634879386754 -0.030699193213157654 0 0.00064855757715009108 -0.03096491527933861 0 0.00097961678798827033 -0.031042027370542759 0 0.00047283892183619798 -0.030624815981223883 0 0.00072363232227090353 -0.03053784296571389 0 0.00069577634879386754 -0.030699193213157654 0 0.00094497365540162814 -0.030613185283660159 0 0.00072363232227090353 -0.03053784296571389 0 0.00069577634879386754 -0.030699193213157654 0 0.00042367270674717309 -0.03102459538794616 0 0.00064855757715009108 -0.03096491527933861 0 0.00056262719555797423 -0.031253541183993427 0 0.00064855757715009108 -0.03096491527933861 0 0.00088714939840016556 -0.031264738741337644 0 0.00056262719555797423 -0.031253541183993427 0 0.00064855757715009108 -0.03096491527933861 0 0.00097961678798827033 -0.031042027370542759 0 0.00088714939840016556 -0.031264738741337644 0 0.00095245933564711157 -0.031425918532257673 0 0.00097426012273885327 -0.031656951078518451 0 0.00095807027036101775 -0.031951586747704742 0 0.00093907873236312705 -0.031789638377798475 0 0.00094156321444966893 -0.031779575688100324 0 0.00097961678798827033 -0.031042027370542759 0 0.00088714939840016556 -0.031264738741337644 0 0.0010251541771202448 -0.031473458403174115 0 0.00088714939840016556 -0.031264738741337644 0 0.0010251541771202448 -0.031473458403174115 0 0.00088012983761643184 -0.031432372235973192 0 0.0010251541771202448 -0.031473458403174115 0 0.00088012983761643184 -0.031432372235973192 0 0.00087135869849784119 -0.031528855006480609 0 0.00088714939840016556 -0.031264738741337644 0 0.00088012983761643184 -0.031432372235973192 0 0.00074860125867027953 -0.031465233078713066 0 0.00088012983761643184 -0.031432372235973192 0 0.00074860125867027953 -0.031465233078713066 0 0.00087135869849784119 -0.031528855006480609 0 0.00050094656792270707 -0.031492152040059361 0 0.00056262719555797423 -0.031253541183993427 0 0.00074860125867027953 -0.031465233078713066 0 0.00088714939840016556 -0.031264738741337644 0 0.00056262719555797423 -0.031253541183993427 0 0.00074860125867027953 -0.031465233078713066 0 0.00050094656792270707 -0.031492152040059361 0 0.00074860125867027953 -0.031465233078713066 0 0.0006594899574716757 -0.031741263804711144 0 0.0006594899574716757 -0.031741263804711144 0 0.000834855674135806 -0.031703881978715126 0 0.0007765264567572125 -0.031921747791339779 0 0.00050094656792270707 -0.031492152040059361 0 0.00048800791394281194 -0.031743537372873491 0 0.0006594899574716757 -0.031741263804711144 0 0.00074860125867027953 -0.031465233078713066 0 0.0006594899574716757 -0.031741263804711144 0 0.000834855674135806 -0.031703881978715126 0 0.00074860125867027953 -0.031465233078713066 0 0.00087135869849784119 -0.031528855006480609 0 0.000834855674135806 -0.031703881978715126 0 0.0010251541771202448 -0.031473458403174115 0 0.000834855674135806 -0.031703881978715126 0 0.00092930630146299484 -0.032060451075587901 0 0.00097426012273885327 -0.031656951078518451 0 0.00094802219622335654 -0.032009935331645652 0 0.0010251541771202448 -0.031473458403174115 0 0.00087135869849784119 -0.031528855006480609 0 0.000834855674135806 -0.031703881978715126 0 0.00092930630146299484 -0.032060451075587901 0 0.00093459600377772552 -0.032242826104674674 0 0.00080366470336420243 -0.032098817788919466 0 0.000834855674135806 -0.031703881978715126 0 0.0007765264567572125 -0.031921747791339779 0 0.00092930630146299484 -0.032060451075587901 0 0.0007765264567572125 -0.031921747791339779 0 0.00092930630146299484 -0.032060451075587901 0 0.00080366470336420243 -0.032098817788919466 0 0.0007765264567572125 -0.031921747791339779 0 0.0006020385081166109 -0.032010364289285255 0 0.00080366470336420243 -0.032098817788919466 0 0.0006594899574716757 -0.031741263804711144 0 0.0007765264567572125 -0.031921747791339779 0 0.0006020385081166109 -0.032010364289285255 0 0.00048800791394281194 -0.031743537372873491 0 0.0006594899574716757 -0.031741263804711144 0 0.0006020385081166109 -0.032010364289285255 0 0.00058384332490785205 -0.032179361035775018 0 0.00036631406228685955 -0.033321289343745501 0 0.0006020385081166109 -0.032010364289285255 0 0.00072718283157646518 -0.032351763487128947 0 0.00080366470336420243 -0.032098817788919466 0 0.00034523477180091428 -0.032230815926441801 0 0.0006020385081166109 -0.032010364289285255 0 0.00072718283157646518 -0.032351763487128947 0 0.00068444820715438765 -0.03447454199269754 0 0.00075794191318664863 -0.034336722524285032 0 0.00094325603886206066 -0.034402145692773278 0 0.00036631406228685955 -0.033321289343745501 0 0.00084689072069453605 -0.033204022529303115 0 0.00068444820715438765 -0.03447454199269754 0 0.00060836596807497764 -0.034365796099162932 0 0.00075794191318664863 -0.034336722524285032 0 -0.00081390311937940994 -0.033551275516447175 0 -5.2207794549163385e-05 -0.033769824783802742 0 3.5192057477547222e-05 -0.033017778755277172 0 0.00054226132961971893 -0.034343926784243514 0 0.00051538965752387844 -0.034374876733795932 0 0.00060836596807497764 -0.034365796099162932 0 0.00068444820715438765 -0.03447454199269754 0 0.00054226132961971893 -0.034343926784243514 0 0.00060836596807497764 -0.034365796099162932 0 0.00036631406228685955 -0.033321289343745501 0 0.00024568490106940965 -0.03402382863714392 0 0.00036631406228685955 -0.033321289343745501 0 0.00046916426477529581 -0.032638533344969835 0 0.00072718283157646518 -0.032351763487128947 0 0.00093459600377772552 -0.032242826104674674 0 0.00080366470336420243 -0.032098817788919466 0 3.5192057477547222e-05 -0.033017778755277172 0 0.0010196190883328062 -0.033155249689040434 0 0.0010629339079244854 -0.032484633374646167 0 3.5192057477547222e-05 -0.033017778755277172 0 0.00039489106230306437 -0.033506886305031146 0 0.0010196190883328062 -0.033155249689040434 0 0.00046916426477529581 -0.032638533344969835 0 0.0010183799139295527 -0.032457413784845561 0 -5.2207794549163385e-05 -0.033769824783802742 0 0.00039489106230306437 -0.033506886305031146 0 0.00061718523742052434 -0.034035693257061982 0 0.00039489106230306437 -0.033506886305031146 0 0.00061718523742052434 -0.034035693257061982 0 0.0010196190883328062 -0.033155249689040434 0 0.00061718523742052434 -0.034035693257061982 0 0.0010196190883328062 -0.033155249689040434 0 0.0005530577897425316 -0.034556623728641739 0 -5.2207794549163385e-05 -0.033769824783802742 0 3.5192057477547222e-05 -0.033017778755277172 0 0.00039489106230306437 -0.033506886305031146 0 0.00024568490106940965 -0.03402382863714392 0 0.00060431417773042012 -0.034075816558101331 0 0.00054226132961971893 -0.034343926784243514 0 0.00061718523742052434 -0.034035693257061982 0 0.00051538965752387844 -0.034374876733795932 0 0.00032403332915021478 -0.034734624865847809 0 0.0003622141500424139 -0.034841902328233795 0 0.0005530577897425316 -0.034556623728641739 0 0.00068133400951279064 -0.033983128169601452 0 0.00057656497616912568 -0.03450066752943446 0 0.00032403332915021478 -0.034734624865847809 0 0.00024300268206505559 -0.034703068879035071 0 0.0003464391791138502 -0.03462565567718278 0 0.00032403332915021478 -0.034734624865847809 0 0.00028245224260585119 -0.034821614660606827 0 0.0003622141500424139 -0.034841902328233795 0 0.00028245224260585119 -0.034821614660606827 0 0.0003622141500424139 -0.034841902328233795 0 0.0002803282836211939 -0.034869315728535806 0 0.0002803282836211939 -0.034869315728535806 0 0.00028674538717092497 -0.034909238056079615 0 0.000239617678353729 -0.034899720281563421 0 0.0010196190883328062 -0.033155249689040434 0 0.0010629339079244854 -0.032484633374646167 0 0.0012019769815527666 -0.031871309224294916 0 0.00068133400951279064 -0.033983128169601452 0 0.00074877369072802815 -0.033398055492894534 0 0.0003622141500424139 -0.034841902328233795 0 0.0002803282836211939 -0.034869315728535806 0 0.00028674538717092497 -0.034909238056079615 0 0.00092930630146299484 -0.032060451075587901 0 0.00093459600377772552 -0.032242826104674674 0 0.0010629339079244854 -0.032484633374646167 0 0.00092930630146299484 -0.032060451075587901 0 0.0010629339079244854 -0.032484633374646167 0 0.0010250083523228937 -0.032063129636943959 0 0.00092930630146299484 -0.032060451075587901 0 0.0010250083523228937 -0.032063129636943959 0 0.0010240918896769484 -0.031894409465885988 0 0.0010629339079244854 -0.032484633374646167 0 0.0010250083523228937 -0.032063129636943959 0 0.0012019769815527666 -0.031871309224294916 0 0.00094156321444966893 -0.031779575688100324 0 0.00092930630146299484 -0.032060451075587901 0 0.00098545570823034643 -0.031845334491794608 0 0.0010240918896769484 -0.031894409465885988 0 0.001058649013262828 -0.031805643681414836 0 0.0012019769815527666 -0.031871309224294916 0 0.00092930630146299484 -0.032060451075587901 0 0.0010240918896769484 -0.031894409465885988 0 0.00098545570823034643 -0.031845334491794608 0 0.0010250083523228937 -0.032063129636943959 0 0.0010240918896769484 -0.031894409465885988 0 0.0012019769815527666 -0.031871309224294916 0 0.00093907873236312705 -0.031789638377798475 0 0.00098545570823034643 -0.031845334491794608 0 0.001058649013262828 -0.031805643681414836 0 0.00093907873236312705 -0.031789638377798475 0 0.00094156321444966893 -0.031779575688100324 0 0.00098545570823034643 -0.031845334491794608 0 0.0010240918896769484 -0.031894409465885988 0 0.00098545570823034643 -0.031845334491794608 0 0.001058649013262828 -0.031805643681414836 0 0.00061078619589438458 -0.033380098382970576 0 0.00074877369072802815 -0.033398055492894534 0 0.00026954334842748502 -0.034995168724547984 0 0.00024175598511184544 -0.034935113724116673 0 0.00028674538717092497 -0.034909238056079615 0 0.0011115293374533615 -0.031716806297664393 0 0.001058649013262828 -0.031805643681414836 0 0.0012019769815527666 -0.031871309224294916 0 0.00024175598511184544 -0.034935113724116673 0 0.00028674538717092497 -0.034909238056079615 0 0.000239617678353729 -0.034899720281563421 0 0.00024175598511184544 -0.034935113724116673 0 0.00019627488168906732 -0.034930290176838935 0 0.000239617678353729 -0.034899720281563421 0 0.00021024832483082571 -0.034963116803457012 0 0.00024175598511184544 -0.034935113724116673 0 0.00019627488168906732 -0.034930290176838935 0 0.00021024832483082571 -0.034963116803457012 0 0.00019627488168906732 -0.034930290176838935 0 0.0001518561117389084 -0.034965035455732103 0 0.0001518561117389084 -0.034965035455732103 0 0.00010731674750824984 -0.034942575900803775 0 0.00015092234229837631 -0.034922823074346951 0 9.357333837820643e-05 -0.034992964591742899 0 0.0001518561117389084 -0.034965035455732103 0 0.00010731674750824984 -0.034942575900803775 0 0.00019627488168906732 -0.034930290176838935 0 0.0001518561117389084 -0.034965035455732103 0 0.00015092234229837631 -0.034922823074346951 0 0.00015092234229837631 -0.034922823074346951 0 0.00012069096228596617 -0.034882293939445357 0 0.00017845095190913119 -0.034890876940667746 0 0.00010731674750824984 -0.034942575900803775 0 0.00015092234229837631 -0.034922823074346951 0 0.00012069096228596617 -0.034882293939445357 0 0.00012069096228596617 -0.034882293939445357 0 0.00017845095190913119 -0.034890876940667746 0 0.00015682337832668628 -0.034850338984780495 0 0.00017845095190913119 -0.034890876940667746 0 0.000239617678353729 -0.034899720281563421 0 0.00021775719338045673 -0.034851333973848243 0 0.00017845095190913119 -0.034890876940667746 0 0.00021775719338045673 -0.034851333973848243 0 0.00015682337832668628 -0.034850338984780495 0 0.00019627488168906732 -0.034930290176838935 0 0.00017845095190913119 -0.034890876940667746 0 0.000239617678353729 -0.034899720281563421 0 0.00019627488168906732 -0.034930290176838935 0 0.00015092234229837631 -0.034922823074346951 0 0.00017845095190913119 -0.034890876940667746 0 0.0002803282836211939 -0.034869315728535806 0 0.000239617678353729 -0.034899720281563421 0 0.00021775719338045673 -0.034851333973848243 0 0.00028245224260585119 -0.034821614660606827 0 0.0002803282836211939 -0.034869315728535806 0 0.00021775719338045673 -0.034851333973848243 0 0.00021775719338045673 -0.034851333973848243 0 0.00016210229322515457 -0.034803428441038974 0 0.00015682337832668628 -0.034850338984780495 0 0.00021775719338045673 -0.034851333973848243 0 0.00022819056652697385 -0.034782260383201674 0 0.00016210229322515457 -0.034803428441038974 0 0.00028245224260585119 -0.034821614660606827 0 0.00021775719338045673 -0.034851333973848243 0 0.00022819056652697385 -0.034782260383201674 0 0.00032403332915021478 -0.034734624865847809 0 0.00028245224260585119 -0.034821614660606827 0 0.00022819056652697385 -0.034782260383201674 0 0.00022819056652697385 -0.034782260383201674 0 0.00017451519785310999 -0.034747129547581926 0 0.00016210229322515457 -0.034803428441038974 0 0.00022819056652697385 -0.034782260383201674 0 0.00017451519785310999 -0.034747129547581926 0 0.00024300268206505559 -0.034703068879035071 0 0.00032403332915021478 -0.034734624865847809 0 0.00022819056652697385 -0.034782260383201674 0 0.00024300268206505559 -0.034703068879035071 0 0.00017451519785310999 -0.034747129547581926 0 9.9895630300940609e-05 -0.034764105842058336 0 0.00016689293295204968 -0.034693553098416159 0 0.00017451519785310999 -0.034747129547581926 0 9.9895630300940609e-05 -0.034764105842058336 0 0.00016210229322515457 -0.034803428441038974 0 9.9895630300940609e-05 -0.034764105842058336 0 0.00010935140241543431 -0.034819155801944002 0 0.00016210229322515457 -0.034803428441038974 0 0.00012069096228596617 -0.034882293939445357 0 0.00010935140241543431 -0.034819155801944002 0 0.00015682337832668628 -0.034850338984780495 0 0.00010935140241543431 -0.034819155801944002 0 0.00016210229322515457 -0.034803428441038974 0 0.00015682337832668628 -0.034850338984780495 0 0.00012069096228596617 -0.034882293939445357 0 0.00010935140241543431 -0.034819155801944002 0 8.3640235362187753e-05 -0.034852261222378549 0 7.9673137733600886e-05 -0.034809634667701185 0 6.2622282381782316e-05 -0.034765540275880781 0 3.3782003283234391e-05 -0.034858478813813834 0 8.3640235362187753e-05 -0.034852261222378549 0 7.9673137733600886e-05 -0.034809634667701185 0 3.3782003283234391e-05 -0.034858478813813834 0 0.00010935140241543431 -0.034819155801944002 0 8.3640235362187753e-05 -0.034852261222378549 0 7.9673137733600886e-05 -0.034809634667701185 0 9.9895630300940609e-05 -0.034764105842058336 0 0.00010935140241543431 -0.034819155801944002 0 7.9673137733600886e-05 -0.034809634667701185 0 9.9895630300940609e-05 -0.034764105842058336 0 7.9673137733600886e-05 -0.034809634667701185 0 6.2622282381782316e-05 -0.034765540275880781 0 2.9134073279303818e-05 -0.035000888925506568 0 1.4272701429277751e-08 -0.035000021633652741 0 -2.5208191017461433e-08 -0.035000000839069359 0 2.9134073279303818e-05 -0.035000888925506568 0 1.4272701429277751e-08 -0.035000021633652741 0 5.1480981725485771e-06 -0.035000117135732929 0 4.2431815328917771e-05 -0.034882454796087654 0 2.1642199045969371e-05 -0.034930691976031158 0 1.4272701429277751e-08 -0.035000021633652741 0 5.1480981725485771e-06 -0.035000117135732929 0 2.0914058610766728e-08 -0.034999948893593952 0 2.1642199045969371e-05 -0.034930691976031158 0 1.3425096357129047e-05 -0.03498379263074565 0 8.3640235362187753e-05 -0.034852261222378549 0 3.3782003283234391e-05 -0.034858478813813834 0 7.4225718786495644e-05 -0.034919706000706846 0 0.00010731674750824984 -0.034942575900803775 0 0.00012069096228596617 -0.034882293939445357 0 7.4225718786495644e-05 -0.034919706000706846 0 0.00012069096228596617 -0.034882293939445357 0 8.3640235362187753e-05 -0.034852261222378549 0 7.4225718786495644e-05 -0.034919706000706846 0 3.3782003283234391e-05 -0.034858478813813834 0 7.4225718786495644e-05 -0.034919706000706846 0 1.3659692190301214e-05 -0.034986018183537228 0 9.357333837820643e-05 -0.034992964591742899 0 0.00010731674750824984 -0.034942575900803775 0 6.4227385739104768e-05 -0.034973642605900475 0 0.00010731674750824984 -0.034942575900803775 0 7.4225718786495644e-05 -0.034919706000706846 0 6.4227385739104768e-05 -0.034973642605900475 0 7.4225718786495644e-05 -0.034919706000706846 0 6.4227385739104768e-05 -0.034973642605900475 0 1.3659692190301214e-05 -0.034986018183537228 0 5.1480981725485771e-06 -0.035000117135732929 0 1.3659692190301214e-05 -0.034986018183537228 0 2.0914058610766728e-08 -0.034999948893593952 0 -2.6194903492848942e-08 -0.034999682878580289 0 -7.1582696412557887e-06 -0.034702751222925959 0 6.4919133568681743e-06 -0.034845064231749039 0 -7.1582696412557887e-06 -0.034702751222925959 0 6.4919133568681743e-06 -0.034845064231749039 0 4.6160842556919367e-05 -0.034654035385701484 0 6.4919133568681743e-06 -0.034845064231749039 0 3.6614704252827935e-05 -0.034854116335721441 0 4.6160842556919367e-05 -0.034654035385701484 0 -2.6194903492848942e-08 -0.034999682878580289 0 6.4919133568681743e-06 -0.034845064231749039 0 2.5302518681074196e-08 -0.034999708298006492 0 2.5302518681074196e-08 -0.034999708298006492 0 -2.5208191017461433e-08 -0.035000000839069359 0 3.6614704252827935e-05 -0.034854116335721441 0 6.4919133568681743e-06 -0.034845064231749039 0 2.5302518681074196e-08 -0.034999708298006492 0 3.6614704252827935e-05 -0.034854116335721441 0 2.9134073279303818e-05 -0.035000888925506568 0 -2.5208191017461433e-08 -0.035000000839069359 0 3.6614704252827935e-05 -0.034854116335721441 0 6.2622282381782316e-05 -0.034765540275880781 0 3.6614704252827935e-05 -0.034854116335721441 0 7.9455723482579121e-05 -0.034742007243516317 0 4.2431815328917771e-05 -0.034882454796087654 0 3.9387728453096266e-05 -0.034855073495209547 0 9.9895630300940609e-05 -0.034764105842058336 0 6.2622282381782316e-05 -0.034765540275880781 0 7.9455723482579121e-05 -0.034742007243516317 0 3.6614704252827935e-05 -0.034854116335721441 0 9.0356101310511562e-05 -0.034672672674492006 0 4.6160842556919367e-05 -0.034654035385701484 0 3.6614704252827935e-05 -0.034854116335721441 0 9.0356101310511562e-05 -0.034672672674492006 0 7.9455723482579121e-05 -0.034742007243516317 0 9.0356101310511562e-05 -0.034672672674492006 0 7.9455723482579121e-05 -0.034742007243516317 0 0.00020378957397276906 -0.034579205562692512 0 9.9895630300940609e-05 -0.034764105842058336 0 7.9455723482579121e-05 -0.034742007243516317 0 0.00016689293295204968 -0.034693553098416159 0 7.9455723482579121e-05 -0.034742007243516317 0 0.00016689293295204968 -0.034693553098416159 0 0.00020378957397276906 -0.034579205562692512 0 0.00024300268206505559 -0.034703068879035071 0 0.00016689293295204968 -0.034693553098416159 0 0.00026912210948530136 -0.03462029447607886 0 0.00024300268206505559 -0.034703068879035071 0 0.00026912210948530136 -0.03462029447607886 0 0.0003464391791138502 -0.03462565567718278 0 0.00017451519785310999 -0.034747129547581926 0 0.00024300268206505559 -0.034703068879035071 0 0.00016689293295204968 -0.034693553098416159 0 0.00016689293295204968 -0.034693553098416159 0 0.00026912210948530136 -0.03462029447607886 0 0.00020378957397276906 -0.034579205562692512 0 9.0356101310511562e-05 -0.034672672674492006 0 0.00020378957397276906 -0.034579205562692512 0 0.00014173413665960016 -0.034550407842185521 0 0.00026912210948530136 -0.03462029447607886 0 0.00020378957397276906 -0.034579205562692512 0 0.00039313587536869173 -0.0345156709425989 0 0.00020378957397276906 -0.034579205562692512 0 0.0002363666030993007 -0.034447294742544772 0 0.00014173413665960016 -0.034550407842185521 0 0.00014173413665960016 -0.034550407842185521 0 4.6160842556919367e-05 -0.034654035385701484 0 0.00016030324243605467 -0.034399156467070868 0 0.0002363666030993007 -0.034447294742544772 0 0.00014173413665960016 -0.034550407842185521 0 0.00016030324243605467 -0.034399156467070868 0 9.0356101310511562e-05 -0.034672672674492006 0 0.00014173413665960016 -0.034550407842185521 0 4.6160842556919367e-05 -0.034654035385701484 0 -7.1582696412557887e-06 -0.034702751222925959 0 4.6160842556919367e-05 -0.034654035385701484 0 3.5728909078841875e-05 -0.034449816745243209 0 4.6160842556919367e-05 -0.034654035385701484 0 0.00016030324243605467 -0.034399156467070868 0 3.5728909078841875e-05 -0.034449816745243209 0 0.00016030324243605467 -0.034399156467070868 0 0.00015450534749499999 -0.034171639981959413 0 3.5728909078841875e-05 -0.034449816745243209 0 0.00016030324243605467 -0.034399156467070868 0 0.00035052645383738497 -0.034173755137798058 0 0.00033415733762513528 -0.034320831381896934 0 0.00016030324243605467 -0.034399156467070868 0 0.00035052645383738497 -0.034173755137798058 0 0.00015450534749499999 -0.034171639981959413 0 0.00035052645383738497 -0.034173755137798058 0 0.00054163719024372732 -0.034194345486969223 0 0.00033415733762513528 -0.034320831381896934 0 0.00035052645383738497 -0.034173755137798058 0 0.00054163719024372732 -0.034194345486969223 0 0.00056465044758608873 -0.033981499973053275 0 0.00054163719024372732 -0.034194345486969223 0 0.00033415733762513528 -0.034320831381896934 0 0.00040550810474443297 -0.034391735008428952 0 0.00054163719024372732 -0.034194345486969223 0 0.00040550810474443297 -0.034391735008428952 0 0.00057001287922255463 -0.034283147223911702 0 0.0002363666030993007 -0.034447294742544772 0 0.00033415733762513528 -0.034320831381896934 0 0.00040550810474443297 -0.034391735008428952 0 0.0002363666030993007 -0.034447294742544772 0 0.00016030324243605467 -0.034399156467070868 0 0.00033415733762513528 -0.034320831381896934 0 0.00020378957397276906 -0.034579205562692512 0 0.00040550810474443297 -0.034391735008428952 0 0.00039313587536869173 -0.0345156709425989 0 0.00020378957397276906 -0.034579205562692512 0 0.0002363666030993007 -0.034447294742544772 0 0.00040550810474443297 -0.034391735008428952 0 0.00040550810474443297 -0.034391735008428952 0 0.00039313587536869173 -0.0345156709425989 0 0.00052285314387068716 -0.034419961994896046 0 0.00026912210948530136 -0.03462029447607886 0 0.00039313587536869173 -0.0345156709425989 0 0.0003464391791138502 -0.03462565567718278 0 0.00039313587536869173 -0.0345156709425989 0 0.0005530577897425316 -0.034556623728641739 0 0.0003464391791138502 -0.03462565567718278 0 0.00032403332915021478 -0.034734624865847809 0 0.0005530577897425316 -0.034556623728641739 0 0.0003464391791138502 -0.03462565567718278 0 0.00051538965752387844 -0.034374876733795932 0 0.00052285314387068716 -0.034419961994896046 0 0.00062193111708597367 -0.034314137126834517 0 0.00061718523742052434 -0.034035693257061982 0 0.0005530577897425316 -0.034556623728641739 0 0.00051538965752387844 -0.034374876733795932 0 0.0005530577897425316 -0.034556623728641739 0 0.00051538965752387844 -0.034374876733795932 0 0.00052285314387068716 -0.034419961994896046 0 0.00039313587536869173 -0.0345156709425989 0 0.0005530577897425316 -0.034556623728641739 0 0.00052285314387068716 -0.034419961994896046 0 0.00040550810474443297 -0.034391735008428952 0 0.00052285314387068716 -0.034419961994896046 0 0.00057001287922255463 -0.034283147223911702 0 0.00052285314387068716 -0.034419961994896046 0 0.00057001287922255463 -0.034283147223911702 0 0.00062193111708597367 -0.034314137126834517 0 0.00057001287922255463 -0.034283147223911702 0 0.00062193111708597367 -0.034314137126834517 0 0.00074228952864765325 -0.034095069339577969 0 0.00062193111708597367 -0.034314137126834517 0 0.00060836596807497764 -0.034365796099162932 0 0.00075794191318664863 -0.034336722524285032 0 0.00051538965752387844 -0.034374876733795932 0 0.00062193111708597367 -0.034314137126834517 0 0.00060836596807497764 -0.034365796099162932 0 0.00062193111708597367 -0.034314137126834517 0 0.00075794191318664863 -0.034336722524285032 0 0.00079485658773528615 -0.034190864677966552 0 0.00075794191318664863 -0.034336722524285032 0 0.00079485658773528615 -0.034190864677966552 0 0.00097951497339218881 -0.034216279745478577 0 0.00062193111708597367 -0.034314137126834517 0 0.00079485658773528615 -0.034190864677966552 0 0.00074228952864765325 -0.034095069339577969 0 0.00079485658773528615 -0.034190864677966552 0 0.00074228952864765325 -0.034095069339577969 0 0.0010108031782945861 -0.033808619798405819 0 0.00074228952864765325 -0.034095069339577969 0 0.00085095952999871731 -0.033929144082633415 0 0.0010108031782945861 -0.033808619798405819 0 0.00054163719024372732 -0.034194345486969223 0 0.00074228952864765325 -0.034095069339577969 0 0.00085095952999871731 -0.033929144082633415 0 0.00054163719024372732 -0.034194345486969223 0 0.00057001287922255463 -0.034283147223911702 0 0.00074228952864765325 -0.034095069339577969 0 0.00054163719024372732 -0.034194345486969223 0 0.00056465044758608873 -0.033981499973053275 0 0.00085095952999871731 -0.033929144082633415 0 0.00085095952999871731 -0.033929144082633415 0 0.0010016189148630225 -0.033809325527675141 0 0.0011692671133073068 -0.033685664285604509 0 0.00085095952999871731 -0.033929144082633415 0 0.0010108031782945861 -0.033808619798405819 0 0.0010016189148630225 -0.033809325527675141 0 0.00085095952999871731 -0.033929144082633415 0 0.00074352570406461486 -0.033623376073749899 0 0.0011692671133073068 -0.033685664285604509 0 0.00056465044758608873 -0.033981499973053275 0 0.00074352570406461486 -0.033623376073749899 0 0.00038909184154373161 -0.033899073082473127 0 0.00056465044758608873 -0.033981499973053275 0 0.00085095952999871731 -0.033929144082633415 0 0.00074352570406461486 -0.033623376073749899 0 0.00074352570406461486 -0.033623376073749899 0 0.00090612265668926122 -0.032811531804877204 0 0.00033305656295246896 -0.033441580292453539 0 0.00074352570406461486 -0.033623376073749899 0 0.0011087940239065815 -0.033105579526277379 0 0.00090612265668926122 -0.032811531804877204 0 0.00074352570406461486 -0.033623376073749899 0 0.0011087940239065815 -0.033105579526277379 0 0.0011692671133073068 -0.033685664285604509 0 0.0011087940239065815 -0.033105579526277379 0 0.00090612265668926122 -0.032811531804877204 0 0.0014945883478151151 -0.032368456754356442 0 0.00092904074684841331 -0.032059578798889536 0 0.0012757733097274323 -0.03205202476213783 0 0.00090612265668926122 -0.032811531804877204 0 0.0012757733097274323 -0.03205202476213783 0 0.00090612265668926122 -0.032811531804877204 0 0.0014945883478151151 -0.032368456754356442 0 0.00092904074684841331 -0.032059578798889536 0 0.00090612265668926122 -0.032811531804877204 0 0.00054559225114429841 -0.032602936596509494 0 0.00090612265668926122 -0.032811531804877204 0 0.00033305656295246896 -0.033441580292453539 0 0.00054559225114429841 -0.032602936596509494 0 0.00033305656295246896 -0.033441580292453539 0 0.00054559225114429841 -0.032602936596509494 0 5.8515967604531816e-05 -0.032559613348284187 0 -0.00011881524104026055 -0.034206889903143432 0 -0.0001234948898326322 -0.033835787480271738 0 -7.0891252223014009e-05 -0.034204517833016514 0 1.734307165685954e-05 -0.033362840114950783 0 -0.00011803476208352713 -0.033749178022378291 0 0.00033305656295246896 -0.033441580292453539 0 0.00013182238372109738 -0.033899585988387659 0 -0.0001234948898326322 -0.033835787480271738 0 0.00033305656295246896 -0.033441580292453539 0 5.8515967604531816e-05 -0.032559613348284187 0 -0.0001234948898326322 -0.033835787480271738 0 0.00013182238372109738 -0.033899585988387659 0 0.00015450534749499999 -0.034171639981959413 0 -2.0971934276731359e-07 -0.034182123101106382 0 0.00033305656295246896 -0.033441580292453539 0 0.00013182238372109738 -0.033899585988387659 0 0.00038909184154373161 -0.033899073082473127 0 0.00074352570406461486 -0.033623376073749899 0 0.00033305656295246896 -0.033441580292453539 0 0.00038909184154373161 -0.033899073082473127 0 0.00035052645383738497 -0.034173755137798058 0 0.00056465044758608873 -0.033981499973053275 0 0.00038909184154373161 -0.033899073082473127 0 0.00035052645383738497 -0.034173755137798058 0 0.00038909184154373161 -0.033899073082473127 0 0.00015450534749499999 -0.034171639981959413 0 0.00013182238372109738 -0.033899585988387659 0 0.00038909184154373161 -0.033899073082473127 0 0.00015450534749499999 -0.034171639981959413 0 0.00015450534749499999 -0.034171639981959413 0 3.5728909078841875e-05 -0.034449816745243209 0 -2.0971934276731359e-07 -0.034182123101106382 0 3.5728909078841875e-05 -0.034449816745243209 0 -2.9329789982044325e-05 -0.034465067736064947 0 -2.0971934276731359e-07 -0.034182123101106382 0 -7.1582696412557887e-06 -0.034702751222925959 0 3.5728909078841875e-05 -0.034449816745243209 0 -2.9329789982044325e-05 -0.034465067736064947 0 -2.9329789982044325e-05 -0.034465067736064947 0 -2.0971934276731359e-07 -0.034182123101106382 0 -6.3142981923047618e-05 -0.03426908130048207 0 -2.9329789982044325e-05 -0.034465067736064947 0 -6.3142981923047618e-05 -0.03426908130048207 0 -4.1160167559027111e-05 -0.034682604179800652 0 0.00013182238372109738 -0.033899585988387659 0 -2.0971934276731359e-07 -0.034182123101106382 0 -0.0001234948898326322 -0.033835787480271738 0 -2.0971934276731359e-07 -0.034182123101106382 0 -0.0001234948898326322 -0.033835787480271738 0 -6.3142981923047618e-05 -0.03426908130048207 0 -0.0001234948898326322 -0.033835787480271738 0 -7.0891252223014009e-05 -0.034204517833016514 0 -6.3142981923047618e-05 -0.03426908130048207 0 -7.0891252223014009e-05 -0.034204517833016514 0 -0.00012385939535635189 -0.03447336732689809 0 -6.3142981923047618e-05 -0.03426908130048207 0 -0.00014129346682701039 -0.034160129205626034 0 -7.0891252223014009e-05 -0.034204517833016514 0 -0.00012385939535635189 -0.03447336732689809 0 -0.00012385939535635189 -0.03447336732689809 0 -6.3142981923047618e-05 -0.03426908130048207 0 -4.1160167559027111e-05 -0.034682604179800652 0 -9.2250666541828424e-05 -0.034941354536286655 0 -0.00012385939535635189 -0.03447336732689809 0 -2.2604892628834051e-05 -0.034802530182396409 0 -0.00012385939535635189 -0.03447336732689809 0 -4.1160167559027111e-05 -0.034682604179800652 0 -2.2604892628834051e-05 -0.034802530182396409 0 8.9205726536558086e-08 -0.034999935071721174 0 -2.2604892628834051e-05 -0.034802530182396409 0 -2.2571828164092222e-08 -0.034999543719363833 0 -4.1160167559027111e-05 -0.034682604179800652 0 -2.2604892628834051e-05 -0.034802530182396409 0 -2.2571828164092222e-08 -0.034999543719363833 0 -4.1160167559027111e-05 -0.034682604179800652 0 -2.2571828164092222e-08 -0.034999543719363833 0 -3.5299991162316082e-08 -0.034999567217846889 0 -4.1160167559027111e-05 -0.034682604179800652 0 -3.5299991162316082e-08 -0.034999567217846889 0 -2.1973780059917821e-05 -0.034773586594428772 0 -2.9329789982044325e-05 -0.034465067736064947 0 -4.1160167559027111e-05 -0.034682604179800652 0 -2.1973780059917821e-05 -0.034773586594428772 0 -7.1582696412557887e-06 -0.034702751222925959 0 -2.9329789982044325e-05 -0.034465067736064947 0 -2.1973780059917821e-05 -0.034773586594428772 0 -2.6194903492848942e-08 -0.034999682878580289 0 -7.1582696412557887e-06 -0.034702751222925959 0 -2.1973780059917821e-05 -0.034773586594428772 0 -2.6194903492848942e-08 -0.034999682878580289 0 -3.5299991162316082e-08 -0.034999567217846889 0 -2.1973780059917821e-05 -0.034773586594428772 0 0.0014243678771163144 -0.028124285847052753 0 0.0021770461643797535 -0.027804970790803046 0 0.001713909412137516 -0.029028391370578163 0 0.0014243678771163144 -0.028124285847052753 0 0.00056765657084640361 -0.028292056503150892 0 0.0012315563303182306 -0.027368395126567122 0 0.0014243678771163144 -0.028124285847052753 0 0.0021770461643797535 -0.027804970790803046 0 0.0012315563303182306 -0.027368395126567122 0 0.00063011555594009549 -0.030872620248439914 0 0.0015204736263404526 -0.03111102211712851 0 -0.00032515749861338161 -0.033297851439788119 0 -0.00011808498625618974 -0.033372916185697606 0 0.0001017155308957507 -0.033659585676215693 0 0.0021770461643797535 -0.027804970790803046 0 0.001713909412137516 -0.029028391370578163 0 0.0029247397297382286 -0.028654837092132977 0 -0.00041361631853851556 -0.033369281966544581 0 -0.00011808498625618974 -0.033372916185697606 0 -0.00017270870795886318 -0.033164182376103739 0 0.00063011555594009549 -0.030872620248439914 0 0.0002804986161664782 -0.032135130775117114 0 0.001713909412137516 -0.029028391370578163 0 0.0029247397297382286 -0.028654837092132977 0 0.0028233780593763975 -0.02973069326871244 0 0.0025605898442986976 -0.028167463917182223 0 0.0019676563971594563 -0.028446691856437629 0 0.0014243678771163144 -0.028124285847052753 0 0.001713909412137516 -0.029028391370578163 0 0.00056765657084640361 -0.028292056503150892 0 0.0036453129071150974 -0.027564452756684465 0 0.0026860986207595185 -0.027667195906478637 0 0.0027417943785086763 -0.026906626014489839 0 0.0026860986207595185 -0.027667195906478637 0 0.0023072062754442863 -0.0272600456791223 0 0.0027417943785086763 -0.026906626014489839 0 0.0023072062754442863 -0.0272600456791223 0 0.0022307637234499572 -0.027896904984535439 0 0.0018663184115893681 -0.027361343225059145 0 0.0026860986207595185 -0.027667195906478637 0 0.0023072062754442863 -0.0272600456791223 0 0.0022307637234499572 -0.027896904984535439 0 0.0023072062754442863 -0.0272600456791223 0 0.0019912822571705965 -0.026638703592139715 0 0.0018663184115893681 -0.027361343225059145 0 0.0019676563971594563 -0.028446691856437629 0 0.00040018926700825027 -0.021304894453276157 0 0.0023072062754442863 -0.0272600456791223 0 0.0019912822571705965 -0.026638703592139715 0 0.0027417943785086763 -0.026906626014489839 0 0.0019912822571705965 -0.026638703592139715 0 0.0027417943785086763 -0.026906626014489839 0 0.0019145583151437199 -0.026399917726358215 0 -0.0015508241188575971 -0.028568435124570673 0 -0.00098671351213698555 -0.028173317925730943 0 -0.00034415815861778585 -0.028662463931637946 0 -0.00066331262201317382 -0.025270305296652487 0 0.00066079096328790232 -0.028319817240712093 0 0.00056765657084640361 -0.028292056503150892 0 0.00026733442178811229 -0.026929688805048452 0 0.0012315563303182306 -0.027368395126567122 0 -0.0015508241188575971 -0.028568435124570673 0 -0.00034415815861778585 -0.028662463931637946 0 -0.00027691792261249612 -0.029127980644765929 0 -7.269533858502015e-05 -0.02070174707948115 0 -0.00091948763903837915 -0.020316633356470982 0 -0.00079306654972628027 -0.021193458256641502 0 0.00056765657084640361 -0.028292056503150892 0 0.00026733442178811229 -0.026929688805048452 0 -0.00059178590264586522 -0.027520031799707953 0 -0.00066331262201317382 -0.025270305296652487 0 0.00040018926700825027 -0.021304894453276157 0 -0.0035677788957253244 -0.027438975936762394 0 -0.0014331946459117157 -0.02769170356003179 0 -0.00066331262201317382 -0.025270305296652487 0 -0.0017310671477439542 -0.022304809601228024 0 -0.0019568422648627536 -0.023609725747553212 0 -0.001123535478914531 -0.024908162685594076 0 -0.0022130438396041345 -0.024432189311881489 0 -0.0019568422648627536 -0.023609725747553212 0 -0.001123535478914531 -0.024908162685594076 0 -0.00066091929060304981 -0.024586614796310309 0 -0.0029056882566669217 -0.030485728902868839 0 -0.0047534559792715252 -0.030065793894492432 0 -0.0026458022249981738 -0.031646232043341896 0 -0.00061973282825430131 -0.027924943314129702 0 -0.0010019068430020799 -0.028196375411848728 0 -0.00034415815861778585 -0.028662463931637946 0 -0.0014331946459117157 -0.02769170356003179 0 -0.0003686325541128875 -0.028592292331576553 0 -0.0018727905490194777 -0.030409191418262045 0 -0.0014331946459117157 -0.02769170356003179 0 -0.00066331262201317382 -0.025270305296652487 0 -0.0014331946459117157 -0.02769170356003179 0 -0.0025412671955907374 -0.030595687208589305 0 -0.0018727905490194777 -0.030409191418262045 0 -0.0029056882566669217 -0.030485728902868839 0 -0.0021435084605994519 -0.031285211336673016 0 -0.0026458022249981738 -0.031646232043341896 0 -0.0029056882566669217 -0.030485728902868839 0 -0.0021754524583874829 -0.031370530281201348 0 -0.0016872192048582306 -0.031042083710203353 0 -0.0022067720664347358 -0.031428132285609013 0 -0.0016872192048582306 -0.031042083710203353 0 -0.0012013368618303069 -0.031722884834275406 0 -0.0018727905490194777 -0.030409191418262045 0 -0.0020269231330345963 -0.030791660978892108 0 -0.00089326292572912901 -0.03061818769867819 0 -0.0016872192048582306 -0.031042083710203353 0 -0.0012013368618303069 -0.031722884834275406 0 -0.0018727905490194777 -0.030409191418262045 0 -0.00049610317408942703 -0.030686594051766471 0 -0.0022067720664347358 -0.031428132285609013 0 -0.0012013368618303069 -0.031722884834275406 0 -0.0012021530043024276 -0.032603300140137376 0 0.00063011555594009549 -0.030872620248439914 0 0.00066079096328790232 -0.028319817240712093 0 0.0010291216978533461 -0.029688619024994166 0 0.00020424441832640657 -0.028787427194375687 0 -0.00027691792261249612 -0.029127980644765929 0 -0.00061973282825430131 -0.027924943314129702 0 -0.00034415815861778585 -0.028662463931637946 0 0.00020424441832640657 -0.028787427194375687 0 -0.00034415815861778585 -0.028662463931637946 0 0.00020424441832640657 -0.028787427194375687 0 -0.00027691792261249612 -0.029127980644765929 0 -0.0012013368618303069 -0.031722884834275406 0 -0.0012021530043024276 -0.032603300140137376 0 -0.00025190634155602249 -0.032881331811131377 0 -0.00025190634155602249 -0.032881331811131377 0 -0.00021848354889035879 -0.032698729182088632 0 -7.1980093112933427e-06 -0.033093521901710068 0 -0.00017270870795886318 -0.033164182376103739 0 -0.00025190634155602249 -0.032881331811131377 0 -7.1980093112933427e-06 -0.033093521901710068 0 -0.00041361631853851556 -0.033369281966544581 0 -0.00017270870795886318 -0.033164182376103739 0 -0.00025190634155602249 -0.032881331811131377 0 -0.00041361631853851556 -0.033369281966544581 0 -0.0012021530043024276 -0.032603300140137376 0 -0.00025190634155602249 -0.032881331811131377 0 0.00063011555594009549 -0.030872620248439914 0 -0.00049610317408942703 -0.030686594051766471 0 -0.00071209807481288265 -0.032503160821001902 0 -0.00025190634155602249 -0.032881331811131377 0 -0.00021848354889035879 -0.032698729182088632 0 -0.00034791409933885269 -0.032467435824731904 0 -0.00071209807481288265 -0.032503160821001902 0 -0.00021848354889035879 -0.032698729182088632 0 -0.00089326292572912901 -0.03061818769867819 0 -0.0012013368618303069 -0.031722884834275406 0 -0.00025190634155602249 -0.032881331811131377 0 -0.0008056297920456375 -0.031596471127768519 0 -0.00028974457520303834 -0.032749297863374813 0 -0.00010267807644141798 -0.03244663706694436 0 -0.00021848354889035879 -0.032698729182088632 0 0.00011260289208433394 -0.032827859420530348 0 0.00022723410878504614 -0.032406685932203888 0 -0.00010267807644141798 -0.03244663706694436 0 0.00011260289208433394 -0.032827859420530348 0 -0.00010267807644141798 -0.03244663706694436 0 -0.00034791409933885269 -0.032467435824731904 0 -0.00021848354889035879 -0.032698729182088632 0 0.00063011163600879157 -0.032345814402136443 0 0.00022723410878504614 -0.032406685932203888 0 0.00047513545447137016 -0.032976768823575218 0 0.00022723410878504614 -0.032406685932203888 0 0.00011260289208433394 -0.032827859420530348 0 0.00047513545447137016 -0.032976768823575218 0 0.00011260289208433394 -0.032827859420530348 0 0.00047513545447137016 -0.032976768823575218 0 0.00034267081882456701 -0.033312296520088665 0 0.00047513545447137016 -0.032976768823575218 0 0.00075054751956221504 -0.033605489450230605 0 0.00034267081882456701 -0.033312296520088665 0 -0.00021848354889035879 -0.032698729182088632 0 0.00011260289208433394 -0.032827859420530348 0 -7.1980093112933427e-06 -0.033093521901710068 0 0.00011260289208433394 -0.032827859420530348 0 -7.1980093112933427e-06 -0.033093521901710068 0 0.00034267081882456701 -0.033312296520088665 0 -0.00011808498625618974 -0.033372916185697606 0 -0.00017270870795886318 -0.033164182376103739 0 -7.1980093112933427e-06 -0.033093521901710068 0 0.00084689072069453605 -0.033204022529303115 0 0.0010313258725716742 -0.033749079561051568 0 0.00075794191318664863 -0.034336722524285032 0 0.00094325603886206066 -0.034402145692773278 0 0.00097951497339218881 -0.034216279745478577 0 0.00062177856246571509 -0.032773151496029239 0 0.00084689072069453605 -0.033204022529303115 0 0.00063011163600879157 -0.032345814402136443 0 0.00047513545447137016 -0.032976768823575218 0 0.0011042806063751463 -0.032553608542552577 0 0.00047513545447137016 -0.032976768823575218 0 0.001023842535077753 -0.032725434355422647 0 0.0010819479141548588 -0.033156713368046938 0 0.00047513545447137016 -0.032976768823575218 0 0.00085095717172539991 -0.033446135320808396 0 0.0010819479141548588 -0.033156713368046938 0 0.00047513545447137016 -0.032976768823575218 0 0.00085095717172539991 -0.033446135320808396 0 0.00075054751956221504 -0.033605489450230605 0 0.0010313258725716742 -0.033749079561051568 0 0.0010143613912210125 -0.033751791567427768 0 0.00085095717172539991 -0.033446135320808396 0 0.0010819479141548588 -0.033156713368046938 0 0.0010108031782945861 -0.033808619798405819 0 0.00079485658773528615 -0.034190864677966552 0 0.00097951497339218881 -0.034216279745478577 0 0.0010108031782945861 -0.033808619798405819 0 0.00085095717172539991 -0.033446135320808396 0 0.0010108031782945861 -0.033808619798405819 0 0.00075054751956221504 -0.033605489450230605 0 0.0010108031782945861 -0.033808619798405819 0 0.00075054751956221504 -0.033605489450230605 0 0.0010016189148630225 -0.033809325527675141 0 0.00075054751956221504 -0.033605489450230605 0 0.00083363552405069845 -0.033789802774499882 0 0.0010016189148630225 -0.033809325527675141 0 0.00075054751956221504 -0.033605489450230605 0 0.00083363552405069845 -0.033789802774499882 0 0.0004723421580349709 -0.033634551103212902 0 0.00015961173704704925 -0.033427390446204727 0 0.0004723421580349709 -0.033634551103212902 0 0.0001017155308957507 -0.033659585676215693 0 -0.00011808498625618974 -0.033372916185697606 0 0.00015961173704704925 -0.033427390446204727 0 0.0001017155308957507 -0.033659585676215693 0 -0.00011808498625618974 -0.033372916185697606 0 -7.1980093112933427e-06 -0.033093521901710068 0 0.00015961173704704925 -0.033427390446204727 0 -7.1980093112933427e-06 -0.033093521901710068 0 0.00015961173704704925 -0.033427390446204727 0 0.00034267081882456701 -0.033312296520088665 0 0.00075054751956221504 -0.033605489450230605 0 0.00034267081882456701 -0.033312296520088665 0 0.0004723421580349709 -0.033634551103212902 0 0.00015961173704704925 -0.033427390446204727 0 0.00034267081882456701 -0.033312296520088665 0 0.0004723421580349709 -0.033634551103212902 0 0.0004723421580349709 -0.033634551103212902 0 0.0001017155308957507 -0.033659585676215693 0 0.00051639361371396721 -0.033880732980896111 0 0.00083363552405069845 -0.033789802774499882 0 0.0004723421580349709 -0.033634551103212902 0 0.00051639361371396721 -0.033880732980896111 0 0.0015204736263404526 -0.03111102211712851 0 0.0021158339123404234 -0.031700962432214375 0 0.0029247397297382286 -0.028654837092132977 0 0.0028233780593763975 -0.02973069326871244 0 0.0036386688065631985 -0.029478206314367029 0 0.0021158339123404234 -0.031700962432214375 0 0.0022324360491255764 -0.032075176316946091 0 0.0028233780593763975 -0.02973069326871244 0 0.0036386688065631985 -0.029478206314367029 0 0.0038786153200449534 -0.030402080990428879 0 0.0036386688065631985 -0.029478206314367029 0 0.0038786153200449534 -0.030402080990428879 0 0.0043345920152854118 -0.030266229076850056 0 0.0038700636292170274 -0.028860324820312797 0 0.0037673645517628191 -0.030811893348672355 0 0.0024824492830875975 -0.032047520882389338 0 0.0022672830790896794 -0.032327609323272423 0 0.0024809233023519472 -0.031768092710487923 0 0.0037673645517628191 -0.030811893348672355 0 0.0036850615915623663 -0.030083038337387832 0 0.0024824492830875975 -0.032047520882389338 0 0.0026672465597414271 -0.031432530213620045 0 0.0029530330078856525 -0.03112585724853871 0 0.0046099860027024745 -0.028206700315243104 0 0.0055656280732447405 -0.028839568835173003 0 0.0044201312615754365 -0.029199280335853436 0 0.00083363552405069845 -0.033789802774499882 0 0.0010016189148630225 -0.033809325527675141 0 0.0011692671133073068 -0.033685664285604509 0 0.00083363552405069845 -0.033789802774499882 0 0.0011692671133073068 -0.033685664285604509 0 0.00081253287864029933 -0.033992831880057237 0 0.00083363552405069845 -0.033789802774499882 0 0.00051639361371396721 -0.033880732980896111 0 0.00081253287864029933 -0.033992831880057237 0 0.0037673645517628191 -0.030811893348672355 0 0.0022324360491255764 -0.032075176316946091 0 0.0032318728507652289 -0.032899972614449297 0 0.002459294213694627 -0.033114864051140738 0 0.0024488424083297512 -0.032806938015628319 0 0.0037673645517628191 -0.030811893348672355 0 0.0025157035540239333 -0.032069879633330592 0 0.0032318728507652289 -0.032899972614449297 0 0.0024488424083297512 -0.032806938015628319 0 0.0022672830790896794 -0.032327609323272423 0 0.0024488424083297512 -0.032806938015628319 0 0.001985506022261811 -0.032907646004899656 0 0.0022672830790896794 -0.032327609323272423 0 0.001985506022261811 -0.032907646004899656 0 0.0022672830790896794 -0.032327609323272423 0 0.0019303517504154931 -0.032297935828370664 0 0.002459294213694627 -0.033114864051140738 0 0.0024488424083297512 -0.032806938015628319 0 0.001985506022261811 -0.032907646004899656 0 0.0011692671133073068 -0.033685664285604509 0 0.001985506022261811 -0.032907646004899656 0 0.0015112020370187241 -0.032832548929707425 0 0.0011692671133073068 -0.033685664285604509 0 0.002459294213694627 -0.033114864051140738 0 0.001985506022261811 -0.032907646004899656 0 0.0011087940239065815 -0.033105579526277379 0 0.0011692671133073068 -0.033685664285604509 0 0.0015112020370187241 -0.032832548929707425 0 0.0008504943816710726 -0.03402757706178465 0 0.0022324360491255764 -0.032075176316946091 0 0.001985506022261811 -0.032907646004899656 0 0.0015112020370187241 -0.032832548929707425 0 0.0019303517504154931 -0.032297935828370664 0 0.0014945883478151151 -0.032368456754356442 0 0.0019303517504154931 -0.032297935828370664 0 0.002042757566727223 -0.03178659268226805 0 0.0011087940239065815 -0.033105579526277379 0 0.0015112020370187241 -0.032832548929707425 0 0.0014945883478151151 -0.032368456754356442 0 0.0015112020370187241 -0.032832548929707425 0 0.0014945883478151151 -0.032368456754356442 0 0.0019303517504154931 -0.032297935828370664 0 0.0019303517504154931 -0.032297935828370664 0 0.0022443753501293919 -0.031920624266167708 0 0.002042757566727223 -0.03178659268226805 0 0.0022672830790896794 -0.032327609323272423 0 0.0019303517504154931 -0.032297935828370664 0 0.0022443753501293919 -0.031920624266167708 0 0.0022672830790896794 -0.032327609323272423 0 0.0022443753501293919 -0.031920624266167708 0 0.0024809233023519472 -0.031768092710487923 0 0.0022443753501293919 -0.031920624266167708 0 0.0023501056600906331 -0.031574793462758668 0 0.0024809233023519472 -0.031768092710487923 0 0.0022443753501293919 -0.031920624266167708 0 0.0023501056600906331 -0.031574793462758668 0 0.002042757566727223 -0.03178659268226805 0 0.0023453436841802456 -0.031203798888297451 0 0.0023501056600906331 -0.031574793462758668 0 0.002042757566727223 -0.03178659268226805 0 0.0023453436841802456 -0.031203798888297451 0 0.002042757566727223 -0.03178659268226805 0 0.0017158900203680561 -0.031672062168269642 0 0.0012757733097274323 -0.03205202476213783 0 0.0014945883478151151 -0.032368456754356442 0 0.0017158900203680561 -0.031672062168269642 0 0.0014945883478151151 -0.032368456754356442 0 0.002042757566727223 -0.03178659268226805 0 0.0017158900203680561 -0.031672062168269642 0 0.002832815365500316 -0.030952353408643329 0 0.0026672465597414271 -0.031432530213620045 0 0.0029530330078856525 -0.03112585724853871 0 0.002832815365500316 -0.030952353408643329 0 0.0026672465597414271 -0.031432530213620045 0 0.0026014615345768348 -0.031263401486063117 0 0.0024824492830875975 -0.032047520882389338 0 0.0026672465597414271 -0.031432530213620045 0 0.0024809233023519472 -0.031768092710487923 0 0.0023501056600906331 -0.031574793462758668 0 0.0024809233023519472 -0.031768092710487923 0 0.0026014615345768348 -0.031263401486063117 0 0.0026672465597414271 -0.031432530213620045 0 0.0024809233023519472 -0.031768092710487923 0 0.0026014615345768348 -0.031263401486063117 0 0.0023453436841802456 -0.031203798888297451 0 0.0026014615345768348 -0.031263401486063117 0 0.0028324397697790998 -0.030788451008906252 0 0.0023453436841802456 -0.031203798888297451 0 0.0023501056600906331 -0.031574793462758668 0 0.0026014615345768348 -0.031263401486063117 0 0.002832815365500316 -0.030952353408643329 0 0.0028324397697790998 -0.030788451008906252 0 0.0030231324695598489 -0.030365507570324645 0 0.002832815365500316 -0.030952353408643329 0 0.0026014615345768348 -0.031263401486063117 0 0.0028324397697790998 -0.030788451008906252 0 0.0029895696201411755 -0.030356058123255408 0 0.0028324397697790998 -0.030788451008906252 0 0.0030231324695598489 -0.030365507570324645 0 0.0030231324695598489 -0.030365507570324645 0 0.0029281812893392819 -0.029703242453117076 0 0.0030853511023895982 -0.029651511338238196 0 0.0029895696201411755 -0.030356058123255408 0 0.0030231324695598489 -0.030365507570324645 0 0.0029281812893392819 -0.029703242453117076 0 0.002832815365500316 -0.030952353408643329 0 0.0030231324695598489 -0.030365507570324645 0 0.0029530330078856525 -0.03112585724853871 0 0.0030461969685581284 -0.029793854771900951 0 0.0036850615915623663 -0.030083038337387832 0 0.0030231324695598489 -0.030365507570324645 0 0.0030853511023895982 -0.029651511338238196 0 0.0029530330078856525 -0.03112585724853871 0 0.0046099860027024745 -0.028206700315243104 0 0.0037688789227531732 -0.028529723280283987 0 0.0044201312615754365 -0.029199280335853436 0 0.0030853511023895982 -0.029651511338238196 0 0.0037688789227531732 -0.028529723280283987 0 0.0044201312615754365 -0.029199280335853436 0 0.0030853511023895982 -0.029651511338238196 0 0.0037688789227531732 -0.028529723280283987 0 0.0029555930411517195 -0.028298216014398119 0 0.0036453129071150974 -0.027564452756684465 0 0.0037688789227531732 -0.028529723280283987 0 0.0029555930411517195 -0.028298216014398119 0 0.0025605898442986976 -0.028167463917182223 0 0.0038700636292170274 -0.028860324820312797 0 0.0036453129071150974 -0.027564452756684465 0 0.0046099860027024745 -0.028206700315243104 0 0.0037688789227531732 -0.028529723280283987 0 0.0022307637234499572 -0.027896904984535439 0 0.0024236292117693539 -0.028871738698263892 0 0.0019017638281723767 -0.028300193766468931 0 0.0036453129071150974 -0.027564452756684465 0 0.0026860986207595185 -0.027667195906478637 0 0.0029555930411517195 -0.028298216014398119 0 0.0026860986207595185 -0.027667195906478637 0 0.0022307637234499572 -0.027896904984535439 0 0.0029555930411517195 -0.028298216014398119 0 0.0022307637234499572 -0.027896904984535439 0 0.0029555930411517195 -0.028298216014398119 0 0.0024236292117693539 -0.028871738698263892 0 0.0030853511023895982 -0.029651511338238196 0 0.0029555930411517195 -0.028298216014398119 0 0.0024236292117693539 -0.028871738698263892 0 0.0024236292117693539 -0.028871738698263892 0 0.0018814333896834902 -0.028754897220060704 0 0.0019017638281723767 -0.028300193766468931 0 0.0023452545135093069 -0.029180628250816656 0 0.002700726946823355 -0.029102486764591651 0 0.0018599022432047199 -0.029318454216567504 0 0.0023452545135093069 -0.029180628250816656 0 0.0026901351276611939 -0.029371821101419615 0 0.002700726946823355 -0.029102486764591651 0 0.0024236292117693539 -0.028871738698263892 0 0.0023452545135093069 -0.029180628250816656 0 0.0018814333896834902 -0.028754897220060704 0 0.0024236292117693539 -0.028871738698263892 0 0.0023452545135093069 -0.029180628250816656 0 0.0026901351276611939 -0.029371821101419615 0 0.0030853511023895982 -0.029651511338238196 0 0.0024236292117693539 -0.028871738698263892 0 0.0026901351276611939 -0.029371821101419615 0 0.0029281812893392819 -0.029703242453117076 0 0.0030853511023895982 -0.029651511338238196 0 0.0026901351276611939 -0.029371821101419615 0 0.002588158597643624 -0.02933897470727562 0 0.0029281812893392819 -0.029703242453117076 0 0.002700726946823355 -0.029102486764591651 0 0.0029281812893392819 -0.029703242453117076 0 0.0026901351276611939 -0.029371821101419615 0 0.002700726946823355 -0.029102486764591651 0 0.002700726946823355 -0.029102486764591651 0 0.0020812388009443026 -0.028104313047774263 0 0.0017207339554819677 -0.026438061497693888 0 0.0025699140399188551 -0.02889781500722742 0 0.0017441845797767305 -0.027907394812399091 0 0.002588158597643624 -0.02933897470727562 0 0.002700726946823355 -0.029102486764591651 0 0.0020812388009443026 -0.028104313047774263 0 0.0020812388009443026 -0.028104313047774263 0 0.0015197260815687237 -0.026877132890776822 0 0.0017207339554819677 -0.026438061497693888 0 0.0016751692389471368 -0.027652952329197483 0 0.0020812388009443026 -0.028104313047774263 0 0.0015197260815687237 -0.026877132890776822 0 0.0015197260815687237 -0.026877132890776822 0 0.0011192804604392818 -0.025913906455319932 0 0.0017207339554819677 -0.026438061497693888 0 0.0016751692389471368 -0.027652952329197483 0 0.0012951049809439494 -0.026565947566851631 0 0.00093698058586968102 -0.025946465583235472 0 0.0016751692389471368 -0.027652952329197483 0 0.0015197260815687237 -0.026877132890776822 0 0.0012951049809439494 -0.026565947566851631 0 0.0012951049809439494 -0.026565947566851631 0 0.0011192804604392818 -0.025913906455319932 0 0.00093698058586968102 -0.025946465583235472 0 0.0015197260815687237 -0.026877132890776822 0 0.0012951049809439494 -0.026565947566851631 0 0.0011192804604392818 -0.025913906455319932 0 0.0011192804604392818 -0.025913906455319932 0 0.0017207339554819677 -0.026438061497693888 0 0.0011400037646548181 -0.025792801116133086 0 0.0017441845797767305 -0.027907394812399091 0 0.00089160450620265092 -0.027366591066259226 0 0.0018599022432047199 -0.029318454216567504 0 0.00080707276897604401 -0.028832087553591207 0 0.0013871375160103706 -0.028682929939054178 0 0.0023452545135093069 -0.029180628250816656 0 0.0018599022432047199 -0.029318454216567504 0 0.0018814333896834902 -0.028754897220060704 0 0.0018599022432047199 -0.029318454216567504 0 0.0018814333896834902 -0.028754897220060704 0 0.0013871375160103706 -0.028682929939054178 0 0.00031344672482780666 -0.023498429196996504 0 0.00043647428189680544 -0.023692337791492185 0 0.00024599303995829195 -0.022941222706015334 0 0.00022363797625765146 -0.023290714047133832 0 0.00032676371565651657 -0.02321486249164308 0 0.00031344672482780666 -0.023498429196996504 0 0.00031344672482780666 -0.023498429196996504 0 0.00093698058586968102 -0.025946465583235472 0 0.00043647428189680544 -0.023692337791492185 0 0.0010320408224062077 -0.025622458804073964 0 0.0007278911994607431 -0.024752924909992053 0 0.00042823769755735583 -0.023743036283549158 0 0.00075535213866625354 -0.024580224868123678 0 0.0011192804604392818 -0.025913906455319932 0 0.00093698058586968102 -0.025946465583235472 0 0.00043647428189680544 -0.023692337791492185 0 0.00022363797625765146 -0.023290714047133832 0 0.00031344672482780666 -0.023498429196996504 0 0.0002677457212740206 -0.023227729809246745 0 0.0011192804604392818 -0.025913906455319932 0 0.0011592539739929105 -0.025812145619183172 0 0.0011400037646548181 -0.025792801116133086 0 0.0011192804604392818 -0.025913906455319932 0 0.0011592539739929105 -0.025812145619183172 0 0.0012198374842109414 -0.025729355880167958 0 0.0011592539739929105 -0.025812145619183172 0 0.0012217904581627436 -0.025835550896841478 0 0.0011400037646548181 -0.025792801116133086 0 0.0011592539739929105 -0.025812145619183172 0 0.0012198374842109414 -0.025729355880167958 0 0.0012217904581627436 -0.025835550896841478 0 0.0012198374842109414 -0.025729355880167958 0 0.0012977301335120634 -0.025794869048142832 0 0.0012217904581627436 -0.025835550896841478 0 0.0012198374842109414 -0.025729355880167958 0 0.0012977301335120634 -0.025794869048142832 0 0.0013723864702889998 -0.025762357802708188 0 0.0012977301335120634 -0.025794869048142832 0 0.0013766125635666575 -0.025820452569632914 0 0.0013723864702889998 -0.025762357802708188 0 0.0012698310424386495 -0.025965529170643972 0 0.0012901544293670059 -0.025843803896333006 0 0.0013766125635666575 -0.025820452569632914 0 0.0012977301335120634 -0.025794869048142832 0 0.0012901544293670059 -0.025843803896333006 0 0.0013766125635666575 -0.025820452569632914 0 0.0012977301335120634 -0.025794869048142832 0 0.0012901544293670059 -0.025843803896333006 0 0.0012217904581627436 -0.025835550896841478 0 0.0012698310424386495 -0.025965529170643972 0 0.0012901544293670059 -0.025843803896333006 0 0.0012217904581627436 -0.025835550896841478 0 0.0011427850463040933 -0.026697816051937672 0 0.00089160450620265092 -0.027366591066259226 0 0.0012698310424386495 -0.025965529170643972 0 0.0012217904581627436 -0.025835550896841478 0 0.0011400037646548181 -0.025792801116133086 0 -7.3018357534388419e-05 -0.028309366696796522 0 0.00080707276897604401 -0.028832087553591207 0 0.00056660900498504594 -0.028295882464567979 0 0.00080707276897604401 -0.028832087553591207 0 0.00056660900498504594 -0.028295882464567979 0 0.0009787002492514978 -0.028288306320410048 0 -7.3018357534388419e-05 -0.028309366696796522 0 0.00056660900498504594 -0.028295882464567979 0 0.00062590665926386959 -0.027837910651447209 0 0.0011427850463040933 -0.026697816051937672 0 0.0010852626769243263 -0.026999682749963845 0 0.00056660900498504594 -0.028295882464567979 0 0.00062590665926386959 -0.027837910651447209 0 0.0009787002492514978 -0.028288306320410048 0 0.00089882875213109033 -0.019239562356733245 0 0.00099557040552229813 -0.018787441407804487 0 0.0017083617753522889 -0.025954338284996555 0 0.0016393921485447559 -0.025845365575594987 0 0.0015885473968990868 -0.025772123817492297 0 0.0016562295721613378 -0.025861465848595947 0 0.0016900927774239269 -0.026025448434619684 0 0.0017083617753522889 -0.025954338284996555 0 0.0016562295721613378 -0.025861465848595947 0 0.0017083617753522889 -0.025954338284996555 0 0.0016393921485447559 -0.025845365575594987 0 0.0011427850463040933 -0.026697816051937672 0 0.0012389053004011419 -0.02655887679565094 0 0.0018814333896834902 -0.028754897220060704 0 0.0013871375160103706 -0.028682929939054178 0 0.0013975494730958434 -0.02821547068677277 0 0.0018814333896834902 -0.028754897220060704 0 0.0013975494730958434 -0.02821547068677277 0 0.0019017638281723767 -0.028300193766468931 0 0.00080707276897604401 -0.028832087553591207 0 0.0013871375160103706 -0.028682929939054178 0 0.0009787002492514978 -0.028288306320410048 0 0.0013871375160103706 -0.028682929939054178 0 0.0013975494730958434 -0.02821547068677277 0 0.0009787002492514978 -0.028288306320410048 0 0.0013975494730958434 -0.02821547068677277 0 0.0009787002492514978 -0.028288306320410048 0 0.001146661025204285 -0.027866378369273873 0 0.00062590665926386959 -0.027837910651447209 0 0.0009787002492514978 -0.028288306320410048 0 0.001146661025204285 -0.027866378369273873 0 0.0013975494730958434 -0.02821547068677277 0 0.001146661025204285 -0.027866378369273873 0 0.0015440215760983262 -0.027743866046733883 0 0.0022307637234499572 -0.027896904984535439 0 0.0015440215760983262 -0.027743866046733883 0 0.0019017638281723767 -0.028300193766468931 0 0.0013975494730958434 -0.02821547068677277 0 0.0015440215760983262 -0.027743866046733883 0 0.0019017638281723767 -0.028300193766468931 0 0.0019912822571705965 -0.026638703592139715 0 0.0018663184115893681 -0.027361343225059145 0 0.001274127140416048 -0.027325439940036406 0 0.0022307637234499572 -0.027896904984535439 0 0.0015440215760983262 -0.027743866046733883 0 0.0018663184115893681 -0.027361343225059145 0 0.0015440215760983262 -0.027743866046733883 0 0.0018663184115893681 -0.027361343225059145 0 0.001274127140416048 -0.027325439940036406 0 0.0012717268261953274 -0.018885374844153043 0 0.00040018926700825027 -0.021304894453276157 0 0.001963392166847358 -0.026629023323953994 0 0.0015556754016261942 -0.026803102841452042 0 0.0019912822571705965 -0.026638703592139715 0 0.0017118226521520084 -0.026321926731283082 0 0.0017342919440060589 -0.026351645135795385 0 0.0019912822571705965 -0.026638703592139715 0 0.0017118226521520084 -0.026321926731283082 0 0.0019145583151437199 -0.026399917726358215 0 0.00042662518241036744 -0.012205645703158352 0 0.00042141444918341583 -0.012178792202325244 0 0.00017694150758322408 -0.012346651523581333 0 0.00042662518241036744 -0.012205645703158352 0 0.00042141444918341583 -0.012178792202325244 0 0.0003290532957636493 -0.012124085563518787 0 0.0010852626769243263 -0.026999682749963845 0 0.0015556754016261942 -0.026803102841452042 0 0.0016900927774239269 -0.026025448434619684 0 0.0017118226521520084 -0.026321926731283082 0 0.0017342919440060589 -0.026351645135795385 0 0.00062590665926386959 -0.027837910651447209 0 0.001146661025204285 -0.027866378369273873 0 0.001274127140416048 -0.027325439940036406 0 0.001146661025204285 -0.027866378369273873 0 0.0015440215760983262 -0.027743866046733883 0 0.001274127140416048 -0.027325439940036406 0 0.00089882875213109033 -0.019239562356733245 0 0.0012717268261953274 -0.018885374844153043 0 0.00028882792375779803 -0.012261198162460763 0 0.00042141444918341583 -0.012178792202325244 0 0.0003290532957636493 -0.012124085563518787 0 0.0016900927774239269 -0.026025448434619684 0 0.0017083617753522889 -0.025954338284996555 0 0.0017118226521520084 -0.026321926731283082 0 0.00028882792375779803 -0.012261198162460763 0 0.00018809189342984355 -0.012065497993035645 0 0.0003290532957636493 -0.012124085563518787 0 0.00018809189342984355 -0.012065497993035645 0 0.0003290532957636493 -0.012124085563518787 0 0.00023283192434501093 -0.012000431958782859 0 0.00018809189342984355 -0.012065497993035645 0 0.00023283192434501093 -0.012000431958782859 0 0.0001380578852014638 -0.011927657878185895 0 0.0003290532957636493 -0.012124085563518787 0 0.0003440430436394326 -0.012024099677141143 0 0.00023283192434501093 -0.012000431958782859 0 0.00042662518241036744 -0.012205645703158352 0 0.0003290532957636493 -0.012124085563518787 0 0.0003440430436394326 -0.012024099677141143 0 0.00023283192434501093 -0.012000431958782859 0 0.0001838620713507994 -0.011850225923557988 0 0.0001380578852014638 -0.011927657878185895 0 0.0003440430436394326 -0.012024099677141143 0 0.00023283192434501093 -0.012000431958782859 0 0.0001838620713507994 -0.011850225923557988 0 0.0001838620713507994 -0.011850225923557988 0 0.00031098455641997644 -0.011804587679882543 0 0.00016520305360630269 -0.011674571021141314 0 0.0003440430436394326 -0.012024099677141143 0 0.0001838620713507994 -0.011850225923557988 0 0.00031098455641997644 -0.011804587679882543 0 -0.00041225857365805084 -0.0139101040915967 0 -0.00061266367079464146 -0.014790072084673036 0 0.0003440430436394326 -0.012024099677141143 0 0.00031098455641997644 -0.011804587679882543 0 0.00047899309777063587 -0.01194642991768388 0 -0.0010766106696359376 -0.016190737111398165 0 -0.0013301574730057444 -0.016040148587709489 0 -0.0012026875396977167 -0.016264164533771035 0 -0.0017764030535662939 -0.019937984459194025 0 -0.00091948763903837915 -0.020316633356470982 0 -0.0017991546021214884 -0.020544101525288343 0 -0.0013453961580194684 -0.016248210941889808 0 -0.0013301574730057444 -0.016040148587709489 0 -0.0012026875396977167 -0.016264164533771035 0 -0.0016293200567858187 -0.019878377541048341 0 -0.00061266367079464146 -0.014790072084673036 0 -0.0019568422648627536 -0.023609725747553212 0 -0.0032971898972660105 -0.023959432359936937 0 -0.0022130438396041345 -0.024432189311881489 0 -0.0016293200567858187 -0.019878377541048341 0 -0.0017310671477439542 -0.022304809601228024 0 0.00040018926700825027 -0.021304894453276157 0 -0.00061266367079464146 -0.014790072084673036 0 -0.00091948763903837915 -0.020316633356470982 0 -0.00079306654972628027 -0.021193458256641502 0 -0.0017991546021214884 -0.020544101525288343 0 0.0005355517795959672 -0.011266137220146015 0 -0.00061266367079464146 -0.014790072084673036 0 0.00042662518241036744 -0.012205645703158352 0 0.00017694150758322408 -0.012346651523581333 0 0.00042509561572934583 -0.012499895447972656 0 0.00042662518241036744 -0.012205645703158352 0 0.0003440430436394326 -0.012024099677141143 0 0.00047899309777063587 -0.01194642991768388 0 -8.7831549526727691e-05 -0.011831195980480295 0 -0.0001372693997101498 -0.011743921679758719 0 -8.3099404788083381e-05 -0.011740079046698926 0 -8.7831549526727691e-05 -0.011831195980480295 0 -0.0001372693997101498 -0.011743921679758719 0 -0.00016082233702932055 -0.011793932347629659 0 -0.0001372693997101498 -0.011743921679758719 0 -0.00015704109890893165 -0.011683917187056456 0 -0.00018089075568464497 -0.011710684011163602 0 -0.0001372693997101498 -0.011743921679758719 0 -0.00016082233702932055 -0.011793932347629659 0 -0.00018089075568464497 -0.011710684011163602 0 -0.00015704109890893165 -0.011683917187056456 0 -0.00014472522243735899 -0.011647166787194732 0 -0.00015084328720976225 -0.011648052797163161 0 -0.0001372693997101498 -0.011743921679758719 0 -0.00015704109890893165 -0.011683917187056456 0 -0.00015084328720976225 -0.011648052797163161 0 -8.3099404788083381e-05 -0.011740079046698926 0 -0.00014427404979469954 -0.01161039507354733 0 -0.00015084328720976225 -0.011648052797163161 0 -0.0001372693997101498 -0.011743921679758719 0 -8.3099404788083381e-05 -0.011740079046698926 0 -0.00015084328720976225 -0.011648052797163161 0 -8.3099404788083381e-05 -0.011740079046698926 0 5.1763705635864944e-05 -0.011791404394212781 0 -6.014469006298188e-06 -0.011672985190486687 0 5.1763705635864944e-05 -0.011791404394212781 0 0.00016520305360630269 -0.011674571021141314 0 -6.014469006298188e-06 -0.011672985190486687 0 0.0001838620713507994 -0.011850225923557988 0 5.1763705635864944e-05 -0.011791404394212781 0 0.00016520305360630269 -0.011674571021141314 0 5.1763705635864944e-05 -0.011791404394212781 0 0.0001380578852014638 -0.011927657878185895 0 4.3740419560164454e-05 -0.011930206738424371 0 0.0001838620713507994 -0.011850225923557988 0 5.1763705635864944e-05 -0.011791404394212781 0 0.0001380578852014638 -0.011927657878185895 0 -8.7831549526727691e-05 -0.011831195980480295 0 -8.3099404788083381e-05 -0.011740079046698926 0 4.3740419560164454e-05 -0.011930206738424371 0 -8.3099404788083381e-05 -0.011740079046698926 0 5.1763705635864944e-05 -0.011791404394212781 0 4.3740419560164454e-05 -0.011930206738424371 0 0.00018809189342984355 -0.012065497993035645 0 4.3740419560164454e-05 -0.011930206738424371 0 9.1260206410757305e-05 -0.012127860265900594 0 0.00018809189342984355 -0.012065497993035645 0 0.0001380578852014638 -0.011927657878185895 0 4.3740419560164454e-05 -0.011930206738424371 0 0.00028882792375779803 -0.012261198162460763 0 0.00018809189342984355 -0.012065497993035645 0 9.1260206410757305e-05 -0.012127860265900594 0 4.3740419560164454e-05 -0.011930206738424371 0 9.1260206410757305e-05 -0.012127860265900594 0 -7.9843585924325701e-05 -0.011967859760568071 0 9.1260206410757305e-05 -0.012127860265900594 0 -7.9843585924325701e-05 -0.011967859760568071 0 7.8721604484414408e-06 -0.012240278384494959 0 -8.7831549526727691e-05 -0.011831195980480295 0 4.3740419560164454e-05 -0.011930206738424371 0 -7.9843585924325701e-05 -0.011967859760568071 0 -8.7831549526727691e-05 -0.011831195980480295 0 -7.9843585924325701e-05 -0.011967859760568071 0 -0.00016082233702932055 -0.011793932347629659 0 -7.9843585924325701e-05 -0.011967859760568071 0 -0.00016082233702932055 -0.011793932347629659 0 -0.00023925611376100149 -0.011773137344311591 0 -7.9843585924325701e-05 -0.011967859760568071 0 -0.00021652040549344125 -0.011986343023666182 0 -0.00023925611376100149 -0.011773137344311591 0 -7.9843585924325701e-05 -0.011967859760568071 0 -0.00015005864446506438 -0.01224580610039685 0 -0.00021652040549344125 -0.011986343023666182 0 -0.00014588144330691098 -0.012235072344219954 0 -0.00036859385999685261 -0.012137555922259917 0 -0.00015005864446506438 -0.01224580610039685 0 -0.00021652040549344125 -0.011986343023666182 0 -0.00034239201793369523 -0.011979065770930178 0 -7.9843585924325701e-05 -0.011967859760568071 0 -0.00015005864446506438 -0.01224580610039685 0 7.8721604484414408e-06 -0.012240278384494959 0 -0.00015005864446506438 -0.01224580610039685 0 7.8721604484414408e-06 -0.012240278384494959 0 -9.4200369472580663e-06 -0.01253415523697168 0 -0.00015005864446506438 -0.01224580610039685 0 -0.00028767737169710708 -0.012475133703077766 0 -0.00042702947680155158 -0.012292552547381352 0 -0.00015005864446506438 -0.01224580610039685 0 -0.00028767737169710708 -0.012475133703077766 0 -9.4200369472580663e-06 -0.01253415523697168 0 0.00028882792375779803 -0.012261198162460763 0 9.1260206410757305e-05 -0.012127860265900594 0 0.00015430447945911449 -0.012354888420230142 0 9.1260206410757305e-05 -0.012127860265900594 0 7.8721604484414408e-06 -0.012240278384494959 0 0.00015430447945911449 -0.012354888420230142 0 7.8721604484414408e-06 -0.012240278384494959 0 0.00015430447945911449 -0.012354888420230142 0 -9.4200369472580663e-06 -0.01253415523697168 0 0.0015885473968990868 -0.025772123817492297 0 0.0015508294476373214 -0.025745016632118277 0 0.0015755676093330015 -0.025699491404480516 0 0.00099557040552229813 -0.018787441407804487 0 0.00054185658999525768 -0.02064803108788343 0 0.0012698310424386495 -0.025965529170643972 0 0.0013766125635666575 -0.025820452569632914 0 0.0015508294476373214 -0.025745016632118277 0 0.0016448257709916539 -0.025844849938178219 0 0.0015885473968990868 -0.025772123817492297 0 0.0015508294476373214 -0.025745016632118277 0 0.0011427850463040933 -0.026697816051937672 0 0.0017403099536101581 -0.025484607226517016 0 0.0016448257709916539 -0.025844849938178219 0 0.0016393921485447559 -0.025845365575594987 0 0.0015885473968990868 -0.025772123817492297 0 0.00043647428189680544 -0.023692337791492185 0 0.00018337786772886096 -0.022532668556966284 0 0.00024599303995829195 -0.022941222706015334 0 0.0012198374842109414 -0.025729355880167958 0 0.0013723864702889998 -0.025762357802708188 0 0.0015048313571495995 -0.025694303345645812 0 0.0007278911994607431 -0.024752924909992053 0 0.00090330624937352616 -0.024394355519472992 0 0.0013723864702889998 -0.025762357802708188 0 0.0014517312302368445 -0.025756258207902703 0 0.0015048313571495995 -0.025694303345645812 0 0.0013766125635666575 -0.025820452569632914 0 0.0013723864702889998 -0.025762357802708188 0 0.0014517312302368445 -0.025756258207902703 0 0.0014517312302368445 -0.025756258207902703 0 0.0015048313571495995 -0.025694303345645812 0 0.0015508294476373214 -0.025745016632118277 0 0.0013766125635666575 -0.025820452569632914 0 0.0014517312302368445 -0.025756258207902703 0 0.0015508294476373214 -0.025745016632118277 0 0.00018337786772886096 -0.022532668556966284 0 -2.022184795685234e-05 -0.022254916004392257 0 -0.00013206011942865328 -0.021876797069339097 0 0.0015048313571495995 -0.025694303345645812 0 0.0015508294476373214 -0.025745016632118277 0 0.0015755676093330015 -0.025699491404480516 0 -2.022184795685234e-05 -0.022254916004392257 0 -0.00013206011942865328 -0.021876797069339097 0 -0.00018870150299803796 -0.021910343652840732 0 0.00090330624937352616 -0.024394355519472992 0 0.00054185658999525768 -0.02064803108788343 0 -2.022184795685234e-05 -0.022254916004392257 0 6.7660636700886539e-05 -0.022534509622511519 0 0.00024599303995829195 -0.022941222706015334 0 -2.022184795685234e-05 -0.022254916004392257 0 6.7660636700886539e-05 -0.022534509622511519 0 -0.00018870150299803796 -0.021910343652840732 0 0.00018337786772886096 -0.022532668556966284 0 -2.022184795685234e-05 -0.022254916004392257 0 0.00024599303995829195 -0.022941222706015334 0 0.0003404815302187585 -0.023026773019171026 0 6.7660636700886539e-05 -0.022534509622511519 0 0.00024599303995829195 -0.022941222706015334 0 0.0003404815302187585 -0.023026773019171026 0 0.00031344672482780666 -0.023498429196996504 0 0.00024599303995829195 -0.022941222706015334 0 -0.00032788562813265758 -0.020854548371671815 0 -0.00032431320216723094 -0.021141732728881923 0 -0.00016332477268605916 -0.021515214475537822 0 -0.00032788562813265758 -0.020854548371671815 0 0.00010582899765807358 -0.021328934165922013 0 -0.00016332477268605916 -0.021515214475537822 0 -0.00051095382911977368 -0.016153449564863899 0 0.00054185658999525768 -0.02064803108788343 0 -0.00013206011942865328 -0.021876797069339097 0 -0.00016332477268605916 -0.021515214475537822 0 -0.00018870150299803796 -0.021910343652840732 0 0.00054185658999525768 -0.02064803108788343 0 -0.0003911892638026959 -0.021675917694052887 0 -0.00035818101112583447 -0.021985159910614848 0 6.7660636700886539e-05 -0.022534509622511519 0 -0.00018870150299803796 -0.021910343652840732 0 -0.00035818101112583447 -0.021985159910614848 0 -0.00018870150299803796 -0.021910343652840732 0 -0.00029424671306891019 -0.021501691738645811 0 -0.00016332477268605916 -0.021515214475537822 0 -0.00018870150299803796 -0.021910343652840732 0 -0.00029424671306891019 -0.021501691738645811 0 -0.00025205514845768191 -0.021250471343548426 0 -0.00029424671306891019 -0.021501691738645811 0 -0.00036639289233924855 -0.021042443291850003 0 -0.00032431320216723094 -0.021141732728881923 0 -0.00029424671306891019 -0.021501691738645811 0 -0.00036639289233924855 -0.021042443291850003 0 -0.00032431320216723094 -0.021141732728881923 0 -0.00016332477268605916 -0.021515214475537822 0 -0.00029424671306891019 -0.021501691738645811 0 -0.00036639289233924855 -0.021042443291850003 0 -0.00037711882514152029 -0.020781067999415547 0 -0.00051454911448306907 -0.02065278300507312 0 -0.00032431320216723094 -0.021141732728881923 0 -0.00036639289233924855 -0.021042443291850003 0 -0.00037711882514152029 -0.020781067999415547 0 -0.00032788562813265758 -0.020854548371671815 0 -0.00037711882514152029 -0.020781067999415547 0 -0.00043942683942343796 -0.020102314961236104 0 -0.00032788562813265758 -0.020854548371671815 0 -0.00032431320216723094 -0.021141732728881923 0 -0.00037711882514152029 -0.020781067999415547 0 -0.00037711882514152029 -0.020781067999415547 0 -0.00051454911448306907 -0.02065278300507312 0 -0.00043942683942343796 -0.020102314961236104 0 -0.00049380113840821738 -0.02070598621467841 0 -0.00036639289233924855 -0.021042443291850003 0 -0.00051454911448306907 -0.02065278300507312 0 -0.00049380113840821738 -0.02070598621467841 0 -0.00051454911448306907 -0.02065278300507312 0 -0.00074394358400614374 -0.02078255078694154 0 -0.00051454911448306907 -0.02065278300507312 0 -0.00074394358400614374 -0.02078255078694154 0 -0.0008796422978767063 -0.020107375277075516 0 -0.00074394358400614374 -0.02078255078694154 0 -0.0015178692889331903 -0.020332918256243025 0 -0.0008796422978767063 -0.020107375277075516 0 -0.00096696414717192109 -0.020057437252375108 0 -0.0017292030927748725 -0.019288461723521357 0 -0.0022303428482087547 -0.019120183095827494 0 -0.0011122390780554073 -0.019349908122224934 0 -0.0019145435878392086 -0.01827235377666005 0 -0.0015178692889331903 -0.020332918256243025 0 -0.0008796422978767063 -0.020107375277075516 0 -0.0016770372261774393 -0.019375926178189652 0 -0.00051454911448306907 -0.02065278300507312 0 -0.0008796422978767063 -0.020107375277075516 0 -0.00043942683942343796 -0.020102314961236104 0 -0.0010504380546797398 -0.015749309881300754 0 -0.00049226352813478086 -0.016345057928312198 0 -0.0008796422978767063 -0.020107375277075516 0 -0.0010877553186666587 -0.019075429117414527 0 -0.00043942683942343796 -0.020102314961236104 0 -0.00088386641334951951 -0.012473098846149283 0 -0.00070740361336845878 -0.012268739782071563 0 -0.00055549439558912918 -0.012479154146247649 0 -0.0008796422978767063 -0.020107375277075516 0 -0.0010877553186666587 -0.019075429117414527 0 -0.0016770372261774393 -0.019375926178189652 0 -0.00060892852387672695 -0.011988485868083045 0 -0.00082956871498264973 -0.011779218402750726 0 -0.00088386641334951951 -0.012473098846149283 0 -0.00070740361336845878 -0.012268739782071563 0 -0.0010834103402426445 -0.012182444707135167 0 -0.00060892852387672695 -0.011988485868083045 0 -0.00036859385999685261 -0.012137555922259917 0 -0.00053555291156536899 -0.011712219271680828 0 -0.00034239201793369523 -0.011979065770930178 0 -0.00041562812153476578 -0.011732761027567292 0 -0.00070740361336845878 -0.012268739782071563 0 -0.00042702947680155158 -0.012292552547381352 0 -0.00055549439558912918 -0.012479154146247649 0 -0.00021652040549344125 -0.011986343023666182 0 -0.00034239201793369523 -0.011979065770930178 0 -0.00041562812153476578 -0.011732761027567292 0 -0.00028767737169710708 -0.012475133703077766 0 -0.00042702947680155158 -0.012292552547381352 0 -0.00055549439558912918 -0.012479154146247649 0 -0.00051095382911977368 -0.016153449564863899 0 -0.00049226352813478086 -0.016345057928312198 0 -0.0049177539841732017 -0.017463432109194075 0 -0.0042084515006435754 -0.017595463587812651 0 -0.0044774061746438486 -0.016829840938274679 0 -0.0042084515006435754 -0.017595463587812651 0 -0.00437570855911424 -0.018408914330985127 0 -0.0036406240589829668 -0.018302407240186325 0 -0.0049177539841732017 -0.017463432109194075 0 -0.0042084515006435754 -0.017595463587812651 0 -0.00437570855911424 -0.018408914330985127 0 -0.0036406240589829668 -0.018302407240186325 0 -0.0036579683241421438 -0.01766173562173249 0 -0.0031043220945565254 -0.018079932137309938 0 -0.0036579683241421438 -0.01766173562173249 0 -0.0031043220945565254 -0.018079932137309938 0 -0.0034295181786598004 -0.017400971284783132 0 -0.0042084515006435754 -0.017595463587812651 0 -0.0036406240589829668 -0.018302407240186325 0 -0.0036579683241421438 -0.01766173562173249 0 -0.0042084515006435754 -0.017595463587812651 0 -0.0036579683241421438 -0.01766173562173249 0 -0.0038868098211504872 -0.017185030521476824 0 -0.0036579683241421438 -0.01766173562173249 0 -0.0034295181786598004 -0.017400971284783132 0 -0.0038868098211504872 -0.017185030521476824 0 -0.0031043220945565254 -0.018079932137309938 0 -0.0028416487881360174 -0.017417610460797206 0 -0.0034295181786598004 -0.017400971284783132 0 -0.0030767682597988965 -0.019048150598743142 0 -0.0022303428482087547 -0.019120183095827494 0 -0.0031043220945565254 -0.018079932137309938 0 -0.0030767682597988965 -0.019048150598743142 0 -0.0036406240589829668 -0.018302407240186325 0 -0.0031043220945565254 -0.018079932137309938 0 -0.0022303428482087547 -0.019120183095827494 0 -0.0019145435878392086 -0.01827235377666005 0 -0.0031043220945565254 -0.018079932137309938 0 -0.0015178692889331903 -0.020332918256243025 0 -0.0016770372261774393 -0.019375926178189652 0 -0.0026557156678349582 -0.019162336289729014 0 -0.0019145435878392086 -0.01827235377666005 0 -0.0031043220945565254 -0.018079932137309938 0 -0.0028416487881360174 -0.017417610460797206 0 -0.0017292030927748725 -0.019288461723521357 0 -0.0027170813008821652 -0.018279129679087396 0 -0.0010877553186666587 -0.019075429117414527 0 -0.0016770372261774393 -0.019375926178189652 0 -0.002466596315824287 -0.017800434448767964 0 -0.0010504380546797398 -0.015749309881300754 0 -0.0019453555633505201 -0.015105680360035824 0 -0.0016770372261774393 -0.019375926178189652 0 -0.002466596315824287 -0.017800434448767964 0 -0.0026557156678349582 -0.019162336289729014 0 -0.0013374748463805574 -0.012425432788188806 0 -0.0010834103402426445 -0.012182444707135167 0 -0.0015850833641321499 -0.012049556521014639 0 -0.00088386641334951951 -0.012473098846149283 0 -0.0013374748463805574 -0.012425432788188806 0 -0.0010834103402426445 -0.012182444707135167 0 -0.0013374748463805574 -0.012425432788188806 0 -0.0019226078102632361 -0.012327368572391785 0 -0.0015850833641321499 -0.012049556521014639 0 -0.0019453555633505201 -0.015105680360035824 0 -0.0029462903841402598 -0.01441559821394196 0 -0.0027170813008821652 -0.018279129679087396 0 -0.0035766687946092893 -0.017265704651096028 0 -0.0028416487881360174 -0.017417610460797206 0 -0.0034295181786598004 -0.017400971284783132 0 -0.0036578842737404081 -0.017103766745771735 0 -0.002466596315824287 -0.017800434448767964 0 -0.0026557156678349582 -0.019162336289729014 0 -0.0036578842737404081 -0.017103766745771735 0 -0.0034295181786598004 -0.017400971284783132 0 -0.0038868098211504872 -0.017185030521476824 0 -0.0036578842737404081 -0.017103766745771735 0 -0.0038868098211504872 -0.017185030521476824 0 -0.0036578842737404081 -0.017103766745771735 0 -0.0041686948564010366 -0.016708981178162875 0 -0.002466596315824287 -0.017800434448767964 0 -0.0036578842737404081 -0.017103766745771735 0 -0.0038930413475814366 -0.01653025284729745 0 -0.0036578842737404081 -0.017103766745771735 0 -0.0038930413475814366 -0.01653025284729745 0 -0.0041686948564010366 -0.016708981178162875 0 -0.0048407896467491541 -0.01597242723847336 0 -0.0038930413475814366 -0.01653025284729745 0 -0.0041686948564010366 -0.016708981178162875 0 -0.0048407896467491541 -0.01597242723847336 0 -0.0041686948564010366 -0.016708981178162875 0 -0.0044774061746438486 -0.016829840938274679 0 -0.0026245280025345092 -0.012183153353723998 0 -0.0019226078102632361 -0.012327368572391785 0 -0.0022061302485432608 -0.01188278196249315 0 -0.0037246133701942488 -0.014317558493891267 0 -0.0029462903841402598 -0.01441559821394196 0 -0.0042084515006435754 -0.017595463587812651 0 -0.0038868098211504872 -0.017185030521476824 0 -0.0044774061746438486 -0.016829840938274679 0 -0.0038868098211504872 -0.017185030521476824 0 -0.0041686948564010366 -0.016708981178162875 0 -0.0044774061746438486 -0.016829840938274679 0 -0.00047063358281345177 -0.010679754528195499 0 -0.00052088053030896779 -0.010554474674586565 0 -0.00035673719816633771 -0.01012550904553298 0 -0.00047063358281345177 -0.010679754528195499 0 -0.00052088053030896779 -0.010554474674586565 0 -0.00057160797852921406 -0.010758848148112081 0 -0.00052088053030896779 -0.010554474674586565 0 -0.00059146931910128203 -0.010670539564766343 0 -0.00057160797852921406 -0.010758848148112081 0 -0.00052088053030896779 -0.010554474674586565 0 -0.00054941208689954658 -0.010577990542769226 0 -0.00059146931910128203 -0.010670539564766343 0 -0.00052088053030896779 -0.010554474674586565 0 -0.00046205957894988729 -0.010408868473543274 0 -0.00054941208689954658 -0.010577990542769226 0 -0.00052088053030896779 -0.010554474674586565 0 -0.00035673719816633771 -0.01012550904553298 0 -0.00046205957894988729 -0.010408868473543274 0 -0.00035673719816633771 -0.01012550904553298 0 -0.00040117524158302879 -0.010394543358046791 0 -0.00046205957894988729 -0.010408868473543274 0 -0.00040117524158302879 -0.010394543358046791 0 -0.00046205957894988729 -0.010408868473543274 0 -0.00054941208689954658 -0.010577990542769226 0 -0.00064411068039413907 -0.01070952514595328 0 -0.00054941208689954658 -0.010577990542769226 0 -0.00067258611318638808 -0.010885484561468732 0 -0.0019226078102632361 -0.012327368572391785 0 -0.0022061302485432608 -0.01188278196249315 0 -0.0015850833641321499 -0.012049556521014639 0 -0.00040117524158302879 -0.010394543358046791 0 -0.00054941208689954658 -0.010577990542769226 0 -0.00067258611318638808 -0.010885484561468732 0 -0.0012926079437431653 -0.011096588969567635 0 -0.0010999804327563305 -0.011476328171730325 0 -0.00064411068039413907 -0.01070952514595328 0 -0.00054941208689954658 -0.010577990542769226 0 -0.00059146931910128203 -0.010670539564766343 0 -0.00064411068039413907 -0.01070952514595328 0 -0.00059146931910128203 -0.010670539564766343 0 -0.00063315104941846648 -0.010754599209457693 0 -0.00064411068039413907 -0.01070952514595328 0 -0.00065997831740607471 -0.010696599250310307 0 -0.00063315104941846648 -0.010754599209457693 0 -0.00060899358646930525 -0.011042545911368669 0 -0.0006033975073046901 -0.011158573947143301 0 -0.00065997831740607471 -0.010696599250310307 0 -0.00066315420299127602 -0.01086640602827769 0 -0.00061628878389855695 -0.011168671632648402 0 -0.00050375256065668839 -0.011426090922265897 0 -0.00061628878389855695 -0.011168671632648402 0 -0.00061081598508552727 -0.011350366781746305 0 -0.00064411068039413907 -0.01070952514595328 0 -0.00065997831740607471 -0.010696599250310307 0 -0.00066315420299127602 -0.01086640602827769 0 -0.00064411068039413907 -0.01070952514595328 0 -0.00066315420299127602 -0.01086640602827769 0 -0.00067258611318638808 -0.010885484561468732 0 -0.00066315420299127602 -0.01086640602827769 0 -0.00067258611318638808 -0.010885484561468732 0 -0.00061628878389855695 -0.011168671632648402 0 -0.00061628878389855695 -0.011168671632648402 0 -0.00062608193961746024 -0.011341671153987891 0 -0.00061081598508552727 -0.011350366781746305 0 -0.00082956871498264973 -0.011779218402750726 0 -0.0010999804327563305 -0.011476328171730325 0 -0.00060551609997449966 -0.011388163350703643 0 -0.00067258611318638808 -0.010885484561468732 0 -0.00061628878389855695 -0.011168671632648402 0 -0.00060551609997449966 -0.011388163350703643 0 -0.00061628878389855695 -0.011168671632648402 0 -0.00062608193961746024 -0.011341671153987891 0 -0.00062608193961746024 -0.011341671153987891 0 -0.00062817818735447348 -0.011398219265749021 0 -0.00061081598508552727 -0.011350366781746305 0 -0.00050375256065668839 -0.011426090922265897 0 -0.00061081598508552727 -0.011350366781746305 0 -0.00059665276944489195 -0.011413869017903613 0 -0.00062817818735447348 -0.011398219265749021 0 -0.00061081598508552727 -0.011350366781746305 0 -0.00059665276944489195 -0.011413869017903613 0 -0.00035210856043159752 -0.011577656984672564 0 -0.00038777895946499408 -0.011527886346392577 0 -0.00059665276944489195 -0.011413869017903613 0 -0.00056061909034097271 -0.011477513033204646 0 -0.00061459788504029803 -0.011404287810900712 0 -0.00019261851594438946 -0.011621329226652191 0 -0.00013861963629931679 -0.011590786027872352 0 -0.00016724917385524597 -0.01154616385531626 0 -0.00035210856043159752 -0.011577656984672564 0 -0.00047729106417333063 -0.01134662012544066 0 -0.00019261851594438946 -0.011621329226652191 0 -0.00022858608453678114 -0.011548011580372716 0 -0.00016724917385524597 -0.01154616385531626 0 -0.00019261851594438946 -0.011621329226652191 0 -0.00022858608453678114 -0.011548011580372716 0 -0.00032553537204206036 -0.011583661154666504 0 -0.00050375256065668839 -0.011426090922265897 0 -0.00059665276944489195 -0.011413869017903613 0 -0.00056061909034097271 -0.011477513033204646 0 -0.00050375256065668839 -0.011426090922265897 0 -0.00056061909034097271 -0.011477513033204646 0 -0.00046568982553290189 -0.01151352827505101 0 -0.00060899358646930525 -0.011042545911368669 0 -0.00047729106417333063 -0.01134662012544066 0 -0.00063315104941846648 -0.010754599209457693 0 -0.00060843356628127016 -0.010846280054134365 0 -0.00065727353937402775 -0.010940482646360352 0 -0.00065997831740607471 -0.010696599250310307 0 -0.00063315104941846648 -0.010754599209457693 0 -0.00065727353937402775 -0.010940482646360352 0 -0.00063315104941846648 -0.010754599209457693 0 -0.00060843356628127016 -0.010846280054134365 0 -0.00057160797852921406 -0.010758848148112081 0 -0.00059146931910128203 -0.010670539564766343 0 -0.00063315104941846648 -0.010754599209457693 0 -0.00057160797852921406 -0.010758848148112081 0 -0.00022858608453678114 -0.011548011580372716 0 -0.00032553537204206036 -0.011583661154666504 0 -0.00027977620956835933 -0.011495521948533909 0 -0.00060843356628127016 -0.010846280054134365 0 -0.00065727353937402775 -0.010940482646360352 0 -0.00055154100971074773 -0.010936517611042671 0 -0.00052840323593907588 -0.011050642661638913 0 -0.00065727353937402775 -0.010940482646360352 0 -0.00055154100971074773 -0.010936517611042671 0 -0.00055992056157100616 -0.011190566553587028 0 -0.00047729106417333063 -0.01134662012544066 0 -0.00048508131707403277 -0.010873695053619686 0 -0.00055154100971074773 -0.010936517611042671 0 -0.00057160797852921406 -0.010758848148112081 0 -0.00060843356628127016 -0.010846280054134365 0 -0.00055154100971074773 -0.010936517611042671 0 -0.00057160797852921406 -0.010758848148112081 0 -0.00048508131707403277 -0.010873695053619686 0 -0.00047063358281345177 -0.010679754528195499 0 -0.00057160797852921406 -0.010758848148112081 0 -0.00032574209202457141 -0.011610315783707409 0 -0.00024108386155146077 -0.011745305629592105 0 -0.0004784837206132611 -0.011509606639636114 0 -0.00023925611376100149 -0.011773137344311591 0 -0.00041562812153476578 -0.011732761027567292 0 -0.00016082233702932055 -0.011793932347629659 0 -0.00023925611376100149 -0.011773137344311591 0 -0.00018089075568464497 -0.011710684011163602 0 -0.00017119488369338968 -0.011690216290291031 0 -0.00023925611376100149 -0.011773137344311591 0 -0.00018089075568464497 -0.011710684011163602 0 -0.00021652040549344125 -0.011986343023666182 0 -0.00023925611376100149 -0.011773137344311591 0 -0.00041562812153476578 -0.011732761027567292 0 -0.0004784837206132611 -0.011509606639636114 0 -0.00041562812153476578 -0.011732761027567292 0 -0.00059093887256306298 -0.011514080137658719 0 -0.00053555291156536899 -0.011712219271680828 0 -0.00041562812153476578 -0.011732761027567292 0 -0.00059093887256306298 -0.011514080137658719 0 -0.00060551609997449966 -0.011388163350703643 0 -0.00062608193961746024 -0.011341671153987891 0 -0.00059093887256306298 -0.011514080137658719 0 -0.00062608193961746024 -0.011341671153987891 0 -0.00062817818735447348 -0.011398219265749021 0 -0.00059093887256306298 -0.011514080137658719 0 -0.00053555291156536899 -0.011712219271680828 0 -0.00060551609997449966 -0.011388163350703643 0 -0.00059093887256306298 -0.011514080137658719 0 -0.00062817818735447348 -0.011398219265749021 0 -0.00059093887256306298 -0.011514080137658719 0 -0.00061459788504029803 -0.011404287810900712 0 -0.00062817818735447348 -0.011398219265749021 0 -0.00059665276944489195 -0.011413869017903613 0 -0.00061459788504029803 -0.011404287810900712 0 -0.0004784837206132611 -0.011509606639636114 0 -0.00059093887256306298 -0.011514080137658719 0 -0.00061459788504029803 -0.011404287810900712 0 -0.00032574209202457141 -0.011610315783707409 0 -0.00038777895946499408 -0.011527886346392577 0 -0.00017119488369338968 -0.011690216290291031 0 -0.00015295724549542846 -0.011649304299567807 0 -0.00015649671822693192 -0.011668633674054995 0 -0.00015295724549542846 -0.011649304299567807 0 -0.00013861963629931679 -0.011590786027872352 0 -0.00012996560203235009 -0.011615880220400715 0 -0.00019261851594438946 -0.011621329226652191 0 -0.00015295724549542846 -0.011649304299567807 0 -0.00013861963629931679 -0.011590786027872352 0 -0.00015295724549542846 -0.011649304299567807 0 -0.00012996560203235009 -0.011615880220400715 0 -0.00015649671822693192 -0.011668633674054995 0 -0.00012996560203235009 -0.011615880220400715 0 -0.00015649671822693192 -0.011668633674054995 0 -0.00014472522243735899 -0.011647166787194732 0 -0.00017119488369338968 -0.011690216290291031 0 -0.00015649671822693192 -0.011668633674054995 0 -0.00018089075568464497 -0.011710684011163602 0 -0.00015649671822693192 -0.011668633674054995 0 -0.00018089075568464497 -0.011710684011163602 0 -0.00014472522243735899 -0.011647166787194732 0 -0.00015704109890893165 -0.011683917187056456 0 -0.00018089075568464497 -0.011710684011163602 0 -0.00014472522243735899 -0.011647166787194732 0 -0.00014472522243735899 -0.011647166787194732 0 -0.00013092520700940975 -0.011628226673010446 0 -0.00015084328720976225 -0.011648052797163161 0 -0.00014472522243735899 -0.011647166787194732 0 -0.00013092520700940975 -0.011628226673010446 0 -0.00012038782952327151 -0.011615582684501521 0 -0.00013092520700940975 -0.011628226673010446 0 -0.00010760358229547553 -0.011620515758374765 0 -0.00013413028508053109 -0.011629258831155022 0 -0.00013092520700940975 -0.011628226673010446 0 -0.00010760358229547553 -0.011620515758374765 0 -0.00012038782952327151 -0.011615582684501521 0 -0.00010150120229701297 -0.011583165536885534 0 -9.3151716569436752e-05 -0.011605973119600443 0 -8.3683346094595099e-05 -0.01156996170433182 0 -0.00010760358229547553 -0.011620515758374765 0 -0.00010150120229701297 -0.011583165536885534 0 -9.3151716569436752e-05 -0.011605973119600443 0 -0.00010760358229547553 -0.011620515758374765 0 -0.00010150120229701297 -0.011583165536885534 0 -0.00012038782952327151 -0.011615582684501521 0 -0.00012996560203235009 -0.011615880220400715 0 -0.00010150120229701297 -0.011583165536885534 0 -0.00012038782952327151 -0.011615582684501521 0 -0.00012996560203235009 -0.011615880220400715 0 -0.00014472522243735899 -0.011647166787194732 0 -0.00012038782952327151 -0.011615582684501521 0 -0.00012996560203235009 -0.011615880220400715 0 -0.00010150120229701297 -0.011583165536885534 0 -0.00011210002051750004 -0.011567247716798094 0 -0.00013861963629931679 -0.011590786027872352 0 -0.00012996560203235009 -0.011615880220400715 0 -0.00011210002051750004 -0.011567247716798094 0 -0.00013861963629931679 -0.011590786027872352 0 -0.00012731318362037782 -0.011538102645105896 0 -0.00016724917385524597 -0.01154616385531626 0 -0.00013861963629931679 -0.011590786027872352 0 -0.00011210002051750004 -0.011567247716798094 0 -0.00012731318362037782 -0.011538102645105896 0 -0.00010417630879533369 -0.01149645385765934 0 -0.00010034821953899532 -0.011437598274991559 0 -0.00013697599570497201 -0.011408147947564442 0 -0.00012731318362037782 -0.011538102645105896 0 -0.00010417630879533369 -0.01149645385765934 0 -0.00014383997758804466 -0.011484089427698501 0 -0.00011210002051750004 -0.011567247716798094 0 -0.00012731318362037782 -0.011538102645105896 0 -0.00010417630879533369 -0.01149645385765934 0 -0.00010417630879533369 -0.01149645385765934 0 -9.1536383511474692e-05 -0.011535365810835835 0 -7.9487455720763704e-05 -0.011474171656483283 0 -0.00010150120229701297 -0.011583165536885534 0 -9.1536383511474692e-05 -0.011535365810835835 0 -8.3683346094595099e-05 -0.01156996170433182 0 -0.00010150120229701297 -0.011583165536885534 0 -0.00011210002051750004 -0.011567247716798094 0 -9.1536383511474692e-05 -0.011535365810835835 0 -0.00011210002051750004 -0.011567247716798094 0 -0.00010417630879533369 -0.01149645385765934 0 -9.1536383511474692e-05 -0.011535365810835835 0 -9.1536383511474692e-05 -0.011535365810835835 0 -7.9487455720763704e-05 -0.011474171656483283 0 -8.3683346094595099e-05 -0.01156996170433182 0 -7.9487455720763704e-05 -0.011474171656483283 0 -7.2117807715938365e-05 -0.011507355940923426 0 -8.3683346094595099e-05 -0.01156996170433182 0 -0.00010417630879533369 -0.01149645385765934 0 -0.00010034821953899532 -0.011437598274991559 0 -7.9487455720763704e-05 -0.011474171656483283 0 -0.00010034821953899532 -0.011437598274991559 0 -7.9487455720763704e-05 -0.011474171656483283 0 -8.6240560025403331e-05 -0.011376250496291528 0 -7.9487455720763704e-05 -0.011474171656483283 0 -6.7590751947613356e-05 -0.011433988187061584 0 -8.6240560025403331e-05 -0.011376250496291528 0 -6.7590751947613356e-05 -0.011433988187061584 0 -5.1316950056606765e-05 -0.011362033258046347 0 -8.6240560025403331e-05 -0.011376250496291528 0 -7.9487455720763704e-05 -0.011474171656483283 0 -6.7590751947613356e-05 -0.011433988187061584 0 -7.2117807715938365e-05 -0.011507355940923426 0 -6.7590751947613356e-05 -0.011433988187061584 0 -5.1316950056606765e-05 -0.011362033258046347 0 -6.0177280988230564e-05 -0.011455524399739792 0 -7.2117807715938365e-05 -0.011507355940923426 0 -8.4765370750217804e-05 -0.011584537211658535 0 -8.3683346094595099e-05 -0.01156996170433182 0 -7.2117807715938365e-05 -0.011507355940923426 0 -8.2875474102171484e-05 -0.011564288666429196 0 -6.0177280988230564e-05 -0.011455524399739792 0 -6.7590751947613356e-05 -0.011433988187061584 0 -7.2117807715938365e-05 -0.011507355940923426 0 -6.0177280988230564e-05 -0.011455524399739792 0 -7.2117807715938365e-05 -0.011507355940923426 0 -8.4765370750217804e-05 -0.011584537211658535 0 -8.2875474102171484e-05 -0.011564288666429196 0 -8.4765370750217804e-05 -0.011584537211658535 0 -9.6669826893126473e-05 -0.011648098612240476 0 -8.2875474102171484e-05 -0.011564288666429196 0 -8.4765370750217804e-05 -0.011584537211658535 0 -8.9938011940032451e-05 -0.01163885051492484 0 -8.3683346094595099e-05 -0.01156996170433182 0 -8.4765370750217804e-05 -0.011584537211658535 0 -8.9938011940032451e-05 -0.01163885051492484 0 -9.6669826893126473e-05 -0.011648098612240476 0 -0.00010207909068782781 -0.01171642264997083 0 -9.5196063878419875e-05 -0.011654288358773255 0 -0.00011027688664069592 -0.011756132697991247 0 -8.9938011940032451e-05 -0.01163885051492484 0 -0.00010207909068782781 -0.01171642264997083 0 -9.6669826893126473e-05 -0.011648098612240476 0 -0.00010207909068782781 -0.01171642264997083 0 -0.00012238822447147436 -0.011826992712690988 0 -0.00011027688664069592 -0.011756132697991247 0 -8.9938011940032451e-05 -0.01163885051492484 0 -0.00010207909068782781 -0.01171642264997083 0 -9.5196063878419875e-05 -0.011654288358773255 0 -0.00010760358229547553 -0.011620515758374765 0 -9.5196063878419875e-05 -0.011654288358773255 0 -9.3151716569436752e-05 -0.011605973119600443 0 -0.00010760358229547553 -0.011620515758374765 0 -9.5196063878419875e-05 -0.011654288358773255 0 -0.00011609251470925449 -0.011680539180550517 0 -9.5196063878419875e-05 -0.011654288358773255 0 -0.00011609251470925449 -0.011680539180550517 0 -0.00011027688664069592 -0.011756132697991247 0 -8.9938011940032451e-05 -0.01163885051492484 0 -9.5196063878419875e-05 -0.011654288358773255 0 -8.3683346094595099e-05 -0.01156996170433182 0 -9.5196063878419875e-05 -0.011654288358773255 0 -9.3151716569436752e-05 -0.011605973119600443 0 -8.3683346094595099e-05 -0.01156996170433182 0 -0.00056694137048097701 -0.011273050224487673 0 -0.00047726679363332665 -0.011264476395117256 0 -0.00043707175796871327 -0.011336646933877561 0 -0.00047645824929095124 -0.011275038189881001 0 -0.00040045304658115885 -0.011429721267714655 0 -0.00055865548841717424 -0.011367702046113249 0 -0.00038203494107138044 -0.011440396937161848 0 -0.00043707175796871327 -0.011336646933877561 0 -0.00056694137048097701 -0.011273050224487673 0 -0.00055865548841717424 -0.011367702046113249 0 -0.00043707175796871327 -0.011336646933877561 0 -0.00039830310576433124 -0.011470142752078702 0 -0.00027977620956835933 -0.011495521948533909 0 -0.00027933801778629795 -0.011360413971767919 0 -0.00032553537204206036 -0.011583661154666504 0 -0.00039830310576433124 -0.011470142752078702 0 -0.00027977620956835933 -0.011495521948533909 0 -0.00047729106417333063 -0.01134662012544066 0 -0.00040045304658115885 -0.011429721267714655 0 -0.00047726679363332665 -0.011264476395117256 0 -0.00027933801778629795 -0.011360413971767919 0 -0.00034066054205371112 -0.011188977965039334 0 -0.00047726679363332665 -0.011264476395117256 0 -0.00039830310576433124 -0.011470142752078702 0 -0.00027933801778629795 -0.011360413971767919 0 -0.00027933801778629795 -0.011360413971767919 0 -0.00019786154967645927 -0.011386667533198058 0 -0.00020768120420919047 -0.011280394861807125 0 -0.00027933801778629795 -0.011360413971767919 0 -0.00019786154967645927 -0.011386667533198058 0 -0.00020303709817041422 -0.011479805218371358 0 -0.00027977620956835933 -0.011495521948533909 0 -0.00027933801778629795 -0.011360413971767919 0 -0.00020303709817041422 -0.011479805218371358 0 -0.00022858608453678114 -0.011548011580372716 0 -0.00027977620956835933 -0.011495521948533909 0 -0.00020303709817041422 -0.011479805218371358 0 -0.00022858608453678114 -0.011548011580372716 0 -0.00020303709817041422 -0.011479805218371358 0 -0.00016724917385524597 -0.01154616385531626 0 -0.00020303709817041422 -0.011479805218371358 0 -0.00016724917385524597 -0.01154616385531626 0 -0.00014383997758804466 -0.011484089427698501 0 -0.00012731318362037782 -0.011538102645105896 0 -0.00016724917385524597 -0.01154616385531626 0 -0.00014383997758804466 -0.011484089427698501 0 -0.00010417630879533369 -0.01149645385765934 0 -0.00014383997758804466 -0.011484089427698501 0 -0.00013697599570497201 -0.011408147947564442 0 -0.00019786154967645927 -0.011386667533198058 0 -0.00020303709817041422 -0.011479805218371358 0 -0.00014383997758804466 -0.011484089427698501 0 -0.00019786154967645927 -0.011386667533198058 0 -0.00014383997758804466 -0.011484089427698501 0 -0.00013697599570497201 -0.011408147947564442 0 -0.00013697599570497201 -0.011408147947564442 0 -0.00013540144201513185 -0.011308151725596806 0 -8.6240560025403331e-05 -0.011376250496291528 0 -0.00010034821953899532 -0.011437598274991559 0 -0.00013697599570497201 -0.011408147947564442 0 -8.6240560025403331e-05 -0.011376250496291528 0 -5.1316950056606765e-05 -0.011362033258046347 0 -8.6240560025403331e-05 -0.011376250496291528 0 -8.7526419029107096e-05 -0.011276365274701387 0 -0.00013540144201513185 -0.011308151725596806 0 -8.7526419029107096e-05 -0.011276365274701387 0 -0.00018141448984918272 -0.01117020716324953 0 -0.00013540144201513185 -0.011308151725596806 0 -8.6240560025403331e-05 -0.011376250496291528 0 -8.7526419029107096e-05 -0.011276365274701387 0 -0.00013540144201513185 -0.011308151725596806 0 -0.00018141448984918272 -0.01117020716324953 0 -0.00020768120420919047 -0.011280394861807125 0 -0.00018141448984918272 -0.01117020716324953 0 -0.00020768120420919047 -0.011280394861807125 0 -0.00027700888482593553 -0.011126157526370967 0 -8.7526419029107096e-05 -0.011276365274701387 0 -0.00018141448984918272 -0.01117020716324953 0 -0.00012212969431868386 -0.011167953638581916 0 -0.00019786154967645927 -0.011386667533198058 0 -0.00013697599570497201 -0.011408147947564442 0 -0.00020768120420919047 -0.011280394861807125 0 -0.00013697599570497201 -0.011408147947564442 0 -0.00013540144201513185 -0.011308151725596806 0 -0.00020768120420919047 -0.011280394861807125 0 -0.00027933801778629795 -0.011360413971767919 0 -0.00020768120420919047 -0.011280394861807125 0 -0.00034066054205371112 -0.011188977965039334 0 -0.00020768120420919047 -0.011280394861807125 0 -0.00034066054205371112 -0.011188977965039334 0 -0.00027700888482593553 -0.011126157526370967 0 -0.00018141448984918272 -0.01117020716324953 0 -0.00027700888482593553 -0.011126157526370967 0 -0.00030608636919390262 -0.010958498784751258 0 -0.00027700888482593553 -0.011126157526370967 0 -0.00039023507634019448 -0.011005465311884004 0 -0.00030608636919390262 -0.010958498784751258 0 -0.00034066054205371112 -0.011188977965039334 0 -0.00027700888482593553 -0.011126157526370967 0 -0.00039023507634019448 -0.011005465311884004 0 -0.00055214917719948982 -0.010826672539282961 0 -0.00039023507634019448 -0.011005465311884004 0 -0.00051230363415570948 -0.011073682729420373 0 -0.00055214917719948982 -0.010826672539282961 0 -0.00039023507634019448 -0.011005465311884004 0 -0.00044262779532981396 -0.010793546213658557 0 -0.00039023507634019448 -0.011005465311884004 0 -0.00044262779532981396 -0.010793546213658557 0 -0.00030608636919390262 -0.010958498784751258 0 -0.00034066054205371112 -0.011188977965039334 0 -0.00039023507634019448 -0.011005465311884004 0 -0.00051230363415570948 -0.011073682729420373 0 -0.00047726679363332665 -0.011264476395117256 0 -0.00034066054205371112 -0.011188977965039334 0 -0.00051230363415570948 -0.011073682729420373 0 -0.00040878815805416735 -0.010725113670649232 0 -0.00044262779532981396 -0.010793546213658557 0 -0.00030608636919390262 -0.010958498784751258 0 -0.00040878815805416735 -0.010725113670649232 0 -0.00030608636919390262 -0.010958498784751258 0 -0.00025507587066893398 -0.010905419833124663 0 -0.00030608636919390262 -0.010958498784751258 0 -0.00025507587066893398 -0.010905419833124663 0 -0.00021626477182354757 -0.011035504158046047 0 0.00022896567924794137 -0.009975513579608004 0 0.00065733695440657396 -0.0099761768389856689 0 0.00092799407317627691 -0.0092421448036164606 0 0.001541293625620172 -0.0089706049816015362 0 0.0012602083930508537 -0.0085447271357934913 0 0.0016638295779529523 -0.0087202926938275607 0 0.001541293625620172 -0.0089706049816015362 0 0.0012602083930508537 -0.0085447271357934913 0 -0.00025507587066893398 -0.010905419833124663 0 -0.00011373415408805985 -0.011045845184325274 0 3.4179301144961902e-07 -0.010925444333483379 0 0.0016638295779529523 -0.0087202926938275607 0 0.001541293625620172 -0.0089706049816015362 0 0.0019520703513601586 -0.0088640315153637218 0 0.00065733695440657396 -0.0099761768389856689 0 0.00081159420059633773 -0.0095024872359572698 0 -0.00025507587066893398 -0.010905419833124663 0 -0.00021626477182354757 -0.011035504158046047 0 -0.00011373415408805985 -0.011045845184325274 0 -0.00018141448984918272 -0.01117020716324953 0 -0.00030608636919390262 -0.010958498784751258 0 -0.00021626477182354757 -0.011035504158046047 0 -0.00018141448984918272 -0.01117020716324953 0 -0.00021626477182354757 -0.011035504158046047 0 -0.00012212969431868386 -0.011167953638581916 0 -0.00021626477182354757 -0.011035504158046047 0 -0.00011373415408805985 -0.011045845184325274 0 -0.00012212969431868386 -0.011167953638581916 0 -0.00011373415408805985 -0.011045845184325274 0 -0.00012212969431868386 -0.011167953638581916 0 -1.3719895387325973e-05 -0.011258531351499408 0 -0.00011373415408805985 -0.011045845184325274 0 -1.3719895387325973e-05 -0.011258531351499408 0 3.7568441496936134e-05 -0.010977898564378681 0 -8.7526419029107096e-05 -0.011276365274701387 0 -0.00012212969431868386 -0.011167953638581916 0 -1.3719895387325973e-05 -0.011258531351499408 0 -5.1316950056606765e-05 -0.011362033258046347 0 -8.7526419029107096e-05 -0.011276365274701387 0 -1.3719895387325973e-05 -0.011258531351499408 0 -1.3719895387325973e-05 -0.011258531351499408 0 3.7568441496936134e-05 -0.010977898564378681 0 0.00031956546059056813 -0.010835674630241248 0 3.7568441496936134e-05 -0.010977898564378681 0 -1.5954217165049896e-05 -0.010875621726357282 0 0.00031956546059056813 -0.010835674630241248 0 0.0008167266751872357 -0.010062504169822512 0 0.00081159420059633773 -0.0095024872359572698 0 -0.00011373415408805985 -0.011045845184325274 0 3.7568441496936134e-05 -0.010977898564378681 0 3.4179301144961902e-07 -0.010925444333483379 0 0.0010531243230796237 -0.0081837225302268963 0 0.0010459236452852448 -0.0082120495263169353 0 0.001010044899065617 -0.0081731421608904238 0 0.0016638295779529523 -0.0087202926938275607 0 0.0019520703513601586 -0.0088640315153637218 0 0.0016894477392132567 -0.0084480662176702088 0 0.00081159420059633773 -0.0095024872359572698 0 0.0014304907913591147 -0.0081842123573371128 0 0.0010531243230796237 -0.0081837225302268963 0 0.0010459236452852448 -0.0082120495263169353 0 0.0010763437014270514 -0.008228085918494105 0 0.0010459236452852448 -0.0082120495263169353 0 0.0010585222298494219 -0.0082296862076215709 0 0.0010763437014270514 -0.008228085918494105 0 0.0010459236452852448 -0.0082120495263169353 0 0.0010585222298494219 -0.0082296862076215709 0 0.0010150128727670826 -0.0082329726799288804 0 0.001092528569080452 -0.008196290360170732 0 0.0010585222298494219 -0.0082296862076215709 0 0.0010315219412941504 -0.0082511068546134835 0 0.001092528569080452 -0.008196290360170732 0 0.0010585222298494219 -0.0082296862076215709 0 0.0010763437014270514 -0.008228085918494105 0 0.0013860961830561315 -0.0081146921510658818 0 0.0016894477392132567 -0.0084480662176702088 0 0.0013469722089089785 -0.0083313464269897906 0 0.001092528569080452 -0.008196290360170732 0 0.0010684545339581274 -0.008143179490984644 0 0.0010763437014270514 -0.008228085918494105 0 0.0012340588999929486 -0.0081651979908364206 0 0.0014304907913591147 -0.0081842123573371128 0 0.0016638295779529523 -0.0087202926938275607 0 0.0016894477392132567 -0.0084480662176702088 0 0.0012602083930508537 -0.0085447271357934913 0 0.0016894477392132567 -0.0084480662176702088 0 0.0012602083930508537 -0.0085447271357934913 0 0.0013469722089089785 -0.0083313464269897906 0 0.0012602083930508537 -0.0085447271357934913 0 0.0013469722089089785 -0.0083313464269897906 0 0.0010936435824475789 -0.0082197852446164645 0 0.0013860961830561315 -0.0081146921510658818 0 0.0013469722089089785 -0.0083313464269897906 0 0.0010936435824475789 -0.0082197852446164645 0 0.0012763359424235322 -0.0085542618629629516 0 0.0010297610178846102 -0.0076170939227538153 0 0.00027934970940640094 -0.008239031580056894 0 0.00092799407317627691 -0.0092421448036164606 0 0.0012602083930508537 -0.0085447271357934913 0 0.00027934970940640094 -0.008239031580056894 0 0.0012602083930508537 -0.0085447271357934913 0 0.0010749191809281903 -0.0073502147956256824 0 -9.9054117886685742e-05 -0.011663690304757775 0 -0.00011897826782390818 -0.011736295950951093 0 -0.0001269094248262738 -0.011774701467827504 0 -9.9054117886685742e-05 -0.011663690304757775 0 -0.00011897826782390818 -0.011736295950951093 0 -9.6514317970371297e-05 -0.011635713696429732 0 0.00053844761136766868 -0.011873287928746626 0 0.00064046401662057513 -0.012045658423420428 0 -0.00011897826782390818 -0.011736295950951093 0 -0.0001269094248262738 -0.011774701467827504 0 -0.00013569641106867471 -0.011835169986756622 0 -0.00010207909068782781 -0.01171642264997083 0 -0.00011897826782390818 -0.011736295950951093 0 -0.00012238822447147436 -0.011826992712690988 0 -0.00010207909068782781 -0.01171642264997083 0 -0.00011897826782390818 -0.011736295950951093 0 -9.6669826893126473e-05 -0.011648098612240476 0 -0.00011897826782390818 -0.011736295950951093 0 -0.00013569641106867471 -0.011835169986756622 0 -0.00012238822447147436 -0.011826992712690988 0 -0.00011897826782390818 -0.011736295950951093 0 -9.6669826893126473e-05 -0.011648098612240476 0 -9.6514317970371297e-05 -0.011635713696429732 0 -9.6669826893126473e-05 -0.011648098612240476 0 -9.6514317970371297e-05 -0.011635713696429732 0 -8.2875474102171484e-05 -0.011564288666429196 0 -8.2875474102171484e-05 -0.011564288666429196 0 -6.0177280988230564e-05 -0.011455524399739792 0 -7.7150536717961583e-05 -0.011558281702828495 0 -9.6514317970371297e-05 -0.011635713696429732 0 -8.2875474102171484e-05 -0.011564288666429196 0 -7.7150536717961583e-05 -0.011558281702828495 0 -1.3719895387325973e-05 -0.011258531351499408 0 -4.1653871618727127e-05 -0.011452001212010499 0 -2.072195252319294e-05 -0.011568060215768778 0 -5.1316950056606765e-05 -0.011362033258046347 0 -1.3719895387325973e-05 -0.011258531351499408 0 -3.9510043363981642e-05 -0.011378978971805636 0 -5.1316950056606765e-05 -0.011362033258046347 0 -3.9510043363981642e-05 -0.011378978971805636 0 -6.0177280988230564e-05 -0.011455524399739792 0 -3.9510043363981642e-05 -0.011378978971805636 0 -6.0177280988230564e-05 -0.011455524399739792 0 -4.1653871618727127e-05 -0.011452001212010499 0 -6.0177280988230564e-05 -0.011455524399739792 0 -4.1653871618727127e-05 -0.011452001212010499 0 -7.7150536717961583e-05 -0.011558281702828495 0 -1.3719895387325973e-05 -0.011258531351499408 0 -3.9510043363981642e-05 -0.011378978971805636 0 -4.1653871618727127e-05 -0.011452001212010499 0 -0.00018933387035629842 -0.011478571099277286 0 0.00074283530339772953 -0.010763406079412757 0 -4.1653871618727127e-05 -0.011452001212010499 0 -2.072195252319294e-05 -0.011568060215768778 0 -7.7150536717961583e-05 -0.011558281702828495 0 0.00081159420059633773 -0.0095024872359572698 0 0.00074283530339772953 -0.010763406079412757 0 -9.9054117886685742e-05 -0.011663690304757775 0 -9.6514317970371297e-05 -0.011635713696429732 0 -7.7150536717961583e-05 -0.011558281702828495 0 0.00053844761136766868 -0.011873287928746626 0 0.00074283530339772953 -0.010763406079412757 0 -9.9054117886685742e-05 -0.011663690304757775 0 -2.072195252319294e-05 -0.011568060215768778 0 -7.7150536717961583e-05 -0.011558281702828495 0 0.00074283530339772953 -0.010763406079412757 0 0.0012047689768928838 -0.009600054837025555 0 0.001281068233078126 -0.011915178803940314 0 0.0013121927932608537 -0.011974314531568914 0 0.0012697696142634223 -0.01195742450135672 0 0.001281068233078126 -0.011915178803940314 0 0.0013591866023904731 -0.011885321518301442 0 0.0013121927932608537 -0.011974314531568914 0 0.001010044899065617 -0.0081731421608904238 0 0.00097244019620530209 -0.0082532734499187674 0 0.00088838018888796975 -0.008286398148393076 0 0.001010044899065617 -0.0081731421608904238 0 0.00097244019620530209 -0.0082532734499187674 0 0.0010150128727670826 -0.0082329726799288804 0 0.0010459236452852448 -0.0082120495263169353 0 0.001010044899065617 -0.0081731421608904238 0 0.0010150128727670826 -0.0082329726799288804 0 0.0010959824536192798 -0.0082083257489996876 0 0.0010315219412941504 -0.0082511068546134835 0 0.00090724743822025438 -0.0083162822368383436 0 0.00092936500875768341 -0.008309958117855662 0 0.00088951398606004165 -0.008298222426152347 0 0.0010585222298494219 -0.0082296862076215709 0 0.0010150128727670826 -0.0082329726799288804 0 0.0010315219412941504 -0.0082511068546134835 0 0.00097244019620530209 -0.0082532734499187674 0 0.0010315219412941504 -0.0082511068546134835 0 0.00090724743822025438 -0.0083162822368383436 0 0.00097244019620530209 -0.0082532734499187674 0 0.0010150128727670826 -0.0082329726799288804 0 0.0010315219412941504 -0.0082511068546134835 0 0.00085135054604396586 -0.0083776409851510081 0 0.00088838018888796975 -0.008286398148393076 0 0.00090724743822025438 -0.0083162822368383436 0 0.00078505008359597067 -0.0084183445549705933 0 0.00085135054604396586 -0.0083776409851510081 0 0.00088838018888796975 -0.008286398148393076 0 0.00097244019620530209 -0.0082532734499187674 0 0.00088838018888796975 -0.008286398148393076 0 0.00090724743822025438 -0.0083162822368383436 0 0.00085135054604396586 -0.0083776409851510081 0 0.00083310966834225877 -0.0083873491016312682 0 0.00090724743822025438 -0.0083162822368383436 0 0.0015884295791558606 -0.012439517937987305 0 0.0012047689768928838 -0.009600054837025555 0 0.0012616132357326747 -0.012063184072365275 0 0.0013121927932608537 -0.011974314531568914 0 0.0012548385921338477 -0.011990639924943876 0 0.0012616132357326747 -0.012063184072365275 0 0.0012548385921338477 -0.011990639924943876 0 0.0012113418029130582 -0.012010083925232572 0 0.0013121927932608537 -0.011974314531568914 0 0.0012548385921338477 -0.011990639924943876 0 0.0012697696142634223 -0.01195742450135672 0 0.001281068233078126 -0.011915178803940314 0 0.0012311531056590284 -0.011948858787907501 0 0.0011943487073852387 -0.011944930855849238 0 0.0012548385921338477 -0.011990639924943876 0 0.0012697696142634223 -0.01195742450135672 0 0.0012311531056590284 -0.011948858787907501 0 0.001281068233078126 -0.011915178803940314 0 0.0012697696142634223 -0.01195742450135672 0 0.0012311531056590284 -0.011948858787907501 0 0.0012077534058848134 -0.011955384145039383 0 0.001214129558895505 -0.01197550862007753 0 0.0011718558358192179 -0.011970473548773623 0 0.001214129558895505 -0.01197550862007753 0 0.0012113418029130582 -0.012010083925232572 0 0.0011718558358192179 -0.011970473548773623 0 0.0012311531056590284 -0.011948858787907501 0 0.0012077534058848134 -0.011955384145039383 0 0.001214129558895505 -0.01197550862007753 0 0.0012458691882695088 -0.012053554179477486 0 0.00064046401662057513 -0.012045658423420428 0 0.0012548385921338477 -0.011990639924943876 0 0.0012311531056590284 -0.011948858787907501 0 0.001214129558895505 -0.01197550862007753 0 0.0015884295791558606 -0.012439517937987305 0 0.0017886694175289399 -0.014181838266581414 0 0.0012548385921338477 -0.011990639924943876 0 0.001214129558895505 -0.01197550862007753 0 0.0012113418029130582 -0.012010083925232572 0 0.002013336272588837 -0.01568395033065946 0 0.0010405790045540351 -0.01584791942203656 0 0.0013454957411892369 -0.014945866695507671 0 0.0017498137365749324 -0.016500924383775459 0 0.002013336272588837 -0.01568395033065946 0 0.0010405790045540351 -0.01584791942203656 0 0.0010405790045540351 -0.01584791942203656 0 0.00037264447989143805 -0.0150950127232976 0 0.00029252239830845499 -0.01568989160399677 0 0.00055954082474389197 -0.016236618927218983 0 0.0010405790045540351 -0.01584791942203656 0 0.00029252239830845499 -0.01568989160399677 0 0.0011784600849137528 -0.013251181934295066 0 0.00035856721911107814 -0.014590686961641185 0 0.0010405790045540351 -0.01584791942203656 0 0.0013454957411892369 -0.014945866695507671 0 0.00037264447989143805 -0.0150950127232976 0 0.0012807151276798506 -0.013750630893484815 0 0.00098084818334088228 -0.013416802538719517 0 0.00031127199481580781 -0.013895671612458993 0 0.00064046401662057513 -0.012045658423420428 0 0.0011784600849137528 -0.013251181934295066 0 0.0017886694175289399 -0.014181838266581414 0 0.0011784600849137528 -0.013251181934295066 0 -0.00013569641106867471 -0.011835169986756622 0 -0.00011747832339122567 -0.011855874012173882 0 -0.0001452146013561545 -0.01197520876596166 0 0.00073063755901869886 -0.012559201367946539 0 0.00075698258751962053 -0.012558485373830374 0 0.00076785811335393589 -0.012571924164758847 0 0.00064046401662057513 -0.012045658423420428 0 0.00041652196485255808 -0.012651269879334008 0 -0.0001269094248262738 -0.011774701467827504 0 -0.00013569641106867471 -0.011835169986756622 0 -0.00011747832339122567 -0.011855874012173882 0 0.0011784600849137528 -0.013251181934295066 0 0.00041652196485255808 -0.012651269879334008 0 0.00041652196485255808 -0.012651269879334008 0 -4.2890265397810327e-05 -0.013054006589329026 0 0.00051933947076030558 -0.0129980782819032 0 -0.00019783121459059297 -0.012226882250693728 0 -0.00030875926221151588 -0.012790166272067261 0 0.00041652196485255808 -0.012651269879334008 0 -0.00026481605937433799 -0.012112573239260424 0 0.00098084818334088228 -0.013416802538719517 0 8.4135849667886959e-05 -0.013181988671883712 0 0.00031127199481580781 -0.013895671612458993 0 -0.00011747832339122567 -0.011855874012173882 0 -0.0001452146013561545 -0.01197520876596166 0 -0.00019783121459059297 -0.012226882250693728 0 -0.0001452146013561545 -0.01197520876596166 0 -0.00016524056144179549 -0.012018937979775296 0 -0.00019783121459059297 -0.012226882250693728 0 -0.0001452146013561545 -0.01197520876596166 0 -0.00016524056144179549 -0.012018937979775296 0 -0.00013422219679497458 -0.011887454190954029 0 -0.0001452146013561545 -0.01197520876596166 0 -0.00012238822447147436 -0.011826992712690988 0 -0.00013422219679497458 -0.011887454190954029 0 -0.00013569641106867471 -0.011835169986756622 0 -0.0001452146013561545 -0.01197520876596166 0 -0.00012238822447147436 -0.011826992712690988 0 -0.00053750259323598879 -0.012548565846432835 0 -0.00087114705211157651 -0.012902880665403261 0 -0.00030875926221151588 -0.012790166272067261 0 -0.00053750259323598879 -0.012548565846432835 0 -0.00087114705211157651 -0.012902880665403261 0 -0.00084836165188721549 -0.012486687194967476 0 -0.00053750259323598879 -0.012548565846432835 0 -0.00084836165188721549 -0.012486687194967476 0 -0.00060035173949498982 -0.012266581388092977 0 -0.00053750259323598879 -0.012548565846432835 0 -0.00019783121459059297 -0.012226882250693728 0 -0.00060035173949498982 -0.012266581388092977 0 -0.00019783121459059297 -0.012226882250693728 0 -0.00037420812478586882 -0.012070287605433626 0 -0.00060035173949498982 -0.012266581388092977 0 -0.00053750259323598879 -0.012548565846432835 0 -0.00019783121459059297 -0.012226882250693728 0 -0.00030875926221151588 -0.012790166272067261 0 8.4135849667886959e-05 -0.013181988671883712 0 -0.0004850280836594899 -0.013454338019754835 0 0.00031127199481580781 -0.013895671612458993 0 -0.00086437687395185688 -0.012871193209464339 0 -4.2890265397810327e-05 -0.013054006589329026 0 -0.00087114705211157651 -0.012902880665403261 0 8.4135849667886959e-05 -0.013181988671883712 0 -0.0004850280836594899 -0.013454338019754835 0 -0.00087114705211157651 -0.012902880665403261 0 -0.0004850280836594899 -0.013454338019754835 0 -0.0012173855660936653 -0.013539948675959071 0 -0.0004850280836594899 -0.013454338019754835 0 -0.00068951342090822049 -0.014046552658458642 0 -0.0012173855660936653 -0.013539948675959071 0 -0.0004850280836594899 -0.013454338019754835 0 -0.00068951342090822049 -0.014046552658458642 0 0.00031127199481580781 -0.013895671612458993 0 -0.00060781414773474645 -0.015247556109061618 0 0.00037264447989143805 -0.0150950127232976 0 0.00029252239830845499 -0.01568989160399677 0 -0.00068059242463622911 -0.014666003396234769 0 0.00035856721911107814 -0.014590686961641185 0 -0.00060781414773474645 -0.015247556109061618 0 0.00029252239830845499 -0.01568989160399677 0 -9.7344202282926231e-05 -0.016115544231943734 0 0.00055954082474389197 -0.016236618927218983 0 0.00029252239830845499 -0.01568989160399677 0 -9.7344202282926231e-05 -0.016115544231943734 0 -0.00060781414773474645 -0.015247556109061618 0 -9.7344202282926231e-05 -0.016115544231943734 0 -0.00068218215323720172 -0.015991811663327121 0 -0.00060781414773474645 -0.015247556109061618 0 -0.00068218215323720172 -0.015991811663327121 0 -0.001159553894840957 -0.015814412096426662 0 -0.0010880637769149532 -0.016430243182464326 0 -0.001159553894840957 -0.015814412096426662 0 -0.0018294501504126208 -0.01599607572866308 0 -0.0010880637769149532 -0.016430243182464326 0 -0.00068218215323720172 -0.015991811663327121 0 -0.001159553894840957 -0.015814412096426662 0 -0.001159553894840957 -0.015814412096426662 0 -0.0018294501504126208 -0.01599607572866308 0 -0.0015895515643023867 -0.015405037252825092 0 -0.0021253058381424227 -0.018129440989273635 0 -0.0029639154619514147 -0.017846709155940159 0 -0.0018294501504126208 -0.01599607572866308 0 -0.0015895515643023867 -0.015405037252825092 0 -0.0025729421601119904 -0.015569257938839736 0 -0.0016328603116176022 -0.014207293606199206 0 -0.0022165950465071766 -0.013884265745752774 0 -0.0025116970693196405 -0.014379370175713448 0 -0.0016328603116176022 -0.014207293606199206 0 -0.0022165950465071766 -0.013884265745752774 0 -0.0018645295486305175 -0.013505047526360017 0 -0.0014767140348675841 -0.014538916816675318 0 -0.0029639154619514147 -0.017846709155940159 0 -0.00068951342090822049 -0.014046552658458642 0 -0.0016328603116176022 -0.014207293606199206 0 -0.0012173855660936653 -0.013539948675959071 0 -0.0016328603116176022 -0.014207293606199206 0 -0.0012173855660936653 -0.013539948675959071 0 -0.0018645295486305175 -0.013505047526360017 0 -0.00068059242463622911 -0.014666003396234769 0 -0.0014767140348675841 -0.014538916816675318 0 -0.00060781414773474645 -0.015247556109061618 0 -0.001159553894840957 -0.015814412096426662 0 -0.0015895515643023867 -0.015405037252825092 0 -0.004481517830081232 -0.02047771953550493 0 -0.0029639154619514147 -0.017846709155940159 0 -0.0032044505582491433 -0.020696193686468901 0 -0.0044219580416931855 -0.020527204862808186 0 -0.0037306681416690141 -0.02025888688112313 0 -0.0042330750689393119 -0.019976818661984364 0 -0.0037306681416690141 -0.02025888688112313 0 -0.0031987819470071475 -0.019821294560814089 0 -0.0044219580416931855 -0.020527204862808186 0 -0.0042330750689393119 -0.019976818661984364 0 -0.0037306681416690141 -0.02025888688112313 0 -0.0032044505582491433 -0.020696193686468901 0 -0.0024482652207928001 -0.020264689180455969 0 -0.0031987819470071475 -0.019821294560814089 0 -0.0032044505582491433 -0.020696193686468901 0 -0.0037306681416690141 -0.02025888688112313 0 -0.0031987819470071475 -0.019821294560814089 0 -0.0026372436498690584 -0.013867833238882169 0 -0.0025116970693196405 -0.014379370175713448 0 -0.0031281844758766554 -0.014035241732801686 0 -0.0022165950465071766 -0.013884265745752774 0 -0.0026372436498690584 -0.013867833238882169 0 -0.0025116970693196405 -0.014379370175713448 0 -0.0029639154619514147 -0.017846709155940159 0 -0.0039906105704906481 -0.017044244323360665 0 -0.0040129267685281291 -0.021113635587128862 0 -0.0038339973105428653 -0.021042774731367987 0 -0.0039660751655729706 -0.021000211042970608 0 -0.0031281844758766554 -0.014035241732801686 0 -0.0033503051346384801 -0.013522090333449548 0 -0.0029027252081355905 -0.013523527159155026 0 -0.0033503051346384801 -0.013522090333449548 0 -0.0029027252081355905 -0.013523527159155026 0 -0.0031443454785472446 -0.013117000995773672 0 -0.0026372436498690584 -0.013867833238882169 0 -0.0031281844758766554 -0.014035241732801686 0 -0.0029027252081355905 -0.013523527159155026 0 -0.0029027252081355905 -0.013523527159155026 0 -0.0024213984651371796 -0.013465745730997911 0 -0.0026506156693922489 -0.01309270529016128 0 -0.0026372436498690584 -0.013867833238882169 0 -0.0029027252081355905 -0.013523527159155026 0 -0.0024213984651371796 -0.013465745730997911 0 -0.0022165950465071766 -0.013884265745752774 0 -0.0026372436498690584 -0.013867833238882169 0 -0.0024213984651371796 -0.013465745730997911 0 -0.0024493686914145297 -0.012817803278687786 0 -0.0026506156693922489 -0.01309270529016128 0 -0.0021408807048577524 -0.01298738777161962 0 -0.0024213984651371796 -0.013465745730997911 0 -0.0026506156693922489 -0.01309270529016128 0 -0.0021408807048577524 -0.01298738777161962 0 -0.0022306894324246478 -0.012611469928226189 0 -0.0024493686914145297 -0.012817803278687786 0 -0.002598068534132822 -0.012602422278853236 0 -0.0022306894324246478 -0.012611469928226189 0 -0.0024493686914145297 -0.012817803278687786 0 -0.0021408807048577524 -0.01298738777161962 0 -0.0024493686914145297 -0.012817803278687786 0 -0.0026506156693922489 -0.01309270529016128 0 -0.0028023323556447435 -0.0128442852247536 0 -0.0024493686914145297 -0.012817803278687786 0 -0.0028023323556447435 -0.0128442852247536 0 -0.002598068534132822 -0.012602422278853236 0 -0.0026506156693922489 -0.01309270529016128 0 -0.0028023323556447435 -0.0128442852247536 0 -0.0031443454785472446 -0.013117000995773672 0 -0.0029027252081355905 -0.013523527159155026 0 -0.0026506156693922489 -0.01309270529016128 0 -0.0031443454785472446 -0.013117000995773672 0 -0.0028023323556447435 -0.0128442852247536 0 -0.0030983743596485688 -0.01267370422649009 0 -0.002598068534132822 -0.012602422278853236 0 -0.0028023323556447435 -0.0128442852247536 0 -0.0030983743596485688 -0.01267370422649009 0 -0.0031443454785472446 -0.013117000995773672 0 -0.0024863678813273633 -0.022275854518930393 0 -0.0043150318422120557 -0.018741589101981135 0 -0.0036291807908613318 -0.013048119610715055 0 -0.0030983743596485688 -0.01267370422649009 0 -0.0031443454785472446 -0.013117000995773672 0 -0.00352584694078407 -0.013214833450599837 0 -0.0033503051346384801 -0.013522090333449548 0 -0.0031443454785472446 -0.013117000995773672 0 -0.00087114705211157651 -0.012902880665403261 0 -0.0012173855660936653 -0.013539948675959071 0 -0.0015242201440269904 -0.012845843504936517 0 -0.0012173855660936653 -0.013539948675959071 0 -0.0018645295486305175 -0.013505047526360017 0 -0.0015242201440269904 -0.012845843504936517 0 -0.0022165950465071766 -0.013884265745752774 0 -0.0024213984651371796 -0.013465745730997911 0 -0.0018645295486305175 -0.013505047526360017 0 -0.0024213984651371796 -0.013465745730997911 0 -0.0018645295486305175 -0.013505047526360017 0 -0.0021408807048577524 -0.01298738777161962 0 -0.0021408807048577524 -0.01298738777161962 0 -0.0018648896137210638 -0.012663521129870873 0 -0.0015242201440269904 -0.012845843504936517 0 -0.0018645295486305175 -0.013505047526360017 0 -0.0021408807048577524 -0.01298738777161962 0 -0.0015242201440269904 -0.012845843504936517 0 -0.0022306894324246478 -0.012611469928226189 0 -0.0021408807048577524 -0.01298738777161962 0 -0.0018648896137210638 -0.012663521129870873 0 -0.0018648896137210638 -0.012663521129870873 0 -0.0015242201440269904 -0.012845843504936517 0 -0.0015771898244421327 -0.012493068990616824 0 -0.00087114705211157651 -0.012902880665403261 0 -0.00084836165188721549 -0.012486687194967476 0 -0.0015242201440269904 -0.012845843504936517 0 -0.0015242201440269904 -0.012845843504936517 0 -0.0011763524890250631 -0.012367475009776099 0 -0.0015771898244421327 -0.012493068990616824 0 -0.00084836165188721549 -0.012486687194967476 0 -0.0015242201440269904 -0.012845843504936517 0 -0.0011763524890250631 -0.012367475009776099 0 -0.0011763524890250631 -0.012367475009776099 0 -0.0010962892262458401 -0.012057446351770154 0 -0.00085613056891925348 -0.012190522908768601 0 -0.0011763524890250631 -0.012367475009776099 0 -0.0010962892262458401 -0.012057446351770154 0 -0.001416709042360186 -0.012198026797142769 0 -0.001416709042360186 -0.012198026797142769 0 -0.0017431256581408982 -0.012070864434450436 0 -0.0013058259162632489 -0.011846858398017556 0 -0.0010962892262458401 -0.012057446351770154 0 -0.001416709042360186 -0.012198026797142769 0 -0.0013058259162632489 -0.011846858398017556 0 -0.0011763524890250631 -0.012367475009776099 0 -0.001416709042360186 -0.012198026797142769 0 -0.0015771898244421327 -0.012493068990616824 0 -0.001416709042360186 -0.012198026797142769 0 -0.0015771898244421327 -0.012493068990616824 0 -0.0018659426750178597 -0.012375424206544982 0 -0.0018648896137210638 -0.012663521129870873 0 -0.0015771898244421327 -0.012493068990616824 0 -0.0018659426750178597 -0.012375424206544982 0 -0.0017431256581408982 -0.012070864434450436 0 -0.0015530827091059024 -0.011663723013017938 0 -0.0025783777666295686 -0.012275012997961085 0 -0.0018659426750178597 -0.012375424206544982 0 -0.0017431256581408982 -0.012070864434450436 0 -0.0025783777666295686 -0.012275012997961085 0 -0.0022306894324246478 -0.012611469928226189 0 -0.0018648896137210638 -0.012663521129870873 0 -0.0018659426750178597 -0.012375424206544982 0 -0.001416709042360186 -0.012198026797142769 0 -0.0018659426750178597 -0.012375424206544982 0 -0.0017431256581408982 -0.012070864434450436 0 -0.0014751981661366642 -0.015025246470012939 0 -0.0037447711737469847 -0.017827601883649239 0 -0.0017431256581408982 -0.012070864434450436 0 -0.0015530827091059024 -0.011663723013017938 0 -0.0013058259162632489 -0.011846858398017556 0 -0.0014751981661366642 -0.015025246470012939 0 -0.0008643051580086835 -0.014075950143785822 0 -0.0014583554505348203 -0.011742904600036656 0 -0.0010671711630638864 -0.011806000201046383 0 -0.00092453550069836134 -0.011529984039620886 0 -0.0010962892262458401 -0.012057446351770154 0 -0.0010671711630638864 -0.011806000201046383 0 -0.0013058259162632489 -0.011846858398017556 0 -0.0010962892262458401 -0.012057446351770154 0 -0.0010671711630638864 -0.011806000201046383 0 -0.00086246649510150525 -0.011963365209098202 0 -0.0014583554505348203 -0.011742904600036656 0 -0.0010671711630638864 -0.011806000201046383 0 -0.0013058259162632489 -0.011846858398017556 0 -0.0014751981661366642 -0.015025246470012939 0 -0.0021451115603899804 -0.013296768116713055 0 -0.0045746888381145391 -0.025598072968214581 0 -0.005493458800574111 -0.024561431421103591 0 -0.0056464269717113498 -0.026203947241091746 0 -0.005493458800574111 -0.024561431421103591 0 -0.0067807446376897621 -0.025336259851578991 0 -0.0056464269717113498 -0.026203947241091746 0 -0.0043150318422120557 -0.018741589101981135 0 -0.0037447711737469847 -0.017827601883649239 0 -0.0022306894324246478 -0.012611469928226189 0 -0.0018659426750178597 -0.012375424206544982 0 -0.0025783777666295686 -0.012275012997961085 0 -0.0030983743596485688 -0.01267370422649009 0 -0.0025913701054467247 -0.012355339389723424 0 -0.002598068534132822 -0.012602422278853236 0 -0.0037447711737469847 -0.017827601883649239 0 -0.00315074170113985 -0.01294540523313469 0 -0.0022306894324246478 -0.012611469928226189 0 -0.0025783777666295686 -0.012275012997961085 0 -0.002598068534132822 -0.012602422278853236 0 -0.0067807446376897621 -0.025336259851578991 0 -0.006853559316818721 -0.026883447697782319 0 -0.0056464269717113498 -0.026203947241091746 0 -0.0033663830833350378 -0.019345527315977325 0 -0.0027082352174541712 -0.019405731324881485 0 -0.0027255738807823843 -0.019867260211429674 0 -0.0037447711737469847 -0.017827601883649239 0 -0.00477012094925714 -0.024196648555482977 0 -0.0033663830833350378 -0.019345527315977325 0 -0.0026948886229620083 -0.018947979661009789 0 -0.0027082352174541712 -0.019405731324881485 0 -0.006853559316818721 -0.026883447697782319 0 -0.0056464269717113498 -0.026203947241091746 0 -0.0057357011189041584 -0.027789978933954511 0 -0.0045052334717105794 -0.027390102549402055 0 -0.0045746888381145391 -0.025598072968214581 0 -0.0056464269717113498 -0.026203947241091746 0 -0.0045052334717105794 -0.027390102549402055 0 -0.0056464269717113498 -0.026203947241091746 0 -0.0057357011189041584 -0.027789978933954511 0 -0.0047534559792715252 -0.030065793894492432 0 -0.0045052334717105794 -0.027390102549402055 0 -0.0057357011189041584 -0.027789978933954511 0 -0.0047534559792715252 -0.030065793894492432 0 -0.0057357011189041584 -0.027789978933954511 0 -0.0069159055903874004 -0.028400337794446732 0 -0.006853559316818721 -0.026883447697782319 0 -0.0057357011189041584 -0.027789978933954511 0 -0.0069159055903874004 -0.028400337794446732 0 -0.00477012094925714 -0.024196648555482977 0 -0.0033105808578277464 -0.021791736278971442 0 -0.0016293200567858187 -0.019878377541048341 0 -0.0033105808578277464 -0.021791736278971442 0 -0.0013453961580194684 -0.016248210941889808 0 -0.0013652189708821068 -0.016588675669022012 0 -0.0011668956329160007 -0.016420921927537281 0 -0.0013453961580194684 -0.016248210941889808 0 -0.0011668956329160007 -0.016420921927537281 0 -0.0012026875396977167 -0.016264164533771035 0 -0.0019568422648627536 -0.023609725747553212 0 -0.0032971898972660105 -0.023959432359936937 0 -0.0032477707496825639 -0.022639520707123637 0 -0.0035677788957253244 -0.027438975936762394 0 -0.0033105808578277464 -0.021791736278971442 0 -0.0010374888513454317 -0.016776617613395661 0 -0.0010236605163539319 -0.016552388490782458 0 -0.00079807337419529362 -0.016618587229230593 0 -0.0010236605163539319 -0.016552388490782458 0 -0.00082205534993155013 -0.016321805609794904 0 -0.00079807337419529362 -0.016618587229230593 0 -0.0010374888513454317 -0.016776617613395661 0 -0.0013652189708821068 -0.016588675669022012 0 -0.0010236605163539319 -0.016552388490782458 0 -0.0014751981661366642 -0.015025246470012939 0 -0.0033105808578277464 -0.021791736278971442 0 -0.0013652189708821068 -0.016588675669022012 0 -0.0010236605163539319 -0.016552388490782458 0 -0.0011668956329160007 -0.016420921927537281 0 -0.0010766106696359376 -0.016190737111398165 0 -0.0011668956329160007 -0.016420921927537281 0 -0.0012026875396977167 -0.016264164533771035 0 -0.0010766106696359376 -0.016190737111398165 0 -0.0011668956329160007 -0.016420921927537281 0 -0.00082205534993155013 -0.016321805609794904 0 -0.00041225857365805084 -0.0139101040915967 0 -0.00026984433596443269 -0.014092608867748413 0 -0.0010236605163539319 -0.016552388490782458 0 -0.0011668956329160007 -0.016420921927537281 0 -0.00082205534993155013 -0.016321805609794904 0 0.00016520305360630269 -0.011674571021141314 0 5.4968108156391605e-06 -0.01155068816760616 0 -6.014469006298188e-06 -0.011672985190486687 0 -0.00026984433596443269 -0.014092608867748413 0 -0.00031599023178032756 -0.013220514062857704 0 -0.0008643051580086835 -0.014075950143785822 0 -0.00031599023178032756 -0.013220514062857704 0 -0.00092453550069836134 -0.011529984039620886 0 -0.0004731743648956574 -0.011403297901556315 0 -0.00050376708924570405 -0.011650104886600638 0 -0.00082205534993155013 -0.016321805609794904 0 -0.00079807337419529362 -0.016618587229230593 0 -0.00056026369802326199 -0.016450625720215949 0 -0.00028894877496485197 -0.011559124006195543 0 -0.00023068073956588749 -0.011635284572563312 0 -0.00028052206305343829 -0.011715798171004611 0 -0.0004731743648956574 -0.011403297901556315 0 -0.00028894877496485197 -0.011559124006195543 0 -0.00050376708924570405 -0.011650104886600638 0 -0.00028894877496485197 -0.011559124006195543 0 -0.00050376708924570405 -0.011650104886600638 0 -0.00028052206305343829 -0.011715798171004611 0 -0.00031599023178032756 -0.013220514062857704 0 -0.00070058795987845051 -0.012149907463850656 0 -0.00028894877496485197 -0.011559124006195543 0 -0.0001927393251792745 -0.011601664832994001 0 -0.00023068073956588749 -0.011635284572563312 0 -0.00028894877496485197 -0.011559124006195543 0 -0.00014427404979469954 -0.01161039507354733 0 -0.0001927393251792745 -0.011601664832994001 0 -0.00029617326053746356 -0.011559612657855491 0 -0.00028894877496485197 -0.011559124006195543 0 -0.00014427404979469954 -0.01161039507354733 0 -8.3099404788083381e-05 -0.011740079046698926 0 -6.014469006298188e-06 -0.011672985190486687 0 -0.00014427404979469954 -0.01161039507354733 0 -0.00031599023178032756 -0.013220514062857704 0 0.0001245188542098639 -0.011417774224961428 0 5.4968108156391605e-06 -0.01155068816760616 0 -6.014469006298188e-06 -0.011672985190486687 0 -0.00014427404979469954 -0.01161039507354733 0 -0.00015664569836610566 -0.011614918899695782 0 -0.00014427404979469954 -0.01161039507354733 0 -0.00015084328720976225 -0.011648052797163161 0 -0.00015664569836610566 -0.011614918899695782 0 -0.00014427404979469954 -0.01161039507354733 0 -0.0001927393251792745 -0.011601664832994001 0 -0.00013092520700940975 -0.011628226673010446 0 -0.00015084328720976225 -0.011648052797163161 0 -0.00013413028508053109 -0.011629258831155022 0 -0.00015664569836610566 -0.011614918899695782 0 -0.00015084328720976225 -0.011648052797163161 0 -0.00013413028508053109 -0.011629258831155022 0 -0.00013413028508053109 -0.011629258831155022 0 -0.00016865955503756521 -0.011666773949418563 0 -0.00011609251470925449 -0.011680539180550517 0 -0.00010760358229547553 -0.011620515758374765 0 -0.00013413028508053109 -0.011629258831155022 0 -0.00011609251470925449 -0.011680539180550517 0 -0.00015664569836610566 -0.011614918899695782 0 -0.0001927393251792745 -0.011601664832994001 0 -0.00016865955503756521 -0.011666773949418563 0 -0.00015664569836610566 -0.011614918899695782 0 -0.00013413028508053109 -0.011629258831155022 0 -0.00016865955503756521 -0.011666773949418563 0 -0.0001927393251792745 -0.011601664832994001 0 -0.00016865955503756521 -0.011666773949418563 0 -0.00023068073956588749 -0.011635284572563312 0 -0.00016865955503756521 -0.011666773949418563 0 -0.00023068073956588749 -0.011635284572563312 0 -0.00028052206305343829 -0.011715798171004611 0 -0.00016865955503756521 -0.011666773949418563 0 -0.00022589477192412204 -0.01181502256860857 0 -0.00028052206305343829 -0.011715798171004611 0 -0.00016865955503756521 -0.011666773949418563 0 -0.00014965157336332377 -0.011788201109018645 0 -0.00022589477192412204 -0.01181502256860857 0 -0.00016865955503756521 -0.011666773949418563 0 -0.00014965157336332377 -0.011788201109018645 0 -0.00011609251470925449 -0.011680539180550517 0 -0.00014965157336332377 -0.011788201109018645 0 -0.00011609251470925449 -0.011680539180550517 0 -0.00011027688664069592 -0.011756132697991247 0 -0.00012238822447147436 -0.011826992712690988 0 -0.00011027688664069592 -0.011756132697991247 0 -0.00013422219679497458 -0.011887454190954029 0 -0.00014965157336332377 -0.011788201109018645 0 -0.00011027688664069592 -0.011756132697991247 0 -0.00013422219679497458 -0.011887454190954029 0 -0.00014965157336332377 -0.011788201109018645 0 -0.00022589477192412204 -0.01181502256860857 0 -0.00021842657694354098 -0.011962616021174861 0 -0.00014965157336332377 -0.011788201109018645 0 -0.00013422219679497458 -0.011887454190954029 0 -0.00021842657694354098 -0.011962616021174861 0 -0.00016524056144179549 -0.012018937979775296 0 -0.00013422219679497458 -0.011887454190954029 0 -0.00021842657694354098 -0.011962616021174861 0 -0.00016524056144179549 -0.012018937979775296 0 -0.00019783121459059297 -0.012226882250693728 0 -0.00021842657694354098 -0.011962616021174861 0 -0.00019783121459059297 -0.012226882250693728 0 -0.00021842657694354098 -0.011962616021174861 0 -0.00037420812478586882 -0.012070287605433626 0 -0.00022589477192412204 -0.01181502256860857 0 -0.00021842657694354098 -0.011962616021174861 0 -0.00042157031176792904 -0.011889296646221337 0 -0.00021842657694354098 -0.011962616021174861 0 -0.00037420812478586882 -0.012070287605433626 0 -0.00042157031176792904 -0.011889296646221337 0 -0.00037420812478586882 -0.012070287605433626 0 -0.00062483342993121204 -0.012030087571380195 0 -0.00042157031176792904 -0.011889296646221337 0 -0.00037420812478586882 -0.012070287605433626 0 -0.00060035173949498982 -0.012266581388092977 0 -0.00062483342993121204 -0.012030087571380195 0 -0.00060035173949498982 -0.012266581388092977 0 -0.00085613056891925348 -0.012190522908768601 0 -0.00062483342993121204 -0.012030087571380195 0 -0.00084836165188721549 -0.012486687194967476 0 -0.0011763524890250631 -0.012367475009776099 0 -0.00085613056891925348 -0.012190522908768601 0 -0.00084836165188721549 -0.012486687194967476 0 -0.00060035173949498982 -0.012266581388092977 0 -0.00085613056891925348 -0.012190522908768601 0 -0.0010962892262458401 -0.012057446351770154 0 -0.00085613056891925348 -0.012190522908768601 0 -0.00086246649510150525 -0.011963365209098202 0 -0.00085613056891925348 -0.012190522908768601 0 -0.00086246649510150525 -0.011963365209098202 0 -0.00062483342993121204 -0.012030087571380195 0 -0.00092453550069836134 -0.011529984039620886 0 -0.0007155049475013242 -0.011816505752207109 0 -0.00050376708924570405 -0.011650104886600638 0 -0.0007155049475013242 -0.011816505752207109 0 -0.00050376708924570405 -0.011650104886600638 0 -0.00042157031176792904 -0.011889296646221337 0 -0.00062483342993121204 -0.012030087571380195 0 -0.0007155049475013242 -0.011816505752207109 0 -0.00042157031176792904 -0.011889296646221337 0 -0.00086246649510150525 -0.011963365209098202 0 -0.00062483342993121204 -0.012030087571380195 0 -0.0007155049475013242 -0.011816505752207109 0 -0.0010671711630638864 -0.011806000201046383 0 -0.00086246649510150525 -0.011963365209098202 0 -0.0007155049475013242 -0.011816505752207109 0 -0.0010671711630638864 -0.011806000201046383 0 -0.00092453550069836134 -0.011529984039620886 0 -0.0007155049475013242 -0.011816505752207109 0 -0.00050376708924570405 -0.011650104886600638 0 -0.00028052206305343829 -0.011715798171004611 0 -0.00042157031176792904 -0.011889296646221337 0 -0.00022589477192412204 -0.01181502256860857 0 -0.00028052206305343829 -0.011715798171004611 0 -0.00042157031176792904 -0.011889296646221337 0 
</DataArray>
</PointData>
<CellData Scalars="region_id,cross_section_updated," Vectors="" Tensors="stress,">
<DataArray type="Float64" Name="region_id" format="ascii">
5 5 5 6 5 5 6 5 5 5 5 5 5 5 5 6 6 5 5 5 5 6 5 5 6 6 5 6 5 6 5 5 5 6 5 5 5 5 5 5 5 5 5 5 5 5 5 6 6 5 5 5 5 5 5 5 5 5 5 5 5 5 5 5 5 5 5 5 5 5 6 5 5 6 5 5 5 5 5 5 5 5 5 5 5 5 5 5 5 6 5 5 5 5 5 6 5 5 5 5 6 6 5 5 5 5 5 5 5 5 6 6 5 5 6 5 5 6 5 6 5 6 5 6 5 5 5 6 5 6 5 6 5 5 6 5 5 5 5 5 6 5 5 5 5 6 6 5 6 5 6 6 6 5 5 5 5 5 5 5 5 5 5 5 5 5 5 5 5 5 6 5 5 5 5 5 5 5 5 5 5 5 5 5 5 5 5 5 5 5 5 5 5 5 5 5 6 5 5 5 5 5 5 6 5 5 5 5 5 5 5 6 5 5 5 5 6 5 6 5 5 5 5 5 5 5 5 5 5 5 5 5 5 5 5 5 5 5 5 5 5 5 6 5 5 5 5 5 5 5 5 5 5 5 5 5 5 5 6 6 6 5 5 5 5 5 5 6 5 5 5 5 6 6 5 5 5 5 6 6 5 5 6 6 5 5 6 5 5 5 5 6 6 5 5 5 5 5 5 5 6 5 6 5 5 5 5 5 5 6 5 5 5 5 5 6 5 5 5 5 5 5 5 5 5 5 5 5 6 5 5 6 5 5 5 5 5 5 5 5 5 5 5 5 5 5 5 5 5 5 5 5 5 5 5 5 5 5 5 5 5 5 5 5 5 5 5 5 5 6 5 5 5 5 5 5 5 5 5 5 6 5 5 5 6 5 6 5 5 5 5 5 6 5 5 5 5 6 5 5 5 5 5 5 5 5 5 6 5 5 5 6 5 5 5 6 5 5 5 6 5 5 5 5 5 5 5 5 5 5 6 5 5 5 5 5 5 5 5 5 5 5 6 5 5 5 5 5 5 5 6 5 5 5 5 5 5 6 6 5 5 5 6 5 5 5 5 5 5 5 5 5 5 5 5 5 5 5 5 5 5 5 5 5 5 5 5 5 5 5 5 5 5 5 6 5 5 5 5 5 5 5 5 5 5 5 5 5 5 5 5 5 5 5 5 5 5 6 5 6 5 5 5 5 5 6 5 5 5 5 6 5 5 5 6 5 5 5 5 5 5 5 5 5 5 5 5 6 5 5 5 5 5 5 5 5 5 5 5 5 5 5 5 5 5 6 5 5 5 5 5 5 5 5 5 5 5 5 5 5 5 5 5 5 6 6 5 5 5 5 5 5 5 5 5 5 5 5 5 5 5 5 5 5 5 5 5 5 5 5 5 5 5 5 5 5 5 5 5 5 5 5 5 5 5 5 5 5 5 5 5 5 5 5 5 6 5 6 5 5 5 5 5 5 5 5 6 5 6 6 5 5 5 5 5 5 5 6 5 5 6 5 6 5 5 5 6 5 6 6 5 5 5 6 5 6 5 5 5 5 5 5 5 5 5 5 5 5 5 5 5 5 5 5 5 5 5 5 5 5 5 5 5 5 5 5 5 5 5 5 5 5 5 5 5 5 5 5 5 5 5 5 5 5 5 5 5 5 5 5 5 5 5 5 5 5 5 5 5 5 5 5 5 5 5 5 5 5 5 5 5 5 5 5 5 5 6 5 5 5 5 6 5 5 5 5 5 5 5 6 5 5 5 5 5 5 5 5 5 5 5 5 5 5 5 5 6 5 5 6 5 6 5 6 5 5 5 5 5 5 5 5 6 5 5 5 6 5 6 5 5 6 5 5 5 6 6 5 5 5 5 5 5 5 5 5 5 5 5 5 5 5 5 5 5 5 5 5 5 5 5 5 5 6 5 5 5 5 5 5 6 5 5 5 6 5 5 5 5 5 5 6 5 5 5 5 5 5 5 5 5 5 6 5 5 6 5 5 6 5 5 5 5 5 5 5 5 6 5 5 5 5 5 5 5 5 5 5 5 6 5 5 5 5 6 5 5 5 6 5 5 5 5 5 5 5 5 5 5 5 5 5 5 5 5 5 5 5 5 5 5 5 5 5 5 6 6 5 5 5 5 6 5 6 6 5 5 5 5 5 6 6 5 6 5 6 5 5 5 5 5 5 5 6 5 5 5 5 5 5 5 5 5 5 5 5 5 5 5 5 5 6 5 5 5 5 5 5 5 5 5 5 6 5 5 5 6 5 5 6 5 5 5 5 5 5 5 5 5 5 5 5 5 5 5 5 5 5 5 5 5 5 5 5 6 6 5 5 5 6 5 5 5 5 6 5 5 5 5 6 5 5 5 5 5 5 5 5 5 6 5 5 5 5 5 5 5 5 5 5 5 5 6 5 5 5 5 5 5 6 5 5 5 6 6 5 5 5 5 6 5 5 6 5 5 5 5 5 5 5 5 5 5 5 5 5 5 5 5 5 5 5 5 5 5 5 5 6 5 5 5 5 5 5 5 5 5 6 5 6 5 5 5 5 5 5 5 6 5 5 6 5 5 5 5 5 5 5 5 5 6 5 5 5 6 5 5 5 5 5 5 5 5 5 5 5 5 5 5 5 5 5 5 5 5 6 5 6 5 5 5 6 5 5 5 6 5 5 5 5 5 5 6 6 5 6 6 5 5 5 5 5 5 5 5 5 5 5 5 5 5 6 5 6 5 5 5 5 6 5 5 5 5 5 6 5 5 5 5 6 5 5 5 6 6 5 5 6 5 5 5 5 5 5 5 6 5 5 5 5 5 5 5 5 6 5 5 5 5 5 5 5 5 6 5 6 6 5 5 5 5 6 5 6 5 5 5 5 5 5 5 5 5 5 5 5 5 5 5 5 5 6 5 5 5 5 5 5 5 5 5 5 5 6 5 5 5 5 6 5 5 6 5 5 5 6 5 5 6 5 5 5 5 5 5 5 5 5 5 5 5 5 5 5 5 5 5 5 5 5 5 5 5 5 5 5 5 5 5 5 5 5 6 5 5 5 5 5 5 5 5 5 5 5 5 5 5 5 5 5 5 5 5 5 5 5 5 5 5 5 5 5 5 5 5 5 5 5 5 5 5 5 5 5 5 5 5 5 5 5 6 5 5 5 5 5 5 5 5 5 5 5 6 5 5 5 5 5 5 5 5 5 5 5 6 5 5 6 5 5 6 5 6 5 6 5 5 6 5 6 5 6 6 6 5 5 5 6 5 5 5 5 6 5 5 5 5 6 5 5 5 5 5 5 5 5 5 5 5 5 5 5 5 5 6 5 5 5 5 5 5 5 5 5 5 5 5 5 5 5 5 5 5 5 5 5 5 5 5 5 5 5 5 5 5 5 5 5 5 5 6 5 5 5 5 5 5 5 5 5 5 5 5 5 5 5 5 5 5 5 5 6 5 5 5 5 5 5 5 5 6 5 5 5 5 5 6 5 5 5 5 5 6 5 5 5 5 5 5 5 5 5 5 5 5 5 6 5 5 5 5 5 5 5 5 5 5 5 5 6 5 5 5 5 5 5 5 5 5 5 5 5 5 5 5 5 5 5 5 5 5 5 5 5 5 5 5 5 5 5 5 5 5 5 5 5 5 5 6 5 5 5 5 5 5 5 5 5 6 6 5 5 5 6 5 5 6 5 5 6 5 5 6 5 5 6 5 5 5 5 5 5 6 5 5 5 6 5 6 5 5 6 5 6 5 6 5 6 5 5 6 5 6 5 5 5 5 5 6 5 5 5 5 5 5 5 5 5 6 5 5 6 5 5 5 5 5 5 5 5 5 5 6 5 5 5 5 5 5 5 5 5 6 5 5 5 5 6 6 5 6 5 6 5 6 5 5 5 5 5 5 5 5 5 5 5 6 5 5 5 5 5 5 5 5 5 5 5 5 5 5 5 5 6 5 5 6 5 5 5 5 6 5 5 5 5 5 5 5 6 5 5 5 5 5 5 5 5 5 5 5 5 5 6 6 5 6 5 5 5 5 5 5 5 6 5 5 5 6 5 6 5 5 5 5 5 5 5 5 5 5 5 5 5 6 5 5 5 5 6 5 5 5 6 5 5 5 5 5 5 6 5 5 5 5 6 5 6 5 5 5 5 5 6 6 5 5 5 6 5 5 5 5 5 5 5 5 5 5 5 6 5 5 5 6 5 5 5 6 5 5 5 5 5 5 5 5 5 5 5 5 5 5 5 6 6 5 5 5 6 5 5 5 5 5 5 6 5 5 5 5 5 5 5 6 5 6 5 5 5 5 6 6 5 5 6 5 6 5 6 5 5 6 6 5 5 5 5 5 6 5 6 5 5 6 5 6 6 5 6 5 5 5 5 6 5 5 5 6 5 5 5 6 5 6 5 5 6 5 5 6 5 6 5 6 5 5 5 5 5 6 6 5 5 5 5 5 5 6 5 5 5 5 6 5 5 6 5 6 5 5 5 6 5 5 5 6 5 5 5 5 5 6 5 5 6 5 5 5 5 6 5 5 5 5 5 6 6 5 5 6 5 5 5 6 6 5 5 6 6 6 5 5 6 6 5 5 5 6 5 6 5 5 6 5 5 6 5 5 5 5 5 5 5 5 6 5 5 6 5 5 5 5 5 5 5 5 6 5 5 5 6 5 5 5 5 6 5 5 5 6 5 6 5 6 5 5 5 5 5 5 6 5 5 5 5 5 5 5 5 5 5 5 5 5 6 6 5 5 5 6 5 5 5 5 5 6 5 5 5 6 5 5 5 5 5 6 5 5 6 5 5 5 5 5 5 5 5 5 6 5 5 5 5 5 5 5 5 5 5 5 5 5 5 5 5 5 5 5 5 5 5 5 5 5 5 5 6 5 5 5 5 5 5 6 5 5 5 5 5 5 5 5 5 6 5 5 6 5 5 5 5 6 5 5 5 5 5 5 5 5 5 5 5 5 5 5 5 5 5 5 5 5 5 5 5 5 5 5 5 5 5 5 5 6 5 5 5 5 5 5 5 5 6 5 5 5 5 5 5 6 5 5 5 5 5 5 5 5 5 5 5 5 5 5 5 5 6 5 5 5 5 5 6 5 5 5 5 5 6 5 5 5 5 5 5 5 5 5 5 5 5 5 5 5 5 5 5 5 5 5 5 5 6 5 5 5 5 5 5 5 5 6 5 5 5 5 5 5 5 5 5 5 5 5 5 5 5 5 5 5 5 5 5 5 5 5 5 6 5 5 5 5 6 5 5 5 5 6 5 5 5 5 5 5 5 5 5 5 5 5 5 5 6 5 5 5 5 5 5 5 5 5 5 5 5 5 5 5 5 5 5 5 5 5 5 5 5 5 5 6 5 6 5 5 5 5 5 6 5 5 5 5 5 5 5 5 5 5 5 5 5 5 5 5 5 5 5 6 5 5 5 6 5 5 5 5 5 5 5 6 5 5 5 5 6 5 6 5 6 5 6 5 5 5 5 5 5 5 5 5 5 5 5 5 5 5 5 5 5 5 5 5 5 5 5 5 5 5 5 5 5 5 5 5 5 5 5 5 5 5 5 5 5 5 5 5 5 5 5 5 5 5 5 5 5 5 5 5 5 5 5 5 5 5 5 5 5 5 5 5 5 6 5 6 5 5 5 5 5 5 5 5 5 5 5 5 5 6 5 5 5 5 6 5 5 5 5 5 5 5 5 5 5 5 5 5 5 5 5 5 5 5 5 5 5 5 5 5 5 5 5 5 5 5 5 5 5 5 5 5 6 5 5 5 5 5 5 5 5 6 5 5 5 5 5 5 5 5 5 5 5 5 5 6 5 5 6 5 5 5 5 5 6 5 5 5 5 5 6 5 5 5 5 5 6 5 5 5 5 5 5 5 5 5 5 5 5 5 5 5 5 6 5 5 6 5 5 5 5 5 5 5 5 5 5 5 5 5 5 5 5 5 5 5 5 5 5 5 5 5 5 5 5 5 5 5 5 5 5 5 5 6 5 5 5 5 5 5 5 5 5 5 5 6 5 5 6 5 6 5 5 6 5 5 5 5 5 5 5 5 5 5 5 5 5 5 5 5 5 6 6 5 5 5 5 6 5 6 5 6 5 5 6 5 5 5 5 6 5 5 6 5 6 5 5 5 5 5 5 5 5 5 5 5 5 5 5 5 5 5 5 5 5 5 5 5 5 5 5 5 5 5 5 5 5 5 5 5 5 5 5 5 5 5 5 5 5 5 5 5 6 5 5 5 6 5 5 5 6 5 6 5 5 6 5 5 6 5 5 5 5 5 5 5 6 5 5 5 5 6 6 5 5 5 5 5 5 5 5 5 5 5 5 5 5 5 5 5 5 5 5 5 6 5 5 5 5 5 5 5 5 5 5 5 5 5 5 5 5 5 5 5 5 5 5 5 5 5 5 5 5 5 5 5 5 5 5 5 5 5 5 5 6 5 5 6 5 5 5 5 5 5 5 5 5 5 5 5 5 5 5 6 5 5 5 5 5 5 5 5 5 5 5 5 5 5 5 5 5 5 5 5 5 5 5 5 5 5 5 5 5 5 5 5 5 5 5 5 5 5 5 5 5 5 5 5 5 5 5 5 5 5 5 5 5 5 5 5 5 5 5 5 6 5 5 5 5 5 5 5 5 5 6 5 5 5 5 5 5 5 5 5 5 5 6 5 5 5 5 5 5 5 5 5 5 5 5 5 6 6 6 5 5 5 5 5 5 5 6 5 5 5 5 5 6 5 5 5 5 5 5 5 5 5 5 5 5 5 5 5 5 5 5 5 5 5 5 5 5 5 5 5 5 5 5 5 5 5 5 5 5 5 6 5 5 5 6 5 5 5 5 5 5 5 5 5 5 5 5 5 5 5 5 6 6 5 5 5 6 6 5 5 5 5 5 5 5 5 5 5 5 5 6 5 5 5 5 5 5 5 5 5 5 5 5 5 5 5 5 5 5 5 5 5 5 5 5 5 5 5 5 5 5 5 5 5 5 5 5 5 6 5 5 5 5 5 5 5 5 6 5 5 5 5 5 5 5 6 5 5 5 5 5 5 5 5 5 5 5 5 5 5 6 5 5 5 6 5 6 5 5 5 5 5 5 5 5 5 6 5 5 5 5 5 6 5 5 5 5 5 5 5 5 5 5 5 5 5 5 5 5 5 5 5 5 6 5 5 5 5 5 6 5 5 5 5 5 5 5 6 5 5 6 5 5 5 5 5 5 6 5 5 5 5 5 5 6 5 5 5 5 5 5 5 5 5 5 5 5 5 5 5 5 5 5 5 5 5 5 5 5 5 5 5 5 5 6 5 5 5 5 6 5 5 6 5 5 5 6 5 5 6 5 5 5 5 5 5 5 5 5 5 5 5 5 5 5 5 5 5 6 5 5 5 5 6 5 5 5 6 5 5 6 5 5 5 5 5 5 5 5 5 5 5 5 5 5 5 5 5 5 5 5 5 5 5 5 5 5 5 5 5 5 5 5 5 5 5 5 5 5 5 5 5 5 5 5 5 5 5 5 5 5 5 5 5 5 5 5 5 5 5 5 5 6 5 5 5 5 5 5 5 5 6 5 5 5 5 5 5 5 5 5 5 5 5 5 5 5 5 5 5 5 5 5 5 5 5 5 5 5 5 6 5 5 5 5 5 5 5 5 5 5 5 5 5 5 5 5 5 5 5 5 5 6 5 6 5 5 6 6 5 5 6 6 5 5 6 5 5 5 5 6 5 5 6 5 5 6 5 5 5 5 5 5 5 5 5 5 5 5 5 5 6 5 5 5 5 5 5 5 5 5 5 6 5 5 6 5 5 5 5 5 6 5 6 5 5 6 5 6 5 6 5 5 5 5 5 5 5 5 5 5 5 5 5 5 5 5 6 5 5 6 5 5 5 5 6 5 5 5 5 5 5 5 5 5 5 5 5 5 5 5 5 5 6 5 5 5 5 5 5 5 5 5 6 5 5 5 5 5 5 5 5 5 5 5 5 5 5 6 5 5 6 5 5 6 5 5 5 6 5 5 5 5 5 5 5 5 5 5 6 5 6 5 5 5 5 5 6 5 5 5 5 5 5 5 5 5 6 5 5 5 5 5 5 5 5 5 5 5 6 5 5 6 5 5 5 5 5 5 5 5 5 6 5 5 5 5 5 5 5 5 6 6 5 5 5 5 5 5 5 5 5 5 5 5 5 5 5 5 5 5 5 5 5 5 5 5 5 6 5 5 5 5 5 5 5 5 5 5 5 5 5 5 5 5 5 5 5 5 5 5 5 5 5 5 5 5 5 5 5 5 5 5 5 5 5 5 5 5 5 5 5 5 5 5 5 5 5 5 5 5 5 6 5 5 6 5 5 6 6 5 5 5 5 6 5 5 5 5 5 5 5 5 5 5 5 5 5 6 5 5 5 5 5 5 5 5 5 5 5 5 5 5 5 5 5 6 5 6 5 5 6 5 5 5 5 5 5 5 5 5 6 5 5 6 5 5 5 6 5 6 5 5 5 5 5 5 5 5 5 5 5 5 5 5 5 5 5 6 5 5 5 5 6 5 5 5 5 5 5 5 5 5 5 5 5 5 6 5 5 5 5 5 5 5 5 5 5 5 5 5 5 5 5 5 5 5 5 5 5 5 5 5 5 5 5 5 5 5 5 5 5 5 5 5 6 5 6 5 6 5 5 6 5 5 6 5 5 5 6 5 5 5 6 5 5 5 5 5 6 5 5 6 5 5 5 5 6 5 5 5 5 5 5 5 5 5 5 5 5 5 5 6 5 5 5 5 5 5 5 5 5 5 5 5 5 5 5 5 5 5 5 5 5 5 5 5 5 6 6 5 5 5 5 5 5 5 5 5 5 5 5 6 6 5 5 5 5 5 5 5 5 5 5 5 5 5 5 5 5 5 5 5 5 5 5 5 5 5 5 5 5 5 5 5 5 5 5 5 5 5 5 5 5 5 5 5 5 5 5 5 5 5 5 5 5 6 5 5 5 5 5 6 5 5 5 6 5 5 6 6 5 6 6 5 5 5 5 6 5 5 5 5 5 5 5 5 5 5 5 5 5 5 5 5 6 5 5 5 6 5 5 5 5 5 5 5 5 5 5 5 6 5 5 6 5 6 5 5 6 5 5 6 5 5 5 5 5 5 5 5 5 5 5 5 5 5 5 5 5 5 5 5 5 5 5 5 5 6 6 5 5 5 6 5 5 6 5 5 5 5 5 5 5 5 5 5 5 5 5 5 5 5 5 5 5 5 5 5 5 5 5 6 5 5 6 5 5 5 5 5 6 5 5 6 5 5 5 5 5 5 6 5 5 5 5 5 6 5 5 5 5 5 5 5 5 5 5 5 5 5 5 5 5 5 5 5 5 5 5 5 5 5 5 5 5 5 5 5 5 5 5 5 5 5 5 5 5 5 5 5 5 5 5 5 5 5 5 5 5 5 5 5 5 5 5 5 6 5 5 5 6 5 5 5 5 6 5 5 5 5 5 5 5 5 5 5 5 5 5 5 5 5 5 5 5 5 5 5 5 5 5 5 5 5 5 5 5 5 5 5 5 5 5 6 5 5 5 5 5 5 5 5 5 5 5 5 6 5 5 5 5 5 5 5 5 5 6 5 6 5 5 5 5 5 5 5 6 6 5 5 6 5 5 5 5 5 5 5 5 6 5 5 5 5 5 5 5 5 5 5 5 5 5 5 5 5 5 5 5 5 5 5 5 5 5 5 5 5 5 5 5 5 6 5 5 6 5 5 5 5 6 5 5 5 6 5 5 5 6 5 5 5 5 5 6 6 5 5 5 5 5 6 5 6 6 5 5 5 5 5 5 5 5 5 5 5 5 5 5 5 5 5 5 5 5 5 5 5 5 5 5 5 5 5 5 5 5 5 5 6 5 5 5 5 5 5 5 5 6 5 5 5 5 5 5 5 5 5 5 5 5 5 5 5 5 5 5 5 5 5 5 5 5 5 5 5 5 5 5 5 5 5 5 5 5 5 5 5 5 5 5 5 5 5 5 5 5 5 5 5 5 5 6 5 5 5 5 5 5 6 5 5 5 5 5 6 6 5 5 5 5 5 5 5 5 5 5 5 6 5 5 5 5 5 5 5 6 5 5 5 5 5 5 5 5 6 5 5 5 5 5 6 5 5 5 5 5 5 5 5 5 5 5 5 5 5 6 5 5 5 5 5 5 5 5 6 5 5 5 6 5 5 5 5 5 5 6 5 5 5 5 5 5 5 5 5 5 5 5 5 5 6 6 5 6 5 5 5 5 5 5 5 5 6 5 5 5 6 5 6 5 6 6 6 5 5 5 5 6 5 6 5 5 6 5 5 5 5 5 6 5 5 6 5 5 5 5 5 5 5 6 5 5 5 6 6 5 5 5 6 6 5 5 5 6 5 6 5 5 6 5 5 5 5 6 5 5 5 6 5 5 6 5 5 5 5 5 5 6 5 5 5 5 5 5 5 5 5 5 5 5 5 6 5 5 5 5 5 6 5 5 5 5 5 5 5 5 5 5 5 5 5 5 5 5 6 5 5 5 5 5 5 5 5 5 5 5 5 6 5 5 5 6 5 5 6 5 5 5 5 5 5 5 5 5 5 5 6 5 6 5 5 5 5 5 5 5 5 5 5 5 5 5 5 5 5 6 5 5 5 5 5 5 5 5 6 5 5 5 5 5 5 5 5 5 5 5 5 5 5 5 5 5 5 5 5 5 5 5 5 5 5 5 5 5 5 5 5 5 5 5 5 5 5 5 5 5 5 5 5 5 5 5 5 5 5 5 5 5 5 5 6 5 5 6 5 5 5 5 5 5 5 5 5 5 5 5 5 5 5 5 5 5 5 5 6 5 5 5 5 6 5 5 5 5 5 6 6 5 5 6 6 5 6 5 5 5 5 5 5 5 5 5 5 5 5 5 5 5 5 5 5 5 5 5 5 5 5 5 5 5 5 5 6 5 5 5 6 5 5 6 5 5 5 5 6 5 5 6 5 5 5 6 6 5 5 5 5 5 5 5 5 5 5 5 5 5 6 5 5 6 5 5 5 5 5 6 5 6 5 5 5 5 6 5 5 5 6 5 5 5 5 5 5 5 5 5 6 5 6 6 5 6 6 5 5 5 5 5 5 5 5 5 5 5 5 6 5 5 5 5 5 6 6 6 5 5 5 5 5 6 5 5 6 5 5 5 5 5 5 5 5 5 5 6 5 5 5 5 5 5 5 5 5 5 6 5 5 5 6 5 5 5 5 5 5 5 5 5 5 6 5 5 6 5 6 5 5 6 5 5 6 5 6 5 5 6 5 6 5 5 6 5 5 5 6 5 5 5 5 6 5 5 5 5 6 6 5 5 5 5 5 5 6 5 5 5 5 5 5 5 5 5 5 6 5 5 5 5 6 5 5 5 5 5 5 5 6 5 5 5 6 6 5 6 5 5 5 5 5 6 5 6 5 6 6 6 5 6 5 5 5 6 5 5 5 5 5 5 5 6 5 5 5 5 5 5 5 5 5 6 5 5 5 5 6 5 5 5 5 5 5 5 5 5 5 5 6 5 5 5 5 5 5 6 5 5 5 6 5 5 5 5 5 5 5 5 5 5 5 5 5 5 6 5 5 5 5 5 6 5 5 5 5 5 5 6 5 6 5 5 6 5 5 5 5 5 6 5 6 5 5 5 5 6 5 5 5 6 5 5 5 5 5 5 5 5 5 6 5 6 5 5 5 5 5 6 5 5 5 5 6 5 5 5 5 6 6 5 6 5 5 6 5 5 6 5 6 5 5 5 5 5 6 5 5 5 5 5 5 5 5 5 5 5 5 5 6 5 5 5 5 5 5 5 6 5 5 5 5 5 5 5 5 5 5 5 5 5 5 6 5 6 6 5 5 5 5 5 5 5 5 5 5 5 5 5 5 5 5 5 5 5 5 6 5 5 5 5 6 5 5 5 5 5 5 5 5 5 5 5 5 5 5 5 5 6 5 5 5 5 5 5 5 6 5 5 5 5 5 5 6 5 6 5 5 6 5 5 5 5 6 5 5 5 5 6 5 5 5 6 5 5 5 5 5 5 5 6 5 5 5 5 5 5 6 5 5 5 5 6 5 5 5 5 5 5 5 5 5 6 5 5 5 5 6 5 5 5 6 5 5 5 5 5 5 5 6 5 6 5 5 5 5 6 5 5 6 6 5 5 6 5 6 5 5 6 6 5 5 6 5 5 5 5 6 5 5 5 5 5 6 6 5 5 5 5 5 5 5 5 6 5 5 6 6 6 5 5 5 6 5 6 5 5 5 5 6 5 5 5 5 5 5 5 5 5 5 5 5 5 5 5 5 5 6 5 5 6 5 5 5 5 5 5 5 5 5 5 5 6 5 5 5 5 5 5 5 5 5 5 6 5 5 6 5 5 5 5 5 5 5 5 5 5 5 5 6 5 5 5 5 5 5 5 6 5 5 5 5 6 5 5 5 5 5 5 5 6 6 5 5 5 5 6 6 5 6 6 5 5 5 5 5 5 6 6 5 5 5 5 6 5 6 5 5 5 5 5 5 5 5 5 5 6 5 5 5 5 5 6 5 5 5 5 5 5 5 5 5 5 5 5 5 6 5 5 6 6 5 5 6 6 5 5 5 6 6 5 5 5 6 5 5 6 6 5 5 5 5 5 5 5 5 5 6 5 5 5 6 5 6 5 6 5 6 5 5 5 5 5 5 6 5 6 5 5 6 5 5 5 5 5 5 5 5 5 6 5 5 5 6 5 5 5 5 5 5 5 5 5 5 5 5 5 5 5 5 6 5 6 5 5 5 5 5 5 5 5 5 6 5 6 5 5 5 6 5 5 6 5 5 5 5 5 5 5 5 5 5 6 5 5 6 5 5 5 5 5 6 5 5 6 5 5 5 5 5 5 5 5 5 5 5 5 5 5 5 5 5 5 6 5 5 5 6 5 5 6 5 5 6 5 5 5 5 5 5 6 5 5 5 5 5 5 5 5 5 5 5 5 6 5 5 5 5 5 5 5 5 5 5 5 5 5 6 5 5 6 5 5 5 6 5 5 5 5 5 5 5 5 5 5 6 5 5 5 5 5 5 5 5 5 5 5 5 5 6 5 5 5 5 5 5 5 5 5 5 5 5 5 5 5 5 5 5 5 5 5 5 5 5 5 5 6 5 5 6 5 5 5 6 5 5 5 5 5 5 5 5 5 5 5 5 5 5 6 5 5 5 5 5 6 6 6 5 5 5 6 5 5 5 5 5 5 5 5 5 6 5 5 5 5 5 5 5 5 6 5 5 5 5 5 6 5 5 5 5 5 6 5 5 6 5 5 5 5 6 5 5 5 5 5 5 5 5 5 5 5 5 5 5 5 5 5 5 5 5 5 5 5 5 5 5 5 6 5 6 5 5 5 5 5 5 6 5 5 5 5 5 5 5 5 5 5 5 5 5 5 5 5 5 5 5 5 5 5 5 6 5 5 5 5 6 5 5 5 5 5 5 5 5 5 5 5 5 6 5 5 6 5 5 5 5 5 5 6 6 5 5 5 5 6 6 5 5 5 5 5 5 5 5 5 5 5 6 6 5 5 6 6 5 5 5 5 6 5 5 5 5 5 5 5 5 5 6 5 5 5 5 5 5 5 5 5 5 5 5 5 5 5 5 5 5 5 5 5 5 5 5 6 5 5 6 5 5 6 5 6 5 5 6 6 5 6 5 5 6 6 5 5 5 5 5 5 5 5 5 5 5 5 5 5 5 5 5 5 5 5 5 5 5 5 5 5 5 5 5 5 6 5 5 5 5 6 5 5 6 5 5 5 5 6 5 5 5 5 5 5 5 5 6 6 5 5 6 6 5 6 5 5 5 5 6 5 5 5 5 5 5 5 5 5 6 5 6 5 5 5 5 5 5 5 5 5 5 5 5 5 5 5 5 5 5 5 5 5 5 6 5 5 5 6 5 5 5 5 6 5 5 5 5 5 6 5 6 5 5 5 5 6 5 6 5 5 6 5 5 5 5 5 6 6 6 5 5 6 5 5 5 5 6 6 5 5 6 6 5 5 5 5 6 6 5 5 6 5 5 5 6 5 5 6 5 5 6 5 5 5 5 5 6 6 5 5 5 5 5 5 5 5 5 5 5 5 5 5 5 6 5 5 5 6 5 5 5 5 6 5 5 5 5 5 5 5 5 5 5 5 5 5 5 5 5 5 6 5 6 6 5 5 6 5 5 5 6 5 5 5 5 5 5 5 5 5 5 6 5 5 5 5 5 5 5 5 5 5 5 5 5 5 5 5 5 5 5 5 5 5 5 5 5 5 5 5 5 5 5 5 5 5 5 5 5 5 5 5 5 5 5 5 6 5 5 6 5 5 5 5 5 5 5 5 5 5 5 6 5 5 5 5 5 6 5 6 5 5 5 5 5 5 5 5 6 5 5 5 5 5 5 6 5 5 6 5 6 5 5 6 5 6 5 5 5 5 5 6 5 5 5 5 5 5 5 5 5 5 5 5 5 5 6 5 5 5 5 6 5 5 5 5 5 5 5 5 5 6 5 5 5 5 5 5 5 5 5 5 5 5 5 5 5 5 5 5 5 5 5 5 5 5 5 5 5 6 5 5 5 5 5 5 5 5 5 5 5 5 5 5 6 5 6 5 5 5 6 5 6 5 6 5 5 5 5 5 5 5 5 5 5 5 5 5 5 5 5 5 5 5 5 5 5 5 5 5 5 5 5 5 5 5 5 6 5 5 6 5 5 5 5 5 5 5 6 5 5 5 5 5 5 5 5 5 5 5 5 5 5 5 5 5 5 5 5 5 5 5 6 5 5 6 5 5 5 5 6 5 5 5 5 5 5 5 5 5 5 5 5 6 5 5 5 5 5 6 5 5 5 5 6 5 5 5 5 5 5 5 5 5 5 5 5 5 6 5 5 5 5 5 5 5 5 5 5 5 5 5 6 5 5 5 5 5 5 5 5 5 5 5 5 5 5 5 5 5 5 6 5 5 5 5 5 5 5 5 5 5 5 5 5 5 5 6 6 5 5 5 5 5 5 5 5 5 6 5 5 5 5 5 5 5 6 5 5 5 5 5 5 5 6 5 5 5 5 6 5 5 5 6 5 5 5 5 5 6 5 5 5 5 5 6 5 5 5 5 5 5 5 5 6 5 6 5 5 5 5 5 6 5 5 5 5 5 5 6 5 5 5 6 5 5 6 5 5 5 5 5 5 6 5 5 6 5 5 5 5 6 5 5 5 5 5 5 5 5 5 5 5 5 5 5 5 5 5 5 6 5 5 5 5 5 5 5 5 5 5 5 5 5 5 5 5 5 6 5 5 5 6 5 5 6 6 5 5 5 5 5 5 5 5 5 5 5 6 5 5 5 5 5 5 5 5 6 5 6 5 5 5 6 5 5 5 5 5 6 5 5 6 5 5 5 5 5 5 5 5 5 5 5 5 5 5 6 6 5 5 5 5 5 6 5 5 5 5 5 5 5 5 6 5 5 6 5 5 5 6 5 6 5 5 5 5 5 5 5 5 5 5 5 6 5 5 5 6 5 6 5 5 6 5 6 5 5 6 5 5 5 5 5 5 5 5 5 5 5 5 6 5 5 6 5 5 5 6 5 6 5 5 5 5 5 5 5 5 5 5 5 5 5 6 6 5 5 5 5 5 6 5 5 6 5 5 6 5 5 5 6 5 5 5 5 5 5 5 5 6 5 5 6 6 5 5 5 5 5 6 5 5 6 5 5 5 6 6 5 5 5 5 5 6 5 6 5 5 5 5 5 5 5 5 5 6 5 5 6 5 5 5 5 5 5 5 5 6 5 5 5 5 5 5 6 5 5 5 6 5 5 5 5 6 5 5 5 5 5 5 5 5 5 5 5 6 5 5 6 5 5 5 5 5 5 6 5 5 5 5 5 5 5 5 6 5 5 6 6 5 5 5 5 5 6 5 5 5 5 5 5 5 6 5 5 6 5 5 5 5 5 5 6 5 5 5 6 5 5 5 5 5 5 5 5 5 5 5 5 6 5 6 5 6 5 5 5 6 5 5 5 5 5 5 6 5 5 5 5 5 5 5 5 5 5 5 5 6 5 5 6 6 5 5 5 5 6 5 5 5 6 6 5 5 5 5 6 5 5 5 6 5 6 6 5 5 6 6 5 5 5 5 5 6 5 6 5 6 6 5 5 5 5 5 5 5 5 5 6 6 6 5 5 6 5 5 6 5 5 5 5 5 5 5 5 6 6 5 5 5 6 5 5 5 6 5 5 6 5 5 5 5 5 5 5 5 5 5 5 5 5 5 5 5 5 5 6 5 5 5 5 5 5 5 5 5 6 5 5 5 5 5 5 5 5 5 5 6 6 5 5 5 5 5 6 5 5 5 5 5 5 5 5 5 5 5 6 5 6 5 5 6 5 5 6 5 5 5 5 5 5 5 5 5 5 5 5 5 5 5 5 5 6 5 5 5 5 5 5 5 5 5 5 5 5 5 5 5 5 5 5 5 5 5 5 5 5 5 6 5 5 5 5 5 5 5 5 5 5 5 5 5 6 5 6 5 5 5 5 5 5 5 5 5 5 5 5 5 5 5 5 5 5 5 5 5 5 5 5 5 5 5 5 5 5 5 5 5 5 6 5 6 5 5 6 5 5 5 6 5 5 5 5 5 5 5 5 5 5 5 5 5 5 5 5 5 5 5 6 6 5 5 5 5 5 5 6 5 6 5 5 5 5 5 5 6 5 5 6 5 6 5 5 5 5 5 5 5 5 5 5 5 5 5 5 5 5 6 5 6 5 5 5 5 5 5 5 5 6 6 5 5 6 5 5 5 5 6 5 6 5 5 6 5 5 5 5 5 5 5 6 6 5 5 5 6 5 5 6 5 6 5 6 6 5 5 5 5 5 6 5 5 5 5 5 5 6 5 5 6 5 5 5 5 5 5 5 5 5 6 6 5 6 5 6 5 5 6 5 5 5 5 5 5 5 5 5 6 5 5 5 5 6 5 5 5 5 5 5 5 5 5 6 6 5 5 5 5 5 5 5 5 5 5 5 5 5 5 5 5 5 5 5 5 5 5 5 5 5 5 5 5 5 5 6 5 6 5 5 5 5 5 6 6 5 6 6 5 5 5 5 5 5 5 5 5 5 5 5 5 6 5 5 5 5 5 5 5 5 5 5 5 5 5 5 5 5 5 6 5 5 6 5 5 5 5 5 5 5 6 5 5 5 5 5 5 5 5 5 5 5 5 5 6 5 5 5 5 5 5 6 5 5 5 5 5 5 5 5 5 5 5 5 5 5 5 5 5 6 5 5 5 5 5 5 5 5 5 5 5 5 5 6 5 5 5 6 5 5 5 5 5 5 5 5 6 5 5 5 5 5 5 6 5 5 5 5 6 5 5 5 6 5 5 5 5 6 5 5 5 5 5 5 5 6 5 5 5 6 5 5 5 6 5 5 5 5 5 5 5 6 5 5 6 5 5 5 5 5 5 5 5 5 5 5 5 5 5 5 5 5 5 5 5 5 5 5 5 5 5 5 5 5 5 5 5 5 5 5 5 5 5 5 5 5 5 6 5 5 6 5 5 6 5 5 5 6 5 5 5 5 5 6 6 5 6 6 5 5 5 5 5 5 5 5 5 5 5 5 5 5 5 5 5 6 5 5 5 5 5 5 5 5 5 5 5 5 5 5 5 5 5 5 5 5 5 5 5 5 5 5 5 5 5 6 5 5 5 5 6 5 5 5 5 5 5 5 6 5 6 5 5 5 6 5 5 5 5 5 5 5 5 5 5 5 5 5 5 5 5 5 5 5 5 5 5 5 5 5 5 5 5 5 5 5 5 5 5 5 5 5 5 5 5 5 5 5 6 6 5 6 5 6 5 5 5 5 6 5 5 5 5 5 5 5 5 5 5 5 5 5 5 5 5 6 5 5 6 5 5 5 5 5 5 5 5 5 5 5 5 5 5 5 6 5 5 5 5 6 5 5 5 5 5 6 5 5 5 5 5 5 5 5 5 5 5 5 6 5 5 6 5 5 5 5 6 5 5 5 5 5 5 5 5 5 6 5 5 5 5 5 5 5 5 5 5 5 5 5 5 5 5 5 5 5 5 5 5 5 5 5 5 5 6 5 5 5 5 6 5 5 5 5 5 5 5 5 6 5 6 5 5 5 6 5 5 5 5 5 5 5 5 5 5 5 6 5 5 5 6 5 5 5 5 5 5 6 6 5 5 5 5 5 5 5 5 5 5 5 5 5 5 5 5 5 6 5 5 5 5 5 5 5 6 5 5 5 5 5 5 5 5 5 5 5 5 6 5 5 5 5 5 6 6 5 6 5 5 6 5 5 5 5 5 6 5 5 5 6 5 6 5 5 5 6 6 5 5 5 5 5 5 5 5 5 5 5 5 5 5 5 5 5 5 5 5 5 5 6 5 5 5 5 5 5 5 6 5 5 5 5 6 5 5 6 5 5 5 5 5 5 6 5 5 5 5 5 5 6 5 5 5 5 5 5 5 6 5 5 5 5 5 5 5 5 6 5 5 5 5 5 5 6 5 5 5 5 5 6 5 5 5 6 5 5 5 6 5 5 5 5 5 5 5 5 5 5 5 5 5 5 5 5 5 5 5 5 6 5 5 5 5 5 6 5 5 6 6 5 5 5 5 6 5 5 6 5 5 5 5 5 5 5 5 6 5 5 5 6 5 5 5 5 5 6 5 5 5 6 5 5 6 5 5 5 5 5 5 5 5 5 5 5 5 5 5 5 5 5 5 5 6 5 5 5 5 5 6 5 5 6 5 5 5 5 5 5 5 6 5 5 5 5 5 5 5 5 5 5 5 6 5 5 5 5 6 6 5 5 5 5 6 5 5 6 5 5 5 5 5 5 6 5 5 5 5 5 5 5 5 5 5 5 5 5 5 5 5 5 5 5 5 5 5 5 5 5 5 5 6 5 5 6 5 5 5 6 5 5 5 5 5 5 5 5 5 5 6 5 5 5 6 5 5 5 5 5 6 6 5 5 5 5 6 5 5 5 6 5 5 5 5 5 5 5 5 5 5 5 6 5 5 5 5 5 5 5 5 5 5 5 5 5 5 6 5 5 5 6 5 5 5 5 5 6 5 5 5 6 6 5 5 6 5 5 5 5 5 5 5 6 5 5 5 5 6 5 5 5 5 5 5 5 5 6 5 5 6 5 5 5 5 5 5 5 5 5 5 5 5 5 5 5 5 5 5 5 5 5 5 5 5 5 5 6 5 5 5 6 5 5 5 5 5 5 5 5 5 5 5 5 5 5 5 5 5 5 5 6 5 5 6 5 6 5 5 5 5 5 5 5 6 5 5 6 5 5 5 6 5 5 5 5 5 6 5 5 5 5 5 5 5 5 5 6 5 6 6 6 5 5 5 6 5 5 6 5 5 5 5 5 5 5 5 5 5 5 5 5 6 5 5 5 5 5 5 5 5 6 5 5 5 5 6 5 5 5 5 6 5 5 5 5 5 5 5 5 5 6 5 5 5 5 6 5 5 6 5 5 5 5 6 5 5 6 5 6 5 5 5 5 5 5 5 5 5 5 5 5 5 5 5 5 5 5 5 5 5 5 5 5 5 5 5 5 5 5 5 5 5 5 5 5 5 5 5 5 5 5 5 5 5 5 5 5 6 5 6 5 5 6 5 5 5 5 5 5 5 6 5 5 6 5 5 5 5 5 6 5 5 5 6 5 5 5 5 5 5 5 5 6 5 5 6 5 5 5 5 5 5 5 5 5 5 5 5 6 5 5 5 5 5 6 5 5 5 5 5 6 5 5 5 5 5 5 5 6 5 6 5 5 5 6 5 5 5 6 5 5 5 5 5 5 5 6 5 5 5 5 5 6 5 5 5 5 5 6 5 5 6 5 5 6 5 6 5 5 5 5 6 5 5 5 6 5 5 5 5 6 5 5 5 5 5 5 5 5 5 5 5 5 6 5 6 6 5 5 5 6 5 5 5 5 5 5 5 6 5 5 5 5 5 5 6 5 6 5 5 5 6 5 5 5 5 5 5 5 5 5 5 5 5 5 5 5 5 5 5 5 6 5 6 5 5 6 5 5 6 5 5 5 5 5 5 5 5 5 5 5 5 6 5 5 5 5 5 5 6 5 5 5 5 6 5 5 5 5 5 5 5 5 5 5 5 5 5 5 5 6 5 5 5 5 5 6 5 5 5 5 6 5 5 5 5 5 5 5 6 5 5 6 5 5 5 5 5 5 6 5 5 5 6 5 5 6 5 5 5 5 5 5 5 5 6 6 5 5 6 5 6 5 6 5 5 5 5 5 6 5 6 5 5 5 6 5 5 5 5 5 5 5 5 6 5 5 5 5 5 5 5 5 5 5 5 5 5 5 6 5 5 5 5 5 5 5 6 5 5 5 6 5 5 5 5 6 6 5 5 5 6 5 5 5 5 6 5 5 6 5 5 5 5 5 6 5 5 5 5 5 5 5 5 5 5 5 5 6 5 5 5 5 5 5 5 5 5 5 5 5 5 5 5 5 5 5 5 5 5 5 5 5 5 5 5 5 5 5 5 5 5 5 5 5 5 5 6 5 6 5 5 5 5 5 5 5 5 5 5 5 5 5 5 5 5 6 5 5 5 5 5 5 5 5 5 5 5 5 5 5 5 5 5 5 5 5 5 5 5 5 5 5 5 5 5 5 5 5 5 5 5 5 5 5 5 5 5 5 5 5 5 5 5 5 5 5 5 5 5 5 5 5 5 5 5 5 5 5 5 5 5 6 5 5 5 5 5 5 5 5 5 5 5 5 5 5 5 5 5 5 5 5 5 5 5 5 5 5 5 5 5 5 5 5 6 5 5 5 6 5 6 5 5 5 5 5 5 6 5 5 5 6 5 5 5 5 6 6 6 5 5 5 5 6 6 6 6 5 5 5 6 5 6 5 6 5 5 5 5 5 5 5 5 6 5 5 5 6 5 5 5 5 5 5 5 5 5 5 6 5 6 5 5 5 5 6 5 5 5 5 5 5 5 5 5 5 5 5 5 5 6 5 6 5 5 6 5 6 5 5 5 5 5 6 5 6 5 5 5 5 5 5 5 6 5 5 5 5 5 5 5 5 5 5 5 5 5 5 5 5 5 5 5 5 5 5 5 5 5 5 6 5 5 5 5 5 6 5 5 5 5 5 5 5 5 5 5 5 5 5 5 5 5 6 5 5 5 5 5 5 5 5 5 6 5 5 5 5 5 5 6 6 5 5 5 5 5 5 5 5 5 5 5 5 5 6 5 5 5 5 6 5 6 5 5 5 6 5 5 5 5 5 5 5 5 5 5 5 5 6 6 5 5 5 5 6 5 5 5 6 5 5 5 5 5 5 5 5 5 5 5 6 5 5 5 5 6 5 6 6 5 6 5 5 5 5 5 5 5 5 5 5 5 5 5 5 5 5 5 5 5 5 5 5 5 5 5 5 5 6 5 5 5 5 5 5 5 5 5 6 5 5 6 5 5 5 6 5 5 5 5 5 5 5 6 5 5 5 5 5 5 5 6 5 6 5 5 5 5 5 5 5 5 5 5 5 5 5 5 5 6 5 5 5 6 5 5 5 6 5 6 5 5 5 5 6 5 5 5 5 5 5 5 5 5 5 5 5 5 5 6 5 6 5 5 5 5 6 6 5 5 5 5 5 5 5 5 5 6 5 5 5 5 5 5 5 5 5 5 5 5 5 6 5 5 5 6 5 5 5 5 5 5 6 5 5 5 5 5 6 5 5 6 5 5 5 5 6 5 5 5 5 5 5 5 6 5 5 5 6 5 5 5 5 5 5 5 5 5 5 5 5 6 5 5 5 5 5 5 5 5 5 5 5 5 5 5 5 5 5 5 5 5 5 5 5 5 5 5 5 5 5 5 5 5 5 5 5 5 5 5 5 5 5 5 5 5 5 5 5 5 5 5 5 5 5 6 5 5 5 5 6 5 5 5 5 5 5 5 5 5 5 5 5 5 5 5 5 5 5 5 5 5 5 5 5 5 5 5 5 5 5 5 5 5 5 5 6 5 5 5 5 6 5 5 5 5 5 5 5 5 5 5 6 5 5 5 6 5 5 5 5 5 5 5 6 5 5 5 5 6 5 5 5 5 6 5 5 5 5 5 5 5 5 5 5 5 5 5 5 6 5 6 5 6 5 6 5 5 5 5 5 5 6 5 5 5 5 5 5 5 6 5 5 5 5 5 5 5 5 5 6 5 6 5 5 5 5 5 6 5 5 6 6 5 5 6 5 6 6 5 6 5 5 5 5 5 5 5 5 5 5 5 5 5 6 5 5 5 5 5 6 5 5 5 5 5 5 5 6 5 5 5 6 5 5 6 5 6 5 5 5 5 5 5 5 6 5 5 5 5 5 5 5 5 5 5 5 5 5 5 5 5 5 6 5 5 5 5 5 5 5 5 5 5 5 5 5 5 5 5 5 5 5 5 5 5 5 5 6 5 6 5 5 5 5 6 5 5 6 5 5 6 5 5 5 6 5 5 5 5 5 5 5 6 6 5 5 5 6 5 5 5 6 5 5 5 6 5 5 6 6 5 5 5 5 5 6 5 5 5 5 6 5 5 5 5 5 5 5 5 5 5 5 5 5 5 5 5 5 5 5 5 5 5 5 5 5 5 5 5 5 5 5 5 5 5 5 5 5 5 5 
</DataArray>
<DataArray type="Float64" Name="stress" NumberOfComponents="9" format="ascii">
-3.2440064674344655 106.5389876913963 0 106.5389876913963 3971.0535722375935 0 0 0 0 326.91948273161574 391.10841608118062 0 391.10841608118062 3500.0316986205071 0 0 0 0 -11.433599054520243 14.267130415486463 0 14.267130415486463 21.441339880474359 0 0 0 0 -0.75960626368302409 -1.0781573952513241 0 -1.0781573952513241 7.6073257908439587 0 0 0 0 57.702640006075853 -29.926877588988646 0 -29.926877588988646 21.368835754547035 0 0 0 0 -35.986843051197098 14.851411128751351 0 14.851411128751351 3970.9032691632551 0 0 0 0 -0.26058953500624754 -2.4836816593778224 0 -2.4836816593778224 6.4689866732829557 0 0 0 0 -0.02022227959900437 -14.324862751658657 0 -14.324862751658657 12.6049248418567 0 0 0 0 0.012977235954317995 -15.302081563992678 0 -15.302081563992678 31.719134133993066 0 0 0 0 -2.240237883362969 -4.1518575966329081 0 -4.1518575966329081 14.160719325973332 0 0 0 0 -4.7686327045310506 -4.6676456574714393 0 -4.6676456574714393 35.585359368196805 0 0 0 0 -4.4125052029264253 -5.8609718937659636 0 -5.8609718937659636 38.525948762166081 0 0 0 0 -3.5904526830505006 -8.9607939631969202 0 -8.9607939631969202 34.966066848461196 0 0 0 0 11.996318473037377 -5.4534656621035538 0 -5.4534656621035538 2.9284919614437968 0 0 0 0 -2.3685690018866072 -0.11713461676117731 0 -0.11713461676117731 16.308276248702896 0 0 0 0 -0.91653258294719719 -0.44139853118684869 0 -0.44139853118684869 0.024172332047783129 0 0 0 0 -0.089840098178574343 0.0090108553281282866 0 0.0090108553281282866 0.223802909506162 0 0 0 0 -0.00029999199852262509 -0.33970798008362058 0 -0.33970798008362058 0.8087405932310503 0 0 0 0 -1.2662707898222152 5.0209334431201569 0 5.0209334431201569 37.464542250783779 0 0 0 0 -68.313016962336974 -57.436448711101548 0 -57.436448711101548 69.1992777770065 0 0 0 0 -6.5133114335997258 -46.620304404132462 0 -46.620304404132462 -5.7041351900261361 0 0 0 0 -0.019276329521225932 -12.923072343028224 0 -12.923072343028224 29.577281825702272 0 0 0 0 -6.4697384311148767 -18.885749246241176 0 -18.885749246241176 11.666978039924288 0 0 0 0 13.394901195845023 -12.554792616560007 0 -12.554792616560007 -1.5124600541748805 0 0 0 0 -0.39194545990264745 -5.2971420947809804 0 -5.2971420947809804 15.003711324186042 0 0 0 0 -1.9306302788089416 -3.9163266767908738 0 -3.9163266767908738 10.549963827002273 0 0 0 0 -3.7139443094958757 -8.962017981470126 0 -8.962017981470126 38.557519434922142 0 0 0 0 -0.48059315976245942 -5.1176949023807339 0 -5.1176949023807339 12.444471745600481 0 0 0 0 46.509463781216567 256.85063567931502 0 256.85063567931502 1893.5121675927221 0 0 0 0 -0.97197323316511375 -1.3425331761885957 0 -1.3425331761885957 9.8320090772968456 0 0 0 0 -5.739667085386543 147.95322361313447 0 147.95322361313447 1759.476448640431 0 0 0 0 -13.743210214462465 154.68239959143102 0 154.68239959143102 41.188718725713443 0 0 0 0 -106.08371567287099 -135.21474686975125 0 -135.21474686975125 15.578651785341208 0 0 0 0 -1.7543017971719927 2.9608253457906102 0 2.9608253457906102 9.4209503793437648 0 0 0 0 -83.860243230261133 13.938615452872909 0 13.938615452872909 380.50084150521434 0 0 0 0 20.945702195824133 317.43763974390276 0 317.43763974390276 442.55530169699341 0 0 0 0 -222.00225974633156 2.5644380907515369 0 2.5644380907515369 2033.1887372159108 0 0 0 0 -203.79263060538702 -51.984829126238765 0 -51.984829126238765 1828.0450435038438 0 0 0 0 -203.71157146669691 942.19901519032464 0 942.19901519032464 3909.8436319802131 0 0 0 0 -149.65237302552555 48.134694857952127 0 48.134694857952127 1934.3223625004248 0 0 0 0 151.51560694813213 -1017.7031517197611 0 -1017.7031517197611 3497.7862046103655 0 0 0 0 -443.4108376342495 -367.40275005094736 0 -367.40275005094736 3253.7001007741346 0 0 0 0 419.23299858493834 -964.10126685774298 0 -964.10126685774298 1602.7642974983901 0 0 0 0 426.3371659779292 -438.3284492234024 0 -438.3284492234024 61.068552330223611 0 0 0 0 163.94733086240223 -343.86948239835328 0 -343.86948239835328 1404.0741102665852 0 0 0 0 252.77131522135062 32.267232223515748 0 32.267232223515748 640.24976967202383 0 0 0 0 -626.13470254211552 55.496907869674033 0 55.496907869674033 3918.3317220299541 0 0 0 0 12.312569822817569 -12.062874081979203 0 -12.062874081979203 12.405721141140994 0 0 0 0 5.9915557570694169 -4.8268405877266787 0 -4.8268405877266787 2.7100228009954108 0 0 0 0 283.4894638476926 -141.26939763308474 0 -141.26939763308474 -379.57848299126272 0 0 0 0 -61.07162859609798 -141.09312574470823 0 -141.09312574470823 613.82795916164105 0 0 0 0 -64.02209456847072 -96.43467214588054 0 -96.43467214588054 197.28586245668703 0 0 0 0 -82.655267923142219 -131.03531064647177 0 -131.03531064647177 23.671429774381977 0 0 0 0 -151.09733703346819 -40.162527576409047 0 -40.162527576409047 174.35882617109746 0 0 0 0 -47.35320272019726 42.481391788736801 0 42.481391788736801 178.26056507150133 0 0 0 0 -67.146364729095694 13.520375484018587 0 13.520375484018587 185.87744043163548 0 0 0 0 -135.76246098970074 -25.961220214381228 0 -25.961220214381228 164.71131931908894 0 0 0 0 -139.22035149641442 13.26904222714802 0 13.26904222714802 338.18710383081634 0 0 0 0 -92.373441884431486 92.026809287752258 0 92.026809287752258 247.06241226477141 0 0 0 0 42.940297007276286 168.15443054322532 0 168.15443054322532 522.11761761115486 0 0 0 0 -69.334166612328318 80.191356572941004 0 80.191356572941004 229.86830472432484 0 0 0 0 -59.153414950281899 34.982639356165237 0 34.982639356165237 348.97412999637891 0 0 0 0 15.862360980302583 167.9336791181122 0 167.9336791181122 247.83999120115914 0 0 0 0 92.281011278199458 74.841312852367992 0 74.841312852367992 140.77326161268866 0 0 0 0 28.376477767108099 115.87067452753763 0 115.87067452753763 54.962900308950339 0 0 0 0 20.057887787288337 100.41464800076938 0 100.41464800076938 151.45930492860498 0 0 0 0 -132.95828995419743 203.94059952489624 0 203.94059952489624 -58.041122712835204 0 0 0 0 -103.12274996196265 107.05190368084004 0 107.05190368084004 80.747706494672457 0 0 0 0 -94.753990394408902 84.417635935737053 0 84.417635935737053 185.00170649592474 0 0 0 0 -84.816525319494303 168.25752841201484 0 168.25752841201484 123.70552077234606 0 0 0 0 -10.856729727680278 50.638859967561743 0 50.638859967561743 90.856040502884085 0 0 0 0 90.594130258844984 62.368177174579614 0 62.368177174579614 103.81887193383955 0 0 0 0 14.821016326496192 135.45279603844028 0 135.45279603844028 99.251824595485232 0 0 0 0 5.1333036474014015 21.059385530452804 0 21.059385530452804 -8.786885670760455 0 0 0 0 -243.21620085669292 118.15144600934582 0 118.15144600934582 118.23690692406672 0 0 0 0 -76.41795200897036 93.66809971616749 0 93.66809971616749 97.699180668889312 0 0 0 0 125.56183709561915 135.6384642273697 0 135.6384642273697 389.08959496556781 0 0 0 0 149.61188830715037 -92.446263099060161 0 -92.446263099060161 535.82264904909243 0 0 0 0 257.77275890603306 38.963227660846314 0 38.963227660846314 305.34919378923951 0 0 0 0 78.211488845324311 114.38144557470514 0 114.38144557470514 322.70693286202004 0 0 0 0 198.82962540816624 65.744617216361803 0 65.744617216361803 101.05864964197099 0 0 0 0 122.24336913972229 99.653241581407201 0 99.653241581407201 48.085958079464035 0 0 0 0 79.254908470907367 37.115582431215444 0 37.115582431215444 96.573079816764221 0 0 0 0 124.61074270204256 57.559210079382865 0 57.559210079382865 29.103332456521457 0 0 0 0 235.55118214247545 -18.902149801855558 0 -18.902149801855558 67.341405490951729 0 0 0 0 -82.69721946147024 -38.060752531913749 0 -38.060752531913749 88.554189538270293 0 0 0 0 139.22504197798037 -42.679515100659501 0 -42.679515100659501 -45.604694830995868 0 0 0 0 23.017826152022849 -75.087857809137859 0 -75.087857809137859 -24.706978148271446 0 0 0 0 -45.241997126202023 -65.466410363282193 0 -65.466410363282193 40.542221155454172 0 0 0 0 -0.37546429704479256 -7.6950475490993142 0 -7.6950475490993142 31.156674795867332 0 0 0 0 51.384733559177448 2.2973618312826147 0 2.2973618312826147 -2.7630216791803832 0 0 0 0 -14.333218391394269 17.929628386278637 0 17.929628386278637 3.0508736081465031 0 0 0 0 9.310529358668191 77.100101966163493 0 77.100101966163493 43.981538269486919 0 0 0 0 45.654151226505647 78.290381939603321 0 78.290381939603321 25.723192949633813 0 0 0 0 -18.583877669203503 41.049665657061269 0 41.049665657061269 6.9019473985536024 0 0 0 0 -5.6192251600780168 11.556712069158152 0 11.556712069158152 23.417652426746315 0 0 0 0 14.914954032465744 39.776148729979468 0 39.776148729979468 -21.418035661685281 0 0 0 0 17.587978459887495 -39.006464851157943 0 -39.006464851157943 115.07270598311152 0 0 0 0 -82.947227713907068 -56.317846555961296 0 -56.317846555961296 81.348548554757144 0 0 0 0 -42.577475057571064 -48.332064802758396 0 -48.332064802758396 40.291243593208492 0 0 0 0 -2.5516798855631144 2.1951536146370358 0 2.1951536146370358 6.8744392693908338 0 0 0 0 2.8873835647048072 -11.276013322970215 0 -11.276013322970215 62.502762399398591 0 0 0 0 -47.093331155366741 -21.871123787524994 0 -21.871123787524994 31.114956958917901 0 0 0 0 -71.03521575350851 -17.044405231892597 0 -17.044405231892597 60.419254610635107 0 0 0 0 -66.081293607805037 -30.882862178092182 0 -30.882862178092182 14.827841416947194 0 0 0 0 -34.597810172596382 -52.082533576802234 0 -52.082533576802234 28.167479828849537 0 0 0 0 -41.323529873561597 -56.337225664057769 0 -56.337225664057769 52.409452389139915 0 0 0 0 -44.315778369302279 -41.205240532348398 0 -41.205240532348398 58.650519456641632 0 0 0 0 -40.112147869702881 -33.007191389893705 0 -33.007191389893705 70.491857003769837 0 0 0 0 -3.3682493174719639 7.2482663234886786 0 7.2482663234886786 60.322124310798245 0 0 0 0 0.99016613854441538 -4.1166584115632361 0 -4.1166584115632361 23.139358597398925 0 0 0 0 7.1873132961335591 -4.6203672376206981 0 -4.6203672376206981 14.654904517052685 0 0 0 0 9.2286460436953348 -21.768683541711653 0 -21.768683541711653 64.493216754795867 0 0 0 0 -17.60489694724788 -101.78904468023757 0 -101.78904468023757 371.90693854604615 0 0 0 0 -11.223643553246669 14.094915856669353 0 14.094915856669353 129.7445488387192 0 0 0 0 -1.3673485584422451 -100.25190850413492 0 -100.25190850413492 308.66214557830972 0 0 0 0 -52.571422237338084 -2.8183610211162886 0 -2.8183610211162886 198.42761349676584 0 0 0 0 -0.40300530057638806 5.1530181520878813 0 5.1530181520878813 46.776957257844856 0 0 0 0 3.5066330904701317 -10.478536184411496 0 -10.478536184411496 61.761296309181489 0 0 0 0 5.4266057460486987 -22.445025560001369 0 -22.445025560001369 33.613825626124736 0 0 0 0 -71.772489896284412 85.366631652710566 0 85.366631652710566 58.274057902439381 0 0 0 0 14.646912631740051 9.2099381300554981 0 9.2099381300554981 39.705284077475199 0 0 0 0 -52.375392187220314 23.838427059286914 0 23.838427059286914 149.6530460526119 0 0 0 0 -9.7646550677468085 -0.78501628442216997 0 -0.78501628442216997 26.312055970590961 0 0 0 0 16.615391881361575 111.17583024097257 0 111.17583024097257 59.576842864385981 0 0 0 0 -12.472850747557686 64.961100860135048 0 64.961100860135048 64.576389386893425 0 0 0 0 15.603121436603033 -32.298571824125247 0 -32.298571824125247 130.65685467309959 0 0 0 0 -0.47471097176667199 4.7192090595303853 0 4.7192090595303853 31.238580082649349 0 0 0 0 2.5380263846277558 -16.75420779101114 0 -16.75420779101114 67.692299427230409 0 0 0 0 3.4878658547880557 10.22494474782934 0 10.22494474782934 43.639578593338001 0 0 0 0 11.467540268202583 1.253570146025595 0 1.253570146025595 33.798357599647716 0 0 0 0 -0.97286140595144488 2.1655897836544042 0 2.1655897836544042 51.649036687324099 0 0 0 0 26.235113510672818 -49.286613766278606 0 -49.286613766278606 121.23723600507947 0 0 0 0 -454.99290274624991 207.86079253346179 0 207.86079253346179 142.99107495076896 0 0 0 0 -9.0530982698710787 7.8021057137280181 0 7.8021057137280181 39.139655368787885 0 0 0 0 -4.4150778103721677 2.3999179583770456 0 2.3999179583770456 81.734199368322152 0 0 0 0 -660.39368723495079 216.07629409245783 0 216.07629409245783 159.92592596208124 0 0 0 0 -157.92563566915788 102.17956120671806 0 102.17956120671806 -361.84011224008282 0 0 0 0 -145.48252926267148 -159.80032792429938 0 -159.80032792429938 18.761626414605416 0 0 0 0 -729.94336648241551 246.64893917735026 0 246.64893917735026 141.50827056766866 0 0 0 0 -2.2994618618120941 5.6607120274121598 0 5.6607120274121598 59.594363027254275 0 0 0 0 -4.3503038110900434 11.050434378827049 0 11.050434378827049 45.863415714753501 0 0 0 0 -7.9964920003292264 7.0907494029524969 0 7.0907494029524969 65.957743607584689 0 0 0 0 0.016362607176233723 5.2550119178777095 0 5.2550119178777095 63.304834091220982 0 0 0 0 -301.95095076897212 154.11008715916978 0 154.11008715916978 186.62602549980511 0 0 0 0 -1.3843895359918093 4.5882781674629172 0 4.5882781674629172 41.246470985115252 0 0 0 0 -18.534728463844505 30.540690531959704 0 30.540690531959704 15.8467966889026 0 0 0 0 -272.8852599756251 157.50398832213978 0 157.50398832213978 79.856480473310512 0 0 0 0 -28.115869676069661 8.7434167225133308 0 8.7434167225133308 91.088811750124904 0 0 0 0 -120.51960161707211 13.261991610197583 0 13.261991610197583 60.740390445978846 0 0 0 0 -10.914293310518961 -45.695657648877472 0 -45.695657648877472 75.864964749682713 0 0 0 0 -40.762651258729484 42.590159175109363 0 42.590159175109363 187.84808526376111 0 0 0 0 -0.75979607702598528 -9.4620344645761918 0 -9.4620344645761918 33.285548071214976 0 0 0 0 42.918598925343019 -72.419072031370888 0 -72.419072031370888 -17.288692203219398 0 0 0 0 -265.71131331944162 56.998407651175512 0 56.998407651175512 164.21381564887633 0 0 0 0 375.45478819204789 4.0992099676350335 0 4.0992099676350335 118.35677443156601 0 0 0 0 -548.87224004988138 -14.823466926114634 0 -14.823466926114634 210.9325285392988 0 0 0 0 -349.25793043626186 134.94828401650739 0 134.94828401650739 148.20164358815236 0 0 0 0 -739.88609196534765 -92.040921312596765 0 -92.040921312596765 149.10602558020764 0 0 0 0 -41.661577342621285 -34.608194633736275 0 -34.608194633736275 104.9462379034012 0 0 0 0 -51.051668740150717 -31.590187560170307 0 -31.590187560170307 103.97733906138455 0 0 0 0 -49.937919773861267 -28.018540442964877 0 -28.018540442964877 105.46387339651847 0 0 0 0 -38.94489127740303 -20.798879981113714 0 -20.798879981113714 107.98231679466699 0 0 0 0 -40.009247416575136 -24.675384951362503 0 -24.675384951362503 89.682448326755548 0 0 0 0 -45.169350570072311 -34.06017491935927 0 -34.06017491935927 88.372320767841302 0 0 0 0 -37.262396936949472 -32.641788658278529 0 -32.641788658278529 69.740283890161663 0 0 0 0 -47.030815057912605 -21.927308152167825 0 -21.927308152167825 64.258302270922286 0 0 0 0 -46.002070396002068 -30.323088745652058 0 -30.323088745652058 86.228542322991416 0 0 0 0 -62.533943787317185 -32.195855897705769 0 -32.195855897705769 86.018421580491122 0 0 0 0 -37.755696030845684 -43.470042009386816 0 -43.470042009386816 80.035059241228737 0 0 0 0 -4.7662531717856282 -21.357200063554316 0 -21.357200063554316 70.505675652870366 0 0 0 0 -42.239755168590364 -20.021031562100688 0 -20.021031562100688 106.94136514753336 0 0 0 0 -34.845241702321744 -34.462677863837598 0 -34.462677863837598 98.01688707320136 0 0 0 0 -38.070971102109525 -34.609440023239586 0 -34.609440023239586 100.10932829322701 0 0 0 0 -72.958314851694013 -26.477589324240398 0 -26.477589324240398 106.68457450566802 0 0 0 0 -65.183570302954877 -50.57205705724482 0 -50.57205705724482 92.285956300547696 0 0 0 0 -30.091590493057311 -19.491111748182448 0 -19.491111748182448 100.53762819459371 0 0 0 0 -38.03513409332902 -26.484449309995256 0 -26.484449309995256 114.87591545408941 0 0 0 0 -38.980405534939791 -25.438638458072091 0 -25.438638458072091 117.57032798946602 0 0 0 0 -46.497774346706649 -12.941068357726181 0 -12.941068357726181 189.97367054634378 0 0 0 0 -24.786361560735486 1.4211761163314804 0 1.4211761163314804 137.6068603938038 0 0 0 0 -44.490846948288663 -12.628341626492329 0 -12.628341626492329 146.23945087672837 0 0 0 0 -64.176695735649787 -37.612962562670873 0 -37.612962562670873 156.85650607032949 0 0 0 0 -42.555416812850808 -24.764587872836273 0 -24.764587872836273 121.80113906259066 0 0 0 0 -43.602191666328551 -18.044777735394746 0 -18.044777735394746 115.72350583999651 0 0 0 0 -33.534646680224 -13.661506149655906 0 -13.661506149655906 117.58122210367583 0 0 0 0 -43.873425099629685 -16.593287594252615 0 -16.593287594252615 145.83257199856416 0 0 0 0 -36.073913331671065 -23.761872961273184 0 -23.761872961273184 107.64767628831032 0 0 0 0 -42.63403653071606 -20.161810289511777 0 -20.161810289511777 105.72512715891935 0 0 0 0 -37.997896073979291 -16.311052310862578 0 -16.311052310862578 114.72146109372261 0 0 0 0 -45.869715912378865 -23.785601785049948 0 -23.785601785049948 108.77411212283187 0 0 0 0 -20.112535181741805 -52.787323805954657 0 -52.787323805954657 117.80208052365197 0 0 0 0 -37.601179639711518 -36.218404591592844 0 -36.218404591592844 93.340864914673148 0 0 0 0 62.819022837523335 -142.07943324609369 0 -142.07943324609369 184.75678685184539 0 0 0 0 -57.079760619477042 -17.570603378640953 0 -17.570603378640953 119.26339805696625 0 0 0 0 -47.059593772334182 11.274990484584123 0 11.274990484584123 89.21587475942215 0 0 0 0 -0.21514719171711771 -0.20173136647534307 0 -0.20173136647534307 0.19696191038093502 0 0 0 0 112.98707625949078 -86.656644981310819 0 -86.656644981310819 195.65021885576243 0 0 0 0 -17.956072025062497 -23.170854762975068 0 -23.170854762975068 80.5161317801103 0 0 0 0 -0.85942280308211139 -54.11258015781641 0 -54.11258015781641 117.9640512924525 0 0 0 0 -38.836682399715414 -42.974040396351484 0 -42.974040396351484 152.69241899298504 0 0 0 0 17.839915344112399 -106.84862713022449 0 -106.84862713022449 168.21321319231356 0 0 0 0 35.337758269150683 -113.73555625653535 0 -113.73555625653535 119.54449764078163 0 0 0 0 -0.5733823331540141 -0.47551677315388474 0 -0.47551677315388474 0.3251442287504176 0 0 0 0 8.7878036461177089 -101.28851089820091 0 -101.28851089820091 122.87991295443862 0 0 0 0 0.61198730628947828 -57.120790011475037 0 -57.120790011475037 107.98325004584694 0 0 0 0 54.199052101011432 -67.637422555984813 0 -67.637422555984813 100.43889744009357 0 0 0 0 -0.041368242992943109 -65.276599063723026 0 -65.276599063723026 91.51467507777852 0 0 0 0 -62.357678908479386 -67.698080549860606 0 -67.698080549860606 124.50522473536239 0 0 0 0 92.539795828752176 -132.26540821742856 0 -132.26540821742856 115.59550424065674 0 0 0 0 -8.9860961905647336 -21.155086950413533 0 -21.155086950413533 -23.593856312596472 0 0 0 0 0.42361269662466439 -0.48841623495808051 0 -0.48841623495808051 0.57317513991512214 0 0 0 0 0.01851800748936646 -50.060472790784843 0 -50.060472790784843 -19.452611075874302 0 0 0 0 -19.402808886139965 -26.348822391853901 0 -26.348822391853901 68.239981481689028 0 0 0 0 -9.0224285530950539 -45.185628834820818 0 -45.185628834820818 -30.854096012879381 0 0 0 0 -1.6691707729209853 -22.631116588490841 0 -22.631116588490841 -79.310658905902528 0 0 0 0 0.023583868222204915 -0.27633225821318774 0 -0.27633225821318774 0.17992027488480744 0 0 0 0 18.561442341723023 -4.648742247321934 0 -4.648742247321934 2.3746575472760014 0 0 0 0 0.4768999304173086 -1.3064951477115443 0 -1.3064951477115443 1.295852683693397 0 0 0 0 22.435947502601607 -8.4245626887350227 0 -8.4245626887350227 0.35475880382728064 0 0 0 0 16.556392380957391 -7.4830904842710879 0 -7.4830904842710879 1.3463522101810668 0 0 0 0 27.174322426052186 -35.611432533759853 0 -35.611432533759853 -11.093682095466647 0 0 0 0 -47.632933162084214 -28.895973070466425 0 -28.895973070466425 29.231396144459723 0 0 0 0 7.3487876564314547 -52.481547241375665 0 -52.481547241375665 36.766100155851746 0 0 0 0 -40.173644247854639 -46.321752367445697 0 -46.321752367445697 82.023652212665183 0 0 0 0 -30.086422431681342 -32.386700721202942 0 -32.386700721202942 76.101462822436588 0 0 0 0 181.48911946882123 -54.605795185714669 0 -54.605795185714669 19.347221862873994 0 0 0 0 -8.7900729084480531 -51.788256536478002 0 -51.788256536478002 79.3675951003097 0 0 0 0 82.725725078389928 -6.0794043216883438 0 -6.0794043216883438 -4.2720276889303932 0 0 0 0 30.148210798501339 -84.565095802739961 0 -84.565095802739961 78.371049513691105 0 0 0 0 423.82529131355363 805.04888873130335 0 805.04888873130335 1238.5111676971501 0 0 0 0 415.11070867910485 373.06757453481805 0 373.06757453481805 501.31032484657408 0 0 0 0 432.97159261085523 770.81326172366062 0 770.81326172366062 1284.9346000576224 0 0 0 0 542.9980842442493 1486.2336700794494 0 1486.2336700794494 1853.6060898847645 0 0 0 0 112.46439026925118 1947.1215193322823 0 1947.1215193322823 3502.0815626570111 0 0 0 0 304.96050938994881 1989.1955152506598 0 1989.1955152506598 1742.5436264380114 0 0 0 0 646.49583399742812 2816.4011810029187 0 2816.4011810029187 3488.7549562422791 0 0 0 0 428.53918630547969 1292.4237720210276 0 1292.4237720210276 1554.3761744692747 0 0 0 0 463.29292867779577 994.21843478002484 0 994.21843478002484 659.71993614709572 0 0 0 0 2104.1960679193198 2782.9332541772928 0 2782.9332541772928 -347.2678289127507 0 0 0 0 1673.6094959414013 1682.7299668312371 0 1682.7299668312371 -2002.6231843474088 0 0 0 0 358.84338633449875 -1442.9894556276413 0 -1442.9894556276413 3497.4293535837132 0 0 0 0 9.5846128542575091 10.289100891330875 0 10.289100891330875 10.778872581727768 0 0 0 0 -1203.254942528084 337.5128417506894 0 337.5128417506894 -569.24269039978753 0 0 0 0 386.97721931727438 680.27332669512907 0 680.27332669512907 -615.49703524495999 0 0 0 0 -998.6250022049494 780.72685522243773 0 780.72685522243773 241.83685475602761 0 0 0 0 282.03237619251877 616.34472851226383 0 616.34472851226383 189.70649423613213 0 0 0 0 981.99916902819029 996.75651730645768 0 996.75651730645768 444.37648242045543 0 0 0 0 57.325171429260536 382.75995818092997 0 382.75995818092997 752.66724681430969 0 0 0 0 84.196606886419659 425.55656750130947 0 425.55656750130947 495.17406693746307 0 0 0 0 -1104.0199081927026 4.7623350126159494 0 4.7623350126159494 116.22028342580779 0 0 0 0 -940.38657340824693 512.74904495979354 0 512.74904495979354 22.703979873585922 0 0 0 0 -939.93931859395343 508.85170089743042 0 508.85170089743042 31.89024948936185 0 0 0 0 -926.77739639905894 300.91607457706596 0 300.91607457706596 392.73072283099464 0 0 0 0 -761.28153274005444 851.66748536415616 0 851.66748536415616 644.69217308652878 0 0 0 0 -815.44886545241616 364.56735344983099 0 364.56735344983099 -467.76562305648258 0 0 0 0 -672.85356586020498 740.64627584484333 0 740.64627584484333 -262.03911684371451 0 0 0 0 -856.86338505862477 584.77989106306632 0 584.77989106306632 -297.36468845495256 0 0 0 0 -4.4003098939322367 11.485679282264684 0 11.485679282264684 18.065472291808973 0 0 0 0 -3.3889996054754796 1.135308352803662 0 1.135308352803662 3.2817454467923426 0 0 0 0 16.369998102492122 27.777235186105145 0 27.777235186105145 27.69412308065246 0 0 0 0 -522.10200808937861 475.41602939302902 0 475.41602939302902 -782.55978219766257 0 0 0 0 -931.86377686515755 1549.6267640998503 0 1549.6267640998503 -969.23267246641626 0 0 0 0 -471.17559755378551 -283.78987250805949 0 -283.78987250805949 3500.603075593106 0 0 0 0 10.504249761490883 -80.001458988546801 0 -80.001458988546801 1883.1263587125723 0 0 0 0 30.330494820582601 -709.55664940302086 0 -709.55664940302086 1963.215250098001 0 0 0 0 -53.818058499877139 252.83691174665728 0 252.83691174665728 2585.7012666287337 0 0 0 0 15.951201894415501 32.167430265794252 0 32.167430265794252 33.510569521526222 0 0 0 0 283.73976363731987 176.17196333509128 0 176.17196333509128 -68.474665172681853 0 0 0 0 -110.92484536282791 -563.73609348226819 0 -563.73609348226819 1256.0277983415581 0 0 0 0 9.7283646216596935 16.073519969046174 0 16.073519969046174 42.417060742984177 0 0 0 0 -17.574662709424615 -4.8073855832844856 0 -4.8073855832844856 67.229115058613388 0 0 0 0 3.9686146335040142 5.4484747587031421 0 5.4484747587031421 20.760528021409527 0 0 0 0 1.7401985121349286 1.425182930551415 0 1.425182930551415 11.765262849796791 0 0 0 0 -74.407570905289447 346.36752852171958 0 346.36752852171958 2236.0957802367557 0 0 0 0 283.30410597355376 1466.2966963812505 0 1466.2966963812505 3493.8347646087755 0 0 0 0 832.36770498310921 -1026.9303104587998 0 -1026.9303104587998 1296.0211421994391 0 0 0 0 32.525380036645132 -44.415602923319966 0 -44.415602923319966 3467.8890744842388 0 0 0 0 5.2872954490355797 -1.6640877836899222 0 -1.6640877836899222 4.5592512674234911 0 0 0 0 6.2671570748265228 -2.2465098561464103 0 -2.2465098561464103 2.9914965517232304 0 0 0 0 -47.108328275571694 -25.342368465280742 0 -25.342368465280742 122.24064936699142 0 0 0 0 -22.119986162050736 0.63010790622865898 0 0.63010790622865898 126.86852701744647 0 0 0 0 1.5652603870563895 -1.6680226838691681 0 -1.6680226838691681 67.644808751867799 0 0 0 0 -9.2470930499648496 57.924001135001987 0 57.924001135001987 79.935729043087093 0 0 0 0 -52.385011081272751 24.074989527493017 0 24.074989527493017 145.90490427544091 0 0 0 0 -64.055292120723948 -1.645938309070516 0 -1.645938309070516 147.28825412943843 0 0 0 0 6.7902902038483255 21.328869708837374 0 21.328869708837374 51.70693089432342 0 0 0 0 -0.03315886371092347 181.20083890335991 0 181.20083890335991 -58.100351983812288 0 0 0 0 28.315701577251275 119.88599590069498 0 119.88599590069498 -696.14087575925805 0 0 0 0 -77.48717067191501 712.01326980245358 0 712.01326980245358 -403.527556358742 0 0 0 0 -379.48065700804182 321.48551424452307 0 321.48551424452307 -100.49431167974763 0 0 0 0 -9.3929955983649691 38.370114406492831 0 38.370114406492831 15.099930367709362 0 0 0 0 7.7950989483372979 5.0811261001782597 0 5.0811261001782597 7.7973260389651102 0 0 0 0 -414.53525017076265 -182.10059740755241 0 -182.10059740755241 1028.6405879886897 0 0 0 0 -786.88749859929317 301.10590084419528 0 301.10590084419528 90.501741095977195 0 0 0 0 -128.15413321000324 715.46996628960187 0 715.46996628960187 329.36090518833225 0 0 0 0 -348.79123387729123 1130.2732381716487 0 1130.2732381716487 -259.63085884507746 0 0 0 0 -6.5702895386098987 81.86799037649962 0 81.86799037649962 307.92114550054976 0 0 0 0 164.69860047629572 -203.70442683400324 0 -203.70442683400324 204.86284289060859 0 0 0 0 94.790749659606945 127.90393796237549 0 127.90393796237549 335.88338839256903 0 0 0 0 -8.2493586282436357 -3.0270925030458784 0 -3.0270925030458784 7.5490351148857897 0 0 0 0 -20.438358302148117 2.6347371545271017 0 2.6347371545271017 -102.0121186808974 0 0 0 0 0.46583826623490587 6.5649479502023098 0 6.5649479502023098 27.380773175862117 0 0 0 0 -512.53184305602599 786.624233909748 0 786.624233909748 -601.5542137808261 0 0 0 0 -947.49926733600523 290.74248592432014 0 290.74248592432014 117.73822421454679 0 0 0 0 -330.52347048219417 460.55750876341699 0 460.55750876341699 122.8724048206459 0 0 0 0 -556.60346054267393 77.737849745287349 0 77.737849745287349 730.10168608819367 0 0 0 0 -461.28050992509498 240.54007785858266 0 240.54007785858266 -26.654277453326358 0 0 0 0 -493.82881192119385 412.48734335361951 0 412.48734335361951 102.29173367516523 0 0 0 0 -4.8667520128192541 2.7700060467628234 0 2.7700060467628234 -0.86626475813125126 0 0 0 0 -581.54808727025261 339.97808903990881 0 339.97808903990881 338.3651982129013 0 0 0 0 -12.936352861634759 465.17542792695895 0 465.17542792695895 344.48999426638329 0 0 0 0 -1085.5111656535619 -338.47048619879752 0 -338.47048619879752 163.76413275691084 0 0 0 0 -580.98151251119066 -219.06947015460901 0 -219.06947015460901 102.48955402904539 0 0 0 0 -89.485309049985375 -241.89694414243206 0 -241.89694414243206 -39.146330346211471 0 0 0 0 -0.90294916883429499 -1.0432099681934623 0 -1.0432099681934623 6.4329416482010515 0 0 0 0 -815.83229202111033 -356.30000384872255 0 -356.30000384872255 358.59570068095491 0 0 0 0 -332.4516285225493 198.26804042218646 0 198.26804042218646 93.329435051566179 0 0 0 0 -358.43830911186751 -189.20940428500035 0 -189.20940428500035 250.33536646207449 0 0 0 0 -210.97662564674704 158.42494125673693 0 158.42494125673693 208.79766637310968 0 0 0 0 -236.84498272218502 357.25762091789147 0 357.25762091789147 699.69181598853538 0 0 0 0 -374.80776612309273 160.92438178914381 0 160.92438178914381 786.31216745743404 0 0 0 0 -370.49220534612761 -104.08954724203488 0 -104.08954724203488 359.74212714841269 0 0 0 0 -599.51334502781265 310.40504121649974 0 310.40504121649974 186.3892117151554 0 0 0 0 -441.08102219657121 383.91284664460909 0 383.91284664460909 -629.2774934927038 0 0 0 0 -438.10425701320037 338.68796310561083 0 338.68796310561083 51.995043715436623 0 0 0 0 -249.82594277404496 -29.466882310272922 0 -29.466882310272922 97.592322873027115 0 0 0 0 -79.358346581680394 187.37368024440184 0 187.37368024440184 356.78571492145056 0 0 0 0 -4.4066448083563658 1.1162181383857117 0 1.1162181383857117 5.7539000552300763 0 0 0 0 -20.700254323568515 428.67905165534376 0 428.67905165534376 648.60694055584463 0 0 0 0 -173.39282515305285 67.806673213508475 0 67.806673213508475 443.25570258461994 0 0 0 0 -1.6769849445008114 0.34117013980700506 0 0.34117013980700506 3.4086992322054641 0 0 0 0 140.97061495232714 598.92473645372456 0 598.92473645372456 995.86928717113187 0 0 0 0 95.51477993268486 281.49907160458315 0 281.49907160458315 546.43435263848733 0 0 0 0 -247.43255600473913 35.69523052751174 0 35.69523052751174 383.25583655150331 0 0 0 0 -224.18941781476519 26.576409713070461 0 26.576409713070461 730.16368274663546 0 0 0 0 11.038594782882228 228.88140562829813 0 228.88140562829813 398.66993359844128 0 0 0 0 13.218457339035012 -68.53250483917509 0 -68.53250483917509 393.92490684119093 0 0 0 0 75.64091299703432 -1.3150376166558999 0 -1.3150376166558999 752.02288085984674 0 0 0 0 74.216036645610473 69.097315989630886 0 69.097315989630886 638.89045645589067 0 0 0 0 306.28373124485779 5.5811638761224458 0 5.5811638761224458 465.24425891497231 0 0 0 0 311.10995849699839 27.092093732577268 0 27.092093732577268 641.03306418948341 0 0 0 0 103.09611202361674 257.63926880901772 0 257.63926880901772 884.76275788753628 0 0 0 0 -133.09874061074675 -288.62132050133005 0 -288.62132050133005 129.61240798066137 0 0 0 0 462.53769999840847 311.45273383996937 0 311.45273383996937 575.27837424868267 0 0 0 0 311.65996113288475 -432.546656781411 0 -432.546656781411 465.40575444314163 0 0 0 0 387.12296891030587 -419.80031462312945 0 -419.80031462312945 265.06575544984662 0 0 0 0 248.56546259011964 -294.62780555681456 0 -294.62780555681456 303.09263777330489 0 0 0 0 474.34339722694585 -426.73119857580605 0 -426.73119857580605 362.60907351159767 0 0 0 0 313.96383733437278 -253.28799363355211 0 -253.28799363355211 225.579884348208 0 0 0 0 285.95668572356817 -306.56901950710017 0 -306.56901950710017 128.25330836237845 0 0 0 0 346.19442519747713 -309.84288952196584 0 -309.84288952196584 318.18105561909761 0 0 0 0 354.83772957364249 -202.61528994522996 0 -202.61528994522996 379.99490801497814 0 0 0 0 312.19491496620412 -116.52988182125773 0 -116.52988182125773 225.0577805083085 0 0 0 0 371.76506096000821 -14.832565675482329 0 -14.832565675482329 367.79230749600174 0 0 0 0 165.94043155929592 71.320362862234106 0 71.320362862234106 239.91902971217496 0 0 0 0 222.25372959491551 -57.06929315423622 0 -57.06929315423622 509.63289129868463 0 0 0 0 290.93485706341795 -194.46176701611239 0 -194.46176701611239 220.68181780832674 0 0 0 0 125.14860994015203 -112.94806490355404 0 -112.94806490355404 193.95804789379508 0 0 0 0 130.61778899165427 -101.89759789638447 0 -101.89759789638447 -29.708967635582667 0 0 0 0 -3.4801726003338445 -243.46304186524867 0 -243.46304186524867 86.123329845504486 0 0 0 0 -62.382490235819887 102.64618329418954 0 102.64618329418954 70.633879842753231 0 0 0 0 -192.68079216266574 -129.91832459374018 0 -129.91832459374018 -135.97024387587589 0 0 0 0 -278.17962910424603 -95.880600468288321 0 -95.880600468288321 192.61047880749538 0 0 0 0 -744.42036398761365 -294.48162146259165 0 -294.48162146259165 86.171661112133734 0 0 0 0 75.008899925407604 -274.76603781918675 0 -274.76603781918675 -128.32575442902453 0 0 0 0 -257.96931030027554 21.138492937250703 0 21.138492937250703 -91.875660867932311 0 0 0 0 193.89955611962228 -182.77239631776501 0 -182.77239631776501 12.033359322245815 0 0 0 0 113.26097499735215 -411.46845061094427 0 -411.46845061094427 203.95708831768206 0 0 0 0 -0.069955922999115128 -0.94242360846215689 0 -0.94242360846215689 3.5808604763651317 0 0 0 0 346.96258165457704 265.92633582508643 0 265.92633582508643 449.18602837342769 0 0 0 0 -455.00419412491715 -428.67828103026477 0 -428.67828103026477 311.68566375764931 0 0 0 0 -164.84345399716739 243.27000460573595 0 243.27000460573595 902.53952697992645 0 0 0 0 -181.30656853260462 128.02286701471894 0 128.02286701471894 492.3160748937803 0 0 0 0 15.346649615215938 294.08636323673636 0 294.08636323673636 527.37763570724746 0 0 0 0 -114.0436867796127 171.96191875248951 0 171.96191875248951 132.72598650502914 0 0 0 0 -183.35468480343775 212.23219798514401 0 212.23219798514401 509.0157075481402 0 0 0 0 -125.9106915357911 203.91202805845933 0 203.91202805845933 60.645495257718721 0 0 0 0 -403.90396078795101 498.9054352129715 0 498.9054352129715 137.21468723142607 0 0 0 0 -576.96842604018548 -281.81890234411549 0 -281.81890234411549 401.49619399083895 0 0 0 0 -2.0804544272528598 -1.2105846078698868 0 -1.2105846078698868 10.603175731188998 0 0 0 0 -737.3660803307298 -368.01058055302065 0 -368.01058055302065 22.595382826089917 0 0 0 0 -915.17816940507339 278.0340981504778 0 278.0340981504778 -401.54254981133272 0 0 0 0 -652.48781247008833 -35.204948631311709 0 -35.204948631311709 183.08789106305267 0 0 0 0 -2.0976686214585483 -1.7446099778606587 0 -1.7446099778606587 13.0310409002401 0 0 0 0 -732.46103011384071 -396.28217453589787 0 -396.28217453589787 27.114050399177358 0 0 0 0 -4.7358983300162851 2.9516249635506568 0 2.9516249635506568 -1.3550633958783038 0 0 0 0 258.97258134490448 281.60214716909468 0 281.60214716909468 -39.77635302640374 0 0 0 0 139.98948705142789 445.88095791883643 0 445.88095791883643 90.022649960011222 0 0 0 0 -481.01731570047241 -20.313597701395338 0 -20.313597701395338 129.24831839889521 0 0 0 0 115.99895787391029 -95.714983014601785 0 -95.714983014601785 -97.745435966884543 0 0 0 0 -389.81929715820525 250.85296642790854 0 250.85296642790854 328.50443481279581 0 0 0 0 -9.7218716295816172 5.8919979099310567 0 5.8919979099310567 -1.7534697859328219 0 0 0 0 -462.10943496454377 -235.6490523957691 0 -235.6490523957691 56.920323453407036 0 0 0 0 -322.03603704322876 -126.2023466375008 0 -126.2023466375008 -81.821447412294219 0 0 0 0 -703.70642517339047 -132.00217260543286 0 -132.00217260543286 46.328738819887803 0 0 0 0 -1413.9128689167314 -665.71201192856097 0 -665.71201192856097 -69.662253088053887 0 0 0 0 -4.3123113772679433 2.2630476826603996 0 2.2630476826603996 0.24736476829448861 0 0 0 0 -490.87801220696792 -32.496885084019596 0 -32.496885084019596 -73.168793469179946 0 0 0 0 -674.74382530121613 440.18438953162354 0 440.18438953162354 592.3629811358478 0 0 0 0 158.16245594503471 698.86425317711473 0 698.86425317711473 666.65397074746579 0 0 0 0 -673.35166615917524 328.63188362532856 0 328.63188362532856 38.123424317862373 0 0 0 0 -628.08632308596862 -44.031762263228302 0 -44.031762263228302 246.10618383214751 0 0 0 0 -329.16611483714917 236.94327484838686 0 236.94327484838686 500.2448748430761 0 0 0 0 -412.34622312984811 216.30762205666542 0 216.30762205666542 552.38272883659374 0 0 0 0 -335.38822565278133 68.140779006062075 0 68.140779006062075 417.96574505142053 0 0 0 0 -334.67195518410972 288.04777974226272 0 288.04777974226272 436.35765749851998 0 0 0 0 0.023548912195980876 -2.1496205017236711 0 -2.1496205017236711 2.6523660370675657 0 0 0 0 -463.68640142200229 375.67243864612283 0 375.67243864612283 606.56687788731506 0 0 0 0 -575.76713267329069 341.09927018473536 0 341.09927018473536 897.41071703241141 0 0 0 0 -808.72198575662037 -245.65269475231071 0 -245.65269475231071 -152.50420941097764 0 0 0 0 -0.72842321001697563 -0.29293567610893945 0 -0.29293567610893945 1.1638522217663194 0 0 0 0 -154.79956224719785 478.69539286268446 0 478.69539286268446 803.75185300056182 0 0 0 0 -346.85880833310398 532.93493309559199 0 532.93493309559199 955.94012275814293 0 0 0 0 -209.75457314346022 -183.03681414296261 0 -183.03681414296261 -158.93423323104616 0 0 0 0 -0.65804593057906846 -2.9820150654563449 0 -2.9820150654563449 6.0021235699530564 0 0 0 0 -856.82439273722048 -354.43266677200245 0 -354.43266677200245 -76.83194782316059 0 0 0 0 -700.8813929905823 -144.42998075005016 0 -144.42998075005016 76.943733138512471 0 0 0 0 -523.68955175092833 -16.828149134444175 0 -16.828149134444175 141.12708323882543 0 0 0 0 -0.072811978797691523 -2.5867297586582794 0 -2.5867297586582794 2.5287111617352593 0 0 0 0 -425.59337403189693 -149.12972341621935 0 -149.12972341621935 254.37780832556746 0 0 0 0 -432.23904360023289 -329.7790845313466 0 -329.7790845313466 194.60449857261847 0 0 0 0 -600.55900294029607 -424.3369253836463 0 -424.3369253836463 158.1935795925674 0 0 0 0 -118.97266752123136 -150.57750624498658 0 -150.57750624498658 102.94566198959001 0 0 0 0 -249.16931162128662 -292.59399591319016 0 -292.59399591319016 149.50032776267471 0 0 0 0 -437.82647508243281 -273.75137230483961 0 -273.75137230483961 391.76056996462648 0 0 0 0 -216.46481923730744 -426.00268176403188 0 -426.00268176403188 605.5406337983859 0 0 0 0 -33.12680413582541 11.920167390806455 0 11.920167390806455 409.08973760629124 0 0 0 0 -277.96165937630315 -170.03119589112976 0 -170.03119589112976 448.01211482286453 0 0 0 0 -443.53299928149744 190.46032652892063 0 190.46032652892063 536.52800406119786 0 0 0 0 0.15495393063455065 -3.1969659844294256 0 -3.1969659844294256 4.0277607343430759 0 0 0 0 -207.60741808300418 -78.182731377499294 0 -78.182731377499294 196.41067934188322 0 0 0 0 -94.77643570647291 44.213712078881144 0 44.213712078881144 559.94268235470372 0 0 0 0 154.5720138221227 257.28413143059879 0 257.28413143059879 477.11855838082556 0 0 0 0 73.465736945877552 -74.350572899820691 0 -74.350572899820691 670.49373387582091 0 0 0 0 380.05749240338605 -407.26361059233579 0 -407.26361059233579 483.83578671141004 0 0 0 0 385.99784058886826 70.604409263552952 0 70.604409263552952 605.18002866533789 0 0 0 0 560.12194736091305 -297.25192272166896 0 -297.25192272166896 462.91612562672776 0 0 0 0 620.55839613021703 -38.338995408281335 0 -38.338995408281335 1527.7769693644805 0 0 0 0 313.80060145943185 131.8449524947755 0 131.8449524947755 -221.09556943313873 0 0 0 0 447.43393656070111 -1163.0916229236973 0 -1163.0916229236973 94.622426062356681 0 0 0 0 -32.447743958186777 -39.706682980006008 0 -39.706682980006008 1041.3023901403067 0 0 0 0 2.8676957829004399 -1.7800660016821297 0 -1.7800660016821297 1.1383697276709199 0 0 0 0 62.123691120876174 -253.54651616873525 0 -253.54651616873525 1468.5811745870742 0 0 0 0 502.99452133488876 -355.60712563777633 0 -355.60712563777633 457.31653910223395 0 0 0 0 534.71422931846882 -638.46707182501268 0 -638.46707182501268 395.50347473695001 0 0 0 0 212.92869324712592 -263.28279369620213 0 -263.28279369620213 168.86398732081943 0 0 0 0 1163.1202322562531 -263.72466776652436 0 -263.72466776652436 -72.876309426013904 0 0 0 0 1222.6074502929005 -764.79298201340134 0 -764.79298201340134 689.68480705059483 0 0 0 0 863.99647822776751 79.314700932223786 0 79.314700932223786 -509.59279047786549 0 0 0 0 0.45957234056961838 -0.45571312834381672 0 -0.45571312834381672 3.3145682482573946 0 0 0 0 1675.406982830048 -863.26069382272181 0 -863.26069382272181 452.03808674180618 0 0 0 0 1220.112416609737 -676.50125207072779 0 -676.50125207072779 713.60417583299568 0 0 0 0 353.61911301433474 -621.34996658227465 0 -621.34996658227465 800.86466613045923 0 0 0 0 1011.8559618532372 -1325.4958609343375 0 -1325.4958609343375 1216.5124796492091 0 0 0 0 160.90303382789625 236.18356255717299 0 236.18356255717299 237.21297100988886 0 0 0 0 -153.45909926232889 282.6718819657799 0 282.6718819657799 1225.9212204701471 0 0 0 0 1.7282812123746494 -6.2347930198077748 0 -6.2347930198077748 9.0539686879767487 0 0 0 0 5.2760619448300696 -9.8602387187262543 0 -9.8602387187262543 8.2228009708304342 0 0 0 0 6.7257882625101502 -13.865427242743863 0 -13.865427242743863 12.921765153441811 0 0 0 0 -127.51177026781079 -3.8722022380970884 0 -3.8722022380970884 269.88629721242978 0 0 0 0 172.0317224747555 -87.990199454863614 0 -87.990199454863614 24.263328238679605 0 0 0 0 7.1644620958961465 -9.7366390468898203 0 -9.7366390468898203 7.8011535026808829 0 0 0 0 -63.114898252875264 -48.182319138202729 0 -48.182319138202729 372.90643216364879 0 0 0 0 -31.100726752008995 -112.43239898469255 0 -112.43239898469255 988.42614778951975 0 0 0 0 20.996253031222068 -114.00580222057943 0 -114.00580222057943 344.99577982873598 0 0 0 0 62.859290935444506 -274.5281959364595 0 -274.5281959364595 604.74191479195724 0 0 0 0 78.457651007465302 -409.35448818788973 0 -409.35448818788973 845.53829654688889 0 0 0 0 120.07381088326747 -371.5985186542639 0 -371.5985186542639 776.4177710559743 0 0 0 0 1520.2370858137192 -494.56809956126017 0 -494.56809956126017 610.99724207210966 0 0 0 0 220.04020400023546 -833.4491149810965 0 -833.4491149810965 1674.0805753764707 0 0 0 0 511.84631752564997 -359.9750964356117 0 -359.9750964356117 432.04056199501792 0 0 0 0 424.89856710085678 -331.38745743902109 0 -331.38745743902109 591.35472646303151 0 0 0 0 237.48862252186609 -427.11895780769919 0 -427.11895780769919 468.41552700472675 0 0 0 0 157.18908258062402 -401.95720198046547 0 -401.95720198046547 709.93129659935221 0 0 0 0 370.52317727865193 -621.13244799665517 0 -621.13244799665517 725.6544700329614 0 0 0 0 -47.541824683710388 -156.06215810907452 0 -156.06215810907452 144.25149146403419 0 0 0 0 -78.912100585893427 -180.12100427230325 0 -180.12100427230325 126.39290804344637 0 0 0 0 -124.56199503699577 -142.41809783158169 0 -142.41809783158169 167.84520269707718 0 0 0 0 -93.483095923162182 -147.15132583922241 0 -147.15132583922241 168.13808581940975 0 0 0 0 -170.45039225390218 -77.575929850193461 0 -77.575929850193461 114.88185518009413 0 0 0 0 -162.0494138289381 -169.98539003344194 0 -169.98539003344194 148.28662262567377 0 0 0 0 -122.97250456190048 -179.91129403338346 0 -179.91129403338346 128.03074284640024 0 0 0 0 -117.74529199799497 -178.05944423608162 0 -178.05944423608162 106.90810262993909 0 0 0 0 -51.525811850213444 -221.87621853420933 0 -221.87621853420933 71.733353198287659 0 0 0 0 -46.317567109749064 -211.34871084945917 0 -211.34871084945917 87.784316084642342 0 0 0 0 -0.030722161151008308 -211.43085386275143 0 -211.43085386275143 47.756760475924239 0 0 0 0 4.7139070432665449 -195.87467307492625 0 -195.87467307492625 90.431398649114271 0 0 0 0 -56.380186080689612 -175.08541488896299 0 -175.08541488896299 129.41371346970845 0 0 0 0 37.889759572620875 -137.44703883445982 0 -137.44703883445982 143.7660169929004 0 0 0 0 0.1882696937960335 -189.76942985429923 0 -189.76942985429923 109.7577847479115 0 0 0 0 4.1780928616013284 -197.10601964173838 0 -197.10601964173838 119.4374547546322 0 0 0 0 114.8534762632961 -192.69013097184506 0 -192.69013097184506 119.61064449702098 0 0 0 0 0.087935529066404131 -43.673433197455246 0 -43.673433197455246 90.610632962881937 0 0 0 0 -0.17146084639927339 -0.39319564938290341 0 -0.39319564938290341 0.16691852258907147 0 0 0 0 49.291851927897739 -88.730441360155965 0 -88.730441360155965 158.79756543629628 0 0 0 0 -42.219868610125104 -119.83708104439575 0 -119.83708104439575 156.05334475588461 0 0 0 0 -36.43008862943492 -93.902043966038036 0 -93.902043966038036 192.644498867332 0 0 0 0 -77.568559363468125 -78.266792065100162 0 -78.266792065100162 203.47157118286123 0 0 0 0 -47.969455644741345 -65.762022635932226 0 -65.762022635932226 199.83329731215781 0 0 0 0 -80.749613249960248 -113.68010249221697 0 -113.68010249221697 185.91652584826807 0 0 0 0 -92.576099714256316 -137.37447241409973 0 -137.37447241409973 191.0909898524842 0 0 0 0 -128.23945190975712 -142.67573899588024 0 -142.67573899588024 240.30443688271043 0 0 0 0 -106.55443822425877 -109.27605697400577 0 -109.27605697400577 226.52292269462487 0 0 0 0 -101.14719306693138 -96.846265050924558 0 -96.846265050924558 239.9348892957787 0 0 0 0 -138.98971729522918 -101.17300270067062 0 -101.17300270067062 268.03604647415341 0 0 0 0 -121.67376400992225 -65.421162777627615 0 -65.421162777627615 305.49413396521413 0 0 0 0 -96.972959077041878 -74.700345504068537 0 -74.700345504068537 227.67441947777843 0 0 0 0 -64.085089226532986 -30.508717693273411 0 -30.508717693273411 197.90110560588073 0 0 0 0 -73.857578377018854 4.8604857442333014 0 4.8604857442333014 257.95681289941422 0 0 0 0 -61.376087162505883 10.906629731936846 0 10.906629731936846 195.60687839515958 0 0 0 0 -61.459807901150043 180.22654773677641 0 180.22654773677641 435.00757762687863 0 0 0 0 -59.416935154463999 17.684837475826498 0 17.684837475826498 218.28245102617075 0 0 0 0 10.161122503546721 44.518831177614629 0 44.518831177614629 158.56556551455287 0 0 0 0 -7.9008333560913115 -18.122598525185822 0 -18.122598525185822 10.967249630892184 0 0 0 0 297.51593223499049 -770.37139199626108 0 -770.37139199626108 207.46093748528801 0 0 0 0 -23.227566273034427 152.40006191555585 0 152.40006191555585 103.23214258463122 0 0 0 0 2.9795290132805023 2.4610093370045831 0 2.4610093370045831 2.278065145398898 0 0 0 0 -394.61052284922096 74.680458228642237 0 74.680458228642237 300.83446748755523 0 0 0 0 -10.407100707178971 -7.0385352709200362 0 -7.0385352709200362 167.50766674237951 0 0 0 0 242.65035889389361 384.88917351927012 0 384.88917351927012 350.16930016638071 0 0 0 0 -18.422610478317438 -201.30773641493579 0 -201.30773641493579 194.11795375043584 0 0 0 0 -142.54447905872087 -92.409307039695705 0 -92.409307039695705 389.83660846884595 0 0 0 0 -28.090230290743136 -263.32201392225397 0 -263.32201392225397 399.94276550173527 0 0 0 0 -152.08892850002303 -146.37503660246148 0 -146.37503660246148 600.58791466006369 0 0 0 0 -7.7076896996641242 5.6879897167695219 0 5.6879897167695219 -6.8869630142795586 0 0 0 0 10.908115318406999 -403.44415350288182 0 -403.44415350288182 960.81600515102036 0 0 0 0 -691.04913639366066 -315.49757365901792 0 -315.49757365901792 -28.823694453996723 0 0 0 0 -273.00957091726468 -142.43387610772334 0 -142.43387610772334 32.763995147623064 0 0 0 0 359.87187605070085 705.01424544996098 0 705.01424544996098 -0.46699191098741721 0 0 0 0 -9.5696101623851995 -5.221966130364514 0 -5.221966130364514 184.431649513118 0 0 0 0 -140.171221209328 66.158769528035918 0 66.158769528035918 -400.40231537609361 0 0 0 0 -337.32405082542709 394.57868352032165 0 394.57868352032165 465.71069171473209 0 0 0 0 -288.49989440477077 -74.9722096464684 0 -74.9722096464684 439.76660531142261 0 0 0 0 -2.2849138515531244 -0.73963003365255275 0 -0.73963003365255275 15.615587886306457 0 0 0 0 -492.05193266809374 522.77170754538747 0 522.77170754538747 374.31583813550969 0 0 0 0 -381.21837983300156 -186.07718021008804 0 -186.07718021008804 714.74867007927969 0 0 0 0 -144.34605707174342 -63.78377881634151 0 -63.78377881634151 1758.8256078070626 0 0 0 0 -26.796255331837529 -122.81273823738593 0 -122.81273823738593 -467.70031904886127 0 0 0 0 490.11428468370286 -637.57553051126888 0 -637.57553051126888 206.10932857097214 0 0 0 0 56.308164320191281 392.50174516497646 0 392.50174516497646 288.02664776169695 0 0 0 0 -431.73999254413502 288.5518531099151 0 288.5518531099151 396.76615050186956 0 0 0 0 -318.13227333756549 575.74143668757824 0 575.74143668757824 446.67448593267181 0 0 0 0 -355.49071885838794 423.57976905954183 0 423.57976905954183 18.01041054892994 0 0 0 0 -428.47877642088133 99.336145049281185 0 99.336145049281185 463.42816952586281 0 0 0 0 402.79757273053178 223.12524512000391 0 223.12524512000391 42.469241780447192 0 0 0 0 -464.88951419237492 -75.342942626411968 0 -75.342942626411968 -174.10577328396539 0 0 0 0 -2.7350949547606742 5.0042176977527362 0 5.0042176977527362 40.581672941863246 0 0 0 0 -466.91113636839486 -116.321266253869 0 -116.321266253869 27.680337444500765 0 0 0 0 -408.01826757035451 -57.250818990149128 0 -57.250818990149128 68.263518788386136 0 0 0 0 -440.35448101852307 -162.42302584926074 0 -162.42302584926074 2.1899670331040397 0 0 0 0 -448.00257225071209 -183.83364476270526 0 -183.83364476270526 -34.042706545820693 0 0 0 0 -423.35859677367989 -165.64774096743349 0 -165.64774096743349 -22.219306753919227 0 0 0 0 -598.92315458232406 -232.10147109667923 0 -232.10147109667923 54.876434242483811 0 0 0 0 -563.4601080903758 -153.93784774580854 0 -153.93784774580854 163.15998269770353 0 0 0 0 -467.10243864840231 -171.54197502537863 0 -171.54197502537863 -2.0042111300426768 0 0 0 0 -425.55143407105015 -171.4651678450191 0 -171.4651678450191 -11.152961091182078 0 0 0 0 -146.70878005638406 -14.78848225834372 0 -14.78848225834372 73.278534584293084 0 0 0 0 -132.1621135435621 -114.46474548213882 0 -114.46474548213882 149.78260720717662 0 0 0 0 -98.690503963516448 -115.3897466508497 0 -115.3897466508497 166.82486421793146 0 0 0 0 -75.832814179047546 -127.41828061448905 0 -127.41828061448905 147.64986332328408 0 0 0 0 5.7404857075969176 -98.967861397366505 0 -98.967861397366505 116.77888458450616 0 0 0 0 -28.837815758530041 73.630347036654712 0 73.630347036654712 30.275323107431177 0 0 0 0 -186.57222990327909 128.0303725162521 0 128.0303725162521 45.392923865252669 0 0 0 0 -296.5044564645965 91.992411992905545 0 91.992411992905545 117.49676703459409 0 0 0 0 -11.562490829293568 -13.827445251866649 0 -13.827445251866649 136.01935601126422 0 0 0 0 205.13713959069355 -99.36717744867201 0 -99.36717744867201 109.05621621820319 0 0 0 0 34.592331349784217 -214.69419166588705 0 -214.69419166588705 137.86638552886598 0 0 0 0 -256.11323677518533 22.673774412658531 0 22.673774412658531 120.58479785596137 0 0 0 0 -243.15127680349678 26.822331927636696 0 26.822331927636696 89.442184756015195 0 0 0 0 -214.78494486150635 -0.12836038695240859 0 -0.12836038695240859 108.38000206949073 0 0 0 0 -149.49363501162145 -4.3244205595074163 0 -4.3244205595074163 95.994507952476852 0 0 0 0 -221.44178958328348 -83.01880035107024 0 -83.01880035107024 132.86492825728783 0 0 0 0 -309.94293237129432 -67.111704561175429 0 -67.111704561175429 130.05447764989731 0 0 0 0 -397.67546886582249 33.812253973635961 0 33.812253973635961 120.12214491530904 0 0 0 0 -411.23491249779295 -109.25127570260884 0 -109.25127570260884 121.26633949152892 0 0 0 0 -297.94441540542448 -8.8051569325762102 0 -8.8051569325762102 119.12843255023472 0 0 0 0 -278.89667822305898 -2.2336796101881191 0 -2.2336796101881191 120.84602200135123 0 0 0 0 -278.87789410007053 0.29241076587641146 0 0.29241076587641146 115.55185084001278 0 0 0 0 -245.9138350648177 24.420742428672384 0 24.420742428672384 79.604178038804093 0 0 0 0 87.096200467442031 -27.922461807880609 0 -27.922461807880609 67.045216009955766 0 0 0 0 -267.47841728762353 24.515730712733784 0 24.515730712733784 124.89120995995472 0 0 0 0 -298.29910938242267 17.916710672705108 0 17.916710672705108 124.03676758887013 0 0 0 0 113.56554246290773 -34.415957814762578 0 -34.415957814762578 -21.335639386321418 0 0 0 0 4.2598953212091821 7.8989979758103246 0 7.8989979758103246 68.214041139672162 0 0 0 0 -9.9757564425889207 -18.148920835032335 0 -18.148920835032335 99.077524312625172 0 0 0 0 82.858605712877761 -28.688960693936679 0 -28.688960693936679 79.202228797890712 0 0 0 0 100.71072621108215 -58.127214443800767 0 -58.127214443800767 41.332267930498347 0 0 0 0 -200.07355531239614 61.287638219444489 0 61.287638219444489 27.726759508717805 0 0 0 0 115.97837777741154 49.778248711322703 0 49.778248711322703 -28.038680536410538 0 0 0 0 -48.226921768320608 -7.3081624770566123 0 -7.3081624770566123 89.665339238967135 0 0 0 0 27.915177180970204 -67.448705084701942 0 -67.448705084701942 71.743646024988266 0 0 0 0 -227.72161597566355 115.32176020907355 0 115.32176020907355 79.738043717668916 0 0 0 0 -217.68170603361023 136.11728365333693 0 136.11728365333693 8.571752790157916 0 0 0 0 -439.99417465447777 280.5995363038237 0 280.5995363038237 90.349346934497589 0 0 0 0 -717.75905000277226 136.09009627785417 0 136.09009627785417 181.33061872617691 0 0 0 0 -655.52167595036099 -215.62429565496313 0 -215.62429565496313 59.612742959900061 0 0 0 0 -411.07227535676043 28.00651330105029 0 28.00651330105029 117.70472274668282 0 0 0 0 -342.33580930933704 129.72820767322992 0 129.72820767322992 48.660510266839992 0 0 0 0 -567.91722558466245 -26.105587732592539 0 -26.105587732592539 -89.530826957873614 0 0 0 0 -487.42438953870897 -143.08521552611091 0 -143.08521552611091 32.366161804646254 0 0 0 0 -467.89440670922158 -199.93602288767579 0 -199.93602288767579 -119.62744685220241 0 0 0 0 -394.62006531672523 -173.0557118830402 0 -173.0557118830402 -46.927579892057111 0 0 0 0 -432.51465797947458 -60.920294678318896 0 -60.920294678318896 -15.173341928388254 0 0 0 0 -408.36587604529086 -105.45456276041659 0 -105.45456276041659 66.456445902469568 0 0 0 0 -356.98849804298879 -35.905804749098024 0 -35.905804749098024 100.93461647491495 0 0 0 0 -310.4371617222896 -53.989487627281051 0 -53.989487627281051 24.989345857800799 0 0 0 0 -400.83777295396794 -133.82472238892115 0 -133.82472238892115 32.595928605966037 0 0 0 0 -343.79604273020232 -108.05995481625723 0 -108.05995481625723 25.314286522916518 0 0 0 0 -359.81838915205299 -7.1351046930503799 0 -7.1351046930503799 116.63535070844227 0 0 0 0 -158.43076443032624 104.06064380097087 0 104.06064380097087 154.81972065207083 0 0 0 0 -24.813096362602664 157.86578047771764 0 157.86578047771764 72.0533587209502 0 0 0 0 -159.5940413498829 46.152649421681417 0 46.152649421681417 72.678626888580766 0 0 0 0 -99.253349038679517 -1.1791526824999892 0 -1.1791526824999892 40.934206296660705 0 0 0 0 -97.210806722087 43.712881715851836 0 43.712881715851836 36.177733046038156 0 0 0 0 -32.474302550977882 -33.073827317653922 0 -33.073827317653922 21.048964827146847 0 0 0 0 -131.97857037202266 -47.586187182427238 0 -47.586187182427238 71.328348945899052 0 0 0 0 -40.911572689234163 -0.64299431457038736 0 -0.64299431457038736 18.632063083510729 0 0 0 0 -208.70026359488111 16.830319351858634 0 16.830319351858634 52.465098820914136 0 0 0 0 -307.87008595334919 -25.61994718202186 0 -25.61994718202186 89.536688046428026 0 0 0 0 -291.57286062176354 -51.131243501113204 0 -51.131243501113204 8.0641740866049076 0 0 0 0 -144.78050503535724 -37.887813629597076 0 -37.887813629597076 27.775432957772864 0 0 0 0 -562.36436661725929 -195.27793197339633 0 -195.27793197339633 -1.0736887651928555 0 0 0 0 -422.80565620821108 -76.769032152486034 0 -76.769032152486034 76.197283714456717 0 0 0 0 -253.14265976665047 -72.156701850930403 0 -72.156701850930403 11.963356851440039 0 0 0 0 -430.58417005092178 -52.164586126931681 0 -52.164586126931681 -0.59470423941093031 0 0 0 0 -377.55438162434268 12.712619991074575 0 12.712619991074575 91.161970058834413 0 0 0 0 -376.04279704369037 -59.599236915248184 0 -59.599236915248184 -55.319572903204971 0 0 0 0 -61.003574092539566 -8.1080611462020897 0 -8.1080611462020897 58.444860077899648 0 0 0 0 -104.51306046082709 59.95459063897033 0 59.95459063897033 134.28822469331499 0 0 0 0 -244.95424119825293 -49.65254737396026 0 -49.65254737396026 88.077294636488659 0 0 0 0 -56.606155486846546 -37.846763740948518 0 -37.846763740948518 51.317459554367815 0 0 0 0 -104.50171240845884 40.179253966620308 0 40.179253966620308 79.910971931712993 0 0 0 0 -85.823146166738297 1.0051371886875131 0 1.0051371886875131 155.87102947855601 0 0 0 0 8.9829732233665709 -119.59767760955583 0 -119.59767760955583 -7.0894269230557256 0 0 0 0 -13.472860155389419 1.4512869955088661 0 1.4512869955088661 3.071264557398905 0 0 0 0 -413.81553869029085 -159.05221127092591 0 -159.05221127092591 9.3093107013046392 0 0 0 0 -4.7882172192614654 -8.4150270156510132 0 -8.4150270156510132 39.251186015105645 0 0 0 0 -583.52672102756787 -87.536298516126408 0 -87.536298516126408 59.930405003091437 0 0 0 0 -1.8924002194326022 -14.573852640969562 0 -14.573852640969562 32.067709752525843 0 0 0 0 -738.93394460952084 -174.94587808536016 0 -174.94587808536016 33.216492299572565 0 0 0 0 -688.32204114983142 -96.314054637332447 0 -96.314054637332447 162.69828340839013 0 0 0 0 -673.50710177116071 -62.038851849443745 0 -62.038851849443745 99.875052480056183 0 0 0 0 -729.84037618636285 -69.485972131922608 0 -69.485972131922608 145.71337416653114 0 0 0 0 -829.47078111046653 -119.35018332996151 0 -119.35018332996151 96.890371433022665 0 0 0 0 -99.188541536824232 165.18692772096256 0 165.18692772096256 97.596261369862077 0 0 0 0 -10.778238617066926 3.1855021877994716 0 3.1855021877994716 22.472231360195394 0 0 0 0 -798.7780383706455 -249.30530961138538 0 -249.30530961138538 12.171902765345294 0 0 0 0 -9.9147983876526045 14.607883452239847 0 14.607883452239847 42.99605363283743 0 0 0 0 10.881939928135484 -15.743882322429272 0 -15.743882322429272 61.798099237654867 0 0 0 0 81.652876957965418 -54.333467382748495 0 -54.333467382748495 4.6168979963040329 0 0 0 0 63.013290978877194 -73.279911151097622 0 -73.279911151097622 154.63884107078047 0 0 0 0 14.729563630306075 1.87972011914826 0 1.87972011914826 135.34611778230465 0 0 0 0 -70.633340373431565 -2.4439218468760373 0 -2.4439218468760373 56.925561519688927 0 0 0 0 50.352103014629392 -16.41431015307171 0 -16.41431015307171 207.85809153929586 0 0 0 0 118.96870477085758 52.253427288829698 0 52.253427288829698 248.77046969212824 0 0 0 0 134.64729288639501 58.832896934909513 0 58.832896934909513 159.27984771885895 0 0 0 0 -15.082852791958263 -8.8377852197886533 0 -8.8377852197886533 70.797968621192723 0 0 0 0 177.20430838752509 122.15889632396284 0 122.15889632396284 228.10670837570069 0 0 0 0 -63.362956467390177 -25.06434885894123 0 -25.06434885894123 34.136056830757298 0 0 0 0 13.478476939881192 -46.499547772376985 0 -46.499547772376985 52.341264890279888 0 0 0 0 -67.944445326873392 -17.262086685252143 0 -17.262086685252143 48.722928115457762 0 0 0 0 -32.592833987055869 8.3156007002091172 0 8.3156007002091172 102.66908578654744 0 0 0 0 27.483176417394134 -40.710465581214521 0 -40.710465581214521 102.4804126695235 0 0 0 0 29.535843383580868 -56.210088644329517 0 -56.210088644329517 177.9158379958244 0 0 0 0 59.526142504655581 -29.611550508278015 0 -29.611550508278015 148.46561474591726 0 0 0 0 -15.250944165447414 -5.4933885646418474 0 -5.4933885646418474 105.79338216925998 0 0 0 0 -166.21219256925542 73.255521995335585 0 73.255521995335585 239.98744866404013 0 0 0 0 -18.377905638715667 6.4338289984772814 0 6.4338289984772814 23.747580708010858 0 0 0 0 13.958939129767202 -34.724840550363055 0 -34.724840550363055 82.417359077322715 0 0 0 0 -2.8472175731094467 -91.197236294253344 0 -91.197236294253344 144.95302146457834 0 0 0 0 -12.517427944065275 -166.8574277219268 0 -166.8574277219268 -10.291477232123725 0 0 0 0 198.92771788695245 5.2504540801164694 0 5.2504540801164694 -104.75312147752265 0 0 0 0 7.1634720148796447 -15.179435449248643 0 -15.179435449248643 18.245498613305926 0 0 0 0 -1134.720096888328 34.585119057279371 0 34.585119057279371 103.56164337851806 0 0 0 0 1.1340931974052619 -8.0088786153249742 0 -8.0088786153249742 5.2484809267101014 0 0 0 0 -740.36205551458033 9.8591802893060958 0 9.8591802893060958 104.07976022167713 0 0 0 0 -822.48323332271593 -89.547219175859937 0 -89.547219175859937 176.0054399871442 0 0 0 0 -874.59269792478426 -106.55596973396041 0 -106.55596973396041 151.25869088497711 0 0 0 0 -862.88498078991688 12.446371764177456 0 12.446371764177456 -19.966187503770925 0 0 0 0 -713.6179869890284 -68.123554881371092 0 -68.123554881371092 75.304516381700523 0 0 0 0 -719.46727409457799 -131.08048756895005 0 -131.08048756895005 219.50047408418322 0 0 0 0 -537.72373989052812 -240.48449314109166 0 -240.48449314109166 150.90599046250281 0 0 0 0 -698.01771095572167 -146.85517186482321 0 -146.85517186482321 106.91111828440626 0 0 0 0 -685.3957030104666 -117.56613911185559 0 -117.56613911185559 170.90140946547035 0 0 0 0 -222.46491959580862 -281.41931886477687 0 -281.41931886477687 200.97617139708382 0 0 0 0 -377.93493008752148 -255.30068479773763 0 -255.30068479773763 169.60689496913983 0 0 0 0 -413.18067760913925 -138.44881020083631 0 -138.44881020083631 142.22839942674909 0 0 0 0 -182.51001601123414 -153.99803223874551 0 -153.99803223874551 246.10386406586622 0 0 0 0 -173.01737157567868 -211.15370591398096 0 -211.15370591398096 80.918387119032559 0 0 0 0 -83.478271797594857 -288.20214594083518 0 -288.20214594083518 114.36224467554712 0 0 0 0 -314.65672325045671 -241.21083319680474 0 -241.21083319680474 102.20671379441046 0 0 0 0 -646.28485454194242 -83.65355714513862 0 -83.65355714513862 116.90768443702837 0 0 0 0 -598.89767169291508 -185.04423332652368 0 -185.04423332652368 126.99915952720767 0 0 0 0 -548.50902182615209 -130.35484732255281 0 -130.35484732255281 106.34064118699462 0 0 0 0 -493.05298598902561 -189.69615828602878 0 -189.69615828602878 81.262445004365873 0 0 0 0 -313.23515127965447 -224.59312724454503 0 -224.59312724454503 43.285556597438699 0 0 0 0 -262.29693800228029 -220.31618578271446 0 -220.31618578271446 -6.3704501414686092 0 0 0 0 -498.84869998417162 -68.700631182531652 0 -68.700631182531652 -114.90599988443137 0 0 0 0 -405.07421699239831 -101.20299187528144 0 -101.20299187528144 107.90000640159997 0 0 0 0 -423.99661126549069 -186.55652758056021 0 -186.55652758056021 105.19224373885663 0 0 0 0 -262.54412856670615 -216.48149816415389 0 -216.48149816415389 69.53658781129343 0 0 0 0 -96.125982358058707 -260.76565510062153 0 -260.76565510062153 12.524824487714795 0 0 0 0 -123.53470228126162 -245.96170269769209 0 -245.96170269769209 54.879733091947855 0 0 0 0 -249.50983919542705 -172.83943572970747 0 -172.83943572970747 107.77421937394956 0 0 0 0 -263.81949047034828 -187.4007721676553 0 -187.4007721676553 104.96275358198909 0 0 0 0 -298.73288278729387 -71.271274843762512 0 -71.271274843762512 126.95475381767028 0 0 0 0 -9.94162606252263 -208.92822684348357 0 -208.92822684348357 53.989423501894635 0 0 0 0 -21.836703314855129 -251.5614225198733 0 -251.5614225198733 25.011048153493903 0 0 0 0 -106.41418869077603 -216.54062178551067 0 -216.54062178551067 73.587159222603077 0 0 0 0 -95.176312904412214 -220.36929147210913 0 -220.36929147210913 81.741818599737599 0 0 0 0 -0.086489575818593734 -218.60528488802083 0 -218.60528488802083 63.334441926279396 0 0 0 0 26.188738071984801 -137.79655214395461 0 -137.79655214395461 199.11112214744207 0 0 0 0 51.692170160670912 -256.11136414880457 0 -256.11136414880457 50.568163581243425 0 0 0 0 -58.878232368480425 -197.65583741936462 0 -197.65583741936462 208.70158131315839 0 0 0 0 85.429953220882282 -181.99110079422098 0 -181.99110079422098 442.97857022669632 0 0 0 0 117.9091001553893 -160.84086725617817 0 -160.84086725617817 177.7933921131189 0 0 0 0 -66.306147573809312 -279.82136896363954 0 -279.82136896363954 361.77903726886143 0 0 0 0 0.92309239346041783 -67.330126938279136 0 -67.330126938279136 545.35554527034401 0 0 0 0 200.51078817898508 -125.4685146335687 0 -125.4685146335687 165.23241709767171 0 0 0 0 335.71472297320042 313.73463948083372 0 313.73463948083372 937.16625231848593 0 0 0 0 237.10657718395345 -104.77790006644136 0 -104.77790006644136 817.10112028496224 0 0 0 0 256.29160422879988 27.738809311093064 0 27.738809311093064 439.70239353628085 0 0 0 0 -29.16656925123948 -7.5953685815547942 0 -7.5953685815547942 388.51266047083755 0 0 0 0 30.172260443284245 -160.2907608112655 0 -160.2907608112655 726.0459796373616 0 0 0 0 298.64542420760307 41.775184679489485 0 41.775184679489485 625.20124006646802 0 0 0 0 302.08365816581124 348.58376707237039 0 348.58376707237039 1128.3061925548755 0 0 0 0 -56.842352157123742 334.91213285162667 0 334.91213285162667 1120.5277032797312 0 0 0 0 411.35332696741011 474.21402431916795 0 474.21402431916795 767.49726696558355 0 0 0 0 467.33538184362311 1062.8566628478657 0 1062.8566628478657 2072.0808737243387 0 0 0 0 -0.28477621513303608 1073.3970376280959 0 1073.3970376280959 2075.9760674496938 0 0 0 0 720.04643256210579 165.77981309453025 0 165.77981309453025 994.08862263767514 0 0 0 0 346.49198162525403 -0.32361923946155002 0 -0.32361923946155002 1632.1840454513731 0 0 0 0 -799.75635251550284 75.06711597729236 0 75.06711597729236 41.506787523889216 0 0 0 0 -448.13211943052329 -144.10020153598452 0 -144.10020153598452 119.06770623126067 0 0 0 0 -445.3738672883826 -42.461698233519201 0 -42.461698233519201 109.61548186515574 0 0 0 0 -794.24763646687779 -13.51638650251698 0 -13.51638650251698 292.65716254404833 0 0 0 0 -390.26031384172165 139.00878507149173 0 139.00878507149173 584.65506451319379 0 0 0 0 -431.64789290597628 -57.613832113594981 0 -57.613832113594981 299.46226659218519 0 0 0 0 -145.69613910031603 -194.29097229667968 0 -194.29097229667968 329.45625288120937 0 0 0 0 -419.79183212656108 219.95050758346042 0 219.95050758346042 631.50552326902107 0 0 0 0 -43.934366831024022 227.31690349912606 0 227.31690349912606 386.53834251087392 0 0 0 0 -1009.9786928876911 -52.782776236206701 0 -52.782776236206701 207.20105805694766 0 0 0 0 -510.29464878985618 401.72266111364297 0 401.72266111364297 284.96858887318376 0 0 0 0 -268.33128119331138 522.70699335046766 0 522.70699335046766 -166.04924177526846 0 0 0 0 69.515914752036423 622.02304530690162 0 622.02304530690162 642.03629557676322 0 0 0 0 -20.264230861122542 763.55440883105621 0 763.55440883105621 437.66030131034859 0 0 0 0 -294.22787674332039 760.82965715295722 0 760.82965715295722 679.22629874094855 0 0 0 0 -51.042870776944895 806.43731713339184 0 806.43731713339184 748.44289526791545 0 0 0 0 -102.35326613435063 503.86558369700651 0 503.86558369700651 493.61631093208416 0 0 0 0 -312.47102081315825 746.10867693919135 0 746.10867693919135 752.36976504668564 0 0 0 0 -98.036809229215805 549.00418001990693 0 549.00418001990693 929.87582173422561 0 0 0 0 -78.638516809395469 717.74197462685697 0 717.74197462685697 662.26604872930329 0 0 0 0 -593.89952035547458 1016.1034334137403 0 1016.1034334137403 657.38268247305678 0 0 0 0 -392.11589271772209 444.86581993981963 0 444.86581993981963 1560.5808673328575 0 0 0 0 1776.0945809719897 1453.4036141241741 0 1453.4036141241741 896.93808318587253 0 0 0 0 -0.78112454075040416 1.8498653885363936 0 1.8498653885363936 13.476030782806276 0 0 0 0 -509.43010685768832 -24.598380904648366 0 -24.598380904648366 319.46692324751348 0 0 0 0 274.01753094303331 962.39441416681802 0 962.39441416681802 1119.1614578775552 0 0 0 0 1099.6356614424233 579.68185159666245 0 579.68185159666245 364.84574968718516 0 0 0 0 144.45107448140709 403.96161900382867 0 403.96161900382867 402.14625448637526 0 0 0 0 -2.5283183639048539 -0.41570977248925089 0 -0.41570977248925089 35.730524137892303 0 0 0 0 320.64680215399505 401.32136303537118 0 401.32136303537118 326.87430838533328 0 0 0 0 325.38607864219051 729.423692219636 0 729.423692219636 602.65454618280637 0 0 0 0 -0.3976143362173612 48.882712141094089 0 48.882712141094089 -99.222221907228231 0 0 0 0 -62.542083122547872 33.888039472683886 0 33.888039472683886 18.949795875581913 0 0 0 0 -4.1474223627166644 -6.0381497211565147 0 -6.0381497211565147 34.687147920471034 0 0 0 0 0.056635676811255267 -11.595377352732612 0 -11.595377352732612 42.021934012562269 0 0 0 0 -414.95896817873449 -92.975542140702601 0 -92.975542140702601 283.17723054273665 0 0 0 0 -1.1350845553486852 -6.0835914393286004 0 -6.0835914393286004 51.817463388786791 0 0 0 0 -12.763987528253116 -15.821916491262527 0 -15.821916491262527 47.601875458538416 0 0 0 0 -39.058236069917939 -27.746655843264307 0 -27.746655843264307 45.970448685468 0 0 0 0 166.61426668557624 415.76992704378426 0 415.76992704378426 321.97188625596755 0 0 0 0 13.344569282091925 138.87623504646035 0 138.87623504646035 552.54882594804803 0 0 0 0 -19.568419160654003 229.48126244797459 0 229.48126244797459 418.03351288811245 0 0 0 0 525.71361737017924 120.15846240401879 0 120.15846240401879 391.89669014669198 0 0 0 0 14.583589443209803 169.65887863848184 0 169.65887863848184 800.04272482992383 0 0 0 0 500.0382019622939 -172.07260905852308 0 -172.07260905852308 1040.2301268105657 0 0 0 0 194.9577378831159 110.2700668970283 0 110.2700668970283 170.85955734990421 0 0 0 0 147.26427350850463 -1.1023119252131437 0 -1.1023119252131437 416.18319673949736 0 0 0 0 27.302297442968211 -76.537379504188721 0 -76.537379504188721 274.86526021554891 0 0 0 0 -165.77147460913477 135.89886968044084 0 135.89886968044084 67.813811105021159 0 0 0 0 -70.986167613424442 -156.28450594347487 0 -156.28450594347487 -115.47732074499072 0 0 0 0 25.745302638937119 61.098349406893249 0 61.098349406893249 194.02341452322435 0 0 0 0 222.13245855432888 -45.007415939457132 0 -45.007415939457132 153.83280028865101 0 0 0 0 322.44596206080621 -109.86884512637334 0 -109.86884512637334 -353.63654719317128 0 0 0 0 -3.5678676312970818 -7.8988167656990527 0 -7.8988167656990527 8.7960210937430219 0 0 0 0 -249.59586174094784 -170.64832527104591 0 -170.64832527104591 200.54993262159041 0 0 0 0 -297.17669156111623 -287.6337798491877 0 -287.6337798491877 123.58192437500111 0 0 0 0 -5.9925741434855482 0.058641744533900919 0 0.058641744533900919 40.153648882899049 0 0 0 0 9.2131983320685009 30.901924578880426 0 30.901924578880426 34.215717171970027 0 0 0 0 -2.196999222515212 2.3114203195656273 0 2.3114203195656273 4.6771420599788485 0 0 0 0 -23.341448185992732 -30.13006355312973 0 -30.13006355312973 109.75428826473217 0 0 0 0 -2.6947123115652021 -10.821550103663768 0 -10.821550103663768 62.488307888754377 0 0 0 0 14.861048368197199 -29.12928114737224 0 -29.12928114737224 76.895831527916016 0 0 0 0 -0.03155808385280328 -10.548355799262936 0 -10.548355799262936 72.362888382005622 0 0 0 0 -8.4312042514140551 -7.7625271724391496 0 -7.7625271724391496 106.56234368408332 0 0 0 0 1.875390837185094 1.0056389902310912 0 1.0056389902310912 58.313004731608089 0 0 0 0 3.3312221148143095 6.3994632184912916 0 6.3994632184912916 58.80496518369182 0 0 0 0 -0.64120617246794431 -14.2701668512791 0 -14.2701668512791 38.316619580291444 0 0 0 0 -58.488203960383089 2.2880831055663293 0 2.2880831055663293 166.28266161488136 0 0 0 0 84.53339376441545 66.295887211010267 0 66.295887211010267 -175.69382653488719 0 0 0 0 22.792779679520002 3.1050594251006203 0 3.1050594251006203 0.64456952908756193 0 0 0 0 -16.874408274085908 164.41907745321078 0 164.41907745321078 43.218393049028236 0 0 0 0 12.592803468504826 -75.718339104125334 0 -75.718339104125334 -1.0493595885563991 0 0 0 0 39.396548033891122 40.989763464305724 0 40.989763464305724 -205.93584780259698 0 0 0 0 26.493532567652974 -0.8740384435767794 0 -0.8740384435767794 -1.0819696186827699 0 0 0 0 105.81222706516166 -38.718679642857751 0 -38.718679642857751 -188.38629494608176 0 0 0 0 21.40540256996437 -1.5989364890462241 0 -1.5989364890462241 -1.1060911411374832 0 0 0 0 57.696445059449616 84.25074954287993 0 84.25074954287993 -185.42079907741208 0 0 0 0 146.89473173707393 -51.096907063918479 0 -51.096907063918479 -296.41044956367477 0 0 0 0 11.476869044849854 -3.2120715935288615 0 -3.2120715935288615 -2.709716622284617 0 0 0 0 -183.71083665089009 99.683031131458847 0 99.683031131458847 288.06898139180703 0 0 0 0 28.608951732164684 100.68030045001069 0 100.68030045001069 -83.850500467560778 0 0 0 0 281.26469036631443 -19.734052347906982 0 -19.734052347906982 133.80101235298935 0 0 0 0 4.959910392871322 -0.53951590648478032 0 -0.53951590648478032 0.11104233724908141 0 0 0 0 14.265513534963851 1.2727361749538488 0 1.2727361749538488 0.54092043266147982 0 0 0 0 -84.582489503655324 105.15052389670745 0 105.15052389670745 186.44692047749413 0 0 0 0 19.066108782950323 28.636147102086397 0 28.636147102086397 269.52049055059615 0 0 0 0 -20.739005926388927 162.95579137311142 0 162.95579137311142 563.35042479315598 0 0 0 0 -124.83350564044122 100.97030458295194 0 100.97030458295194 609.2021996787953 0 0 0 0 303.32722317764637 197.6391191957955 0 197.6391191957955 516.02058036415838 0 0 0 0 -30.60217389461377 -98.546505234247888 0 -98.546505234247888 308.77295222298562 0 0 0 0 110.24963848525113 123.81843888302683 0 123.81843888302683 570.17127057850303 0 0 0 0 160.97850165523869 237.85171694204837 0 237.85171694204837 813.04956264371867 0 0 0 0 733.95012071570227 516.48276799666746 0 516.48276799666746 911.76483473918051 0 0 0 0 21.501497602811014 325.84758719866477 0 325.84758719866477 891.65495905492571 0 0 0 0 -225.21200393896834 246.44550917158631 0 246.44550917158631 1098.597205687649 0 0 0 0 -228.53409113292571 209.14518413766655 0 209.14518413766655 963.14280367997708 0 0 0 0 -51.351285992708654 337.30969873610593 0 337.30969873610593 978.54246383120699 0 0 0 0 -250.11257975375929 206.63694638265497 0 206.63694638265497 1092.1554161321837 0 0 0 0 -190.37116102898835 217.49502027858398 0 217.49502027858398 981.30180057644611 0 0 0 0 -252.6813354551723 185.98100871016504 0 185.98100871016504 941.60852967778919 0 0 0 0 -194.58726455898795 80.907353697730287 0 80.907353697730287 772.95707689179108 0 0 0 0 -169.587818906949 156.30773641893393 0 156.30773641893393 948.19654824241297 0 0 0 0 -236.61170834072618 31.793406361895904 0 31.793406361895904 1097.0083570066199 0 0 0 0 -187.90694521519072 -170.19743823201134 0 -170.19743823201134 651.05114786124614 0 0 0 0 353.31905473415372 -111.60248120893812 0 -111.60248120893812 183.90756592205435 0 0 0 0 -220.24566811044133 -66.218221922810699 0 -66.218221922810699 934.41888297107653 0 0 0 0 -168.14807209387527 -68.100000301051296 0 -68.100000301051296 1221.9122797879972 0 0 0 0 -130.17815837348462 74.554852084474987 0 74.554852084474987 950.60647001726829 0 0 0 0 -133.7809001963833 422.5483432210458 0 422.5483432210458 1592.7098895260933 0 0 0 0 477.84677774009833 568.10104083808255 0 568.10104083808255 870.68656700005522 0 0 0 0 12.643460145262956 -24.947599900939643 0 -24.947599900939643 42.533953131918452 0 0 0 0 87.984560462557056 99.110500500479247 0 99.110500500479247 482.45603474784002 0 0 0 0 -534.61977676689639 -430.5201100248596 0 -430.5201100248596 -42.315615006315056 0 0 0 0 -594.08231793774576 -29.688261179886013 0 -29.688261179886013 45.411349149551825 0 0 0 0 118.44371094100097 153.16463330437546 0 153.16463330437546 429.02189896989148 0 0 0 0 -166.16079783910391 125.84492382987082 0 125.84492382987082 590.13446566127823 0 0 0 0 -247.90159401266828 203.16557571669546 0 203.16557571669546 966.09511684828249 0 0 0 0 6.0108275932917667 -6.557774603078002 0 -6.557774603078002 -5.3277667972880636 0 0 0 0 -276.1600639133103 102.8401752677164 0 102.8401752677164 598.74383511380074 0 0 0 0 -140.80783177966714 81.975399829927483 0 81.975399829927483 117.32473517210747 0 0 0 0 -240.27353732937445 -380.70504059381346 0 -380.70504059381346 77.350861133245417 0 0 0 0 -6.9168696278672392 1.0797320938852408 0 1.0797320938852408 12.179323165278731 0 0 0 0 -215.1055307793722 -130.03087947310269 0 -130.03087947310269 -78.817625524592586 0 0 0 0 -251.47454667033526 -275.14272761094617 0 -275.14272761094617 -156.88125923734333 0 0 0 0 -240.59015955213681 7.9123923168381225 0 7.9123923168381225 132.83305264312366 0 0 0 0 -429.40623101455458 -207.40913107684173 0 -207.40913107684173 137.82669438597804 0 0 0 0 -16.801181287710278 6.5333862210682128 0 6.5333862210682128 1775.4464314556171 0 0 0 0 706.84874648044752 -518.89105519458099 0 -518.89105519458099 648.73532537196297 0 0 0 0 0.28758543326731711 2.279847085722011 0 2.279847085722011 11.126740347059865 0 0 0 0 -11.686936870226646 68.73815790481467 0 68.73815790481467 750.35250229560188 0 0 0 0 -140.27196919391099 123.134092951208 0 123.134092951208 733.26201976705488 0 0 0 0 -166.94955941790977 99.594486595160561 0 99.594486595160561 1052.1816581358325 0 0 0 0 -182.53033105892155 185.64032413080713 0 185.64032413080713 700.0159404646256 0 0 0 0 -215.08082251256019 -6.1294989951566095 0 -6.1294989951566095 650.42068665702573 0 0 0 0 226.69393391465383 -304.51801448247716 0 -304.51801448247716 264.54776848746405 0 0 0 0 -102.9045609543391 35.752639960468514 0 35.752639960468514 -86.065556890374864 0 0 0 0 286.83999245941686 -31.159668935906666 0 -31.159668935906666 85.03241534368135 0 0 0 0 -1419.7095090635589 426.84615304836552 0 426.84615304836552 185.21271557940054 0 0 0 0 331.9581258421631 -152.90489959890692 0 -152.90489959890692 -69.023758309260302 0 0 0 0 -1.9736545125824048 0.76248418454104439 0 0.76248418454104439 29.261909008372243 0 0 0 0 152.40969027367601 -42.879974113204298 0 -42.879974113204298 147.7324184353929 0 0 0 0 28.616816753781677 -370.38874532745831 0 -370.38874532745831 -161.78664727524119 0 0 0 0 0.92028433397874565 -0.72986730055259841 0 -0.72986730055259841 0.19202705535718678 0 0 0 0 -0.31149998137743751 116.43976702891086 0 116.43976702891086 419.1345006741758 0 0 0 0 66.693311557647576 63.764920148856618 0 63.764920148856618 -274.44983309778036 0 0 0 0 10.553623502416404 -30.09253429622148 0 -30.09253429622148 78.463654642546089 0 0 0 0 -242.57356400097194 -217.88530316283595 0 -217.88530316283595 346.67992203569156 0 0 0 0 -220.89185891306238 -35.520805384850973 0 -35.520805384850973 179.38356732646935 0 0 0 0 109.71308730436067 -88.962513976410264 0 -88.962513976410264 53.074474429828115 0 0 0 0 26.808979156212445 57.3876341128489 0 57.3876341128489 -84.159891532461188 0 0 0 0 162.04417532518892 -54.381690302703646 0 -54.381690302703646 37.317937272859126 0 0 0 0 -11.285457232655972 -234.13862870267621 0 -234.13862870267621 270.20034615273471 0 0 0 0 240.35892244317893 -78.514038303455891 0 -78.514038303455891 -2.0157683366851415 0 0 0 0 -1319.6562234011963 194.11912930455583 0 194.11912930455583 23.613078591704834 0 0 0 0 -2.3723882572919406 -0.63536148131912284 0 -0.63536148131912284 38.342679839143557 0 0 0 0 -1359.0454846765936 76.129486440680921 0 76.129486440680921 198.97248756236513 0 0 0 0 155.16230432847487 -55.001566514511069 0 -55.001566514511069 149.72837787447497 0 0 0 0 -1045.8433604323136 -82.652064878959209 0 -82.652064878959209 181.71368478547083 0 0 0 0 -1013.40397724999 167.99877782586555 0 167.99877782586555 14.831064500474895 0 0 0 0 -994.20253194238103 -101.6389353434497 0 -101.6389353434497 -51.757574496026791 0 0 0 0 -73.161951015242266 -93.735980490295333 0 -93.735980490295333 150.92437826406967 0 0 0 0 169.25943781274782 223.17241174873197 0 223.17241174873197 275.14102969162923 0 0 0 0 -55.023981944203115 -93.303025632434583 0 -93.303025632434583 155.94182320774416 0 0 0 0 -153.54285677087682 -29.916310820502986 0 -29.916310820502986 172.85260236763861 0 0 0 0 -69.012534393026726 -35.380614357840386 0 -35.380614357840386 -29.476513768400764 0 0 0 0 -425.48314236091755 -204.54246255836915 0 -204.54246255836915 136.23289257515717 0 0 0 0 12.917014148722728 -30.510897303984923 0 -30.510897303984923 62.436269376340107 0 0 0 0 -197.25041261724255 101.4303115399598 0 101.4303115399598 75.252581480071967 0 0 0 0 -411.12877176317306 -155.2558220006722 0 -155.2558220006722 208.20688352338038 0 0 0 0 47.419468875685311 291.3395670629111 0 291.3395670629111 334.30927504904685 0 0 0 0 -183.49656778099506 13.227972021935784 0 13.227972021935784 338.44404034496984 0 0 0 0 -8.5146166793725619 0.475845363881362 0 0.475845363881362 3.7059832752972994 0 0 0 0 -444.97488424694529 -595.99362557572385 0 -595.99362557572385 -365.44185854069292 0 0 0 0 174.17468503886994 73.218916605044797 0 73.218916605044797 397.37572709279993 0 0 0 0 49.742864745739553 374.28716229485872 0 374.28716229485872 494.8649014331022 0 0 0 0 -0.45325636196675134 0.42553654575162625 0 0.42553654575162625 -0.94688617100194961 0 0 0 0 -507.35991765755205 -214.48611858600816 0 -214.48611858600816 107.55833964134217 0 0 0 0 -273.73698582822908 -311.43730026584672 0 -311.43730026584672 -420.82968985396292 0 0 0 0 -284.56119372301055 -491.30771955241653 0 -491.30771955241653 151.62872409163958 0 0 0 0 157.81062091379786 -507.28189030950853 0 -507.28189030950853 166.35532679983589 0 0 0 0 -153.6755625937717 -322.64176627367124 0 -322.64176627367124 61.932509077334544 0 0 0 0 161.94014124188118 -485.03117504945521 0 -485.03117504945521 -192.93745616983506 0 0 0 0 -215.29770640782135 -411.93857901520823 0 -411.93857901520823 -59.981162422591296 0 0 0 0 -575.64871226611649 -958.36459840430325 0 -958.36459840430325 -558.01439026509161 0 0 0 0 -60.140959697720064 -427.10864120902988 0 -427.10864120902988 204.12249441451422 0 0 0 0 81.085383082353133 -352.09622651499376 0 -352.09622651499376 102.52192100786488 0 0 0 0 106.32422399358597 -340.70284559016727 0 -340.70284559016727 -44.478836836533446 0 0 0 0 118.36088618668543 -257.47950204289009 0 -257.47950204289009 77.458549276794656 0 0 0 0 42.550369916194086 -242.56992930291381 0 -242.56992930291381 387.40576367641916 0 0 0 0 67.581193546890972 -182.87613589581451 0 -182.87613589581451 337.96937618908851 0 0 0 0 72.263268861708639 -208.10444565039506 0 -208.10444565039506 333.50422029639594 0 0 0 0 -1.8499978207457843 -255.21109415325191 0 -255.21109415325191 591.24718239164213 0 0 0 0 138.73189138760063 -82.79508757549047 0 -82.79508757549047 -7.4131105088890763 0 0 0 0 130.86539603974234 -112.22727824763206 0 -112.22727824763206 380.84357040892064 0 0 0 0 59.510639150699717 -376.18548105967056 0 -376.18548105967056 288.54206137126312 0 0 0 0 -10.855570759222246 -143.40937700793438 0 -143.40937700793438 -450.78711605495482 0 0 0 0 -148.45851850822692 -116.58096835818651 0 -116.58096835818651 325.72155731388193 0 0 0 0 -4.6388677990809128 222.80403135035931 0 222.80403135035931 279.07006566401105 0 0 0 0 -110.35397846341584 -85.057328128583322 0 -85.057328128583322 -2.4718584587462828 0 0 0 0 141.36029348314696 456.35267819439468 0 456.35267819439468 781.20972811106913 0 0 0 0 -120.13071052621513 -171.0052743739534 0 -171.0052743739534 562.24319322829251 0 0 0 0 10.031480349884077 -10.103876297594979 0 -10.103876297594979 -13.775541183091264 0 0 0 0 4.4186338734464599 -11.645461164758984 0 -11.645461164758984 12.138866356546593 0 0 0 0 6.8312149987501503 -13.379009458384971 0 -13.379009458384971 8.0271874303476238 0 0 0 0 13.712726479014691 -13.754313634784921 0 -13.754313634784921 19.733620959115797 0 0 0 0 2.9142400181244739 -11.699035496691067 0 -11.699035496691067 0.47292792280495632 0 0 0 0 13.06625879639023 -15.649415191361186 0 -15.649415191361186 19.480342413415201 0 0 0 0 10.221087595775771 -13.630519409869521 0 -13.630519409869521 11.281898569763143 0 0 0 0 0.35042982881586404 -4.6906261784399845 0 -4.6906261784399845 7.4651414220946322 0 0 0 0 11.515817815052287 -14.513149725018593 0 -14.513149725018593 19.479886895282107 0 0 0 0 4.0620574410952912 -7.1337537907261606 0 -7.1337537907261606 11.206264626873534 0 0 0 0 2.9165109599923431 -11.593048818846576 0 -11.593048818846576 4.8458329286208652 0 0 0 0 -4.9966873349767411 -9.5748360054130899 0 -9.5748360054130899 6.5388444226700813 0 0 0 0 111.89822087342418 104.13276116308407 0 104.13276116308407 43.095205596939195 0 0 0 0 -91.984211418453924 -13.587800288609287 0 -13.587800288609287 -1.8867440006142715 0 0 0 0 -7.2100402985333858 13.279912863741629 0 13.279912863741629 -19.660665104951477 0 0 0 0 20.184946590511572 28.372283707438328 0 28.372283707438328 5.1871936305233248 0 0 0 0 -2.6396000523286851 -4.0198887475119562 0 -4.0198887475119562 3.242670358979467 0 0 0 0 5.3893568249502515 -17.682424373632372 0 -17.682424373632372 0.96524079997809054 0 0 0 0 1.3576859744316607 -13.538443589219241 0 -13.538443589219241 4.8779140121187083 0 0 0 0 5.108242685383761 -15.79790822222116 0 -15.79790822222116 12.209529448471358 0 0 0 0 -33.368614146827895 -9.9327962583920453 0 -9.9327962583920453 2.3889246623730287 0 0 0 0 -0.1588431932486003 -0.65433769875753001 0 -0.65433769875753001 -0.30503088896639241 0 0 0 0 -1.9388880411661376 75.129484761673666 0 75.129484761673666 146.71213570252075 0 0 0 0 -41.390197788286969 -133.27276789259486 0 -133.27276789259486 -287.4680633990356 0 0 0 0 121.40688466691881 -428.3293292475355 0 -428.3293292475355 -255.09997359906265 0 0 0 0 -70.895254688751265 -121.67975383938756 0 -121.67975383938756 -40.938713201722749 0 0 0 0 368.53877520566311 -86.466556744999252 0 -86.466556744999252 -38.15773950728726 0 0 0 0 550.74689603567822 88.239714910392649 0 88.239714910392649 43.668831820934429 0 0 0 0 776.1886145351873 -230.49858385209154 0 -230.49858385209154 -13.489903522538953 0 0 0 0 4.6280694230281263 -0.9775836864682077 0 -0.9775836864682077 -1.0665679402528951 0 0 0 0 648.17571808685409 -526.52555731540269 0 -526.52555731540269 193.71979784934956 0 0 0 0 452.45470872357464 -376.15843828599463 0 -376.15843828599463 -114.87828297317901 0 0 0 0 299.36674938509304 -148.2782321410341 0 -148.2782321410341 -25.566382422868628 0 0 0 0 406.2332857262727 -329.13898243926087 0 -329.13898243926087 34.028168027980428 0 0 0 0 177.0731397469695 -412.29235984500247 0 -412.29235984500247 268.67195184084994 0 0 0 0 412.38444462495499 -527.7379000705987 0 -527.7379000705987 -28.227957831717504 0 0 0 0 256.62316958093106 -457.34260050197918 0 -457.34260050197918 -178.67935090237006 0 0 0 0 218.43170784580798 -313.83156619383226 0 -313.83156619383226 -131.3404838725146 0 0 0 0 167.79240375973421 -436.26909063545827 0 -436.26909063545827 -57.759074096844415 0 0 0 0 135.56832840998732 -332.56374970702018 0 -332.56374970702018 -227.75987003926275 0 0 0 0 109.84449867980311 -292.53800593029155 0 -292.53800593029155 86.299390501153539 0 0 0 0 98.021742379819216 -219.56202783073968 0 -219.56202783073968 39.41257603910708 0 0 0 0 96.860626652749488 -149.6656295199864 0 -149.6656295199864 338.14101914300409 0 0 0 0 -125.18671937641102 -263.31459318127236 0 -263.31459318127236 48.157832420489285 0 0 0 0 -28.604332203583908 -113.23887544633908 0 -113.23887544633908 26.911832067702562 0 0 0 0 56.847567235113274 -140.19260182622747 0 -140.19260182622747 -330.53572174074361 0 0 0 0 -91.005961445633147 -134.62028373010435 0 -134.62028373010435 -232.35756543611933 0 0 0 0 2.2781422459200957 -3.7488136256650151 0 -3.7488136256650151 -12.285778954991315 0 0 0 0 -107.20192016008605 -257.39364387939713 0 -257.39364387939713 -185.99955192426569 0 0 0 0 -81.177881150000758 -188.17853263956204 0 -188.17853263956204 -302.65884683572403 0 0 0 0 -78.545492852543362 -161.71627409834446 0 -161.71627409834446 -177.76228665845701 0 0 0 0 -165.12805924164604 -249.78520524345367 0 -249.78520524345367 4.7252192558953539 0 0 0 0 -340.57555223326926 -46.071088301825512 0 -46.071088301825512 -11.014453375915764 0 0 0 0 -327.10244220236018 -117.32069881862844 0 -117.32069881862844 86.441864575303043 0 0 0 0 -197.07235201569256 -148.35460845252783 0 -148.35460845252783 -170.46189350145869 0 0 0 0 -57.698572822175265 -3.1954197231752914 0 -3.1954197231752914 254.94228974447469 0 0 0 0 49.27958425729048 100.34504018447478 0 100.34504018447478 -256.44538006615767 0 0 0 0 155.73714740700234 35.579049138497794 0 35.579049138497794 -215.32935694218759 0 0 0 0 0.5639388445585114 -2.0254165810170193 0 -2.0254165810170193 -4.3841726527631408 0 0 0 0 138.08671087042967 -79.084663872898091 0 -79.084663872898091 -154.02301188392448 0 0 0 0 74.465526503394813 -44.543248279798718 0 -44.543248279798718 -16.143989783420693 0 0 0 0 -25.698732735175781 27.42383877991233 0 27.42383877991233 0.099266473756870255 0 0 0 0 -1.5881195764696905 -2.3972316252727097 0 -2.3972316252727097 1.0907603297383162 0 0 0 0 24.238522201655996 -59.833587071648253 0 -59.833587071648253 0.063793035937123932 0 0 0 0 797.7795414958091 118.4653600654201 0 118.4653600654201 65.417171369997959 0 0 0 0 -1.2915961768699873 0.016986875310749383 0 0.016986875310749383 0.8734618545811017 0 0 0 0 -461.75111714531158 -177.15952231200572 0 -177.15952231200572 1018.2921792224442 0 0 0 0 2.6089108797295921 -107.03153533226214 0 -107.03153533226214 384.76459685669397 0 0 0 0 70.796663580875702 -149.23975785664061 0 -149.23975785664061 106.69582205399638 0 0 0 0 -587.6783819845873 -252.32061074719422 0 -252.32061074719422 265.60735140394536 0 0 0 0 -283.32337041884603 -360.54657897869765 0 -360.54657897869765 217.50520749513817 0 0 0 0 -160.06380839784833 -217.35452403374074 0 -217.35452403374074 119.54960605636006 0 0 0 0 -179.45632673567343 -107.57582002643176 0 -107.57582002643176 249.03122063483897 0 0 0 0 -166.84785107001244 -152.8392710722328 0 -152.8392710722328 366.62363835262659 0 0 0 0 8.7075816738033609 -80.55254142274498 0 -80.55254142274498 345.48935331955727 0 0 0 0 -72.724438347848263 -149.41284554859885 0 -149.41284554859885 267.13120204228289 0 0 0 0 23.101886268195813 -174.67433957322646 0 -174.67433957322646 594.83908271125983 0 0 0 0 -158.04941806807255 -103.74413749603264 0 -103.74413749603264 567.6913431763096 0 0 0 0 25.762772977276654 87.495531493463204 0 87.495531493463204 678.67884880800557 0 0 0 0 153.74642164969828 10.946320765135169 0 10.946320765135169 509.65648610381686 0 0 0 0 -62.834412089052421 -40.631027847193764 0 -40.631027847193764 537.88358515916116 0 0 0 0 -11.348948441722769 -179.07926679553566 0 -179.07926679553566 186.83079592659487 0 0 0 0 -171.65531063835363 -136.9153638562193 0 -136.9153638562193 221.80995889753103 0 0 0 0 -46.450375893302407 -151.1817315159351 0 -151.1817315159351 206.79238636356604 0 0 0 0 -72.376685591428554 -78.975180401095713 0 -78.975180401095713 403.41023489531653 0 0 0 0 51.581703435927011 -46.838848108127422 0 -46.838848108127422 369.83517818932887 0 0 0 0 142.39178324074123 -85.300259737414308 0 -85.300259737414308 384.72659994157948 0 0 0 0 8.9384596771493534 -78.717071103202215 0 -78.717071103202215 413.36570690396184 0 0 0 0 30.267383227433811 -50.347799946308442 0 -50.347799946308442 614.04627970331057 0 0 0 0 107.00554288985199 238.37312574358657 0 238.37312574358657 537.28746023884014 0 0 0 0 3.7330050754619108 -9.8055765299836537 0 -9.8055765299836537 9.8681035401987174 0 0 0 0 6.4868090597663493 6.2932677290344827 0 6.2932677290344827 4.6596925988068847 0 0 0 0 46.650011249074851 -65.33944270171196 0 -65.33944270171196 -36.702671789938904 0 0 0 0 58.479168551237308 74.062787328512059 0 74.062787328512059 31.714182974148571 0 0 0 0 8.1176725827758673 13.570435600429846 0 13.570435600429846 38.468963696628634 0 0 0 0 -6.8897328113721166 3.2095696110620793 0 3.2095696110620793 1.3051013782154115 0 0 0 0 -0.34800624844228878 -8.1360822894757803 0 -8.1360822894757803 38.871031817383482 0 0 0 0 -738.11065498261996 -360.10038036631158 0 -360.10038036631158 601.68800501115766 0 0 0 0 -2.7711554796815108 3.4917965528984496 0 3.4917965528984496 23.337351049456629 0 0 0 0 -9.9384619447537261 1.9418462067405926 0 1.9418462067405926 44.874664468781702 0 0 0 0 -1.8464282978720554 -10.023490107825879 0 -10.023490107825879 9.4492143315332697 0 0 0 0 28.948618213232294 -33.954713886523678 0 -33.954713886523678 -19.516672221885528 0 0 0 0 -5.791386296278688 -2.4755774261993793 0 -2.4755774261993793 43.399173898695153 0 0 0 0 -14.029758370568743 5.2971121351147303 0 5.2971121351147303 41.16541986381344 0 0 0 0 26.041834885712888 -3.2868682366752182 0 -3.2868682366752182 38.134864281484624 0 0 0 0 20.929746627632305 4.5700171721164224 0 4.5700171721164224 1.9978196396005927 0 0 0 0 532.86097327028801 469.69212950169458 0 469.69212950169458 251.89542506216094 0 0 0 0 -296.43971369075553 56.360396850803227 0 56.360396850803227 2274.5151527787602 0 0 0 0 -341.78805047186506 -171.05145196663216 0 -171.05145196663216 1169.2359073922671 0 0 0 0 -515.81001770907096 -104.22566605536849 0 -104.22566605536849 1206.718573974249 0 0 0 0 -31.615606403596757 -950.74065217656607 0 -950.74065217656607 1477.6494333196097 0 0 0 0 768.34663245048796 958.86419733669754 0 958.86419733669754 957.1263095494287 0 0 0 0 -116.00803942880191 371.81116500254166 0 371.81116500254166 2414.6046387761453 0 0 0 0 534.7505235518413 1161.4795354652911 0 1161.4795354652911 1901.591274164879 0 0 0 0 -130.41093942349653 -897.12954712986539 0 -897.12954712986539 -47.244931871071458 0 0 0 0 7.2132279900570531 -9.3385610198385081 0 -9.3385610198385081 13.399738254458498 0 0 0 0 61.923175639074543 -378.62104730489955 0 -378.62104730489955 284.66284929464746 0 0 0 0 -128.42065742608969 -951.42473703835935 0 -951.42473703835935 1251.3191075059294 0 0 0 0 65.906146625769679 -416.08155538870051 0 -416.08155538870051 613.45665906887734 0 0 0 0 -69.857963291904525 -152.81791767651885 0 -152.81791767651885 625.83734829898094 0 0 0 0 -115.48691762831913 -212.886686592763 0 -212.886686592763 1049.8067984751397 0 0 0 0 -342.42619639579061 -114.94351388434006 0 -114.94351388434006 1019.4978505304462 0 0 0 0 197.54112760840579 128.04806356114568 0 128.04806356114568 692.03060259055928 0 0 0 0 76.658407864062724 -178.0832854462351 0 -178.0832854462351 384.69982679971145 0 0 0 0 120.46663143248156 -68.896660132268153 0 -68.896660132268153 472.11148335268081 0 0 0 0 -11.714012416947298 13.612541462600348 0 13.612541462600348 821.65749473098549 0 0 0 0 -36.141156375043863 -75.461005460958404 0 -75.461005460958404 798.38982717103499 0 0 0 0 -128.94743543400182 -38.255599429554422 0 -38.255599429554422 1244.5536180053896 0 0 0 0 2.8355993340432204 4.6447406011089925 0 4.6447406011089925 2.7157011480938564 0 0 0 0 -33.764836092604128 139.78440086424234 0 139.78440086424234 1127.4466286030802 0 0 0 0 -126.41557035939877 13.377644347521709 0 13.377644347521709 1095.6193225814786 0 0 0 0 -562.14477189475292 63.846624889352825 0 63.846624889352825 1112.8093013626931 0 0 0 0 -147.03601618146081 -30.112393221093953 0 -30.112393221093953 1037.7698104500014 0 0 0 0 34.544978823185374 -83.337361313650035 0 -83.337361313650035 1021.3993777627256 0 0 0 0 74.88174721450855 313.82545232835491 0 313.82545232835491 1022.2147591749672 0 0 0 0 3.1931406802207789 4.0619055003211315 0 4.0619055003211315 -1.1010198503727082 0 0 0 0 14.695264847279617 -39.571922211034689 0 -39.571922211034689 -4.8737487035541562 0 0 0 0 27.57604325950183 31.852054757071073 0 31.852054757071073 -0.67466971551039023 0 0 0 0 19.872449668299623 -9.3422229854986654 0 -9.3422229854986654 15.312068877981801 0 0 0 0 8.0487966822833137 0.99512468415406374 0 0.99512468415406374 1.5633616547513469 0 0 0 0 20.996409157530685 -2.1712045667953532 0 -2.1712045667953532 2.4159819140702652 0 0 0 0 138.32369599131198 80.062495018835762 0 80.062495018835762 9.742097867621851 0 0 0 0 -14.442782667196752 -54.677949293440179 0 -54.677949293440179 138.03885943874775 0 0 0 0 128.37349910600824 -75.413796276443463 0 -75.413796276443463 -83.105933926977741 0 0 0 0 -307.69393557048897 166.85573198787461 0 166.85573198787461 295.80161652072275 0 0 0 0 2.2992695247624937 -0.99746718447070748 0 -0.99746718447070748 0.64019951165026612 0 0 0 0 133.44004493984721 -103.10657792661732 0 -103.10657792661732 27.662848983556614 0 0 0 0 18.619345924007575 -210.02224571223996 0 -210.02224571223996 10.729296938647167 0 0 0 0 26.291997795843368 -0.87166633122498638 0 -0.87166633122498638 -1.1924247459543125 0 0 0 0 622.23968860891182 -126.10588499857113 0 -126.10588499857113 9.4037527579494053 0 0 0 0 -22.351863072846299 15.468664266867563 0 15.468664266867563 82.154515855465434 0 0 0 0 50.161024743078997 45.330538066555164 0 45.330538066555164 -86.371725538054307 0 0 0 0 16.595762616456341 100.05813039559871 0 100.05813039559871 8.7384193516772939 0 0 0 0 51.406827246153625 -101.24760777041229 0 -101.24760777041229 -37.238160176435485 0 0 0 0 -151.06638138349581 -56.610200688744953 0 -56.610200688744953 86.108311328789569 0 0 0 0 54.121650742620659 -64.237889211166475 0 -64.237889211166475 75.001239228800841 0 0 0 0 -16.506915889507127 -126.03453430232912 0 -126.03453430232912 249.33309962980275 0 0 0 0 38.037498685111132 -97.335156648552584 0 -97.335156648552584 253.83185438881628 0 0 0 0 16.732391070840549 -113.45582352903511 0 -113.45582352903511 309.42326258968387 0 0 0 0 -16.272606524676121 -127.59491603532297 0 -127.59491603532297 505.47038811344828 0 0 0 0 51.131659818471832 -137.25519195339109 0 -137.25519195339109 70.686993322276976 0 0 0 0 36.966924198371089 -22.744295152144332 0 -22.744295152144332 240.89851246809849 0 0 0 0 51.404487262853763 -48.918739770459069 0 -48.918739770459069 132.41423285552446 0 0 0 0 8.9057455879487861 65.713935152078193 0 65.713935152078193 29.988010518296505 0 0 0 0 -96.364390876623474 5.5845727818050364 0 5.5845727818050364 223.97997745106113 0 0 0 0 -68.0481696544648 -13.141020538001612 0 -13.141020538001612 498.80007037238101 0 0 0 0 -15.524666651114785 -14.590835188617348 0 -14.590835188617348 228.54976811174129 0 0 0 0 -52.803792237483322 3.7202043000797858 0 3.7202043000797858 395.84878393173858 0 0 0 0 -24.648134637373005 21.159889599723101 0 21.159889599723101 533.99555156880524 0 0 0 0 24.492239697099649 -74.701759572904848 0 -74.701759572904848 455.22851267837541 0 0 0 0 -87.559726362958372 44.361711712535907 0 44.361711712535907 518.16584391047945 0 0 0 0 -117.58336163740569 39.935424209190387 0 39.935424209190387 714.41202191978664 0 0 0 0 32.646410043184915 154.21185132219398 0 154.21185132219398 560.65713932857034 0 0 0 0 -0.9001434271826767 -0.9754324612131029 0 -0.9754324612131029 1.4264919746963187 0 0 0 0 -22.561221936763104 347.52148023348127 0 347.52148023348127 1182.6799104011334 0 0 0 0 -392.32408600275835 -406.41495508952005 0 -406.41495508952005 -53.900005073519424 0 0 0 0 -381.99909181730709 -183.52856092408183 0 -183.52856092408183 783.89312475554107 0 0 0 0 28.950145097919176 -147.93347721543432 0 -147.93347721543432 489.05288212827872 0 0 0 0 -23.830461895169719 -236.92186835574103 0 -236.92186835574103 694.37131666663117 0 0 0 0 -84.407549950628891 -135.22339840152563 0 -135.22339840152563 758.24957210856519 0 0 0 0 -83.99284311729734 -114.94488287710431 0 -114.94488287710431 516.45096591117908 0 0 0 0 -33.166297082799929 29.44123229185243 0 29.44123229185243 29.387057703592291 0 0 0 0 -26.253463834666036 33.933402380702319 0 33.933402380702319 109.99189493730955 0 0 0 0 10.461733019986022 -7.6553601081906493 0 -7.6553601081906493 6.3464543132765669 0 0 0 0 -26.21921955564585 -1.338648046606977 0 -1.338648046606977 130.25409225476324 0 0 0 0 -7.0535577650965084 -7.96302886662221 0 -7.96302886662221 9.1745414256671154 0 0 0 0 -13.070672812097655 -17.09416631510976 0 -17.09416631510976 20.694706405127363 0 0 0 0 -5.639211838986057 -36.002593006886855 0 -36.002593006886855 21.360726622035145 0 0 0 0 -35.987118496086168 30.226229295270969 0 30.226229295270969 58.371808177776984 0 0 0 0 89.030197425485312 12.586645432114892 0 12.586645432114892 53.41811916926963 0 0 0 0 -4.1314682405022722 77.590727701608557 0 77.590727701608557 140.23670225094247 0 0 0 0 113.45173862446791 127.20565800918121 0 127.20565800918121 95.554795032541733 0 0 0 0 -63.523012912792183 384.45185974880587 0 384.45185974880587 706.92514767123794 0 0 0 0 9.5865396936003648 -6.4708337587182996 0 -6.4708337587182996 4.2259003078914361 0 0 0 0 -32.490891497460325 37.934424532399134 0 37.934424532399134 566.38255374254368 0 0 0 0 -29.452512175143511 -29.902455763884063 0 -29.902455763884063 117.02921375192818 0 0 0 0 5.721971355969206 -4.0517975643480213 0 -4.0517975643480213 2.8764249819717662 0 0 0 0 -5.791358449811014 84.140737422225357 0 84.140737422225357 196.32138862409556 0 0 0 0 -3.2042299043469029 -71.564879015484621 0 -71.564879015484621 79.720332199984114 0 0 0 0 -12.103182928118258 76.242285555279523 0 76.242285555279523 159.85685579922938 0 0 0 0 -57.138357428400923 113.89298674598467 0 113.89298674598467 437.78301070764428 0 0 0 0 -31.751300018925576 -13.972401777864434 0 -13.972401777864434 554.90861576107272 0 0 0 0 -94.07497066659198 48.213153547327238 0 48.213153547327238 601.41334322694456 0 0 0 0 -16.130261480813715 -85.229425656347303 0 -85.229425656347303 585.3703843905414 0 0 0 0 -3.7818471172704449 -166.8342231622737 0 -166.8342231622737 838.37426213148865 0 0 0 0 -26.968353248900257 25.177626999377026 0 25.177626999377026 741.98445234032988 0 0 0 0 19.217542561060483 14.650531804676604 0 14.650531804676604 11.095471863933312 0 0 0 0 53.328607949870275 38.925543592162285 0 38.925543592162285 561.61182852953607 0 0 0 0 108.39996892273484 -208.89512193628616 0 -208.89512193628616 1089.9652135507386 0 0 0 0 -91.538139562424476 -99.084113708991936 0 -99.084113708991936 2215.9915286079631 0 0 0 0 6.9150194553526845 4.7667560239875115 0 4.7667560239875115 4.1281786892740797 0 0 0 0 18.196283785257037 753.1027716633107 0 753.1027716633107 -73.865782838544419 0 0 0 0 -8.9572724316294625 54.812330812354048 0 54.812330812354048 -58.98739901892759 0 0 0 0 -111.79121331909755 621.71502171616157 0 621.71502171616157 1583.0549524667149 0 0 0 0 93.45156219035016 61.563645892478235 0 61.563645892478235 88.439026064617792 0 0 0 0 199.95619020046797 -198.55775760262804 0 -198.55775760262804 494.7940698958846 0 0 0 0 -377.47272847256136 -125.08922823124158 0 -125.08922823124158 1562.3794544115954 0 0 0 0 863.0142723659028 530.0312088020728 0 530.0312088020728 276.18284439176205 0 0 0 0 -93.989408849640313 -72.889378538096935 0 -72.889378538096935 185.63727985070727 0 0 0 0 -48.191784971284505 -53.098772058197937 0 -53.098772058197937 133.14001667244338 0 0 0 0 -48.902719061764401 -83.445151465679373 0 -83.445151465679373 263.7611551843147 0 0 0 0 -82.16847830469942 30.498720609135489 0 30.498720609135489 143.95879758840601 0 0 0 0 -75.601919495743459 -10.563544511660439 0 -10.563544511660439 320.98346030604444 0 0 0 0 82.305856061701888 216.64631728018503 0 216.64631728018503 215.3684685848857 0 0 0 0 -167.89085380098368 -7.0486020703610848 0 -7.0486020703610848 132.01221830223221 0 0 0 0 -107.89611776950824 26.843920472691025 0 26.843920472691025 93.395678593733464 0 0 0 0 -133.12472122193503 -25.660802773607429 0 -25.660802773607429 132.50071269221371 0 0 0 0 -33.421892986718376 3.8147856663563289 0 3.8147856663563289 75.362676465279947 0 0 0 0 -67.486798864734737 2.2243462210462894 0 2.2243462210462894 101.499791801828 0 0 0 0 -53.522153430671096 19.79570258288004 0 19.79570258288004 77.345164366790414 0 0 0 0 -201.61361848089336 162.07147405702563 0 162.07147405702563 -20.29682126796979 0 0 0 0 26.886779608283128 25.467305045269427 0 25.467305045269427 22.363678914109784 0 0 0 0 14.121448386849806 32.01380579362376 0 32.01380579362376 378.72086951786332 0 0 0 0 -23.299776702252984 -2.4953848150704232 0 -2.4953848150704232 33.480026335481 0 0 0 0 39.216720584737232 -40.610574867321702 0 -40.610574867321702 22.047901334342896 0 0 0 0 -23.064076562161517 77.41120323706491 0 77.41120323706491 61.096078550326638 0 0 0 0 -40.68465284506442 23.376425569318599 0 23.376425569318599 178.53859347746766 0 0 0 0 -0.27365196991572205 1.4638898297294816 0 1.4638898297294816 -0.73165005473944689 0 0 0 0 234.19692917955126 112.95824708275177 0 112.95824708275177 847.82253496303019 0 0 0 0 -125.8323451966653 277.21745492413902 0 277.21745492413902 1366.3819077282533 0 0 0 0 21.097256311907131 -55.025330647076771 0 -55.025330647076771 20.857133552621235 0 0 0 0 -18.220099116076391 -15.55214712637374 0 -15.55214712637374 35.887308491072361 0 0 0 0 -50.764971864255131 4.7016742876512581 0 4.7016742876512581 101.63427366013912 0 0 0 0 -42.628646935014331 -86.620384062342055 0 -86.620384062342055 27.343755521957064 0 0 0 0 -63.532502082796782 -38.476672382217657 0 -38.476672382217657 54.663111787100206 0 0 0 0 -65.863162761263084 -70.41381742485828 0 -70.41381742485828 136.36664562241094 0 0 0 0 -45.499164772660151 -2.3008695145617821 0 -2.3008695145617821 150.3031898017507 0 0 0 0 156.77883654493235 -38.629134218732361 0 -38.629134218732361 1334.613624261463 0 0 0 0 -3.4403975505625048 4.4015372764823724 0 4.4015372764823724 7.3174210526615866 0 0 0 0 -9.2893118087159365 -25.617965812571526 0 -25.617965812571526 37.800615515530296 0 0 0 0 235.36814409042745 -696.58490292611532 0 -696.58490292611532 1881.2703236329471 0 0 0 0 -5.8650321410523318 -23.396875559445419 0 -23.396875559445419 20.170974678237059 0 0 0 0 -1.4954741584758366 -3.7875676130942821 0 -3.7875676130942821 1.2666985969769087 0 0 0 0 -21.548701036245347 -57.51860458473675 0 -57.51860458473675 -43.795809861316229 0 0 0 0 -14.979538935738674 -96.504657954021241 0 -96.504657954021241 42.912991651986886 0 0 0 0 -50.198832617747939 -80.22509777646701 0 -80.22509777646701 54.559560167355812 0 0 0 0 -56.383912850556044 -72.802386822979315 0 -72.802386822979315 52.077194926518132 0 0 0 0 -51.035675256491231 -104.06310081202537 0 -104.06310081202537 145.9832352974845 0 0 0 0 -3.6815841758680108 -94.7346628188061 0 -94.7346628188061 42.637979592123884 0 0 0 0 64.882834331451249 522.69049103307043 0 522.69049103307043 -253.11914754973623 0 0 0 0 -253.18801341044946 -1.1962687795421516 0 -1.1962687795421516 284.46414162487054 0 0 0 0 53.722069513559745 428.0738343420544 0 428.0738343420544 177.64068835957733 0 0 0 0 288.91910624904449 615.15922086151841 0 615.15922086151841 325.8472366404967 0 0 0 0 -32.584531126684396 -114.37934155121911 0 -114.37934155121911 1164.6240663147473 0 0 0 0 -77.440860838303024 85.502959649176773 0 85.502959649176773 274.03636727885169 0 0 0 0 -254.43971435511185 28.575447432518558 0 28.575447432518558 166.89464153124209 0 0 0 0 -221.545782042258 76.333159991616412 0 76.333159991616412 16.193859364313539 0 0 0 0 0.32965802768016061 1.9560496050553695 0 1.9560496050553695 9.953886085083127 0 0 0 0 14.460249576192837 45.030276014975243 0 45.030276014975243 438.73894826906326 0 0 0 0 1.7266022719079608 6.8719046723837209 0 6.8719046723837209 10.694213795366096 0 0 0 0 81.315507471013007 139.72254317397892 0 139.72254317397892 175.62522049095787 0 0 0 0 -59.224762490995545 -73.524705750398425 0 -73.524705750398425 576.98251201370294 0 0 0 0 13.471629349922296 305.66320158764574 0 305.66320158764574 909.02543406946643 0 0 0 0 -26.910782399148047 70.853746933869843 0 70.853746933869843 1199.940598976289 0 0 0 0 2.0615019791005587 3.1238175664092864 0 3.1238175664092864 2.2551743765176298 0 0 0 0 7.4267661792641775 139.75832468273529 0 139.75832468273529 939.46524125270662 0 0 0 0 -24.181995901249138 244.43242602488317 0 244.43242602488317 806.46902634367143 0 0 0 0 -257.32269443189125 -401.80629735747061 0 -401.80629735747061 100.26510811045409 0 0 0 0 -38.830762270989069 221.22462987284507 0 221.22462987284507 1011.2222942311346 0 0 0 0 -35.519034444317185 96.491256653447635 0 96.491256653447635 573.9085792775586 0 0 0 0 -0.73889077363479139 0.26384777313143104 0 0.26384777313143104 -0.38176690978980332 0 0 0 0 19.83804513349196 -203.04168180201668 0 -203.04168180201668 533.83723486318195 0 0 0 0 44.460959940537293 -32.815868497830252 0 -32.815868497830252 157.66674296792189 0 0 0 0 40.525183059600181 7.9559904672114499 0 7.9559904672114499 125.18358387975604 0 0 0 0 -5.7560741181873709 40.195355316242512 0 40.195355316242512 133.17022125839139 0 0 0 0 -0.55704018924541798 9.3639454136708764 0 9.3639454136708764 22.379163611442038 0 0 0 0 -4.0918274544733322 2.7477134160217247 0 2.7477134160217247 157.24271004250932 0 0 0 0 -190.78404945916145 -28.87745973804158 0 -28.87745973804158 39.514906546872226 0 0 0 0 27.792731459990136 390.99929464270826 0 390.99929464270826 291.79698681906848 0 0 0 0 -3.3948255390445201 6.0580052787509544 0 6.0580052787509544 2.2011364346552682 0 0 0 0 0.44146685573752187 4.190340687450302 0 4.190340687450302 7.5790196627488058 0 0 0 0 472.53353807990652 182.63958896259282 0 182.63958896259282 33.765170135899098 0 0 0 0 50.903407360446181 -192.68203411925788 0 -192.68203411925788 770.53916838613804 0 0 0 0 -0.18249184936570861 1.5406906698619025 0 1.5406906698619025 9.5502263460205086 0 0 0 0 55.585602819168571 397.36626027328748 0 397.36626027328748 1082.7678727338716 0 0 0 0 -80.158010952847235 468.38284953625407 0 468.38284953625407 1432.1399310112461 0 0 0 0 705.25430871002914 -577.7938916872663 0 -577.7938916872663 805.8990651409913 0 0 0 0 126.73881191122564 -384.70397983225848 0 -384.70397983225848 2123.2261950884131 0 0 0 0 177.04773172600565 310.17265635678996 0 310.17265635678996 1942.8663004988339 0 0 0 0 -394.92345883410803 -717.01098715772241 0 -717.01098715772241 241.24263137848175 0 0 0 0 -50.456250911363441 635.76767789336009 0 635.76767789336009 2202.8827946311812 0 0 0 0 0.9006143486437157 -1.2159392889005289 0 -1.2159392889005289 2.4138027493989682 0 0 0 0 -341.37314927171059 -38.635900049139309 0 -38.635900049139309 60.602296122757252 0 0 0 0 -33.767900442837401 200.06490808392118 0 200.06490808392118 98.375011331319911 0 0 0 0 222.56555097328965 -156.7735208008562 0 -156.7735208008562 160.31497275117727 0 0 0 0 297.64801615565398 39.873216232655977 0 39.873216232655977 491.85499512184833 0 0 0 0 71.987296361950484 123.36250265642593 0 123.36250265642593 107.89084899671434 0 0 0 0 -48.3696270232345 -10.56213201006176 0 -10.56213201006176 -36.313912188838003 0 0 0 0 -221.49022320111823 157.38932679517166 0 157.38932679517166 90.475251941175884 0 0 0 0 18.407229674548013 -195.74069376569605 0 -195.74069376569605 558.49079658412666 0 0 0 0 0.65683929814659203 6.7065060759959465 0 6.7065060759959465 17.639652803385957 0 0 0 0 12.025827922285345 -128.65803362548104 0 -128.65803362548104 -24.07739599456545 0 0 0 0 -287.42219242399324 196.58538793120533 0 196.58538793120533 -7.9622064933828369 0 0 0 0 153.14096854559446 -12.988013713729742 0 -12.988013713729742 3.1199029635299667 0 0 0 0 183.29647631443169 -260.23389775834221 0 -260.23389775834221 -26.186775305279298 0 0 0 0 122.12229460846396 4.577506138906756 0 4.577506138906756 9.4177887689702402 0 0 0 0 201.5974746783931 -119.24690459119302 0 -119.24690459119302 178.59319855395006 0 0 0 0 240.51062094520341 -162.79144273557904 0 -162.79144273557904 -27.178630757613973 0 0 0 0 117.78200602569775 125.71921648150601 0 125.71921648150601 88.940102035932796 0 0 0 0 0.45583756832687944 -1.1279406062940467 0 -1.1279406062940467 3.4843269698128552 0 0 0 0 -152.18442547971176 -177.7887645705232 0 -177.7887645705232 76.047977315451135 0 0 0 0 0.1844714192709429 -2.2859080340713405 0 -2.2859080340713405 7.8244235608427175 0 0 0 0 0.091944673938062035 -0.83883993158376313 0 -0.83883993158376313 0.64080037549888402 0 0 0 0 0.064925392876034493 -0.9906804152415134 0 -0.9906804152415134 111.16183635587186 0 0 0 0 0.00088025454061695834 -0.5583634955692105 0 -0.5583634955692105 4.565590015728958 0 0 0 0 -0.0010991278970423892 -0.55174858655664138 0 -0.55174858655664138 4.5623489829049504 0 0 0 0 -0.72526252142297132 -5.9947498317342252 0 -5.9947498317342252 1032.669866037475 0 0 0 0 -0.06560531926635213 -0.10863323427304294 0 -0.10863323427304294 2.1913506391643409 0 0 0 0 -128.74715805746064 219.72813615568884 0 219.72813615568884 129.98315663455287 0 0 0 0 -0.016898041844185752 -0.067348080312825687 0 -0.067348080312825687 2.8343652657633243 0 0 0 0 -124.14117377483007 18.927960278502724 0 18.927960278502724 1032.9271491053817 0 0 0 0 226.87736580537876 -37.291407829296077 0 -37.291407829296077 193.47398793655339 0 0 0 0 245.00172751624279 -322.0795948966379 0 -322.0795948966379 872.13935186711024 0 0 0 0 -66.164532685481504 -6.0714883668842958 0 -6.0714883668842958 923.70510858742637 0 0 0 0 -42.346321067791905 -49.056967979260662 0 -49.056967979260662 943.00673292600914 0 0 0 0 -70.316343497116179 -97.616859072830266 0 -97.616859072830266 1470.002243967072 0 0 0 0 105.95020187863929 -89.369025715932366 0 -89.369025715932366 940.1613784078545 0 0 0 0 190.45681342556122 582.10260679330531 0 582.10260679330531 1852.9424662437596 0 0 0 0 211.53219822671588 419.97885555605171 0 419.97885555605171 1090.8997650314705 0 0 0 0 167.55293572307949 385.78503682366136 0 385.78503682366136 1280.3700688173703 0 0 0 0 -90.41474704190739 30.071823165839305 0 30.071823165839305 1121.7125798962079 0 0 0 0 7.7117742404622049 190.65961546973995 0 190.65961546973995 1043.6086596307869 0 0 0 0 5.7661988214226767 221.61131121880317 0 221.61131121880317 703.05412503417756 0 0 0 0 248.42667481794615 386.11746091618261 0 386.11746091618261 657.56466073491902 0 0 0 0 30.399285237523713 157.18155870564078 0 157.18155870564078 657.29403137647023 0 0 0 0 197.68017838223 183.77037972310791 0 183.77037972310791 -33.974786767474143 0 0 0 0 211.56669517335968 26.478445857454062 0 26.478445857454062 -179.99400328166666 0 0 0 0 -0.74037098412116209 1.3308063018754765 0 1.3308063018754765 2.9899819599482953 0 0 0 0 -278.24706637839665 158.12441882428311 0 158.12441882428311 71.854725879136822 0 0 0 0 0.32463400376541346 -37.216674853223672 0 -37.216674853223672 661.12104343892133 0 0 0 0 -80.062729420208228 66.33538102194052 0 66.33538102194052 750.86864510101441 0 0 0 0 46.96299592742492 164.008267072948 0 164.008267072948 246.76405792243895 0 0 0 0 -16.356937792284839 54.457754602895875 0 54.457754602895875 749.29526160522437 0 0 0 0 -0.24330573109846323 -38.918256785815174 0 -38.918256785815174 661.14420242079348 0 0 0 0 37.59640913491377 78.209278485075629 0 78.209278485075629 276.35376348547288 0 0 0 0 0.037046648381064529 71.552559126670531 0 71.552559126670531 281.74452921239208 0 0 0 0 66.013681593436289 22.156332434540673 0 22.156332434540673 58.611300847274833 0 0 0 0 10.608998302354564 12.689206150447717 0 12.689206150447717 251.09133415928954 0 0 0 0 -29.942630715038966 3.1897878330591993 0 3.1897878330591993 74.28139209508663 0 0 0 0 -0.34080390765738611 -0.66259863772128824 0 -0.66259863772128824 3.0026691170758895 0 0 0 0 61.048372903472519 13.550252838234883 0 13.550252838234883 -40.017789300050936 0 0 0 0 0.1470497578571569 -59.429844088990649 0 -59.429844088990649 94.963032455692883 0 0 0 0 -89.978457616615742 -32.927563839366485 0 -32.927563839366485 27.082555594512087 0 0 0 0 -13.328332991541856 -81.457780982862459 0 -81.457780982862459 15.606979816613602 0 0 0 0 6.5850959916749741 -13.844719341872349 0 -13.844719341872349 27.930335318477205 0 0 0 0 -300.67038296447913 -59.894886483508344 0 -59.894886483508344 62.027615420593065 0 0 0 0 -162.47348701934288 60.25688489501772 0 60.25688489501772 55.553558940475341 0 0 0 0 3.7515836060697261 -5.4471072032687431 0 -5.4471072032687431 1.5770746792452428 0 0 0 0 -87.557611802531028 -58.789427617753972 0 -58.789427617753972 124.5166336247712 0 0 0 0 38.071058559697633 48.913359384336218 0 48.913359384336218 4.738706236181315 0 0 0 0 -6.2096342097952402 -13.272363664640579 0 -13.272363664640579 15.773022544595733 0 0 0 0 1.299212515541031 -7.6303870744314111 0 -7.6303870744314111 19.544340571524799 0 0 0 0 -20.770393932783463 -0.78699854061414953 0 -0.78699854061414953 37.927632378909038 0 0 0 0 -25.824238376957446 -90.359852166212249 0 -90.359852166212249 16.424315029231366 0 0 0 0 4.0750947962362716 -12.759840078086313 0 -12.759840078086313 25.1123124491059 0 0 0 0 -59.796583276834099 5.5230855131594581 0 5.5230855131594581 45.992965945917604 0 0 0 0 -24.729487237570424 40.925392886405461 0 40.925392886405461 49.634316792260506 0 0 0 0 -30.699716266097681 59.279878476936574 0 59.279878476936574 -6.7934722116042394 0 0 0 0 -24.810255187279836 63.268121037937817 0 63.268121037937817 102.771107272667 0 0 0 0 -31.585589961574215 93.475310544919921 0 93.475310544919921 21.294576715547009 0 0 0 0 49.37536917256935 110.89413915162731 0 110.89413915162731 26.457221328026208 0 0 0 0 147.05374895913201 35.60293216669379 0 35.60293216669379 127.40164600698336 0 0 0 0 91.356061465864798 -20.566335696483293 0 -20.566335696483293 76.454056016591494 0 0 0 0 -15.800451645671501 64.39735083837877 0 64.39735083837877 20.05433822851046 0 0 0 0 74.8374136417101 29.774415579806373 0 29.774415579806373 66.007729747216217 0 0 0 0 87.411265093521706 -41.959249777544755 0 -41.959249777544755 -51.139165306871291 0 0 0 0 76.024713336958484 -123.19864933868666 0 -123.19864933868666 199.84181773664022 0 0 0 0 76.028434223396289 -24.1813924882008 0 -24.1813924882008 16.313981432067521 0 0 0 0 37.359935038118238 -187.40451731885332 0 -187.40451731885332 482.32354113955807 0 0 0 0 99.310501885988288 -71.561624744885194 0 -71.561624744885194 238.6455514297777 0 0 0 0 202.94695268192481 -128.56551201569528 0 -128.56551201569528 206.26609524466039 0 0 0 0 126.82069469980388 -199.4152005592623 0 -199.4152005592623 776.77534277405357 0 0 0 0 70.165546887111759 -125.52257849433227 0 -125.52257849433227 456.84363529972325 0 0 0 0 115.42741088549232 -94.962755232689233 0 -94.962755232689233 816.10596549636102 0 0 0 0 190.14231463121268 -78.063909877622791 0 -78.063909877622791 455.35708708270681 0 0 0 0 436.68188262249032 -46.754995573111955 0 -46.754995573111955 579.33779463166138 0 0 0 0 290.66428927612651 289.33239644157584 0 289.33239644157584 1128.113166008814 0 0 0 0 94.699542656864196 -263.34703707722656 0 -263.34703707722656 686.39045112110034 0 0 0 0 118.47115343724681 56.485061734951159 0 56.485061734951159 815.08680768767954 0 0 0 0 14.050877989777746 -45.409434738168784 0 -45.409434738168784 1192.4857203025895 0 0 0 0 28.435318039420963 24.604063852733816 0 24.604063852733816 1403.0118367360137 0 0 0 0 -158.19212079054887 -217.19428093350143 0 -217.19428093350143 2073.3858554922008 0 0 0 0 128.88501089823376 -156.58921080852451 0 -156.58921080852451 1068.7057670977083 0 0 0 0 118.2259649398693 -308.77615942363627 0 -308.77615942363627 993.26338434152422 0 0 0 0 -20.209119150205083 -483.91846884222468 0 -483.91846884222468 1359.3445764918579 0 0 0 0 -44.809656124491539 -615.00556691158999 0 -615.00556691158999 240.21831527267932 0 0 0 0 -43.022403233493378 -221.89150775274902 0 -221.89150775274902 2190.2159591526106 0 0 0 0 -43.065993433759445 -658.31052685238683 0 -658.31052685238683 1187.5516400415363 0 0 0 0 3.8160595862151618 -5.9967394566489673 0 -5.9967394566489673 10.445013309427281 0 0 0 0 129.07688996236033 -183.68720715002928 0 -183.68720715002928 305.29449534064042 0 0 0 0 64.642240196054445 31.199625723158533 0 31.199625723158533 -230.98380031565466 0 0 0 0 164.01279051399462 75.868268758975319 0 75.868268758975319 39.862274861967308 0 0 0 0 292.27329350360816 -178.43181587730214 0 -178.43181587730214 306.49947396393691 0 0 0 0 169.12349226865751 -123.54870537953684 0 -123.54870537953684 333.24275310942903 0 0 0 0 241.54868617355953 -187.87419857899658 0 -187.87419857899658 249.8341244875628 0 0 0 0 203.73835314885741 -329.17934085955494 0 -329.17934085955494 847.83129999726953 0 0 0 0 -16.982862266340817 -44.43132215992955 0 -44.43132215992955 262.02925820629753 0 0 0 0 -42.530861764834299 -21.206681268322427 0 -21.206681268322427 242.12389784463448 0 0 0 0 -58.823627984743325 -88.413977402902674 0 -88.413977402902674 229.87528220559761 0 0 0 0 -48.904204371742253 -92.354612739243748 0 -92.354612739243748 223.23604467054247 0 0 0 0 -6.9236372412678975 -60.336916670748906 0 -60.336916670748906 231.34591060826824 0 0 0 0 -46.055754094072199 -116.67079111823477 0 -116.67079111823477 202.32324246312783 0 0 0 0 9.1632392085457468 -106.18410874372239 0 -106.18410874372239 255.97672823275207 0 0 0 0 -42.703364506971411 -63.199669733388873 0 -63.199669733388873 223.10977022595762 0 0 0 0 40.788356331593604 -35.754004682356026 0 -35.754004682356026 240.33947992810135 0 0 0 0 59.250960472571478 7.711098846342793 0 7.711098846342793 249.21785862544493 0 0 0 0 72.226010552652497 9.388890554637328 0 9.388890554637328 234.47795831109397 0 0 0 0 11.711838470765997 -67.131625603149587 0 -67.131625603149587 224.7016153097793 0 0 0 0 105.98149927418081 115.58667341975161 0 115.58667341975161 220.16859474346347 0 0 0 0 -120.13367621542754 224.16063039677465 0 224.16063039677465 804.68084401431406 0 0 0 0 30.193929029223028 -409.3463966327181 0 -409.3463966327181 754.71230799987825 0 0 0 0 -82.73173195802292 149.2407882646512 0 149.2407882646512 259.17612669075606 0 0 0 0 -12.619186040465479 48.397864431630296 0 48.397864431630296 396.22664290555986 0 0 0 0 -72.32808064212395 -128.98166045258404 0 -128.98166045258404 356.95914412614457 0 0 0 0 -34.385100691171658 -132.34749680134701 0 -132.34749680134701 124.24329748659511 0 0 0 0 -0.56447135856979003 -129.61734404186791 0 -129.61734404186791 124.28718535173994 0 0 0 0 -30.113311754494248 214.5450736072853 0 214.5450736072853 -235.26795676842357 0 0 0 0 -17.420107563002603 -124.25354741509 0 -124.25354741509 102.262131202413 0 0 0 0 -20.606247119384392 -52.397339197401948 0 -52.397339197401948 -29.647407726144593 0 0 0 0 -30.382209026132983 -59.970018390502901 0 -59.970018390502901 15.004484255317948 0 0 0 0 -27.810779067767726 -94.874754879732791 0 -94.874754879732791 92.414078664573026 0 0 0 0 -34.87324910944244 -89.141594773260294 0 -89.141594773260294 112.58441848191433 0 0 0 0 -41.735418743517585 -84.19854352704715 0 -84.19854352704715 117.45602970164327 0 0 0 0 -34.676801400987642 -113.27572103947023 0 -113.27572103947023 132.00083943639038 0 0 0 0 -47.786288726120347 -108.62977739221242 0 -108.62977739221242 188.21573727438954 0 0 0 0 -53.692711181535742 -113.90875194285036 0 -113.90875194285036 254.65693762261617 0 0 0 0 -44.755984977138723 -116.07547713457825 0 -116.07547713457825 182.87820230226498 0 0 0 0 -32.826313748689699 -105.27970880043358 0 -105.27970880043358 186.62777748609369 0 0 0 0 -77.979384466504598 -102.38520906082704 0 -102.38520906082704 232.17460989917163 0 0 0 0 -48.682782411833614 -105.20570452323591 0 -105.20570452323591 202.22050755107193 0 0 0 0 -46.536509136168206 -91.179672828882758 0 -91.179672828882758 192.34437944872479 0 0 0 0 -64.230513314669224 -79.126668635784881 0 -79.126668635784881 169.56483479429153 0 0 0 0 -72.434166091200495 -85.693928607903217 0 -85.693928607903217 212.68108214111999 0 0 0 0 -37.572607274647453 -108.6210033855823 0 -108.6210033855823 149.26074103837891 0 0 0 0 -93.071345334174111 -171.14308385711047 0 -171.14308385711047 111.35260726185516 0 0 0 0 -38.429257996825982 -106.57652069555479 0 -106.57652069555479 146.14921172589675 0 0 0 0 -30.990299339115261 -51.696996122327967 0 -51.696996122327967 114.38082311465161 0 0 0 0 -38.758124149071591 -107.61064081688528 0 -107.61064081688528 145.4912257384276 0 0 0 0 -45.279953104483866 -93.430206807635841 0 -93.430206807635841 153.44868344708084 0 0 0 0 -43.422845210397099 -81.34766214134288 0 -81.34766214134288 121.19165925266861 0 0 0 0 -43.502125199298462 -81.868089326475456 0 -81.868089326475456 181.90008452635811 0 0 0 0 35.392895214183227 44.274109771838994 0 44.274109771838994 242.70145558013974 0 0 0 0 -56.762251463278517 -35.543824723456055 0 -35.543824723456055 150.60994574783399 0 0 0 0 -35.674571770822809 -120.77710086210755 0 -120.77710086210755 31.8395899751049 0 0 0 0 52.877181126176765 28.576535311846783 0 28.576535311846783 205.57607259347424 0 0 0 0 26.314753037201626 -20.395794281632334 0 -20.395794281632334 178.62371485664153 0 0 0 0 38.124747749894027 62.111859771739546 0 62.111859771739546 207.19270641445291 0 0 0 0 -81.965775660930376 -59.707303499912086 0 -59.707303499912086 239.83176382618694 0 0 0 0 -28.840703038005639 -63.318375173503775 0 -63.318375173503775 98.989832805616729 0 0 0 0 -60.316201101719344 -29.297420039169083 0 -29.297420039169083 233.15939325842191 0 0 0 0 -24.251206664086567 -42.490192919874971 0 -42.490192919874971 239.2471781082495 0 0 0 0 -75.819565903206239 -68.854355374940496 0 -68.854355374940496 219.01037527266453 0 0 0 0 -85.161483268037045 -90.390306793058699 0 -90.390306793058699 212.21414529508638 0 0 0 0 -85.167514303773714 -85.431628245247339 0 -85.431628245247339 244.96478628442856 0 0 0 0 -70.685477743025331 -83.813472241803538 0 -83.813472241803538 197.68246167695906 0 0 0 0 39.248793371295505 -73.911713353210871 0 -73.911713353210871 235.51387203390914 0 0 0 0 -6.4724400086688547 -1.4243258174556104 0 -1.4243258174556104 271.67338209674926 0 0 0 0 65.679591269439697 48.237647773366916 0 48.237647773366916 285.47796085451409 0 0 0 0 -40.728218840287809 -77.309974576077366 0 -77.309974576077366 191.55068006888723 0 0 0 0 24.537276268156347 14.498396370214323 0 14.498396370214323 153.51739871212521 0 0 0 0 -17.530814247813208 -23.873380806235282 0 -23.873380806235282 149.86269144315452 0 0 0 0 -13.606635535952591 73.400812605344981 0 73.400812605344981 321.47544820487383 0 0 0 0 4.0612726506992658 -2.8837319977556035 0 -2.8837319977556035 171.56815646679024 0 0 0 0 -20.555705502085161 -53.973573726048102 0 -53.973573726048102 132.7917479057981 0 0 0 0 6.1937060269992799 60.062805715921058 0 60.062805715921058 215.04241186953641 0 0 0 0 -5.9543749127762453 -7.1375971131669758 0 -7.1375971131669758 257.5805913286149 0 0 0 0 8.1933990611835448 -6.3753348177188416 0 -6.3753348177188416 96.954700269351093 0 0 0 0 25.083092556335487 42.651725140431154 0 42.651725140431154 217.63592149570195 0 0 0 0 -7.4465177943300125 12.083599597305188 0 12.083599597305188 29.838950063691094 0 0 0 0 23.647597125378525 30.566137812307716 0 30.566137812307716 280.3122291810505 0 0 0 0 3.7486844097529826 -13.28799773503664 0 -13.28799773503664 41.377899670260284 0 0 0 0 16.227064316380165 -17.006268440884014 0 -17.006268440884014 132.36131318218395 0 0 0 0 12.142028617416145 -21.01438613312348 0 -21.01438613312348 103.51329393586275 0 0 0 0 8.4772528767442807 35.708026359678342 0 35.708026359678342 115.81935622179283 0 0 0 0 67.550435896271665 25.953909303389082 0 25.953909303389082 280.66630934752175 0 0 0 0 -11.123662327173477 -20.105252149582086 0 -20.105252149582086 119.80686013074086 0 0 0 0 34.93951611612647 87.336595991633658 0 87.336595991633658 315.96802511134592 0 0 0 0 -55.988169265402455 -44.543703030347231 0 -44.543703030347231 268.98892872985635 0 0 0 0 -49.742572842471375 -32.072246834561341 0 -32.072246834561341 177.99022018141505 0 0 0 0 -11.621645312303935 49.973280143980574 0 49.973280143980574 158.25066155872838 0 0 0 0 -50.720059139217483 8.6649115686095683 0 8.6649115686095683 130.44261317191558 0 0 0 0 -8.6595834048002871 -25.503355637101777 0 -25.503355637101777 150.59570473588064 0 0 0 0 -3.7246963214820425 -6.0226904754163115 0 -6.0226904754163115 222.50767764665943 0 0 0 0 -12.742751538700297 47.351396843623959 0 47.351396843623959 153.9588336360145 0 0 0 0 43.169421700538805 5.0785802195077849 0 5.0785802195077849 179.4347546473291 0 0 0 0 -30.333636083478268 21.212484255673189 0 21.212484255673189 329.95035532118345 0 0 0 0 11.902790913452918 -45.557554500934202 0 -45.557554500934202 244.44004749978194 0 0 0 0 -30.813417494649912 -82.571401639157557 0 -82.571401639157557 341.47453724920524 0 0 0 0 -16.494217952143948 -55.41693371744838 0 -55.41693371744838 85.126454384680471 0 0 0 0 -13.884498884472464 11.370871122200697 0 11.370871122200697 234.67941353164315 0 0 0 0 28.838309804717596 -116.75641642127357 0 -116.75641642127357 340.6161320348765 0 0 0 0 37.713462635450924 20.431829199436834 0 20.431829199436834 146.62887410748954 0 0 0 0 -1.783222709132815 22.310396947369554 0 22.310396947369554 221.15906776627708 0 0 0 0 -22.087346815650939 -25.605878221715805 0 -25.605878221715805 114.13681676336938 0 0 0 0 -176.61179925502802 -78.726709304595715 0 -78.726709304595715 242.61731522394803 0 0 0 0 -81.009551141785778 -112.07288980580779 0 -112.07288980580779 223.23055100431156 0 0 0 0 -97.255261923177386 -97.02607004652964 0 -97.02607004652964 229.26109998825632 0 0 0 0 -121.4725678827308 -95.175301048544497 0 -95.175301048544497 242.37999076019332 0 0 0 0 -107.01799186928019 -82.175284216216824 0 -82.175284216216824 241.47224839228147 0 0 0 0 -139.84218104622778 -41.968918136102729 0 -41.968918136102729 263.48840395715524 0 0 0 0 8.5414194881395815 56.720580251214415 0 56.720580251214415 274.87754444524762 0 0 0 0 -37.399788490136871 -17.053542850561826 0 -17.053542850561826 237.92455037662876 0 0 0 0 -91.366611211058625 22.234425375238061 0 22.234425375238061 215.26543211986427 0 0 0 0 -57.91644041249674 -20.000304999819491 0 -20.000304999819491 211.32439219321168 0 0 0 0 -96.416761732238228 28.275868464173982 0 28.275868464173982 166.31284305726876 0 0 0 0 -182.40935187594005 -12.742518635757733 0 -12.742518635757733 217.32529850541323 0 0 0 0 -78.611052145741269 -53.755312288138157 0 -53.755312288138157 232.95931169269898 0 0 0 0 -143.48723560074177 -68.930080180125515 0 -68.930080180125515 207.40986967645586 0 0 0 0 17.995127468157079 -202.10435653596505 0 -202.10435653596505 370.71447094962787 0 0 0 0 -292.55020947700268 106.73067301126139 0 106.73067301126139 124.49145781324478 0 0 0 0 4.423567511951525 -11.375876977070178 0 -11.375876977070178 16.524434269889852 0 0 0 0 -195.98695007107199 152.29847121637431 0 152.29847121637431 31.82409949783505 0 0 0 0 -162.60545573737909 -8.9441568408510648 0 -8.9441568408510648 215.19877665289096 0 0 0 0 -27.842824447739986 33.530591887611081 0 33.530591887611081 29.687441184738418 0 0 0 0 14.330677622567691 -23.072827669580874 0 -23.072827669580874 110.21782169450307 0 0 0 0 11.339869898987672 -12.338858267001342 0 -12.338858267001342 78.251250363013241 0 0 0 0 -113.22252802980438 56.548843322532775 0 56.548843322532775 118.82466097120778 0 0 0 0 -348.46980152476408 2.7103278793292702 0 2.7103278793292702 234.22420584132669 0 0 0 0 -129.55577255239587 -166.70085480325361 0 -166.70085480325361 236.01374678743014 0 0 0 0 -283.46747024856177 -114.14195093977105 0 -114.14195093977105 261.15224859126465 0 0 0 0 -112.30601849737741 -124.71652767749401 0 -124.71652767749401 196.76116437237943 0 0 0 0 -16.943579457324631 -104.68247493822855 0 -104.68247493822855 237.79565357253887 0 0 0 0 -213.77600807790986 -62.673919232405751 0 -62.673919232405751 469.34791358897928 0 0 0 0 -59.552957705867811 -122.35210819119311 0 -122.35210819119311 407.07981794244552 0 0 0 0 -144.34507943657263 -192.56735204052165 0 -192.56735204052165 378.61856740939038 0 0 0 0 -100.06094586013933 -81.147727207669959 0 -81.147727207669959 410.11614340647293 0 0 0 0 -80.739095724821709 -63.328946832210931 0 -63.328946832210931 465.76436954553355 0 0 0 0 -88.84757846358707 -82.539829881143305 0 -82.539829881143305 360.71452205524838 0 0 0 0 -47.652576127024076 -94.767928292283614 0 -94.767928292283614 355.42316177683824 0 0 0 0 -51.954560235373719 -105.64268016418646 0 -105.64268016418646 348.09176984344413 0 0 0 0 -75.092397213129516 -74.101935025781131 0 -74.101935025781131 383.75492254689016 0 0 0 0 -63.348190075515959 -54.811584080322064 0 -54.811584080322064 361.9776316575917 0 0 0 0 -74.414472853339248 -81.316948910595556 0 -81.316948910595556 331.92825135241583 0 0 0 0 -70.338803302681299 -62.444400175749252 0 -62.444400175749252 354.97316900572332 0 0 0 0 -115.64332610190377 16.200484323955607 0 16.200484323955607 425.51201083177511 0 0 0 0 -72.28597208025144 -41.696435640040363 0 -41.696435640040363 466.0659039460661 0 0 0 0 -69.580395972750011 73.331847615070728 0 73.331847615070728 481.39642745588208 0 0 0 0 -59.331465831963214 84.393711941060246 0 84.393711941060246 402.10151379444142 0 0 0 0 18.720359040462426 23.335535554702801 0 23.335535554702801 360.30975992069693 0 0 0 0 -114.44350221300829 30.034390610475384 0 30.034390610475384 572.27964945507938 0 0 0 0 -129.99032206448283 -79.483531220321311 0 -79.483531220321311 536.7488658719376 0 0 0 0 -85.233447103561048 42.733492753697647 0 42.733492753697647 521.50212903389183 0 0 0 0 -78.736994178726036 81.65498455471743 0 81.65498455471743 669.64160660661582 0 0 0 0 10.622135694905865 59.288465674871986 0 59.288465674871986 643.45893245321713 0 0 0 0 91.640233447423725 312.2657132735585 0 312.2657132735585 1660.0000811128266 0 0 0 0 62.069843923437475 77.264102915016338 0 77.264102915016338 626.95114754604583 0 0 0 0 0.33661255497779408 -3.3425913394991653 0 -3.3425913394991653 6.2396776930593774 0 0 0 0 6.4459485756983668 102.1594199031606 0 102.1594199031606 662.5867822472137 0 0 0 0 -93.869015144226978 -101.92277646582443 0 -101.92277646582443 758.08640028679838 0 0 0 0 166.82041485742866 -138.06752938207865 0 -138.06752938207865 405.46808402373426 0 0 0 0 141.75438037239007 -34.06637087228728 0 -34.06637087228728 462.28604574597557 0 0 0 0 125.67190260982483 19.342285812784667 0 19.342285812784667 228.89702314465831 0 0 0 0 134.26160642693844 -86.296688296859429 0 -86.296688296859429 266.90352868716582 0 0 0 0 4.5284813188773114 -67.007722408852715 0 -67.007722408852715 385.00376283156947 0 0 0 0 -7.5993188335141895 -27.192515875889512 0 -27.192515875889512 300.72516759732389 0 0 0 0 109.95138603873875 118.76206351674409 0 118.76206351674409 213.42953396457233 0 0 0 0 110.65871783186168 124.29845706944286 0 124.29845706944286 -167.82648742294987 0 0 0 0 235.25961800639766 -91.094798757781973 0 -91.094798757781973 313.82746740506627 0 0 0 0 258.82727238376378 69.520724733418319 0 69.520724733418319 82.419727062813763 0 0 0 0 73.266575618865545 -182.83779649645658 0 -182.83779649645658 405.42377140307872 0 0 0 0 -51.265917237152848 -261.46459707552276 0 -261.46459707552276 1057.4457553876746 0 0 0 0 291.70108947557696 -377.73419183491933 0 -377.73419183491933 741.70758359096726 0 0 0 0 385.09707075653228 -1.9766884608761757 0 -1.9766884608761757 508.98438376995909 0 0 0 0 -64.761581997745225 -235.17589876944476 0 -235.17589876944476 1067.6161073478088 0 0 0 0 -23.987158334187825 116.39383807798731 0 116.39383807798731 1756.972670872281 0 0 0 0 -202.36935505920769 -543.15285676653912 0 -543.15285676653912 1203.1766051893428 0 0 0 0 100.03293767673517 -430.67966121638892 0 -430.67966121638892 268.62321628395148 0 0 0 0 0.89442614684907529 3.277417022836083 0 3.277417022836083 11.571083142008462 0 0 0 0 334.44054732039274 555.84168338857853 0 555.84168338857853 243.21599266363773 0 0 0 0 327.52180944092288 -45.107298932369304 0 -45.107298932369304 -218.69053631662246 0 0 0 0 -40.221447995427411 61.174543709665159 0 61.174543709665159 1700.7615662500539 0 0 0 0 -49.008912732841821 250.37520619670613 0 250.37520619670613 1046.8654114201927 0 0 0 0 -61.17143874192999 378.27042398957747 0 378.27042398957747 84.487226789256965 0 0 0 0 174.29922165352389 -99.399247348221252 0 -99.399247348221252 121.81640903171501 0 0 0 0 359.64748346326974 -5.3771483286127477 0 -5.3771483286127477 -225.69849208847882 0 0 0 0 587.33188240256732 107.80090689452481 0 107.80090689452481 -390.28967024803569 0 0 0 0 9.1145624309523221 10.807982515087105 0 10.807982515087105 10.920576983607816 0 0 0 0 -193.31383948427975 5.5983657212375419 0 5.5983657212375419 1952.4474485052342 0 0 0 0 -151.28082325684298 -855.99440346228221 0 -855.99440346228221 807.91499649762409 0 0 0 0 -242.8256531117604 -123.93676946197957 0 -123.93676946197957 2305.3446159927116 0 0 0 0 678.53889679167344 18.969586046689074 0 18.969586046689074 -226.33418978030943 0 0 0 0 -95.451676047590581 77.714140188792953 0 77.714140188792953 1856.8024106771045 0 0 0 0 4.6084882163580456 5.3380056515629803 0 5.3380056515629803 7.4015900768712299 0 0 0 0 633.73434177265028 591.04792193192043 0 591.04792193192043 218.41377640811697 0 0 0 0 -4.9251999394041377 -48.372984465888294 0 -48.372984465888294 -446.92749790199014 0 0 0 0 -636.70291582878167 681.90755085973069 0 681.90755085973069 438.38719070162915 0 0 0 0 -44.458182740928521 -47.272981047207395 0 -47.272981047207395 1897.1977245422167 0 0 0 0 -546.42875634670077 106.66028227485367 0 106.66028227485367 212.56678375003685 0 0 0 0 0.31503875231103384 6.1371010210474459 0 6.1371010210474459 23.78109585227611 0 0 0 0 118.13289561353511 159.14816005450757 0 159.14816005450757 34.928544453090581 0 0 0 0 -220.26671773742896 24.706172555335797 0 24.706172555335797 -54.722101485829626 0 0 0 0 -23.183617874596166 -98.391252385546977 0 -98.391252385546977 152.68759979759307 0 0 0 0 46.787852975585338 -120.18913880818582 0 -120.18913880818582 26.6788585150789 0 0 0 0 -28.198111147782583 -66.689224045614537 0 -66.689224045614537 2.0876165878144093 0 0 0 0 5.9804477175648572 -89.40373397415533 0 -89.40373397415533 -76.044332601733913 0 0 0 0 17.668326579926543 -86.829677728055685 0 -86.829677728055685 -49.551908061112044 0 0 0 0 -40.340580100761144 -82.355382288274996 0 -82.355382288274996 -49.068795866580331 0 0 0 0 -53.772771070693352 -18.654045400133327 0 -18.654045400133327 -97.072421459277393 0 0 0 0 4.6352645141778339 -88.628495347933494 0 -88.628495347933494 -56.316097460970923 0 0 0 0 2.4112674170701212 -28.69617512444529 0 -28.69617512444529 -205.11921893998806 0 0 0 0 -84.664540046056118 -243.23086265206803 0 -243.23086265206803 -282.20035037200068 0 0 0 0 -66.038441248455456 -104.03381675745186 0 -104.03381675745186 -117.59262397658313 0 0 0 0 2.1240974202584049 -19.37773977727268 0 -19.37773977727268 9.3349363313701659 0 0 0 0 -21.340015003672306 -19.35591077542631 0 -19.35591077542631 -60.285064150579274 0 0 0 0 79.802785158609822 42.475957548540464 0 42.475957548540464 -54.126106555078877 0 0 0 0 -180.9918751479604 34.803225483337883 0 34.803225483337883 -40.262493370712036 0 0 0 0 -6.1964578026695563 -71.778939705243829 0 -71.778939705243829 -5.4442493941023713 0 0 0 0 27.515596193292367 -25.280548947113857 0 -25.280548947113857 22.572825557959732 0 0 0 0 70.772309274324925 -112.91194917594112 0 -112.91194917594112 129.36317247022816 0 0 0 0 147.35519411378382 -43.448962511494756 0 -43.448962511494756 -27.041994639032055 0 0 0 0 161.16405231550891 14.41342572177382 0 14.41342572177382 -297.27656433466473 0 0 0 0 61.03501354819673 -7.9050108828087104 0 -7.9050108828087104 131.68883830880804 0 0 0 0 54.602962104381277 93.748807314477745 0 93.748807314477745 -136.56823032016109 0 0 0 0 86.039253466392324 195.18043491311073 0 195.18043491311073 -173.36511484901712 0 0 0 0 81.14426032764834 172.66947445850383 0 172.66947445850383 -44.10512014105916 0 0 0 0 4.8833568187774503 5.0093162892330128 0 5.0093162892330128 4.0308761501440245 0 0 0 0 -1136.0526229228985 -200.42841712897643 0 -200.42841712897643 725.78634751890786 0 0 0 0 -34.937506112136361 211.94737344884197 0 211.94737344884197 152.0631926611095 0 0 0 0 -322.50450120770029 82.976701738960401 0 82.976701738960401 211.80823086907185 0 0 0 0 -330.52397994023431 19.405635449002148 0 19.405635449002148 722.25497642967457 0 0 0 0 -73.888282158486618 -692.23591618573846 0 -692.23591618573846 778.62940882905832 0 0 0 0 -117.87685797239874 569.49201621649991 0 569.49201621649991 -188.49865732413309 0 0 0 0 -163.53635610769607 -87.769511685993621 0 -87.769511685993621 132.83692252963374 0 0 0 0 326.26547298625542 -86.965989270494902 0 -86.965989270494902 88.078501813215553 0 0 0 0 54.046639542491448 -72.03515817736843 0 -72.03515817736843 592.02918903660611 0 0 0 0 -10.496507158807617 620.04832636745414 0 620.04832636745414 2674.7589861746601 0 0 0 0 372.45946190287282 -306.1820914833952 0 -306.1820914833952 596.81095189007465 0 0 0 0 405.91102694099936 3.0690580752416281 0 3.0690580752416281 1342.2412083919116 0 0 0 0 118.14774911994255 47.685652135929558 0 47.685652135929558 1343.4630348784194 0 0 0 0 123.87417826947873 26.516289687773678 0 26.516289687773678 682.6965034280729 0 0 0 0 260.53790242305968 431.75023395352764 0 431.75023395352764 1142.6244668182953 0 0 0 0 83.317133966578339 -227.16046217781513 0 -227.16046217781513 1397.0461408094852 0 0 0 0 -19.610139332910876 109.57088307642698 0 109.57088307642698 1069.2416079573668 0 0 0 0 89.099579260979453 -77.587829247557238 0 -77.587829247557238 690.59609024846577 0 0 0 0 93.823548873514596 -194.36259035940748 0 -194.36259035940748 334.71118162258063 0 0 0 0 68.544448746746639 -8.9302519441116601 0 -8.9302519441116601 619.71754632124794 0 0 0 0 61.672907220587916 -137.3023959674465 0 -137.3023959674465 644.69941015118638 0 0 0 0 152.87982867765231 -68.194845034435275 0 -68.194845034435275 117.3737055350939 0 0 0 0 82.553113957199457 -121.74327482163062 0 -121.74327482163062 308.96448047450394 0 0 0 0 25.33904992355383 -38.699207377663697 0 -38.699207377663697 292.06562828042661 0 0 0 0 111.51240479916032 -65.928578644190566 0 -65.928578644190566 140.81912870516317 0 0 0 0 53.479690901001277 -105.03553134171125 0 -105.03553134171125 381.157656826108 0 0 0 0 79.923491536212168 -33.716050601156894 0 -33.716050601156894 364.4165970059039 0 0 0 0 75.587112672218154 -108.37375941651408 0 -108.37375941651408 462.37341149954591 0 0 0 0 3.1498062323607883 7.283615228603594 0 7.283615228603594 679.80901978081965 0 0 0 0 55.758899399970232 122.1770782287349 0 122.1770782287349 613.23629128081666 0 0 0 0 -8.2303598075591253 115.80507925040729 0 115.80507925040729 790.32138439490518 0 0 0 0 52.16516326121382 25.549408872437198 0 25.549408872437198 430.80261608381988 0 0 0 0 9.3544422357435906 -18.146100743892021 0 -18.146100743892021 470.86328945311607 0 0 0 0 37.522707846488629 183.26691325601132 0 183.26691325601132 478.50711799163264 0 0 0 0 24.776716983211372 -45.418525421700906 0 -45.418525421700906 227.06866666712449 0 0 0 0 24.889492352243177 30.545716677394203 0 30.545716677394203 354.3052440280735 0 0 0 0 23.108375561158937 -110.73855481878854 0 -110.73855481878854 258.1508393601398 0 0 0 0 30.017592834490642 -64.284957169133122 0 -64.284957169133122 146.6765401719349 0 0 0 0 -1.2827293456699849 -4.2545124481835899 0 -4.2545124481835899 4.0338472429534988 0 0 0 0 1.7455669556433122 258.92373132359535 0 258.92373132359535 881.26877422508551 0 0 0 0 -29.855648600632776 136.54347992386465 0 136.54347992386465 1154.8859981615387 0 0 0 0 -149.08618373491481 -102.69674068357563 0 -102.69674068357563 765.3219023349593 0 0 0 0 -167.25926614354194 419.9578150279267 0 419.9578150279267 853.17234312722576 0 0 0 0 -15.692449854870119 177.91856527740674 0 177.91856527740674 647.07605855357542 0 0 0 0 8.2447483847763579 302.84425515465409 0 302.84425515465409 586.16367195142084 0 0 0 0 -22.294163695587031 265.11333382264274 0 265.11333382264274 879.99176485076896 0 0 0 0 29.008511798313748 288.95263929665089 0 288.95263929665089 754.3908743152133 0 0 0 0 87.27859524898372 213.63279919697379 0 213.63279919697379 851.57561611970596 0 0 0 0 -1.2390878847079989 -0.71914972580023573 0 -0.71914972580023573 12.218396195167777 0 0 0 0 1.0291800650132235 -11.096274551572236 0 -11.096274551572236 12.510643454671708 0 0 0 0 0.93831704344237465 -13.287645387077646 0 -13.287645387077646 31.918263549268886 0 0 0 0 -3.7607344482596545 261.08827712251514 0 261.08827712251514 891.10249947133707 0 0 0 0 -39.871032270907563 -17.465327979381982 0 -17.465327979381982 53.021609713599901 0 0 0 0 3.857493557687615 -14.122044227332225 0 -14.122044227332225 24.282978320960808 0 0 0 0 3.7891469620440219 -4.8821857087968965 0 -4.8821857087968965 15.357884513112367 0 0 0 0 5.8503912393616702 -13.64740102734504 0 -13.64740102734504 11.228262025684671 0 0 0 0 1.8698164227699769 -8.4736982603389066 0 -8.4736982603389066 10.891932570000378 0 0 0 0 70.615955685686004 382.05093755041889 0 382.05093755041889 1212.675940743211 0 0 0 0 182.98052158493579 368.83897569274995 0 368.83897569274995 887.51575735720689 0 0 0 0 5.2415464504521454 -8.4342686867350523 0 -8.4342686867350523 10.968689591881827 0 0 0 0 -109.46945848222276 -41.455805072400835 0 -41.455805072400835 22.63599426097062 0 0 0 0 136.69664086475495 584.92372559482465 0 584.92372559482465 2683.1042253957712 0 0 0 0 3.1047513125135868 -4.4477792742531932 0 -4.4477792742531932 6.8765876066946134 0 0 0 0 -75.452706216793558 9.8421571249109547 0 9.8421571249109547 47.678214054758428 0 0 0 0 299.08748268072679 703.47212656880765 0 703.47212656880765 2616.1726943899703 0 0 0 0 2.6502216713955864 -1.5636559646032424 0 -1.5636559646032424 -1.7205754752346536 0 0 0 0 -42.898059323460075 27.006293655867921 0 27.006293655867921 40.135753825714346 0 0 0 0 -27.914253031793123 -17.686973295210919 0 -17.686973295210919 26.447857276140894 0 0 0 0 -7.7652726334510831 -17.99708743470319 0 -17.99708743470319 31.922465303585341 0 0 0 0 -7.6770032203830425 -17.001947509763795 0 -17.001947509763795 42.88608597588609 0 0 0 0 5.3026490700283944 -20.371272831598617 0 -20.371272831598617 37.702835592950578 0 0 0 0 -1.7084409230673145 -18.503517461940646 0 -18.503517461940646 41.156483112521528 0 0 0 0 -13.252350060921879 -5.32868763189623 0 -5.32868763189623 9.1982553980965633 0 0 0 0 -14.581158543789115 -21.175552839595184 0 -21.175552839595184 69.869723430514568 0 0 0 0 -6.4035528662505783 -24.944192992405078 0 -24.944192992405078 44.066183725226438 0 0 0 0 0.31552865988487611 -22.198389284618315 0 -22.198389284618315 69.036895845390973 0 0 0 0 0.84971144978843238 -19.615633605714493 0 -19.615633605714493 38.284549977623925 0 0 0 0 10.946206958108633 -37.102384090219857 0 -37.102384090219857 12.832368036542903 0 0 0 0 -17.598681136705647 0.86319971176925492 0 0.86319971176925492 20.938662540250021 0 0 0 0 5.799128639919445 -32.114966729179287 0 -32.114966729179287 50.687223099563198 0 0 0 0 0.10936684793659879 -17.948798198165605 0 -17.948798198165605 47.520847536667134 0 0 0 0 -4.5875095507457715 -8.8142190004065668 0 -8.8142190004065668 19.426366325027928 0 0 0 0 -8.2382512426938774 -4.9072067874367349 0 -4.9072067874367349 16.201153612491908 0 0 0 0 0.48227350530098789 -17.783102690970225 0 -17.783102690970225 23.147650573474039 0 0 0 0 -12.046484666823744 -13.842129559507157 0 -13.842129559507157 3.5995839290990261 0 0 0 0 -7.4664834852318265 -10.985853198394693 0 -10.985853198394693 20.802428584066547 0 0 0 0 38.607615239094685 21.541241090912081 0 21.541241090912081 96.357183377302135 0 0 0 0 -0.7829480848935475 -1.2630469100444941 0 -1.2630469100444941 4.0960041767242785 0 0 0 0 6.5802163786856909 -21.813543230062351 0 -21.813543230062351 85.200579393800581 0 0 0 0 56.720194391069754 -658.02300696940802 0 -658.02300696940802 396.3701801252173 0 0 0 0 -0.85115578586504137 3.2545124291900009 0 3.2545124291900009 11.395041654094825 0 0 0 0 -269.22663625106657 273.89611103131028 0 273.89611103131028 879.96959407028226 0 0 0 0 0.089791651260850119 2.4303361971156896 0 2.4303361971156896 12.378648321623018 0 0 0 0 -289.4484150586074 -661.83696277935087 0 -661.83696277935087 781.65165086786146 0 0 0 0 -138.2386161558228 425.92864325181654 0 425.92864325181654 242.53761107290484 0 0 0 0 374.45814578284001 -1119.5819968938449 0 -1119.5819968938449 851.58407129817351 0 0 0 0 895.8085827735058 -346.76898517301015 0 -346.76898517301015 1350.3627553606639 0 0 0 0 -129.11265836082475 128.1045678703158 0 128.1045678703158 280.74786003521876 0 0 0 0 -1.2776333343468913 0.53993156999746361 0 0.53993156999746361 6.7333657766044723 0 0 0 0 -83.006918782206412 -225.26045388627244 0 -225.26045388627244 -106.55547671783279 0 0 0 0 -139.00083761388305 -244.78338476642239 0 -244.78338476642239 375.39328838213987 0 0 0 0 -187.16151839525037 166.1886951601773 0 166.1886951601773 1954.2998166200177 0 0 0 0 22.667968852062586 142.67040288571297 0 142.67040288571297 179.30260330083183 0 0 0 0 -68.353745066917782 14.768294431269169 0 14.768294431269169 34.254895774713077 0 0 0 0 -57.98299605615091 52.035420962647549 0 52.035420962647549 101.21435914208996 0 0 0 0 27.331346521063097 71.418684787102393 0 71.418684787102393 13.120111665557488 0 0 0 0 41.858648245230597 -1.1870735543343471 0 -1.1870735543343471 65.697763008269249 0 0 0 0 -61.403783548330011 -7.6632841725368053 0 -7.6632841725368053 65.324933584896826 0 0 0 0 -3.0613397197651135 -0.23713718669100103 0 -0.23713718669100103 0.037842648512160793 0 0 0 0 -120.16034704045251 44.628484676075459 0 44.628484676075459 19.024487064831192 0 0 0 0 -28.293973391273312 64.884721376274683 0 64.884721376274683 -96.166149764161673 0 0 0 0 -8.8715353674833892 -0.96126649050437152 0 -0.96126649050437152 -0.73815764648223592 0 0 0 0 -18.899529461819384 36.74924921899219 0 36.74924921899219 17.589401010751317 0 0 0 0 -25.004003034497146 23.928171136896708 0 23.928171136896708 -7.8716361180850072 0 0 0 0 -22.999294840912739 -20.426652952606673 0 -20.426652952606673 44.614093874319224 0 0 0 0 -97.372526042637105 -110.68564128790968 0 -110.68564128790968 -51.235128506144974 0 0 0 0 -21.185790938164814 -30.573598400143965 0 -30.573598400143965 25.330570678335789 0 0 0 0 33.119075674040914 131.98628857691801 0 131.98628857691801 -77.549460922211438 0 0 0 0 -235.07593665973405 -13.360030811809338 0 -13.360030811809338 102.93131174710288 0 0 0 0 -83.016539945230051 -248.16155520185521 0 -248.16155520185521 85.944257557814126 0 0 0 0 488.88385709626567 -338.43424786976902 0 -338.43424786976902 -122.42686284248339 0 0 0 0 187.63289947882862 -105.73174986141748 0 -105.73174986141748 69.933982613074477 0 0 0 0 1.0274318218916667 3.5258598954606271 0 3.5258598954606271 7.7747057133438204 0 0 0 0 -11.647123489938792 18.494343096641387 0 18.494343096641387 102.99371573496319 0 0 0 0 -69.565628573903837 2.7171357058687136 0 2.7171357058687136 85.569375174432935 0 0 0 0 -14.764676133553849 9.1643607037713082 0 9.1643607037713082 77.617529501265381 0 0 0 0 -81.556981285855727 25.874054457373859 0 25.874054457373859 109.85033511832262 0 0 0 0 -52.529103402649753 -16.840493341136607 0 -16.840493341136607 76.916695379899465 0 0 0 0 -128.19218415276629 -57.394638710500658 0 -57.394638710500658 55.53342172675184 0 0 0 0 -47.787007501201046 -8.9931297157804693 0 -8.9931297157804693 59.575039613162517 0 0 0 0 -48.579056694941414 -11.218426205441574 0 -11.218426205441574 60.009416931294254 0 0 0 0 -69.132454543483618 -2.3826125322739244 0 -2.3826125322739244 66.165678619167011 0 0 0 0 -43.760658399258844 -0.75080620404457932 0 -0.75080620404457932 5.8901826649460673 0 0 0 0 -48.721464721703114 14.008887691608834 0 14.008887691608834 22.854272458484047 0 0 0 0 -47.352345885051818 -6.8680363211751683 0 -6.8680363211751683 55.892503195565951 0 0 0 0 -77.254622715543519 2.0606833940037177 0 2.0606833940037177 151.06926680440665 0 0 0 0 23.696342513983836 -30.006450178043451 0 -30.006450178043451 79.117258672544267 0 0 0 0 -12.718135545680735 12.751414851047173 0 12.751414851047173 11.954651094320695 0 0 0 0 -0.11105334555868751 0.32842164570907073 0 0.32842164570907073 1.3992912358786249 0 0 0 0 2.1352001527066022 -10.407996399233525 0 -10.407996399233525 87.718288449286774 0 0 0 0 -0.83437178726300942 -6.7968074278746542 0 -6.7968074278746542 0.51950590966721322 0 0 0 0 -74.278234699195309 -44.169144821964437 0 -44.169144821964437 94.77826970886963 0 0 0 0 -25.679375361205743 3.834840815261245 0 3.834840815261245 15.829554170064455 0 0 0 0 -30.89924281842832 -89.548585092859867 0 -89.548585092859867 461.56973911562091 0 0 0 0 -15.888243684543326 -3.0998767695213871 0 -3.0998767695213871 3.4992220610231897 0 0 0 0 -17.942172086920436 -5.6866361599750235 0 -5.6866361599750235 39.781574806074786 0 0 0 0 -15.578270791829709 -115.32017884848756 0 -115.32017884848756 439.13666232164178 0 0 0 0 48.450709520726377 -116.01850726461271 0 -116.01850726461271 391.83882498767343 0 0 0 0 -31.27800957528234 -67.145411027420778 0 -67.145411027420778 420.60039768982824 0 0 0 0 -15.271797153211082 -72.815197973846807 0 -72.815197973846807 350.76775003058719 0 0 0 0 -10.718973819220992 -46.488902193232207 0 -46.488902193232207 292.61744771119265 0 0 0 0 -23.75177906089084 -69.977988664177246 0 -69.977988664177246 350.74004674040577 0 0 0 0 -9.7840355573607667 -100.18263884924818 0 -100.18263884924818 341.97147364268312 0 0 0 0 -18.581656671992278 -82.714921977229096 0 -82.714921977229096 382.29245454099146 0 0 0 0 -65.533384739948815 -80.292796808193089 0 -80.292796808193089 480.83268580494769 0 0 0 0 80.873174369327899 -229.34325953009829 0 -229.34325953009829 551.37337496603141 0 0 0 0 -1.1115870747896466 -0.24996101154096095 0 -0.24996101154096095 2.7905666752257332 0 0 0 0 -82.581950837382465 45.334010613849387 0 45.334010613849387 -9.2316330737085082 0 0 0 0 36.449680238707515 -62.809546294738539 0 -62.809546294738539 428.5009570340917 0 0 0 0 90.697280835978745 -104.89826703909785 0 -104.89826703909785 429.65795742213959 0 0 0 0 -22.693458029541944 -40.54281840515614 0 -40.54281840515614 439.94872883360949 0 0 0 0 -8.6416158341235132 -91.315414396231063 0 -91.315414396231063 446.24489062005887 0 0 0 0 14.61347616882631 -54.410629985286505 0 -54.410629985286505 240.30232614855049 0 0 0 0 26.656852210926445 -51.342781842562545 0 -51.342781842562545 332.49820459561306 0 0 0 0 -29.680181217005156 -96.095449375221506 0 -96.095449375221506 309.84152304307645 0 0 0 0 -66.761787888926392 -64.992248279440901 0 -64.992248279440901 317.32535206105968 0 0 0 0 -91.115568326738867 -65.023948741480126 0 -65.023948741480126 318.37497251901004 0 0 0 0 -89.638444042691845 -73.679988421332382 0 -73.679988421332382 343.61853583193442 0 0 0 0 -78.531408982778885 -92.126943280942214 0 -92.126943280942214 327.59836694547994 0 0 0 0 -76.348544489701453 -94.508644276742416 0 -94.508644276742416 288.80871393860434 0 0 0 0 -92.364810906610728 71.90931463508241 0 71.90931463508241 131.1675401685352 0 0 0 0 18.301298711123309 -71.109820767893325 0 -71.109820767893325 103.52682608978648 0 0 0 0 -28.939186284091193 67.709270793911855 0 67.709270793911855 342.68481655378855 0 0 0 0 -5.70795215605267 0.43596762793319499 0 0.43596762793319499 12.687260147366601 0 0 0 0 -24.491558167676828 12.173650774402631 0 12.173650774402631 -3.784029100817861 0 0 0 0 -54.975350437880479 9.5371771136997268 0 9.5371771136997268 81.894591188698541 0 0 0 0 -43.829013999438153 3.2729452587409327 0 3.2729452587409327 9.6105542688219003 0 0 0 0 -53.390132703688892 26.237597725230444 0 26.237597725230444 67.856494214509439 0 0 0 0 -0.66434328621426175 -9.5202327763690846 0 -9.5202327763690846 24.050444316671928 0 0 0 0 -16.037262266068865 -6.5960787643452932 0 -6.5960787643452932 45.402839510419653 0 0 0 0 -9.6799777809483203 15.61527039241264 0 15.61527039241264 40.511044815531932 0 0 0 0 -2.1323194192188701 0.25543109572053879 0 0.25543109572053879 1.9828407605774885 0 0 0 0 -10.167655006986251 12.550430863618203 0 12.550430863618203 21.271281337423716 0 0 0 0 -15.806008034465776 -5.8770341857198218 0 -5.8770341857198218 30.521823813171068 0 0 0 0 -18.839622536181651 0.1979227095744136 0 0.1979227095744136 24.992133934210869 0 0 0 0 -22.57652319222143 -9.769896534307918 0 -9.769896534307918 28.333907551830634 0 0 0 0 -8.655051966029248 -29.287933560168312 0 -29.287933560168312 58.004743298344692 0 0 0 0 -8.3301781912818456 -29.498747048251971 0 -29.498747048251971 30.664642126368562 0 0 0 0 -10.074614251274397 -7.9112231651452021 0 -7.9112231651452021 23.958878699328125 0 0 0 0 -20.053024612183727 1.8444717093607608 0 1.8444717093607608 17.167832468935444 0 0 0 0 133.06525985400367 25.227925013154163 0 25.227925013154163 93.861607769627881 0 0 0 0 84.782308040467797 -46.22073512111092 0 -46.22073512111092 386.11468416656135 0 0 0 0 39.651603661357512 -95.547947089689842 0 -95.547947089689842 278.16521779495815 0 0 0 0 11.284505883975726 -91.204620806624007 0 -91.204620806624007 380.35417296458036 0 0 0 0 60.926186571015023 -92.476429727397772 0 -92.476429727397772 212.48178928621928 0 0 0 0 18.865890158353068 -138.10525426790991 0 -138.10525426790991 380.01715674933075 0 0 0 0 5.4788270740191365 -6.5541431143865339 0 -6.5541431143865339 470.19205228351348 0 0 0 0 97.278107700441069 -146.87529603245275 0 -146.87529603245275 176.12648027876276 0 0 0 0 4.2313721705158969 -76.719893758185208 0 -76.719893758185208 375.31809455851544 0 0 0 0 79.246323238587138 -162.59695716839633 0 -162.59695716839633 428.40998877302627 0 0 0 0 -20.012125919889058 -10.412726619990281 0 -10.412726619990281 37.096532349707559 0 0 0 0 -234.38372490211987 -73.286307228059741 0 -73.286307228059741 133.45167994309668 0 0 0 0 -30.516727073181755 -111.83416941593168 0 -111.83416941593168 568.88077134777268 0 0 0 0 -16.560020758344052 -0.39681664989927867 0 -0.39681664989927867 -0.15705804145920865 0 0 0 0 -1.6850185216030127 -5.2381368887354824 0 -5.2381368887354824 -0.72246441018348406 0 0 0 0 -33.156533022654912 -208.15629793659173 0 -208.15629793659173 785.01495242251258 0 0 0 0 -1.9567859474407783 -3.2060189238763712 0 -3.2060189238763712 0.20289124284778026 0 0 0 0 391.62536161288699 55.71784675114759 0 55.71784675114759 66.524590684501163 0 0 0 0 57.14295429085837 -31.82473124426815 0 -31.82473124426815 539.733145273829 0 0 0 0 16.55583925654355 -79.117577940312913 0 -79.117577940312913 301.7822116884854 0 0 0 0 79.052947272197343 -202.5790564436611 0 -202.5790564436611 369.56551325425971 0 0 0 0 48.610038613385086 -68.326006887757103 0 -68.326006887757103 384.44028240963235 0 0 0 0 104.09371015255601 -166.9641210260088 0 -166.9641210260088 248.580870604761 0 0 0 0 115.07440878465968 -27.738474622907233 0 -27.738474622907233 141.25280379303149 0 0 0 0 -14.1738298857865 0.14129167012478661 0 0.14129167012478661 0.71066449992530067 0 0 0 0 193.05271433545386 -34.63439681348973 0 -34.63439681348973 403.06967168494702 0 0 0 0 -476.47674229073891 -107.32382967599551 0 -107.32382967599551 193.64921392687393 0 0 0 0 178.49704092731008 -276.84197889405914 0 -276.84197889405914 492.67255141957139 0 0 0 0 7.0622101662230072 -21.350524067151724 0 -21.350524067151724 1.7781624942562644 0 0 0 0 -28.439478742318443 -57.030609424824434 0 -57.030609424824434 -170.69170545856468 0 0 0 0 2.1360653202367494 -0.17890903078566112 0 -0.17890903078566112 -4.8122693758409412 0 0 0 0 6.9826302906622004 115.22917436360876 0 115.22917436360876 -165.95664177257277 0 0 0 0 85.829367334172275 -102.41890911761948 0 -102.41890911761948 86.658214855240658 0 0 0 0 48.997522219255188 53.356530451244907 0 53.356530451244907 -50.314738610257336 0 0 0 0 52.910234402029118 -72.040648559696592 0 -72.040648559696592 38.564739912108053 0 0 0 0 41.183954583531886 -13.527691189650795 0 -13.527691189650795 108.09752098149329 0 0 0 0 38.547481376503129 41.445760523551144 0 41.445760523551144 -105.67856806697091 0 0 0 0 -34.415981603098771 -44.977939831223921 0 -44.977939831223921 84.493365397222078 0 0 0 0 93.823909842456487 -131.11129427789456 0 -131.11129427789456 107.17506572978164 0 0 0 0 78.648928032813274 -78.095454505382804 0 -78.095454505382804 -98.156365076429211 0 0 0 0 -1.9298609036886774 -4.805870485091873 0 -4.805870485091873 -22.483991239474562 0 0 0 0 -1.4632316197203181 -9.7156369331860333 0 -9.7156369331860333 -83.228433613343441 0 0 0 0 71.467496852457771 -39.129820381578611 0 -39.129820381578611 -110.69755673390318 0 0 0 0 39.409915205287689 -5.8718316109807347 0 -5.8718316109807347 -42.085569341943483 0 0 0 0 16.255164901916107 -39.442515842644283 0 -39.442515842644283 11.60035096247482 0 0 0 0 28.545841226270568 -63.962405897462304 0 -63.962405897462304 154.68241337190557 0 0 0 0 38.525053060035134 -16.952395954052918 0 -16.952395954052918 169.1827550311391 0 0 0 0 -0.50668251356319161 -123.56257146658118 0 -123.56257146658118 93.730798393269652 0 0 0 0 85.396949654387754 -72.875143797584315 0 -72.875143797584315 -125.82104543727473 0 0 0 0 13.848041732969392 -39.583008170944055 0 -39.583008170944055 15.194261713181028 0 0 0 0 7.3109036540427041 -29.994760597966888 0 -29.994760597966888 105.24722498768097 0 0 0 0 2.8964418260179627 -10.351897038643074 0 -10.351897038643074 114.08281373104546 0 0 0 0 9.7357057049448485 -24.2579864069412 0 -24.2579864069412 -1.4180147795577795 0 0 0 0 4.6274834942167296 -1.7666838836534282 0 -1.7666838836534282 2.4035791756311298 0 0 0 0 26.466557575076877 73.664397243031999 0 73.664397243031999 82.129225419948853 0 0 0 0 11.450863001215112 43.712211002784898 0 43.712211002784898 23.001153261662694 0 0 0 0 24.84237624423622 40.835287757712649 0 40.835287757712649 -9.07041107655823 0 0 0 0 -10.465537748386851 3.0435340547264786 0 3.0435340547264786 9.3853417994250776 0 0 0 0 38.352335789615609 -29.923363204485213 0 -29.923363204485213 -30.045488933741581 0 0 0 0 1.6583060656903399 19.614394318388804 0 19.614394318388804 -22.666571406698495 0 0 0 0 1.0038230487428645 -2.1502921947840008 0 -2.1502921947840008 3.1785918452135462 0 0 0 0 5.4751195417120471 -13.068322372067541 0 -13.068322372067541 70.914206257737533 0 0 0 0 10.636058825117743 -28.184039220588602 0 -28.184039220588602 61.440137120756845 0 0 0 0 6.2561391650774567 -8.8205235565965268 0 -8.8205235565965268 93.35252593284531 0 0 0 0 7.6370869767306431 -33.189226314956613 0 -33.189226314956613 79.112343176442664 0 0 0 0 -2.2079434688563957 1.4013519795405429 0 1.4013519795405429 21.286029841112168 0 0 0 0 9.4332087136390328 -15.812100417089823 0 -15.812100417089823 28.284593505930388 0 0 0 0 10.94253911433367 -11.871587048966177 0 -11.871587048966177 9.6337932927417924 0 0 0 0 11.603647425101371 -16.863839865156478 0 -16.863839865156478 14.352294411124603 0 0 0 0 10.608505803688786 -16.047843840988207 0 -16.047843840988207 19.497145882243331 0 0 0 0 9.7919318217204818 -13.313020832752954 0 -13.313020832752954 19.957507390921819 0 0 0 0 9.3543656431938871 -14.85806795975077 0 -14.85806795975077 24.98193425581303 0 0 0 0 4.7732172803443973 -16.25981339257487 0 -16.25981339257487 11.63443969932996 0 0 0 0 9.1131145003872405 -14.309698632628439 0 -14.309698632628439 4.9381863172173723 0 0 0 0 7.0863138492495779 -11.855041336959843 0 -11.855041336959843 9.3168173854639491 0 0 0 0 -67.39936456896794 -15.441761477446562 0 -15.441761477446562 218.14367943692196 0 0 0 0 -65.483595939436327 4.7063222046574538 0 4.7063222046574538 193.47821217418823 0 0 0 0 45.190494056244461 -55.867105835384791 0 -55.867105835384791 -15.803106780738744 0 0 0 0 -2.6758904022474397 -36.741522417814437 0 -36.741522417814437 12.446548640443517 0 0 0 0 77.230030682742381 -107.50072018476931 0 -107.50072018476931 91.917911451564578 0 0 0 0 -64.855467889129613 44.960705539004266 0 44.960705539004266 266.22753065239522 0 0 0 0 2.7006664782929874 15.412556132589089 0 15.412556132589089 60.546199804826756 0 0 0 0 -12.60252813842817 -55.572042242303723 0 -55.572042242303723 214.25192935852101 0 0 0 0 -28.744521897377126 -111.65086712033371 0 -111.65086712033371 189.88063519899879 0 0 0 0 -49.111271319377011 -48.562107602328979 0 -48.562107602328979 239.95442558199284 0 0 0 0 -82.895719279546029 -39.738741920198663 0 -39.738741920198663 120.05223876270838 0 0 0 0 33.452696858603304 -62.354746100209013 0 -62.354746100209013 121.08306369358615 0 0 0 0 -32.598479971897177 -66.143222035119834 0 -66.143222035119834 273.26762344201052 0 0 0 0 -3.6164486020315962 -114.24074932862277 0 -114.24074932862277 213.91320156064467 0 0 0 0 36.2132236622856 -112.90092565277155 0 -112.90092565277155 -32.118534741795884 0 0 0 0 8.0667921909674405 -38.664300129137388 0 -38.664300129137388 14.863515724105795 0 0 0 0 142.81385317611057 -49.052757999994355 0 -49.052757999994355 -51.959418139322224 0 0 0 0 68.322195733042463 8.8781378123676404 0 8.8781378123676404 34.715128099524009 0 0 0 0 -72.693286032060314 -12.985742718028632 0 -12.985742718028632 318.6704910138651 0 0 0 0 2.4543880254874004 0.11268154308224609 0 0.11268154308224609 -0.33918395612467833 0 0 0 0 17.076216222116273 -45.98608231691469 0 -45.98608231691469 62.39841115757099 0 0 0 0 48.518027246424936 130.67405868868991 0 130.67405868868991 117.44219693137711 0 0 0 0 -31.866609390286612 -42.095156009829225 0 -42.095156009829225 102.15100673590496 0 0 0 0 -0.55025599273391279 1.8073048757326973 0 1.8073048757326973 1.89868483377019 0 0 0 0 4.2867701698432938 19.202795064338716 0 19.202795064338716 197.0876959503712 0 0 0 0 71.498541690493767 -23.408173685998918 0 -23.408173685998918 144.23155466803291 0 0 0 0 -4.2002335883316846 -3.3646067250956548 0 -3.3646067250956548 144.47134665226656 0 0 0 0 -24.172144693662631 6.1363650509465515 0 6.1363650509465515 160.98051806097919 0 0 0 0 -14.329015770441401 -79.912475890167116 0 -79.912475890167116 243.95327601712052 0 0 0 0 -43.239089912545751 -33.395213738753228 0 -33.395213738753228 172.11330459439341 0 0 0 0 -43.89809566185977 -30.487243518626201 0 -30.487243518626201 189.63179267768692 0 0 0 0 -58.77614964368513 -16.813033871181688 0 -16.813033871181688 178.54265094736911 0 0 0 0 -23.264944020889743 26.447639936723135 0 26.447639936723135 215.94973742015281 0 0 0 0 43.266243654121354 10.444350310892332 0 10.444350310892332 19.6216293672951 0 0 0 0 393.03919822198714 -460.22117432721916 0 -460.22117432721916 428.66044764367689 0 0 0 0 258.39582337367756 260.9663364531516 0 260.9663364531516 156.23736908499995 0 0 0 0 -322.05283720362786 114.26904656776605 0 114.26904656776605 -27.948371195576328 0 0 0 0 -79.607425547881576 -497.8212979270902 0 -497.8212979270902 239.52918880143079 0 0 0 0 -16.234758114704164 -15.311689089765423 0 -15.311689089765423 41.704968121572165 0 0 0 0 -10.545816275622016 -19.104619050118622 0 -19.104619050118622 75.678674449847151 0 0 0 0 -13.490559138482645 -18.481562196081246 0 -18.481562196081246 69.092035434889667 0 0 0 0 -463.11322995667069 -550.27648478341871 0 -550.27648478341871 412.76927195737517 0 0 0 0 -65.166979863768574 -340.13616833048036 0 -340.13616833048036 -43.925662705791183 0 0 0 0 -266.90989114925469 -161.68886823858338 0 -161.68886823858338 929.76638509319309 0 0 0 0 1.2215858607849555 -2.1755995308205556 0 -2.1755995308205556 7.957949491832693 0 0 0 0 249.88060902331927 547.65416134319821 0 547.65416134319821 369.02790784372155 0 0 0 0 307.27528583474123 322.79438757163007 0 322.79438757163007 -174.36914927683756 0 0 0 0 -57.07044267999396 19.731367333710864 0 19.731367333710864 547.5336831956447 0 0 0 0 72.360366191870526 -146.49175741999716 0 -146.49175741999716 107.70092300782562 0 0 0 0 262.57984276864227 29.504525729478928 0 29.504525729478928 715.24403178617717 0 0 0 0 -48.069830047963478 -249.59329303902541 0 -249.59329303902541 -122.00569515114169 0 0 0 0 2.2835087990111873 -8.13907640726217 0 -8.13907640726217 5.0770487897957626 0 0 0 0 -85.860874902889009 172.52648107404559 0 172.52648107404559 868.45583482170025 0 0 0 0 -40.178478392042052 -37.68504157888583 0 -37.68504157888583 90.729467537210439 0 0 0 0 -142.90942136621743 657.62356925912354 0 657.62356925912354 -128.44777883642928 0 0 0 0 -213.84727167714107 -811.58776674741443 0 -811.58776674741443 1474.9173153011598 0 0 0 0 15.042529242372439 8.5690038110255955 0 8.5690038110255955 73.152764893109634 0 0 0 0 -57.394303184251839 -8.576591688213739 0 -8.576591688213739 92.992791155046689 0 0 0 0 -224.5068350399888 -100.95976540967968 0 -100.95976540967968 214.97935547270026 0 0 0 0 -5.386560890854394 -19.807140363130401 0 -19.807140363130401 91.336813020403881 0 0 0 0 87.959907743232407 37.002597013764671 0 37.002597013764671 -30.844904092185971 0 0 0 0 -4.4124588244092529 -34.109052335620746 0 -34.109052335620746 60.445488443245381 0 0 0 0 39.398344433948296 -148.67724447594992 0 -148.67724447594992 143.68054583575974 0 0 0 0 3.0765861461577515 44.58140954666942 0 44.58140954666942 131.63274011099747 0 0 0 0 74.054284918085614 119.8488182385081 0 119.8488182385081 110.43368018363253 0 0 0 0 -58.093954802580811 -9.2436521372310381 0 -9.2436521372310381 152.10419233423454 0 0 0 0 -4.9854982451875678 -24.684728875602083 0 -24.684728875602083 95.764555297387773 0 0 0 0 -3.4277934582085479 1.2349853764535368 0 1.2349853764535368 42.13015472569009 0 0 0 0 -52.930932011713594 -96.043166846860004 0 -96.043166846860004 115.90536088668887 0 0 0 0 23.040804457238664 -6.050619043597635 0 -6.050619043597635 10.849860752507084 0 0 0 0 1.3979551677614879 -8.9858002068204144 0 -8.9858002068204144 64.314102539567301 0 0 0 0 -6.297065303519048 -1.302493979488645 0 -1.302493979488645 28.835941944220394 0 0 0 0 3.8330491145442522 -13.604114932074957 0 -13.604114932074957 18.27362718360672 0 0 0 0 -22.053953621801156 -19.514389187172128 0 -19.514389187172128 8.4845575182043831 0 0 0 0 -16.583475099772599 -31.496750141730089 0 -31.496750141730089 27.31472868477708 0 0 0 0 -1.8471749728905706 -15.241313774535229 0 -15.241313774535229 169.3235162091878 0 0 0 0 -54.451076272933733 4.9420480098706321 0 4.9420480098706321 230.19852220504981 0 0 0 0 -4.2231984514565148 31.810330280917555 0 31.810330280917555 12.79295735122507 0 0 0 0 -33.87256557140303 -11.505187004829807 0 -11.505187004829807 48.762646671928522 0 0 0 0 0.5255486082396601 28.054447066962894 0 28.054447066962894 115.68898858939065 0 0 0 0 -3.6263072254823783 -65.450091523860465 0 -65.450091523860465 -99.395177769067232 0 0 0 0 -4.1025922128794718 17.741178790266531 0 17.741178790266531 96.346395766369824 0 0 0 0 -5.1509729781701026 18.842497345594893 0 18.842497345594893 95.189700409420766 0 0 0 0 -13.952362042344248 -3.0372039701323956 0 -3.0372039701323956 112.6462574048237 0 0 0 0 -11.60366546337627 26.619952611923196 0 26.619952611923196 28.434889829221227 0 0 0 0 -19.893957219683216 -11.368011750284495 0 -11.368011750284495 206.70715078840294 0 0 0 0 -19.712951895034138 -23.989378006698324 0 -23.989378006698324 100.30015127100469 0 0 0 0 -11.322768447775161 -9.8496845797562855 0 -9.8496845797562855 101.98321654994652 0 0 0 0 -0.72900775375183002 1.8546176962081518 0 1.8546176962081518 111.16226819470467 0 0 0 0 -5.9930772274714812 3.5371756282364046 0 3.5371756282364046 58.631390371103322 0 0 0 0 -1.5047211548280757 6.4926965394661238 0 6.4926965394661238 75.794986588101892 0 0 0 0 -9.5662622821318841 -7.1287925352285875 0 -7.1287925352285875 72.515742641301699 0 0 0 0 -8.6144148096773581 -1.0654247644240016 0 -1.0654247644240016 70.786912934128893 0 0 0 0 -7.5415288417594297 16.952830361075939 0 16.952830361075939 100.03681703468465 0 0 0 0 -1.9976210304977098 -1.0340720686230469 0 -1.0340720686230469 62.970770172902903 0 0 0 0 -16.730054704288705 1.091037732147015 0 1.091037732147015 98.703674210093595 0 0 0 0 -4.0533401444054107 14.588038524667354 0 14.588038524667354 92.098341178447299 0 0 0 0 -9.4866891031660998 2.2409075927134836 0 2.2409075927134836 84.822731996748189 0 0 0 0 -1.0054818204989715 14.104835528629337 0 14.104835528629337 87.175073548001819 0 0 0 0 -23.698708024144061 -15.304368675889307 0 -15.304368675889307 59.741384906428792 0 0 0 0 368.28655186787 -405.3575878868869 0 -405.3575878868869 310.94558325700928 0 0 0 0 -4.6500496458920679 11.724625849023141 0 11.724625849023141 102.38092629162566 0 0 0 0 -7.4723885645373684 0.93883119201836962 0 0.93883119201836962 51.926668438747583 0 0 0 0 2.8792160259794985 8.5559101072290655 0 8.5559101072290655 62.6931606715969 0 0 0 0 8.7811715226330307 6.2739520891482243 0 6.2739520891482243 91.368389026210934 0 0 0 0 28.102509363779973 25.276333135261666 0 25.276333135261666 191.01844175953192 0 0 0 0 23.919452448062657 3.4843250656485907 0 3.4843250656485907 203.75361713689927 0 0 0 0 7.5813974857578792 12.99138139414088 0 12.99138139414088 42.97505514800126 0 0 0 0 10.081060471868113 -2.9438813613596722 0 -2.9438813613596722 224.94117288099642 0 0 0 0 -16.954103128379604 0.044514625331560254 0 0.044514625331560254 113.80093627459806 0 0 0 0 -25.559805333008455 -20.040384207641182 0 -20.040384207641182 52.205716284559458 0 0 0 0 2.0946368195955074 10.746262060483787 0 10.746262060483787 225.18315129524126 0 0 0 0 -11.983541305307455 0.39144399879918979 0 0.39144399879918979 48.965120843159774 0 0 0 0 -72.66888903284007 -29.858037056455942 0 -29.858037056455942 64.20489795904723 0 0 0 0 50.866302020896001 -92.02027630941302 0 -92.02027630941302 -31.515572737320326 0 0 0 0 -11.56780115786324 -23.660758595350188 0 -23.660758595350188 15.630986880205199 0 0 0 0 42.498606026390917 19.453202841978054 0 19.453202841978054 216.261480872432 0 0 0 0 -30.281746972204335 -50.359164043644014 0 -50.359164043644014 104.85243339898697 0 0 0 0 10.998109693546212 11.987076828492718 0 11.987076828492718 253.2813095337151 0 0 0 0 0.65934900120332074 -11.247028662871429 0 -11.247028662871429 -26.74741215581497 0 0 0 0 20.891689911892172 -7.7924029821806471 0 -7.7924029821806471 225.72467032085206 0 0 0 0 -2.7365697434299818 -52.657451143571961 0 -52.657451143571961 31.785572453343775 0 0 0 0 -141.91687360249671 -57.105655396386283 0 -57.105655396386283 224.17773225274868 0 0 0 0 -12.669121142209406 -40.040173008397687 0 -40.040173008397687 59.154413782423944 0 0 0 0 -78.493748489687277 514.77754735428607 0 514.77754735428607 340.15542125317734 0 0 0 0 -15.781738401193437 -22.862337311601443 0 -22.862337311601443 41.594688821070051 0 0 0 0 -1.0864895953468814 7.3348501619816062 0 7.3348501619816062 28.188618728706331 0 0 0 0 -31.78154686151538 -76.154488728599972 0 -76.154488728599972 115.50323506465065 0 0 0 0 -26.1643088750061 -75.429723329845729 0 -75.429723329845729 42.30756037888932 0 0 0 0 -140.36029704189104 97.212597777703195 0 97.212597777703195 -27.43357611047395 0 0 0 0 -76.918078948688162 -25.647198191822099 0 -25.647198191822099 78.098543344858626 0 0 0 0 -84.30679851459675 63.644535627141295 0 63.644535627141295 -68.631899861669808 0 0 0 0 -134.04055308710193 60.714464363495381 0 60.714464363495381 1.5806095855077729 0 0 0 0 0.99009611270848685 1.3257345588792759 0 1.3257345588792759 2.182523145221495 0 0 0 0 80.663298175137555 -254.76294052098228 0 -254.76294052098228 299.29696475666424 0 0 0 0 105.91246287237072 -29.483382473052188 0 -29.483382473052188 62.358861449079996 0 0 0 0 -350.06365107749616 115.55724900217319 0 115.55724900217319 272.04250759945717 0 0 0 0 -2.670721775212769 18.263777364809357 0 18.263777364809357 96.432089464803539 0 0 0 0 -23.962627048843721 -16.12761502179093 0 -16.12761502179093 47.029872672321531 0 0 0 0 132.36744023661777 -289.13703912260826 0 -289.13703912260826 251.48170788190328 0 0 0 0 -128.80273114951501 41.483874332639971 0 41.483874332639971 -33.79620906207856 0 0 0 0 -14.267342433422579 -9.5946452763486523 0 -9.5946452763486523 66.556541620150171 0 0 0 0 30.06566953455058 21.612116103235621 0 21.612116103235621 99.940326576547989 0 0 0 0 19.84914717044887 32.378017954619366 0 32.378017954619366 29.385462194471003 0 0 0 0 1.0817614853276609 -5.3095979461650131 0 -5.3095979461650131 98.038336447134498 0 0 0 0 -0.12683975454592655 42.875395029656829 0 42.875395029656829 146.0869437087531 0 0 0 0 20.642260049064134 33.664504230197053 0 33.664504230197053 85.441699643586617 0 0 0 0 0.56432161451781226 1.8121666631635591 0 1.8121666631635591 12.841832675720381 0 0 0 0 27.681371727971054 13.846080995739612 0 13.846080995739612 46.819303530217439 0 0 0 0 110.42264587624959 13.240096768031435 0 13.240096768031435 259.79555064716988 0 0 0 0 51.720264838854746 118.71607982780733 0 118.71607982780733 327.30265530922043 0 0 0 0 0.89872939669068685 7.1010983348059398 0 7.1010983348059398 10.733345713819688 0 0 0 0 -24.899500124109181 30.262152114013588 0 30.262152114013588 302.06391545460519 0 0 0 0 63.766340050130566 -43.329265986923929 0 -43.329265986923929 108.70635200950346 0 0 0 0 39.448530511368517 63.463332472743787 0 63.463332472743787 293.19611736011575 0 0 0 0 -37.38977019725553 16.273588460561768 0 16.273588460561768 247.80272220166444 0 0 0 0 -10.183635004020289 36.826987549144178 0 36.826987549144178 220.66245503085156 0 0 0 0 -17.992244734836063 -28.536506887369981 0 -28.536506887369981 157.49592471070213 0 0 0 0 -31.933498545321982 -31.841722853820102 0 -31.841722853820102 200.37930410684021 0 0 0 0 9.6982666784251705 -62.487694296909467 0 -62.487694296909467 155.37592718574524 0 0 0 0 -4.2056107044483859 -14.825956452316674 0 -14.825956452316674 51.395153917633486 0 0 0 0 38.255520628095383 3.2013768301312666 0 3.2013768301312666 194.01962419920164 0 0 0 0 31.929018045393605 17.325430433178553 0 17.325430433178553 227.21720322559486 0 0 0 0 15.47317747070224 -4.1996284533288417 0 -4.1996284533288417 181.41519232274368 0 0 0 0 14.747862620948581 -15.648076354769728 0 -15.648076354769728 211.62358768377817 0 0 0 0 2.0517141363901281 0.051864046203913716 0 0.051864046203913716 -0.50812984276730333 0 0 0 0 -0.33046566030679969 55.205671555955632 0 55.205671555955632 263.27211267050006 0 0 0 0 22.426054652620223 0.16911943389823136 0 0.16911943389823136 243.83958760020323 0 0 0 0 13.627482875508576 11.207120932056569 0 11.207120932056569 229.99772374992608 0 0 0 0 2.910535919177164 16.338793402329884 0 16.338793402329884 93.690287784595057 0 0 0 0 -3.9832316661068035 11.138848939845957 0 11.138848939845957 115.50455164792936 0 0 0 0 -7.237678714431258 -1.7009386171633132 0 -1.7009386171633132 65.517659979939424 0 0 0 0 -6.6069997615795231 -7.106030707801521 0 -7.106030707801521 74.628469415029869 0 0 0 0 19.067244635374209 9.5021736869707638 0 9.5021736869707638 90.895424331682079 0 0 0 0 22.87181874041471 21.709365068699071 0 21.709365068699071 95.778296589433921 0 0 0 0 -7.6072280445986422 -1.4958063058568882 0 -1.4958063058568882 76.121565887526046 0 0 0 0 21.047201931700329 15.63687899623028 0 15.63687899623028 112.96747076709289 0 0 0 0 -7.6136730136013284 -13.819508518912698 0 -13.819508518912698 84.648119582786876 0 0 0 0 16.293408558933152 5.3488222759069686 0 5.3488222759069686 117.36622532181673 0 0 0 0 -2.9780084994510467 8.085045656817119 0 8.085045656817119 72.639685461262673 0 0 0 0 -4.327286610425455 9.0706112286040295 0 9.0706112286040295 73.224701825552671 0 0 0 0 -0.84004259240236934 -4.0071852055089749 0 -4.0071852055089749 126.82641849535014 0 0 0 0 20.760967444519338 7.9499834926523363 0 7.9499834926523363 109.93213224566762 0 0 0 0 8.7711093387337442 -0.8005707088259868 0 -0.8005707088259868 49.125451705478746 0 0 0 0 0.63057751456873135 -2.1584005053590576 0 -2.1584005053590576 48.203781511784307 0 0 0 0 4.8721355634776913 2.1002583543041613 0 2.1002583543041613 57.590145535397824 0 0 0 0 4.7696995118531049 1.6159360154124442 0 1.6159360154124442 61.020498615442193 0 0 0 0 -22.027734651692299 5.9449849285610981 0 5.9449849285610981 47.07953166669904 0 0 0 0 -8.858288551569558 -2.2121062879440778 0 -2.2121062879440778 92.54039221902903 0 0 0 0 -6.9399214557497029 -16.122082013122501 0 -16.122082013122501 77.468617318764998 0 0 0 0 28.24128110190145 13.30427601434053 0 13.30427601434053 102.94428800776132 0 0 0 0 16.870469553761723 27.855136312762625 0 27.855136312762625 166.13968760236821 0 0 0 0 20.312780131930595 -2.4584270401319372 0 -2.4584270401319372 48.172349098431368 0 0 0 0 33.315166028730765 7.6245439103878141 0 7.6245439103878141 88.108263384675709 0 0 0 0 74.398925106728711 56.214700020009332 0 56.214700020009332 113.03660887875776 0 0 0 0 4.1746365061335435 5.6641364072023563 0 5.6641364072023563 8.733606031231762 0 0 0 0 15.333146661942408 -5.6562176853767596 0 -5.6562176853767596 46.342048633481681 0 0 0 0 13.960300651229772 30.918159234795894 0 30.918159234795894 175.83374295406611 0 0 0 0 35.708697906690503 11.183053474833727 0 11.183053474833727 11.559250059517211 0 0 0 0 56.45033799840985 -69.49887868537553 0 -69.49887868537553 -16.715372664660208 0 0 0 0 -28.989725036694836 -193.17777428028057 0 -193.17777428028057 218.96332411692129 0 0 0 0 8.9045331050975776 1.5095041138626257 0 1.5095041138626257 12.706380734616165 0 0 0 0 59.892729320950821 18.697732530941721 0 18.697732530941721 164.15691443115793 0 0 0 0 59.247699476496791 68.856818285129577 0 68.856818285129577 146.91063203399972 0 0 0 0 9.3593249467685382 54.338195166859805 0 54.338195166859805 140.32935307883963 0 0 0 0 61.278790637285056 37.41652145273838 0 37.41652145273838 90.576887630570127 0 0 0 0 23.619953127734334 25.663517259839864 0 25.663517259839864 134.17974007195153 0 0 0 0 14.616724078596008 43.451356604867669 0 43.451356604867669 178.22374666648102 0 0 0 0 19.087735548227101 67.054258461730569 0 67.054258461730569 190.47475252002914 0 0 0 0 -6.9569474656900638 -98.240905126560392 0 -98.240905126560392 247.62183212312084 0 0 0 0 37.329324882141549 9.9807454205701376 0 9.9807454205701376 -6.8496730343571262 0 0 0 0 190.97903385938753 -96.937554077716413 0 -96.937554077716413 -183.89220313923215 0 0 0 0 -80.899686326595656 208.79040036734659 0 208.79040036734659 66.708228465740831 0 0 0 0 3.8537580900816746 0.26781726120773897 0 0.26781726120773897 2.2188868915707314 0 0 0 0 71.964408541209195 94.187397956735367 0 94.187397956735367 486.68797324226762 0 0 0 0 177.28657179050151 3.8701105469590402 0 3.8701105469590402 572.72849370830045 0 0 0 0 26.816059815813787 110.67731291291784 0 110.67731291291784 527.12515551152319 0 0 0 0 -346.98197311818694 36.545708829322393 0 36.545708829322393 1180.3746263915618 0 0 0 0 -61.236034098781602 -27.382395759204883 0 -27.382395759204883 669.20888205619121 0 0 0 0 15.439172415454777 5.2264571374544175 0 5.2264571374544175 199.43056899806015 0 0 0 0 10.426673235490625 52.031583947003128 0 52.031583947003128 693.72481451420026 0 0 0 0 99.358611435070998 -137.79247725860841 0 -137.79247725860841 716.00467743227273 0 0 0 0 8.1297397056364709 2.7809633304567676 0 2.7809633304567676 0.78829103676311796 0 0 0 0 227.957878726731 -387.29086613967957 0 -387.29086613967957 -723.28521466312668 0 0 0 0 78.559384901249359 -209.27416933443965 0 -209.27416933443965 -267.73868838469207 0 0 0 0 86.918791424617666 -523.796055091585 0 -523.796055091585 -514.54273722226026 0 0 0 0 15.426952909949385 9.7246240837504345 0 9.7246240837504345 2.3009152573719049 0 0 0 0 420.67514027103925 950.53701695790596 0 950.53701695790596 732.41176603945496 0 0 0 0 167.8078797892822 67.767554062354066 0 67.767554062354066 363.50843962197359 0 0 0 0 -431.92572748379098 -494.92519970316789 0 -494.92519970316789 108.09177156072474 0 0 0 0 97.361898961230736 -7.2796932823416682 0 -7.2796932823416682 42.430627225599892 0 0 0 0 8.5716769865499511 1.546075528563307 0 1.546075528563307 34.688171990422369 0 0 0 0 5.7691551367497595 -0.88606473110030493 0 -0.88606473110030493 42.17366921023131 0 0 0 0 3.1454996281336207 8.0694647994009756 0 8.0694647994009756 61.01444267169154 0 0 0 0 14.183477701055381 0.6836717351579864 0 0.6836717351579864 53.522792548588768 0 0 0 0 3.6729376525486011 -1.0732844147865279 0 -1.0732844147865279 46.896639827418184 0 0 0 0 2.707454387326834 -15.039535330003673 0 -15.039535330003673 63.053691183667752 0 0 0 0 8.5511517928879606 -9.3280463194955132 0 -9.3280463194955132 69.526069066077667 0 0 0 0 -888.9493890087324 996.42707586602774 0 996.42707586602774 879.35059558147805 0 0 0 0 9.2219274098277157 -24.554452451285972 0 -24.554452451285972 43.533486962457921 0 0 0 0 8.2281200076686218 -17.948326053642631 0 -17.948326053642631 45.284989240156165 0 0 0 0 2272.3933638218732 -610.62440619821427 0 -610.62440619821427 656.09608658889192 0 0 0 0 16.442382271244696 -4.0669574965213542 0 -4.0669574965213542 47.528329311622656 0 0 0 0 16.044369669269656 -4.7512711627905446 0 -4.7512711627905446 46.986815273907268 0 0 0 0 14.617936970990741 -4.3027268223395367 0 -4.3027268223395367 49.682094323598903 0 0 0 0 13.839370400246366 -5.7477365765935247 0 -5.7477365765935247 48.010691588126065 0 0 0 0 6.0352421821795694 -15.522715668164055 0 -15.522715668164055 28.24676297137151 0 0 0 0 14.489069806182442 -6.4910103562833683 0 -6.4910103562833683 46.94380329685373 0 0 0 0 15.0316059279603 -6.0221052168744791 0 -6.0221052168744791 46.422935352241439 0 0 0 0 15.847699612039378 -4.8661281689201132 0 -4.8661281689201132 47.636259001097642 0 0 0 0 398.35001119057415 -17.206379948333051 0 -17.206379948333051 -891.65489139774581 0 0 0 0 177.00278891294874 -53.583669525414734 0 -53.583669525414734 -473.06247031818202 0 0 0 0 51.206664106986864 -39.339614311658806 0 -39.339614311658806 -269.07319367245145 0 0 0 0 102.9345009623903 -232.71073328968123 0 -232.71073328968123 -354.38481146912636 0 0 0 0 193.45039767087019 12.700686973875236 0 12.700686973875236 -268.41956433920132 0 0 0 0 173.15745544856509 195.25959271616375 0 195.25959271616375 -277.63256664519031 0 0 0 0 556.92634973234772 523.00364182463682 0 523.00364182463682 -59.578096624616592 0 0 0 0 412.50667258366047 159.8512659290609 0 159.8512659290609 -443.34310379395174 0 0 0 0 120.85085013235539 -95.601431103021241 0 -95.601431103021241 176.89689605422609 0 0 0 0 38.379406542513607 -85.096747512594447 0 -85.096747512594447 -88.803452437225133 0 0 0 0 0.10877398561869711 -33.753990550196015 0 -33.753990550196015 74.33333772017096 0 0 0 0 -5.6208186869677217 7.6285359782157656 0 7.6285359782157656 15.948498686101281 0 0 0 0 -4.7202973072398891 111.3333250787764 0 111.3333250787764 106.88728549909138 0 0 0 0 25.064440522062966 45.224223537212538 0 45.224223537212538 73.454383270903236 0 0 0 0 14.889550382964643 -49.299356174608647 0 -49.299356174608647 -13.14350831829961 0 0 0 0 4.5721492955163647 -8.9646106186283436 0 -8.9646106186283436 24.11295831636437 0 0 0 0 68.595146901984663 -25.208140539936721 0 -25.208140539936721 -94.903593332071978 0 0 0 0 23.960937440682983 -7.5520048238120125 0 -7.5520048238120125 51.240664184221714 0 0 0 0 -106.10665586916093 125.77284072740531 0 125.77284072740531 -64.946795457581175 0 0 0 0 1090.1867529041338 -1874.9707721935083 0 -1874.9707721935083 2466.2435121183585 0 0 0 0 -60.505609316576738 -28.592969764224108 0 -28.592969764224108 165.95939002465457 0 0 0 0 7.640353175383634 -4.1747437670264205 0 -4.1747437670264205 7.4783973902991061 0 0 0 0 55.128243867171477 -80.683339625814369 0 -80.683339625814369 -83.021319215484255 0 0 0 0 13.672888223645714 -83.526074304658323 0 -83.526074304658323 -79.009209502240992 0 0 0 0 -21.537035498316982 -2.5438242540403735 0 -2.5438242540403735 97.831831471754413 0 0 0 0 -2.3065176332714792 -6.3475622645552647 0 -6.3475622645552647 44.987402287462388 0 0 0 0 1539.7105865479134 2193.3325632556312 0 2193.3325632556312 3149.2596022610564 0 0 0 0 2065.7741815156496 2655.3440945716366 0 2655.3440945716366 1358.8226678711062 0 0 0 0 868.43410308286366 2733.689464585414 0 2733.689464585414 2740.0463517181925 0 0 0 0 1061.9688382681934 1873.9825582792264 0 1873.9825582792264 366.56162667110402 0 0 0 0 1484.0915503104425 2594.623119268213 0 2594.623119268213 1461.2755957795412 0 0 0 0 8.4503009252197963 7.2364245029950522 0 7.2364245029950522 0.83534165891057555 0 0 0 0 -472.07278378211413 655.25476813522118 0 655.25476813522118 4146.6099780311743 0 0 0 0 397.45739405711447 266.77992911536967 0 266.77992911536967 687.37222764103353 0 0 0 0 12.499955729773193 -12.243033231485374 0 -12.243033231485374 13.62941228708709 0 0 0 0 -94.519614844360149 180.29655895916187 0 180.29655895916187 1414.481191109714 0 0 0 0 997.88108935047239 1556.6841033397682 0 1556.6841033397682 1828.0869867981432 0 0 0 0 533.12670006683618 807.35541985799068 0 807.35541985799068 746.82960265847009 0 0 0 0 259.47170252601995 758.34655714026701 0 758.34655714026701 1062.4731921613181 0 0 0 0 443.14885211770172 -228.69071367550271 0 -228.69071367550271 592.51324400562589 0 0 0 0 610.85129668280024 951.23131374789227 0 951.23131374789227 1777.1400102472835 0 0 0 0 -93.714381796908128 151.67682771053296 0 151.67682771053296 509.19173986207079 0 0 0 0 70.237057429025299 1588.6672892841743 0 1588.6672892841743 1032.4170243880089 0 0 0 0 -164.13225444841737 -48.587568094644666 0 -48.587568094644666 480.02465475862846 0 0 0 0 9.2839387489914458 -0.82658899553774035 0 -0.82658899553774035 1.173817324941556 0 0 0 0 3.2579342230637849 -150.17416000845878 0 -150.17416000845878 110.21091227441866 0 0 0 0 -133.82416906909816 -330.54974536585792 0 -330.54974536585792 -8.3781541547868983 0 0 0 0 154.41089381938582 -27.802929217908968 0 -27.802929217908968 65.721220328814525 0 0 0 0 385.57490519018233 3571.0904501524401 0 3571.0904501524401 3051.0824562166672 0 0 0 0 -2120.3301228498444 -1423.3867098155388 0 -1423.3867098155388 837.5944108917065 0 0 0 0 -1160.848448364206 702.9949106508102 0 702.9949106508102 4139.2191244080605 0 0 0 0 -2103.328521770587 -782.20749626379802 0 -782.20749626379802 2161.1189680774442 0 0 0 0 -689.8901899614666 -719.40660607550853 0 -719.40660607550853 631.76244501488691 0 0 0 0 -757.20959886487981 -564.40847032222882 0 -564.40847032222882 738.2778672016284 0 0 0 0 -1062.441079268209 6.5688975316477354 0 6.5688975316477354 1339.4361030045329 0 0 0 0 -221.18574031175376 -147.51860779680101 0 -147.51860779680101 1253.207655221262 0 0 0 0 -109.88991806206309 -472.20741026979431 0 -472.20741026979431 707.05351309266916 0 0 0 0 -29.949678995659269 -349.36197410717887 0 -349.36197410717887 605.70778288280417 0 0 0 0 -328.34317160133742 -258.34404895542593 0 -258.34404895542593 367.93479430417938 0 0 0 0 -156.84564222122845 -499.91607210523125 0 -499.91607210523125 431.49407392825015 0 0 0 0 -213.9282630652815 -88.958671138459977 0 -88.958671138459977 443.46966172013822 0 0 0 0 -1207.6496947141295 -1102.4378484868439 0 -1102.4378484868439 -620.735909368188 0 0 0 0 -1394.5819244011491 -958.8670496754512 0 -958.8670496754512 499.75654225664039 0 0 0 0 -765.02632149593046 -294.29539359753835 0 -294.29539359753835 -462.56727707771643 0 0 0 0 -700.52024187686948 -517.81698324898753 0 -517.81698324898753 302.13753059546434 0 0 0 0 -245.86394780053161 -230.46876260886711 0 -230.46876260886711 -43.410215933285144 0 0 0 0 -1024.6833621253772 -445.37325605979822 0 -445.37325605979822 143.44126151839737 0 0 0 0 -79.060256045066126 163.29976228285341 0 163.29976228285341 111.47436746783933 0 0 0 0 -816.93069781242275 91.970025162366255 0 91.970025162366255 -292.2934543402589 0 0 0 0 -810.79179456643647 24.569670362571514 0 24.569670362571514 391.24663146870444 0 0 0 0 -135.60530901416644 449.95168230595073 0 449.95168230595073 762.12154770919733 0 0 0 0 -24.675361470120151 -285.37163876827799 0 -285.37163876827799 646.92320151721651 0 0 0 0 0.91400242015746969 3.3887502957293378 0 3.3887502957293378 1.5669677981174175 0 0 0 0 58.160808915196867 606.25697632610081 0 606.25697632610081 -357.32192832994588 0 0 0 0 -753.27523154589198 -50.757419537367241 0 -50.757419537367241 411.98206030422807 0 0 0 0 -554.59980497840843 429.39746136775466 0 429.39746136775466 500.48759041287849 0 0 0 0 -85.077606277493942 389.15295135103497 0 389.15295135103497 338.65580114750446 0 0 0 0 -301.35742596133787 754.34816297064845 0 754.34816297064845 606.79240683361968 0 0 0 0 -760.67890910596998 13.416830389385723 0 13.416830389385723 -594.97749909770209 0 0 0 0 1.8552799119453054 -15.587385671880028 0 -15.587385671880028 53.162659234657347 0 0 0 0 -437.58300363630406 -210.98429354240579 0 -210.98429354240579 -58.974550643148177 0 0 0 0 -261.28004735963805 266.69772385565011 0 266.69772385565011 364.24047998452988 0 0 0 0 -407.70650182474037 331.44939671192878 0 331.44939671192878 549.60284831038007 0 0 0 0 -585.49532710046333 -95.11448185588597 0 -95.11448185588597 96.864414786470661 0 0 0 0 -746.15256691508603 9.1762058527328918 0 9.1762058527328918 77.263653616962984 0 0 0 0 -970.65093086444904 -475.73319516390256 0 -475.73319516390256 -248.55147015345392 0 0 0 0 -892.15318686199771 -292.17542046785456 0 -292.17542046785456 208.9993169305053 0 0 0 0 657.80376454942916 1221.4399034654052 0 1221.4399034654052 203.98061996210527 0 0 0 0 -423.0132989744925 -816.90359034478024 0 -816.90359034478024 1055.9999934058942 0 0 0 0 -2.3039756015816284 -21.826205741625497 0 -21.826205741625497 101.65415449193677 0 0 0 0 -25.281003261895876 1015.3652652633091 0 1015.3652652633091 1682.8114291874772 0 0 0 0 -789.50118309792924 306.29631919865642 0 306.29631919865642 -1302.5632096523223 0 0 0 0 -2.644141686067818 -2.378337660436908 0 -2.378337660436908 25.515174918754393 0 0 0 0 -13.047595465247383 647.4466559924681 0 647.4466559924681 1711.3584061167967 0 0 0 0 651.39168247053385 256.35707667085899 0 256.35707667085899 1920.7430109953111 0 0 0 0 361.08381586374617 803.35186945770329 0 803.35186945770329 1366.8454766682808 0 0 0 0 346.37198589751205 908.81359385397263 0 908.81359385397263 1568.8732694851715 0 0 0 0 -2.7450661050408574 -19.735357055309262 0 -19.735357055309262 92.833738523572976 0 0 0 0 -1598.9390096678289 46.136945647540415 0 46.136945647540415 43.633584787901782 0 0 0 0 -1718.0519125124829 -528.0039571639827 0 -528.0039571639827 187.60784990720822 0 0 0 0 -194.72171677541701 -1303.7270364393626 0 -1303.7270364393626 2634.2061214660498 0 0 0 0 -916.49345692648058 98.299933719417822 0 98.299933719417822 300.89134434844891 0 0 0 0 -1263.9050773494564 -299.27685709508296 0 -299.27685709508296 119.70906176446624 0 0 0 0 -1094.268082303236 -124.45951405665892 0 -124.45951405665892 -1302.8170097446709 0 0 0 0 2612.3212341303824 -446.91949599156032 0 -446.91949599156032 -2521.8852877910467 0 0 0 0 2268.7886693724595 -704.61113913589384 0 -704.61113913589384 1387.5021008321783 0 0 0 0 2145.2434148131479 1577.9218368777547 0 1577.9218368777547 435.35855869356237 0 0 0 0 2253.7015039417856 1989.1223949913613 0 1989.1223949913613 -1958.0472364031277 0 0 0 0 677.49249094933725 817.49524208188438 0 817.49524208188438 1306.3971004853238 0 0 0 0 1277.028168847186 769.92051284775744 0 769.92051284775744 -311.90371594865564 0 0 0 0 1257.9873130207889 854.85707974944489 0 854.85707974944489 749.48128290581076 0 0 0 0 501.89442301360577 382.48162678045628 0 382.48162678045628 897.32132791199842 0 0 0 0 660.37749111749258 610.4372503123476 0 610.4372503123476 532.23134135557666 0 0 0 0 325.54341431594275 53.050998640225544 0 53.050998640225544 601.63052322293697 0 0 0 0 174.98069747074987 -0.099456798365281429 0 -0.099456798365281429 705.59213572382214 0 0 0 0 69.007036677387077 8.3639167029205055 0 8.3639167029205055 214.83894668996254 0 0 0 0 133.76641091954298 -79.151873108498421 0 -79.151873108498421 331.14034538799206 0 0 0 0 141.37248603935222 -102.32321328879198 0 -102.32321328879198 395.34423582302043 0 0 0 0 95.561367282280116 -5.1117112839529 0 -5.1117112839529 502.84543450613819 0 0 0 0 77.05115530538751 60.997110890765725 0 60.997110890765725 266.7484574600021 0 0 0 0 15.237117124903307 75.580903802134344 0 75.580903802134344 314.87245971941957 0 0 0 0 136.11577909609332 170.63512945370894 0 170.63512945370894 158.57856174317385 0 0 0 0 142.25540568175347 206.93723287500688 0 206.93723287500688 371.90415816472978 0 0 0 0 16.090889011284162 165.53876946184027 0 165.53876946184027 219.32519791794766 0 0 0 0 274.20351135255805 139.16145602315009 0 139.16145602315009 219.91248840869594 0 0 0 0 412.09336478810292 399.42781940741588 0 399.42781940741588 700.70548261423573 0 0 0 0 469.96529058786109 -42.014224618185835 0 -42.014224618185835 -518.54050146990812 0 0 0 0 844.81882790601958 203.89661446340324 0 203.89661446340324 -377.67663728316256 0 0 0 0 263.43697658137899 316.49067624348027 0 316.49067624348027 272.22620071804886 0 0 0 0 17.56081861427117 -3.9628899775774755 0 -3.9628899775774755 1.4235558717330186 0 0 0 0 159.2986701693153 142.57301749521503 0 142.57301749521503 23.137597298995388 0 0 0 0 -105.93104991670407 260.20107523250954 0 260.20107523250954 193.26519729869324 0 0 0 0 -296.06052589009778 -54.970382311032154 0 -54.970382311032154 -12.443958736922923 0 0 0 0 1111.3520382679753 514.76461877732982 0 514.76461877732982 -56.508651734824525 0 0 0 0 1087.6261732926114 1221.64774118682 0 1221.64774118682 1262.8091089670979 0 0 0 0 341.18638236026288 1207.360776020005 0 1207.360776020005 2001.2423038082343 0 0 0 0 -101.5335901174949 -106.5140429168132 0 -106.5140429168132 -48.66664577278425 0 0 0 0 -66.765999684666895 -208.78727038751822 0 -208.78727038751822 -103.09275806803817 0 0 0 0 -26.275843358251851 -3.0552976240095688 0 -3.0552976240095688 114.82757513432031 0 0 0 0 4.0815439520338259 -89.891134380067342 0 -89.891134380067342 -132.61736621713499 0 0 0 0 152.00671454184703 19.863806079149072 0 19.863806079149072 -93.677401724096853 0 0 0 0 -187.35126826848636 105.58159502424257 0 105.58159502424257 130.42151991834544 0 0 0 0 -168.57352049945985 299.58397487321042 0 299.58397487321042 -35.724859337602538 0 0 0 0 100.08533419032801 -209.75783913286159 0 -209.75783913286159 -412.51315956124745 0 0 0 0 -564.19860104555846 -428.13656112138415 0 -428.13656112138415 -9.6245480446959846 0 0 0 0 -6.1066602012631037 -42.184747285643262 0 -42.184747285643262 33.915439081866481 0 0 0 0 11.46947240200825 149.71391827674051 0 149.71391827674051 -224.12147666742203 0 0 0 0 -4.7402691412280547 117.49063794990252 0 117.49063794990252 -143.79351894266074 0 0 0 0 14.81417126337692 4.8565977157413727 0 4.8565977157413727 297.84005253816213 0 0 0 0 -47.143789115885738 287.37906287535588 0 287.37906287535588 78.960253338227631 0 0 0 0 16.191087633667848 88.556489922335174 0 88.556489922335174 105.26302101773763 0 0 0 0 -149.58914254883712 217.6133476406867 0 217.6133476406867 150.07244092433029 0 0 0 0 -66.227831287367735 264.31437787010145 0 264.31437787010145 85.492173191942129 0 0 0 0 -87.818472992265015 288.30918030482462 0 288.30918030482462 153.1800231604393 0 0 0 0 383.13254295890511 129.63077919090574 0 129.63077919090574 -4.1713892446659884 0 0 0 0 -80.172954671814296 314.86864796933651 0 314.86864796933651 127.86970425846812 0 0 0 0 -51.457887395350554 331.60076932145967 0 331.60076932145967 137.56328142208076 0 0 0 0 -54.037300395288185 317.99158870144765 0 317.99158870144765 86.361737888277275 0 0 0 0 -477.29693027041867 283.21780763838979 0 283.21780763838979 278.85950562291691 0 0 0 0 -142.97554289294203 599.66322278828375 0 599.66322278828375 280.87992416799534 0 0 0 0 264.32884625279348 -35.183217150538667 0 -35.183217150538667 132.78478281223215 0 0 0 0 375.24017226765136 375.72933792417462 0 375.72933792417462 39.032556366968493 0 0 0 0 -9.2175049177111106 5.9989016520784926 0 5.9989016520784926 35.245101272682334 0 0 0 0 -28.821267571722274 294.2277511881548 0 294.2277511881548 108.68294728310138 0 0 0 0 -31.001531570737455 31.07232860399855 0 31.07232860399855 118.00631521661126 0 0 0 0 9.4586561901255664 33.710849514770416 0 33.710849514770416 70.825690430658142 0 0 0 0 -67.30835687644867 -31.442070014001729 0 -31.442070014001729 141.94186725774307 0 0 0 0 -37.646289176342179 -34.391964101650956 0 -34.391964101650956 -21.48266156315367 0 0 0 0 -24.666392316840579 7.7979055249539684 0 7.7979055249539684 83.021087171339033 0 0 0 0 573.66826909311249 736.06018628974834 0 736.06018628974834 951.39135161682498 0 0 0 0 455.69802039824754 681.92629445287457 0 681.92629445287457 1133.4989847701436 0 0 0 0 546.989076297471 687.07587843636793 0 687.07587843636793 1059.4004414267984 0 0 0 0 485.00534723585042 741.35776728698329 0 741.35776728698329 1016.5945757351801 0 0 0 0 448.21048246775172 587.93973971009837 0 587.93973971009837 1084.8640240535387 0 0 0 0 53.561967306389057 4.8355539764008384 0 4.8355539764008384 15.779114870262829 0 0 0 0 347.98765650111909 724.81438644379159 0 724.81438644379159 1421.2437227554619 0 0 0 0 368.50551769997401 727.73225428529258 0 727.73225428529258 1109.7886648927815 0 0 0 0 318.79476942790825 530.39925346185919 0 530.39925346185919 1269.9430094092277 0 0 0 0 527.76227040704543 844.19043862096987 0 844.19043862096987 904.89651667684666 0 0 0 0 355.09936270871003 898.54262415079575 0 898.54262415079575 887.79355315859902 0 0 0 0 399.20672543327782 1005.9558001644837 0 1005.9558001644837 1191.2179551788977 0 0 0 0 560.44977430362997 810.2068765805252 0 810.2068765805252 867.84984014592192 0 0 0 0 544.27464846254043 799.41457116266974 0 799.41457116266974 1012.2155908797417 0 0 0 0 628.98664038964671 -502.79804962423077 0 -502.79804962423077 -298.32655522242931 0 0 0 0 704.38828689723232 868.17408788211833 0 868.17408788211833 778.2231790915248 0 0 0 0 735.95713198492194 597.6107724523099 0 597.6107724523099 1153.0356331301091 0 0 0 0 1374.8059697891686 198.03590058386908 0 198.03590058386908 1576.0596953641598 0 0 0 0 1867.9209416891083 2016.8469791802263 0 2016.8469791802263 1578.1553007724942 0 0 0 0 229.21403166013806 1712.09383381515 0 1712.09383381515 3641.3274121916465 0 0 0 0 282.64068611376922 410.97809202685903 0 410.97809202685903 2360.9413888302952 0 0 0 0 797.46056632647924 1395.5292703052946 0 1395.5292703052946 1578.2292664591132 0 0 0 0 493.16105107132535 626.59786909644754 0 626.59786909644754 428.15880671629566 0 0 0 0 522.07606746326201 696.8571567107083 0 696.8571567107083 1009.8807839032524 0 0 0 0 356.17718814875116 917.15802413588608 0 917.15802413588608 861.42905574250108 0 0 0 0 -144.60564783956261 487.92920166512704 0 487.92920166512704 132.11744401521719 0 0 0 0 -707.18848505216226 -583.73349904976567 0 -583.73349904976567 433.72115211141136 0 0 0 0 475.95750934403986 147.36562536604833 0 147.36562536604833 276.16270686555436 0 0 0 0 -462.22401707105018 -543.52752353945834 0 -543.52752353945834 416.01804590789834 0 0 0 0 -2.1795062049164313 -20.755956823753365 0 -20.755956823753365 100.06089877917698 0 0 0 0 -121.34078182184658 -301.97050398446299 0 -301.97050398446299 -392.28449497914517 0 0 0 0 8.2992049354170376 346.31715450852062 0 346.31715450852062 553.17162364418618 0 0 0 0 159.06418931945063 262.06430444103717 0 262.06430444103717 243.88343125178653 0 0 0 0 -166.84263914843586 -107.33588872442488 0 -107.33588872442488 -49.918054963854956 0 0 0 0 -702.28460964744045 -57.657900979560509 0 -57.657900979560509 220.55384450668498 0 0 0 0 5.5896400181741228 281.28818735505229 0 281.28818735505229 311.52567274427565 0 0 0 0 -225.06692618708985 -133.93356707560997 0 -133.93356707560997 155.58636838833627 0 0 0 0 -350.13512226181274 50.571664262159175 0 50.571664262159175 -85.581384618781158 0 0 0 0 5.4138480272727012 -21.66474999903976 0 -21.66474999903976 64.953123392859482 0 0 0 0 -662.27995870524819 -96.427524222823195 0 -96.427524222823195 -254.47063071680896 0 0 0 0 374.53939014688626 770.23059666105291 0 770.23059666105291 624.32146950918832 0 0 0 0 -751.7013961749235 -401.91943971698129 0 -401.91943971698129 195.60201317784595 0 0 0 0 622.42079921117011 839.15834167946105 0 839.15834167946105 770.34184993978852 0 0 0 0 670.08241712578138 758.16924888279027 0 758.16924888279027 848.14851901754446 0 0 0 0 119.53435447639276 516.96109754920326 0 516.96109754920326 1176.0961531298053 0 0 0 0 100.79400026547046 206.01954303646198 0 206.01954303646198 325.38878164030029 0 0 0 0 265.79686724878775 499.00135740826408 0 499.00135740826408 527.73112644015055 0 0 0 0 -12.618140198230321 -22.862437825295274 0 -22.862437825295274 481.39350606641528 0 0 0 0 -9.1952225407694641 72.580288919929444 0 72.580288919929444 163.93877951824834 0 0 0 0 270.93611457428597 221.40905328832196 0 221.40905328832196 452.53641833009169 0 0 0 0 489.30928538685384 520.35366227845861 0 520.35366227845861 946.85449777461326 0 0 0 0 311.62806193473989 115.37614737245167 0 115.37614737245167 677.77155933137328 0 0 0 0 322.99911980513025 -138.29688646041541 0 -138.29688646041541 72.933720037268358 0 0 0 0 244.17564650300665 -206.22555015542639 0 -206.22555015542639 676.37312786997791 0 0 0 0 -78.578230417131635 -163.41129012127931 0 -163.41129012127931 518.51310080689473 0 0 0 0 13.116917527481746 -200.78622418668419 0 -200.78622418668419 74.897040483840101 0 0 0 0 -235.35333190395977 -275.23878298716591 0 -275.23878298716591 220.53527512155597 0 0 0 0 -339.1665694384501 -241.98057418535245 0 -241.98057418535245 131.50809861734888 0 0 0 0 -248.49317368856464 -197.58311143254105 0 -197.58311143254105 -265.08918334195187 0 0 0 0 -41.155743349701879 -456.12866520180978 0 -456.12866520180978 -429.47965620160721 0 0 0 0 -45.182955696520366 -380.72450247119559 0 -380.72450247119559 -132.70346861728467 0 0 0 0 -23.920985518070438 -99.543027652077626 0 -99.543027652077626 98.511459017310699 0 0 0 0 -193.55050310677689 -368.61255929784238 0 -368.61255929784238 -19.893783664972943 0 0 0 0 124.42794409692692 197.46228596449021 0 197.46228596449021 511.37426750891791 0 0 0 0 -2.3763491487428769 -16.565257155164559 0 -16.565257155164559 89.736463724057089 0 0 0 0 -446.92885624701876 -395.38499279567259 0 -395.38499279567259 134.63939536233374 0 0 0 0 1084.8180745714444 569.43540231901534 0 569.43540231901534 -281.19307469288833 0 0 0 0 739.39686287318068 1489.1798379749705 0 1489.1798379749705 1593.7938778442749 0 0 0 0 -565.65998069949433 -154.43781445287277 0 -154.43781445287277 -100.19380615325645 0 0 0 0 6.8503290303695472 -28.057087187032469 0 -28.057087187032469 64.351313629117868 0 0 0 0 -310.84705116726036 -471.4165621329812 0 -471.4165621329812 -51.943117735252599 0 0 0 0 -178.35973869357076 -246.10182130105022 0 -246.10182130105022 -245.92201973446936 0 0 0 0 2412.5571880508442 2909.9954336885767 0 2909.9954336885767 2599.1327967014308 0 0 0 0 2647.4580518078283 1864.7720176256842 0 1864.7720176256842 4297.1204967163176 0 0 0 0 -0.68318931497080437 -8.6942850070849467 0 -8.6942850070849467 59.431252519007558 0 0 0 0 -480.86925690478665 -255.80322865395283 0 -255.80322865395283 -19.27905540712527 0 0 0 0 -532.53589335858032 -388.26613959587849 0 -388.26613959587849 0.4158175556367496 0 0 0 0 1093.1421079694492 1632.2799707276035 0 1632.2799707276035 4820.9304408290536 0 0 0 0 2176.9934729853876 1983.7411583825378 0 1983.7411583825378 283.47575122762282 0 0 0 0 646.58652047029318 2060.1764298921807 0 2060.1764298921807 3154.9914284332467 0 0 0 0 1244.9605852310187 2094.1541575529809 0 2094.1541575529809 3110.0576943284468 0 0 0 0 553.69847093877434 1598.6514823886271 0 1598.6514823886271 1542.3136747260596 0 0 0 0 -3.8106548599389498 1626.8004650965006 0 1626.8004650965006 3322.827258356921 0 0 0 0 221.8812506346585 716.21861812941734 0 716.21861812941734 886.5832276339861 0 0 0 0 365.18900400056373 1128.9926167225522 0 1128.9926167225522 1314.947184728253 0 0 0 0 -96.432896960669495 982.61394753596232 0 982.61394753596232 2303.5636006601226 0 0 0 0 390.49833378361586 1145.2051643419074 0 1145.2051643419074 1746.0617744368219 0 0 0 0 -42.763249110395918 1355.9240874463796 0 1355.9240874463796 2253.8559119166393 0 0 0 0 835.49764660427718 2212.0241370584508 0 2212.0241370584508 3176.1224870031415 0 0 0 0 -1.007119384207904 -3.8140724713236267 0 -3.8140724713236267 18.766141237609894 0 0 0 0 -1116.6042285705425 -717.91745418021037 0 -717.91745418021037 562.2709985008587 0 0 0 0 578.48811067210818 1117.8717821096536 0 1117.8717821096536 1568.3786218324494 0 0 0 0 246.54983419685777 480.33737213531367 0 480.33737213531367 2389.3071868871948 0 0 0 0 211.66425286587582 985.67506195112674 0 985.67506195112674 1456.5226716318939 0 0 0 0 -51.743172518274605 508.79956969925024 0 508.79956969925024 1169.3674933901111 0 0 0 0 -127.04372116363629 854.9406855839743 0 854.9406855839743 1472.1494822544792 0 0 0 0 237.83261844213575 984.2492621344627 0 984.2492621344627 1025.0056470210129 0 0 0 0 -183.93938702480136 562.46393155393343 0 562.46393155393343 766.05717617259506 0 0 0 0 -221.43155117263086 202.78171238449249 0 202.78171238449249 611.16274427118515 0 0 0 0 106.03960150402963 660.65488233969245 0 660.65488233969245 615.86356491423703 0 0 0 0 -111.37133085083133 283.84561394078082 0 283.84561394078082 274.91371380219698 0 0 0 0 -436.65654996051353 -136.29233528476243 0 -136.29233528476243 347.28526868741756 0 0 0 0 -22.568859048243212 449.93916994494157 0 449.93916994494157 943.04996420898533 0 0 0 0 307.19903245687965 224.48672049190463 0 224.48672049190463 33.042242894002811 0 0 0 0 71.706070237863059 592.5035843733649 0 592.5035843733649 1542.9041356883863 0 0 0 0 247.58010895309508 724.97319268938554 0 724.97319268938554 899.03380035708324 0 0 0 0 86.991694170914798 -273.27856397735377 0 -273.27856397735377 511.11310160725179 0 0 0 0 197.32074622393338 -239.49494031391077 0 -239.49494031391077 466.48802593330765 0 0 0 0 98.983443977173465 -171.41173837323913 0 -171.41173837323913 438.03290475278482 0 0 0 0 141.04027031493888 -236.37371566662841 0 -236.37371566662841 484.9154222891666 0 0 0 0 59.203412762645712 -145.19039421227353 0 -145.19039421227353 529.32011853639597 0 0 0 0 90.327721324366166 -103.19565674631667 0 -103.19565674631667 334.8496468333833 0 0 0 0 -63.402700139383342 -175.89099170620466 0 -175.89099170620466 679.5995080900102 0 0 0 0 6.406295608531309 -181.52690087157316 0 -181.52690087157316 383.57153798038053 0 0 0 0 -16.147412350563627 -115.11594360997242 0 -115.11594360997242 521.73693875466415 0 0 0 0 -65.789868354248028 107.79225283492997 0 107.79225283492997 97.384350539974548 0 0 0 0 1.2841742611509179 -3.1551079248180329 0 -3.1551079248180329 6.2648909676523203 0 0 0 0 -10.200084357169544 -23.711178543804635 0 -23.711178543804635 12.512326856332948 0 0 0 0 10.221910836027405 -11.976955812255 0 -11.976955812255 6.7352351196278661 0 0 0 0 31.58826413595898 9.4792634295281459 0 9.4792634295281459 -0.96805528164259158 0 0 0 0 -0.53334698713661055 -45.13588725304362 0 -45.13588725304362 59.280241352695157 0 0 0 0 80.574175674743856 39.753724608333869 0 39.753724608333869 77.619513101664779 0 0 0 0 17.273377865421025 34.956075514739496 0 34.956075514739496 245.62572918777005 0 0 0 0 22.49972553112093 48.175337353040959 0 48.175337353040959 7.542991366750357 0 0 0 0 -0.20378716229066818 0.089509653200352091 0 0.089509653200352091 1.2079369605459931 0 0 0 0 3.5650416423668503 -45.960180682410282 0 -45.960180682410282 368.04489343969908 0 0 0 0 55.329971575108175 -9.8277224311677855 0 -9.8277224311677855 118.75275787922874 0 0 0 0 70.750949042308093 -42.472132560691534 0 -42.472132560691534 212.03530791249796 0 0 0 0 56.891924220496549 13.64776097135109 0 13.64776097135109 158.7743235136877 0 0 0 0 39.180265440323637 -26.439497175779252 0 -26.439497175779252 53.823848932763212 0 0 0 0 60.44790702922819 28.898447235296771 0 28.898447235296771 34.711195764539298 0 0 0 0 17.127539500102785 -8.5855962171849569 0 -8.5855962171849569 12.742435767577263 0 0 0 0 46.999984777538884 31.689011848422524 0 31.689011848422524 56.016457150486531 0 0 0 0 27.341121867394349 59.524203021836001 0 59.524203021836001 11.985490015649702 0 0 0 0 12.132550423768407 61.319628835946787 0 61.319628835946787 40.44030996751826 0 0 0 0 100.57832207711681 -38.631802465411056 0 -38.631802465411056 133.44567078993714 0 0 0 0 60.026231488227495 57.949614704510736 0 57.949614704510736 89.488774351761094 0 0 0 0 98.205385659379317 -72.660302727304952 0 -72.660302727304952 301.80593628848146 0 0 0 0 94.857212682140926 -175.60957312988467 0 -175.60957312988467 433.97158810812107 0 0 0 0 64.380109692007636 -80.776403072359244 0 -80.776403072359244 304.69301744432596 0 0 0 0 99.840632467065006 -192.07625687168911 0 -192.07625687168911 426.76263100487267 0 0 0 0 105.43342678740828 -52.051254731104564 0 -52.051254731104564 421.25425665178409 0 0 0 0 107.02323458223327 -193.44180308980503 0 -193.44180308980503 205.92843437721604 0 0 0 0 -100.47495246108974 -103.2924160188777 0 -103.2924160188777 514.48869996637404 0 0 0 0 -2.1530328246083172 1.6670951182792066 0 1.6670951182792066 -2.3630989984596056 0 0 0 0 -35.506684837325338 28.950213303862256 0 28.950213303862256 155.29039594872665 0 0 0 0 221.62016389080782 -6.1416668298588775 0 -6.1416668298588775 -39.38468522482799 0 0 0 0 40.259513897066427 29.399356319485378 0 29.399356319485378 130.26733876382241 0 0 0 0 0.2338238108637114 1.2939446338851326 0 1.2939446338851326 0.13207247880051298 0 0 0 0 15.474149729511737 -3.8471657245445385 0 -3.8471657245445385 86.017077344891732 0 0 0 0 -2.6499750579177999 36.137546739862955 0 36.137546739862955 89.310752440735087 0 0 0 0 54.003208754046454 48.614422785467468 0 48.614422785467468 -2.8302964752001571 0 0 0 0 51.661234012579826 84.234576260341782 0 84.234576260341782 -94.784176531306002 0 0 0 0 31.816309663025095 89.08783846816732 0 89.08783846816732 25.681572294284706 0 0 0 0 -6.6212312556344841 -19.523669109414186 0 -19.523669109414186 -17.624488646841201 0 0 0 0 12.252549313097916 -9.1875376237694582 0 -9.1875376237694582 50.547046593534105 0 0 0 0 1.7829354037801508 1.6111687976876397 0 1.6111687976876397 -0.72042124359863635 0 0 0 0 -28.230946037101148 59.653953630971046 0 59.653953630971046 7.4512616769061424 0 0 0 0 17.250858110269746 -4.4939594129846228 0 -4.4939594129846228 36.520097730568523 0 0 0 0 36.235492319171044 22.031637350331494 0 22.031637350331494 -25.731795961750322 0 0 0 0 67.163154479575951 27.945650472667694 0 27.945650472667694 -39.79990127626661 0 0 0 0 -4.3337603865086507 3.4430871811207382 0 3.4430871811207382 21.087099412164861 0 0 0 0 -31.278302689193879 35.350218549305282 0 35.350218549305282 130.13460027702968 0 0 0 0 -6.0417114540663874 7.2072379688461155 0 7.2072379688461155 16.743610595220204 0 0 0 0 -76.750422738437919 46.369818403887621 0 46.369818403887621 88.16869565329398 0 0 0 0 8.9102397189110878 -11.706420262287132 0 -11.706420262287132 47.996890942920629 0 0 0 0 -7.1709652436829856 126.8648501175212 0 126.8648501175212 176.8761477957778 0 0 0 0 1.4433759437503255 -4.5435219078732416 0 -4.5435219078732416 16.621894982977679 0 0 0 0 1478.5352654996741 1626.3068703793024 0 1626.3068703793024 1633.0112873395155 0 0 0 0 114.98098992187442 -412.0019339482169 0 -412.0019339482169 353.27024669359071 0 0 0 0 -54.975884233681427 81.100908997281294 0 81.100908997281294 1798.934532090927 0 0 0 0 1269.3754736651335 -22.455122945317271 0 -22.455122945317271 794.07290246694902 0 0 0 0 832.51009683746156 1026.3967609244792 0 1026.3967609244792 1424.5173875021064 0 0 0 0 398.15996245010683 220.67197794482126 0 220.67197794482126 2007.045301095769 0 0 0 0 632.43547143121259 410.67575401534668 0 410.67575401534668 534.20150769080283 0 0 0 0 394.04599171703558 -42.347304532924682 0 -42.347304532924682 107.11372668276999 0 0 0 0 590.96351010022659 611.06220110661843 0 611.06220110661843 405.36872163388762 0 0 0 0 396.7590846051753 526.73344120004003 0 526.73344120004003 779.99956507495517 0 0 0 0 589.10395680841657 346.2531018955633 0 346.2531018955633 32.610797217645086 0 0 0 0 482.45748929496131 347.87266711381926 0 347.87266711381926 518.84862516214525 0 0 0 0 305.15438986020763 232.68187023931023 0 232.68187023931023 758.68338266817955 0 0 0 0 489.30080071824796 334.5798028792633 0 334.5798028792633 662.42823504231637 0 0 0 0 424.89818877789003 444.44359960918882 0 444.44359960918882 484.77688792233403 0 0 0 0 83.978117887276767 127.56402175155017 0 127.56402175155017 708.9200095368069 0 0 0 0 182.76045360889384 397.98806187491391 0 397.98806187491391 1286.063236225782 0 0 0 0 398.28911782177602 487.42868092887511 0 487.42868092887511 767.09867954559468 0 0 0 0 8.7142071111582027 -161.94206984756693 0 -161.94206984756693 834.9724159907928 0 0 0 0 105.38749211428149 7.77423175731019 0 7.77423175731019 548.62050922120397 0 0 0 0 61.098700627220637 -182.01648619107982 0 -182.01648619107982 542.68338643218158 0 0 0 0 176.12692777363009 48.934542531816987 0 48.934542531816987 771.42158759262384 0 0 0 0 147.95282872379084 -130.92307380766943 0 -130.92307380766943 525.41702442287351 0 0 0 0 142.76833272370004 -115.10745620099988 0 -115.10745620099988 511.54722222689452 0 0 0 0 332.77884242119308 -15.384672401407443 0 -15.384672401407443 594.06848551354778 0 0 0 0 271.30109442437066 38.741341587142188 0 38.741341587142188 546.59340781579522 0 0 0 0 445.03273929739316 245.44617858099082 0 245.44617858099082 500.00404889280981 0 0 0 0 774.56543325210714 167.52481130719389 0 167.52481130719389 515.39084538675888 0 0 0 0 474.70438897185613 -52.948185140614441 0 -52.948185140614441 526.12562583807448 0 0 0 0 560.7650031626863 137.14867224908812 0 137.14867224908812 579.11252137403062 0 0 0 0 458.19228283040684 -43.111353909029276 0 -43.111353909029276 525.00353860314681 0 0 0 0 378.91018406144576 -143.09470073189459 0 -143.09470073189459 497.36429290493106 0 0 0 0 511.1054053589537 48.074145236783806 0 48.074145236783806 612.19230493357463 0 0 0 0 557.06205657850933 -36.864203835695662 0 -36.864203835695662 480.06159690820209 0 0 0 0 411.15027503966712 -138.19434820055903 0 -138.19434820055903 391.03569890345631 0 0 0 0 310.87198284183114 -266.57184158742166 0 -266.57184158742166 394.25751065739013 0 0 0 0 349.29646698230135 -294.37284329595605 0 -294.37284329595605 369.9650549202488 0 0 0 0 263.32932345518179 -156.11762665793049 0 -156.11762665793049 489.57996393884241 0 0 0 0 346.5949953740494 -212.67957820306947 0 -212.67957820306947 463.47825345745514 0 0 0 0 174.98577247867388 -252.23628190628006 0 -252.23628190628006 468.54408744915054 0 0 0 0 255.78556985843716 -346.93782081473546 0 -346.93782081473546 521.76575118063602 0 0 0 0 270.58037087387379 -371.09266330144419 0 -371.09266330144419 401.88802304707497 0 0 0 0 454.83589852352873 502.38454284718318 0 502.38454284718318 1304.4735931805117 0 0 0 0 569.8243057167856 356.26338419236345 0 356.26338419236345 1390.5954161484478 0 0 0 0 599.80316167203341 396.44816752345105 0 396.44816752345105 865.78545745086012 0 0 0 0 473.21974072470516 23.367551696312148 0 23.367551696312148 973.41572160496162 0 0 0 0 430.41831448271751 165.31250238011398 0 165.31250238011398 671.196619789338 0 0 0 0 442.52413185501155 -139.73548638117245 0 -139.73548638117245 556.04965535679366 0 0 0 0 296.49185967094695 21.019243722717874 0 21.019243722717874 747.81540913973004 0 0 0 0 523.12488050058596 220.62322154202911 0 220.62322154202911 946.91531073701481 0 0 0 0 653.75738057636727 254.73611467514638 0 254.73611467514638 1402.6772122034527 0 0 0 0 625.45278019577017 126.0681334402293 0 126.0681334402293 634.9384027032429 0 0 0 0 693.90135268223185 -97.681371735401626 0 -97.681371735401626 728.29621313023381 0 0 0 0 813.65264272800232 -222.22325630628256 0 -222.22325630628256 1050.5877036671845 0 0 0 0 731.96890435437217 638.09943680350682 0 638.09943680350682 2297.3414292043672 0 0 0 0 708.65698069587825 232.55396288805423 0 232.55396288805423 1402.2512414531775 0 0 0 0 606.66806485106326 55.638103311675877 0 55.638103311675877 1187.4301512531492 0 0 0 0 722.17937769580135 452.11296755321746 0 452.11296755321746 1279.8565683862935 0 0 0 0 677.6445551812194 562.38070646591586 0 562.38070646591586 1774.8214246013285 0 0 0 0 982.73962635825228 546.67586469415005 0 546.67586469415005 1609.8980995746824 0 0 0 0 995.74594056452543 616.33955717719437 0 616.33955717719437 1732.4331778002561 0 0 0 0 936.34521593689396 976.55835801305329 0 976.55835801305329 1683.985742141118 0 0 0 0 634.30391539917446 1299.0490040015757 0 1299.0490040015757 3761.0150839913658 0 0 0 0 1075.0913927870363 243.57666583851687 0 243.57666583851687 2649.1297931842346 0 0 0 0 1400.5548085169166 590.75430810611397 0 590.75430810611397 1617.1071036088833 0 0 0 0 837.47815205364623 -418.75791260761616 0 -418.75791260761616 1235.9236159280499 0 0 0 0 887.45468020954002 89.282545318747225 0 89.282545318747225 374.45629313752943 0 0 0 0 554.5454943910072 375.4409419597705 0 375.4409419597705 412.57069530067383 0 0 0 0 -83.798490003113329 144.13978475515614 0 144.13978475515614 309.16179633994216 0 0 0 0 691.36543541438982 73.788061252389525 0 73.788061252389525 -407.7660130268996 0 0 0 0 6.0986081752024397 -6.2031309433155428 0 -6.2031309433155428 7.5201909551614321 0 0 0 0 600.14282085538753 1618.0126607889961 0 1618.0126607889961 3422.7187056378334 0 0 0 0 14.172869560640633 -21.222444702492545 0 -21.222444702492545 19.058697701718394 0 0 0 0 276.06425917512888 -70.418779525034552 0 -70.418779525034552 -645.98602718483016 0 0 0 0 -51.645058599081494 0.41204641630793049 0 0.41204641630793049 188.13310781003747 0 0 0 0 557.21620228680945 999.50042105737293 0 999.50042105737293 3013.5424698865027 0 0 0 0 727.7783462958356 905.7836792214257 0 905.7836792214257 1715.5347433903225 0 0 0 0 552.72520530761449 904.49822846903771 0 904.49822846903771 2716.7507692774816 0 0 0 0 539.89437466999334 1237.0139775205535 0 1237.0139775205535 2418.8562048543463 0 0 0 0 655.01754553451701 557.89281123466208 0 557.89281123466208 1978.9974289361526 0 0 0 0 689.81332440451229 865.69510284404078 0 865.69510284404078 1202.3500236039545 0 0 0 0 313.43733875706789 564.0955517378934 0 564.0955517378934 1698.6004120445214 0 0 0 0 201.43597456262933 559.95858052380208 0 559.95858052380208 1246.0908635347078 0 0 0 0 489.5168502684262 352.55236959827198 0 352.55236959827198 505.20690702740103 0 0 0 0 703.75820899149426 861.4281093103184 0 861.4281093103184 1087.692796727184 0 0 0 0 754.56204421743814 571.96162209338218 0 571.96162209338218 605.95928075462871 0 0 0 0 3.4118067595747075 -1.7505316445816774 0 -1.7505316445816774 -0.18893360570906381 0 0 0 0 799.48323106796624 701.28534255838349 0 701.28534255838349 14.994061188121123 0 0 0 0 -307.24484077898802 -260.55745957867839 0 -260.55745957867839 19.224168006738182 0 0 0 0 -212.04198357018004 540.32431236959746 0 540.32431236959746 659.40964892272314 0 0 0 0 -37.969964289415429 223.6478115865466 0 223.6478115865466 687.02888106717 0 0 0 0 2.2903521153936817 -3.1079431483560711 0 -3.1079431483560711 2.9941827997177413 0 0 0 0 57.384411052466874 15.730036880890111 0 15.730036880890111 16.175131441472331 0 0 0 0 -82.725369951823168 -852.21776391568551 0 -852.21776391568551 3244.6761866267807 0 0 0 0 -122.95472417349724 -1313.4045826241872 0 -1313.4045826241872 3494.8905674935031 0 0 0 0 202.29850365415726 -1318.7061299498491 0 -1318.7061299498491 2781.0138519939901 0 0 0 0 495.5969839261798 -858.9654406216705 0 -858.9654406216705 3500.1414165710412 0 0 0 0 910.89715962586968 -1065.5741470157027 0 -1065.5741470157027 1167.9959187741151 0 0 0 0 1055.7645464802968 -347.69367568321832 0 -347.69367568321832 2348.5394192073636 0 0 0 0 483.7892266176093 -519.50262599665075 0 -519.50262599665075 2453.8405314935026 0 0 0 0 465.25160099593143 157.35564636444906 0 157.35564636444906 2728.312317482425 0 0 0 0 476.09294033687803 -281.13081041653368 0 -281.13081041653368 3499.1317627636636 0 0 0 0 931.96198703663435 -129.09757447825905 0 -129.09757447825905 2223.3906937604079 0 0 0 0 903.86339330143187 380.69133343264366 0 380.69133343264366 1837.6263307819609 0 0 0 0 989.45324839080376 248.93491218190957 0 248.93491218190957 1903.1690684465648 0 0 0 0 1290.0349983504364 103.39200479870487 0 103.39200479870487 1463.7704305683073 0 0 0 0 1277.7524441677913 216.10867309722744 0 216.10867309722744 453.92837277665603 0 0 0 0 1073.686432767724 507.26938440933736 0 507.26938440933736 1397.7764035205055 0 0 0 0 1280.6131580134045 648.67870272521941 0 648.67870272521941 1181.9385694223238 0 0 0 0 1203.4425350635304 667.50079384755009 0 667.50079384755009 1653.8525289567187 0 0 0 0 986.21373050485283 575.98512668642616 0 575.98512668642616 1719.8667531684623 0 0 0 0 909.64023023059417 687.37163730606335 0 687.37163730606335 1645.0146237643603 0 0 0 0 698.04439264255416 655.85726032613843 0 655.85726032613843 2010.7266103092916 0 0 0 0 701.44780093478403 646.38253385988196 0 646.38253385988196 1717.5333974171808 0 0 0 0 671.81644545191671 467.03749252321904 0 467.03749252321904 2479.5457494327238 0 0 0 0 440.40642810488339 297.97686781716311 0 297.97686781716311 2643.7233888889386 0 0 0 0 195.56233896186905 525.51090835664581 0 525.51090835664581 3499.6533376665707 0 0 0 0 117.54987330115272 809.42444387794785 0 809.42444387794785 2705.0905914917967 0 0 0 0 607.90221604030796 637.82127359025253 0 637.82127359025253 2041.3847635901893 0 0 0 0 447.43250959077687 708.34340143278314 0 708.34340143278314 2712.5462170172723 0 0 0 0 429.9309755271799 885.47421696920173 0 885.47421696920173 2059.9476618285225 0 0 0 0 21.682187602286714 992.83851031502491 0 992.83851031502491 3498.6713482708838 0 0 0 0 120.71982904885762 1298.2228388504918 0 1298.2228388504918 2291.3169896261243 0 0 0 0 109.98718749506001 1257.6800748869864 0 1257.6800748869864 2709.7266708149109 0 0 0 0 520.21846066284343 988.83685302727827 0 988.83685302727827 1707.8379676558834 0 0 0 0 436.18572138718599 914.93840188070317 0 914.93840188070317 2170.1033188960537 0 0 0 0 632.56052289498223 749.22187141837094 0 749.22187141837094 1583.1364371887094 0 0 0 0 564.66705024876921 533.6001717249942 0 533.6001717249942 1195.0767516189662 0 0 0 0 -140.44646055926955 -130.95014065892519 0 -130.95014065892519 521.34056556698306 0 0 0 0 -35.694497201974137 4.4053624784367962 0 4.4053624784367962 114.61525005007425 0 0 0 0 -115.26116533501568 -274.16581519971623 0 -274.16581519971623 375.98259933448935 0 0 0 0 -728.51229566758821 93.552355417472654 0 93.552355417472654 195.35698075732944 0 0 0 0 -298.52513927581094 138.03164135066982 0 138.03164135066982 159.58661322951775 0 0 0 0 -247.29561836663197 -199.99109604630939 0 -199.99109604630939 415.88998016852565 0 0 0 0 -125.7322126715917 -104.45316136506153 0 -104.45316136506153 238.93144518903409 0 0 0 0 -632.13987882840865 492.52498886212288 0 492.52498886212288 338.07524447500327 0 0 0 0 68.163573801735765 -917.81947984171347 0 -917.81947984171347 -52.395124805403157 0 0 0 0 187.75872201375648 482.96156744315738 0 482.96156744315738 706.79073221298677 0 0 0 0 -35.711314804715357 -0.85995375322859502 0 -0.85995375322859502 108.31905268306203 0 0 0 0 193.09033670747522 646.40254129167261 0 646.40254129167261 705.21696029041232 0 0 0 0 -79.948692112057316 707.28220601558132 0 707.28220601558132 1449.6867527390405 0 0 0 0 -1.4082998926912751 627.76798249363219 0 627.76798249363219 841.13183203489098 0 0 0 0 67.877661779580762 107.45443815632461 0 107.45443815632461 -8.5271336369805795 0 0 0 0 -11.270154316236585 259.25768038033652 0 259.25768038033652 1012.5067065931544 0 0 0 0 -108.8040101850479 474.50911464044748 0 474.50911464044748 872.28056653696967 0 0 0 0 -549.04373561222292 408.78111849203015 0 408.78111849203015 2099.7009659297555 0 0 0 0 56.311538631560325 -634.88897732586702 0 -634.88897732586702 937.34639864459132 0 0 0 0 -424.65191912055025 564.63583715451705 0 564.63583715451705 1615.8351877102041 0 0 0 0 -108.01436628380725 -715.75739783792278 0 -715.75739783792278 2376.9975668924781 0 0 0 0 746.95732050452762 716.33714988792281 0 716.33714988792281 3375.1275521033913 0 0 0 0 -352.26447827698257 139.93606051197139 0 139.93606051197139 -1.309686978258469 0 0 0 0 -474.55428662356917 212.58509589721143 0 212.58509589721143 9.6979943386377272 0 0 0 0 -15.925744139354016 0.36475706447255263 0 0.36475706447255263 23.257919711246078 0 0 0 0 67.60951255503835 92.944755826803885 0 92.944755826803885 241.05572901254527 0 0 0 0 -539.85261678388633 100.18180935453574 0 100.18180935453574 70.131395387243174 0 0 0 0 -1.3599618266923308 -6.9924733340290963 0 -6.9924733340290963 51.191049650496602 0 0 0 0 -465.25478692748948 245.15264718151639 0 245.15264718151639 119.02880068795639 0 0 0 0 -532.25059102566138 130.31078029731998 0 130.31078029731998 189.18531669262302 0 0 0 0 -404.33691296780052 81.651195243883478 0 81.651195243883478 75.338892920415674 0 0 0 0 113.86037765739457 214.16193191813491 0 214.16193191813491 1299.6810337398488 0 0 0 0 -1001.8908624546548 201.41801842304358 0 201.41801842304358 410.03120116914579 0 0 0 0 32.016257117272261 33.651500105078867 0 33.651500105078867 43.651285076187854 0 0 0 0 -639.42951006764088 449.09833335092662 0 449.09833335092662 -112.79768620381128 0 0 0 0 216.23560860563339 387.49313830250935 0 387.49313830250935 1072.6960626268778 0 0 0 0 -180.48170098734681 3.0967621194689627 0 3.0967621194689627 2370.9319021880628 0 0 0 0 -125.72942698365932 888.55338047626037 0 888.55338047626037 6986.7261902917544 0 0 0 0 1209.9289020344568 1576.3205138229641 0 1576.3205138229641 -918.97775763565915 0 0 0 0 19.595052581435048 12.188092270490984 0 12.188092270490984 8.0255976447968518 0 0 0 0 -142.5203880136894 369.43864360519501 0 369.43864360519501 5707.4905472031787 0 0 0 0 3362.371435070294 2707.0037798240792 0 2707.0037798240792 5295.5139589460578 0 0 0 0 1501.0427826030036 2601.3135981426994 0 2601.3135981426994 2659.7520574603186 0 0 0 0 3015.0857955010451 582.09964690315223 0 582.09964690315223 6074.2943086928281 0 0 0 0 2085.7629844332569 1233.1520004652339 0 1233.1520004652339 6244.4326355535841 0 0 0 0 12.209340513979727 -8.3656579231283708 0 -8.3656579231283708 -44.305240554974802 0 0 0 0 2481.0948629918475 1104.3812955417361 0 1104.3812955417361 5887.3558515215918 0 0 0 0 -616.51930590926338 -589.65025512637612 0 -589.65025512637612 6222.1468703495775 0 0 0 0 1454.5776521819489 2159.3760900100169 0 2159.3760900100169 5265.4230810986446 0 0 0 0 1840.3444453996499 2596.2427288473118 0 2596.2427288473118 4292.5226073465728 0 0 0 0 3079.0681118568159 2293.8780938270556 0 2293.8780938270556 4308.8736507210488 0 0 0 0 2259.5066518488557 2388.9961997197815 0 2388.9961997197815 2810.4891183886575 0 0 0 0 1917.7834199287186 2160.8216576374052 0 2160.8216576374052 2909.8596900518169 0 0 0 0 1377.9786697712398 2417.1972404017761 0 2417.1972404017761 5034.0471887185486 0 0 0 0 2171.9239775248625 1940.9198790410283 0 1940.9198790410283 857.49505563991625 0 0 0 0 1894.4414735695459 2540.5056239548312 0 2540.5056239548312 2701.4117856507655 0 0 0 0 1561.9764256954568 1924.8750350844566 0 1924.8750350844566 2699.3549015359959 0 0 0 0 1468.5890468848429 1592.5938674260178 0 1592.5938674260178 1820.9916949178296 0 0 0 0 1056.2923881022907 343.3845842417486 0 343.3845842417486 418.90564934537906 0 0 0 0 247.0708519737891 -230.59286739683012 0 -230.59286739683012 101.88486622479468 0 0 0 0 695.91284003366991 428.00015346520195 0 428.00015346520195 688.48381541499111 0 0 0 0 -362.3994097967161 -370.61770266306121 0 -370.61770266306121 135.93166204310182 0 0 0 0 19.717683845612406 -37.268691630819816 0 -37.268691630819816 30.788666401701285 0 0 0 0 233.94367234504534 -296.0119596520708 0 -296.0119596520708 -617.25700977043016 0 0 0 0 296.60203302396803 1730.3997017171805 0 1730.3997017171805 3773.4356902715517 0 0 0 0 25.909975458772102 -49.890029904484507 0 -49.890029904484507 39.162746051512549 0 0 0 0 474.70202233261165 329.37600936755916 0 329.37600936755916 3430.5982723218713 0 0 0 0 369.83272317768387 1830.8021726702536 0 1830.8021726702536 4097.3900724554514 0 0 0 0 999.01630233236074 2826.8118100675674 0 2826.8118100675674 4779.0651420504419 0 0 0 0 468.51887380016512 1943.1626571537445 0 1943.1626571537445 3311.7677155908314 0 0 0 0 1492.7974443300407 3273.2183483642602 0 3273.2183483642602 4927.7951053583711 0 0 0 0 913.82010945617571 2117.1522906387272 0 2117.1522906387272 3289.0273588246127 0 0 0 0 1556.9060526768824 1704.775815963636 0 1704.775815963636 1730.6285697159874 0 0 0 0 822.79166314130453 1550.9316652981215 0 1550.9316652981215 2578.9873250797154 0 0 0 0 813.25010228067231 1826.2765604279912 0 1826.2765604279912 2581.2875837220854 0 0 0 0 362.99604230000068 1570.3306240113543 0 1570.3306240113543 3333.0341003547728 0 0 0 0 370.30292349118281 801.88116453617113 0 801.88116453617113 2147.9308868183434 0 0 0 0 658.33504669304125 1445.3757412072246 0 1445.3757412072246 2433.5092425913645 0 0 0 0 724.94069144424157 1009.4759967021375 0 1009.4759967021375 1671.5129656926547 0 0 0 0 665.66895348537003 349.63434207675709 0 349.63434207675709 887.05231498872308 0 0 0 0 533.69411953281667 947.85475679456249 0 947.85475679456249 1723.668337858433 0 0 0 0 1085.6438662951 914.76676747840656 0 914.76676747840656 1140.0281506093961 0 0 0 0 142.99576412849001 84.326688542030752 0 84.326688542030752 728.62742536139922 0 0 0 0 465.76314177209724 48.532342654591048 0 48.532342654591048 367.33970771785971 0 0 0 0 450.40215570337023 485.71806363591168 0 485.71806363591168 646.95594843792787 0 0 0 0 741.70959096692945 810.56147825499465 0 810.56147825499465 1202.5019942645886 0 0 0 0 248.62150609126934 319.57903996899768 0 319.57903996899768 1120.9520054379468 0 0 0 0 617.79896114657834 609.50613032685396 0 609.50613032685396 925.57412301580916 0 0 0 0 -225.22409691135908 -308.02192286787977 0 -308.02192286787977 547.10444620791441 0 0 0 0 12.852099808908861 -51.16764036049608 0 -51.16764036049608 577.39255405547738 0 0 0 0 -136.43503694049832 -264.99235499135648 0 -264.99235499135648 434.86077640646909 0 0 0 0 -475.87094576491927 -36.475374039292547 0 -36.475374039292547 567.54867523921712 0 0 0 0 292.08137953084406 -135.84398602037618 0 -135.84398602037618 484.83500018195627 0 0 0 0 515.73113408785684 675.63997691433178 0 675.63997691433178 1273.1744817867002 0 0 0 0 930.34318677427746 414.82697562067915 0 414.82697562067915 670.84037656397413 0 0 0 0 265.25653720135415 -58.497832047985867 0 -58.497832047985867 567.04214159859566 0 0 0 0 175.04869687781138 42.125491498158226 0 42.125491498158226 454.80168113255058 0 0 0 0 581.36040131217851 490.7424263409921 0 490.7424263409921 703.86437961117917 0 0 0 0 249.90590007242463 199.52889488333312 0 199.52889488333312 284.02361886294239 0 0 0 0 -51.894703951503288 -197.62476787986907 0 -197.62476787986907 434.94918058370968 0 0 0 0 -289.91370167119749 50.171738154651393 0 50.171738154651393 179.52188569447117 0 0 0 0 -590.2313589953319 -390.58843731026354 0 -390.58843731026354 346.76368457281933 0 0 0 0 -0.95191029629717505 -2.1257691966097081 0 -2.1257691966097081 9.3140129800716238 0 0 0 0 -108.22049413300374 -304.64006767291721 0 -304.64006767291721 275.75381506023041 0 0 0 0 -314.58711257772302 -496.0950493079763 0 -496.0950493079763 360.83972434390307 0 0 0 0 -106.08889258870613 -217.90201704917263 0 -217.90201704917263 -55.20162504803011 0 0 0 0 -308.36653740535439 -10.074913777276379 0 -10.074913777276379 -85.430165305646369 0 0 0 0 -408.70928862763913 152.02516639083751 0 152.02516639083751 -371.86736990096688 0 0 0 0 -134.87413314304285 -275.74021183353034 0 -275.74021183353034 239.61095066418784 0 0 0 0 14.896376724947913 22.803712349090347 0 22.803712349090347 -146.52800679767824 0 0 0 0 78.186539155442006 -185.22967714457991 0 -185.22967714457991 199.39375971454501 0 0 0 0 -175.25765677245545 -341.15232211032708 0 -341.15232211032708 -52.848186315557541 0 0 0 0 3.0350983246844407 -423.33254654865959 0 -423.33254654865959 -472.11454244738616 0 0 0 0 -272.77139669699955 -520.73926975683935 0 -520.73926975683935 -254.72925085743555 0 0 0 0 1.276709143745439 -14.193319582902717 0 -14.193319582902717 8.3590499327536065 0 0 0 0 105.47143228113646 -267.76200620355303 0 -267.76200620355303 -247.01275997991615 0 0 0 0 -330.24235954526705 -180.28752459944144 0 -180.28752459944144 -252.01326876975509 0 0 0 0 -42.196399310932968 -25.211291292344441 0 -25.211291292344441 47.162521028896208 0 0 0 0 125.20678862291697 -435.93860649649287 0 -435.93860649649287 1082.2135440330967 0 0 0 0 -38.922463724514643 -0.58600750158792181 0 -0.58600750158792181 89.817553398785137 0 0 0 0 -114.16993019461006 -62.812900049664677 0 -62.812900049664677 -26.32142510565609 0 0 0 0 1209.2327696047041 674.87009623725817 0 674.87009623725817 811.06543381418487 0 0 0 0 8.6687543440668762 7.8512154963310525 0 7.8512154963310525 15.090180919488132 0 0 0 0 1981.1220319344493 2807.8883878486631 0 2807.8883878486631 4043.198786531636 0 0 0 0 3430.3990379798024 877.91038531395623 0 877.91038531395623 -552.09602235015916 0 0 0 0 412.12272832046744 296.4416175944807 0 296.4416175944807 350.97465051603285 0 0 0 0 92.124811563628327 -64.312407392371824 0 -64.312407392371824 239.76824103692525 0 0 0 0 75.332685444359868 174.38897150337471 0 174.38897150337471 887.47339410504355 0 0 0 0 315.01670734859408 -48.475286872482684 0 -48.475286872482684 12.07127938319536 0 0 0 0 55.957228852225853 80.810720938507075 0 80.810720938507075 566.50311388728733 0 0 0 0 115.01684876187713 132.41058630720454 0 132.41058630720454 367.02295329246408 0 0 0 0 -69.19146431127092 -100.66322552360725 0 -100.66322552360725 56.638031697968472 0 0 0 0 -38.435824775136098 -258.21342484373963 0 -258.21342484373963 -564.9290593096448 0 0 0 0 -212.89123246251279 -212.05969668103717 0 -212.05969668103717 -250.90112043095928 0 0 0 0 156.24458195942361 -153.72702309153101 0 -153.72702309153101 -254.88537825946696 0 0 0 0 290.22210410696408 -201.47534321023886 0 -201.47534321023886 -853.90418023653547 0 0 0 0 195.81586834328766 171.96312680580377 0 171.96312680580377 -440.38097247448604 0 0 0 0 192.58759206470131 177.13808270554296 0 177.13808270554296 -199.59640629882051 0 0 0 0 -126.78533316020776 83.848790116837336 0 83.848790116837336 -223.25770736470258 0 0 0 0 230.78036574405326 -125.45697225442746 0 -125.45697225442746 -307.87424760417343 0 0 0 0 -0.71770741377607994 -6.4504908233111493 0 -6.4504908233111493 2.0444655200690569 0 0 0 0 1.6083294806447488 -6.5994475876734455 0 -6.5994475876734455 0.80030116066243906 0 0 0 0 730.83710170007112 -431.83336917278939 0 -431.83336917278939 230.1045389189203 0 0 0 0 -13.797175905455788 -11.925974220044736 0 -11.925974220044736 24.406592416413332 0 0 0 0 -191.96710381309407 -30.343322560370098 0 -30.343322560370098 1273.7274142911119 0 0 0 0 -9.2077288328091527 -11.49508099234663 0 -11.49508099234663 34.021253479902953 0 0 0 0 -7.2641921627589152 -17.796440386087347 0 -17.796440386087347 11.287573845312171 0 0 0 0 -215.1714968953911 174.31813064175731 0 174.31813064175731 469.61249525460516 0 0 0 0 -13.245871425706927 -3.0553017080783533 0 -3.0553017080783533 22.630486639465445 0 0 0 0 -257.83689589692017 39.165769471248495 0 39.165769471248495 43.773273274506209 0 0 0 0 0.32563663129427178 -18.078337312232559 0 -18.078337312232559 37.768186384441044 0 0 0 0 1526.1276640509973 -961.40712239342611 0 -961.40712239342611 83.580652139527047 0 0 0 0 2068.3097486063143 2871.7545190223341 0 2871.7545190223341 3497.2706649269894 0 0 0 0 4.5333949104555682 -3.8459744753426861 0 -3.8459744753426861 16.387848560219027 0 0 0 0 806.39866987757807 -1946.4732873547164 0 -1946.4732873547164 2261.8506540084591 0 0 0 0 2009.708072727464 1887.3634054502077 0 1887.3634054502077 2750.2471542946441 0 0 0 0 1415.4710356049791 1612.2462110376491 0 1612.2462110376491 3496.1928471499359 0 0 0 0 1786.0912832109766 2564.1750413444406 0 2564.1750413444406 3739.9378002282119 0 0 0 0 -1.730460603187022 -6.7086626876206914 0 -6.7086626876206914 -1.2804525801661413 0 0 0 0 1377.5997170774613 1952.5781308521216 0 1952.5781308521216 2017.80842717821 0 0 0 0 27.888482807068613 1228.2762170431961 0 1228.2762170431961 2309.9342411235139 0 0 0 0 -29.029796763470571 -34.48992262204775 0 -34.48992262204775 27.771436553663403 0 0 0 0 -363.08880383009682 211.51657500940564 0 211.51657500940564 -5.2050902203372971 0 0 0 0 -2.1200559988167686 4.1780663029722334 0 4.1780663029722334 20.099748634115294 0 0 0 0 1040.2871470740965 1388.7253588796029 0 1388.7253588796029 2091.9788793124044 0 0 0 0 1185.1509842066905 1733.3610711983592 0 1733.3610711983592 2478.6227841797736 0 0 0 0 599.76990676542187 1861.4434605996757 0 1861.4434605996757 2722.3726478483641 0 0 0 0 1165.3313400213594 1811.5070968670225 0 1811.5070968670225 2449.0851072641722 0 0 0 0 1339.9450287034435 2048.0158737262755 0 2048.0158737262755 2596.3697706551302 0 0 0 0 958.25760198610885 1702.2585060687479 0 1702.2585060687479 3499.6521801651857 0 0 0 0 1363.6210818082086 1976.4692857123168 0 1976.4692857123168 2780.718103828558 0 0 0 0 392.81035877829032 960.80038253540488 0 960.80038253540488 2773.2932668918775 0 0 0 0 -1021.6702019109022 756.76849735708856 0 756.76849735708856 3498.3270741955653 0 0 0 0 168.53978101110542 1226.380807010742 0 1226.380807010742 2603.9261166507049 0 0 0 0 -62.600994968808763 1355.1930310262978 0 1355.1930310262978 1809.9609664036932 0 0 0 0 -58.681421994932293 1291.3377379861495 0 1291.3377379861495 2813.9803996197106 0 0 0 0 -1028.684074980401 691.75013148533367 0 691.75013148533367 2472.4212950404708 0 0 0 0 902.24119369478365 1535.9081506020702 0 1535.9081506020702 2547.9614902671292 0 0 0 0 1230.2745304733271 1195.033768419265 0 1195.033768419265 2841.6520076754159 0 0 0 0 2714.787332617947 1811.7736350631885 0 1811.7736350631885 2604.1902232117072 0 0 0 0 696.30701663649188 1269.5594720382442 0 1269.5594720382442 2840.0683915611135 0 0 0 0 1074.2477097663484 1680.9153337381249 0 1680.9153337381249 1497.0356742388281 0 0 0 0 1106.6604601331337 1996.6653661830478 0 1996.6653661830478 2522.1843934393983 0 0 0 0 498.51554638333982 1442.8978661248848 0 1442.8978661248848 1494.5552018839842 0 0 0 0 311.7485486934001 1725.1784252134478 0 1725.1784252134478 2201.0375095001555 0 0 0 0 906.09302265911037 1529.2435725664182 0 1529.2435725664182 2128.3976295987341 0 0 0 0 -641.45146636368099 1627.5899373729235 0 1627.5899373729235 2170.0708118661996 0 0 0 0 -48.084522237025908 1633.3756641730877 0 1633.3756641730877 2006.7414767054368 0 0 0 0 50.106100607353255 1408.7651928090934 0 1408.7651928090934 1824.6486648993819 0 0 0 0 526.13378983274924 1557.2882829189707 0 1557.2882829189707 1491.952015873328 0 0 0 0 10.409560235561685 1071.4994448879825 0 1071.4994448879825 1283.553892993019 0 0 0 0 -511.75185877584317 1396.469464773113 0 1396.469464773113 1946.2944808561615 0 0 0 0 -290.52913495310327 1131.0019570047643 0 1131.0019570047643 2128.0626349149061 0 0 0 0 -87.1471713164172 967.7495778009029 0 967.7495778009029 1294.6941481320682 0 0 0 0 592.80749508963481 609.71233926434979 0 609.71233926434979 380.90478721561249 0 0 0 0 408.08801098611957 1014.0447253186358 0 1014.0447253186358 1142.7031648384418 0 0 0 0 1441.4950566366567 1348.2686326104995 0 1348.2686326104995 590.69165287887154 0 0 0 0 -806.83009668064187 1539.8899231260893 0 1539.8899231260893 3320.3847812613963 0 0 0 0 -737.99140669286635 54.908310750954115 0 54.908310750954115 3659.5249675690429 0 0 0 0 -563.16786515571107 1433.1727642616302 0 1433.1727642616302 2133.1055279020161 0 0 0 0 -458.74476203907579 954.30612734781471 0 954.30612734781471 1077.2951292870914 0 0 0 0 -861.06421740446467 1368.1453897484016 0 1368.1453897484016 2164.9235180283795 0 0 0 0 -275.43968936735382 1791.5543544190377 0 1791.5543544190377 2164.3980731716374 0 0 0 0 -1274.139924105114 -1370.4611818494 0 -1370.4611818494 -670.41963958678116 0 0 0 0 -786.53845894656843 -599.74580842986984 0 -599.74580842986984 -281.93195465645658 0 0 0 0 -1520.5150815839659 552.29861005577686 0 552.29861005577686 1635.9333239611638 0 0 0 0 -2730.6437186812987 -573.05424159796667 0 -573.05424159796667 1070.9923365317493 0 0 0 0 -1318.5176765913398 1077.0124567699054 0 1077.0124567699054 2063.6077007899221 0 0 0 0 -1682.4255174763782 -238.18253808027021 0 -238.18253808027021 2000.3867437288186 0 0 0 0 -2444.3852493645386 -294.54842211915218 0 -294.54842211915218 3500.6555610028481 0 0 0 0 -477.52703662656364 672.14071400659077 0 672.14071400659077 3966.1878599819584 0 0 0 0 -20.05729427264205 -4.9048313715492053 0 -4.9048313715492053 4.2824681152499453 0 0 0 0 -181.86551958663796 231.29649924552757 0 231.29649924552757 2658.6705616846607 0 0 0 0 -328.25058497803764 -366.21167511404656 0 -366.21167511404656 3499.1145783304723 0 0 0 0 196.02509866580556 -385.90351444303087 0 -385.90351444303087 2140.4889205114978 0 0 0 0 -49.554645518790103 1.3735335266692461 0 1.3735335266692461 20.941229945141906 0 0 0 0 -414.82698329673985 58.552904984108181 0 58.552904984108181 112.70322982503558 0 0 0 0 403.01922401704354 -1668.6501380167788 0 -1668.6501380167788 3497.2720813071219 0 0 0 0 1009.7226051597634 660.77414266407504 0 660.77414266407504 -104.50715706305164 0 0 0 0 9.4498031241035694 6.7263122012734939 0 6.7263122012734939 10.555580175525311 0 0 0 0 -37.850753515012315 -692.74606332190251 0 -692.74606332190251 2157.7577029821764 0 0 0 0 -31.950213631044072 13.502931067933776 0 13.502931067933776 17.972858124339929 0 0 0 0 -209.44973708871112 67.555436183109123 0 67.555436183109123 92.995582122641281 0 0 0 0 -72.626503399289447 -229.58002072727459 0 -229.58002072727459 2162.7913601779878 0 0 0 0 6.8454922502234785 27.207287672863398 0 27.207287672863398 30.852190175497022 0 0 0 0 -184.4608761969651 -20.514380718708253 0 -20.514380718708253 401.75450159433603 0 0 0 0 -334.60716780383268 578.55383912951083 0 578.55383912951083 478.97338637047505 0 0 0 0 -12.760435615806774 0.58956148949904019 0 0.58956148949904019 0.13362272470329373 0 0 0 0 -93.478792871146197 127.33647000997189 0 127.33647000997189 1015.1416385962038 0 0 0 0 -66.152522304295417 30.169741255316694 0 30.169741255316694 713.23947440374286 0 0 0 0 -260.3906385044022 176.42691305392327 0 176.42691305392327 1550.3344474598889 0 0 0 0 -549.42695288598452 310.85625914912907 0 310.85625914912907 1222.4426066538836 0 0 0 0 -422.8072438958302 472.09835262522029 0 472.09835262522029 1015.03325445403 0 0 0 0 -371.88418488594289 -67.473664165495393 0 -67.473664165495393 395.04972797782466 0 0 0 0 -191.06765177916384 818.67787920200567 0 818.67787920200567 -163.42286626294526 0 0 0 0 20.418084751434588 39.156898503558722 0 39.156898503558722 41.163545811894629 0 0 0 0 -10.420631535806706 -155.21083638649543 0 -155.21083638649543 1329.5008542403775 0 0 0 0 -200.82661235710475 195.25163811801758 0 195.25163811801758 1214.2283910815549 0 0 0 0 -39.972511332942304 -206.84209732447925 0 -206.84209732447925 1965.8566306571447 0 0 0 0 -103.55621568172137 -641.85223776779731 0 -641.85223776779731 4793.7769873015195 0 0 0 0 12.643529395073028 11.200812294104688 0 11.200812294104688 14.433004990450797 0 0 0 0 -0.68732994528528124 3.1440218716328339 0 3.1440218716328339 1.7089287002780189 0 0 0 0 17.345573132716709 998.70171840548937 0 998.70171840548937 -528.62349260269912 0 0 0 0 57.150477590283685 1241.245566540915 0 1241.245566540915 734.27767745887286 0 0 0 0 -394.51579335742281 816.17428954514071 0 816.17428954514071 2113.2918550957947 0 0 0 0 -395.25800814533079 766.74059487330794 0 766.74059487330794 1195.9374840912424 0 0 0 0 -464.83803682616053 643.98721261177889 0 643.98721261177889 1536.9606041503287 0 0 0 0 -474.81091520685658 568.41054988998621 0 568.41054988998621 1175.7271663924366 0 0 0 0 -484.87694186802037 451.88224995699602 0 451.88224995699602 1115.6203932891349 0 0 0 0 -136.91939694061102 371.20924843140347 0 371.20924843140347 894.48939120304385 0 0 0 0 -647.43301287467557 336.63641906651674 0 336.63641906651674 1277.9618893396746 0 0 0 0 -425.57468375469 654.94646837885716 0 654.94646837885716 1375.1079231037093 0 0 0 0 -500.51127428300981 -32.97280046347737 0 -32.97280046347737 614.74535716080391 0 0 0 0 -118.49122670657744 365.69989772065401 0 365.69989772065401 249.59397778500443 0 0 0 0 -402.6235775368346 45.825609391504969 0 45.825609391504969 526.4004956026256 0 0 0 0 -156.00275811392021 261.98152833905806 0 261.98152833905806 672.06279690315387 0 0 0 0 -175.50119186419306 372.6349263658899 0 372.6349263658899 305.00295679016017 0 0 0 0 -162.68845397212499 282.06647910024458 0 282.06647910024458 590.15761392014235 0 0 0 0 -440.57800570198481 462.18404082949246 0 462.18404082949246 701.03002214720982 0 0 0 0 -571.37796072414312 214.13262863942327 0 214.13262863942327 289.63618025602455 0 0 0 0 -663.61379403753836 519.07758449447283 0 519.07758449447283 346.824426039743 0 0 0 0 785.81365744218965 1138.3359521970051 0 1138.3359521970051 352.56764910244237 0 0 0 0 -70.588635296947814 602.4644126993735 0 602.4644126993735 42.806881697273639 0 0 0 0 -0.28494303152689882 3.8968228715106998 0 3.8968228715106998 11.767827700558939 0 0 0 0 -1311.696594651803 -377.60965648865385 0 -377.60965648865385 513.18098470063774 0 0 0 0 -450.08869334616475 385.1702088505026 0 385.1702088505026 1593.5016209151381 0 0 0 0 24.118425623717485 123.10353561742522 0 123.10353561742522 1055.5291254424174 0 0 0 0 -62.038300080612316 651.20624562436751 0 651.20624562436751 1186.0883387426566 0 0 0 0 -509.89552065643716 445.42815945558687 0 445.42815945558687 1350.0801659176068 0 0 0 0 -660.41853645894435 16.695920981874224 0 16.695920981874224 1108.1310302755937 0 0 0 0 -506.20556795926223 113.95277667596019 0 113.95277667596019 1169.3731510637026 0 0 0 0 -420.15230881850971 -28.181482007845261 0 -28.181482007845261 986.5819111914243 0 0 0 0 -628.15181315364816 -119.57626441407683 0 -119.57626441407683 1010.7911740803138 0 0 0 0 -676.38642695316412 38.602569167068395 0 38.602569167068395 494.65726155209268 0 0 0 0 -1116.094547281986 -621.45737256900975 0 -621.45737256900975 892.1426519097422 0 0 0 0 -864.32715868540981 -147.62241019153589 0 -147.62241019153589 1740.3039361678893 0 0 0 0 -658.5505896128002 -186.0977027865938 0 -186.0977027865938 1029.7450340615219 0 0 0 0 -677.55805269949769 677.28539697484302 0 677.28539697484302 2171.1026705371332 0 0 0 0 -541.68837252698199 133.92352947990184 0 133.92352947990184 3066.7746128423278 0 0 0 0 -489.1525143935678 122.67539139543624 0 122.67539139543624 1566.3913156099989 0 0 0 0 -600.27404327128443 -73.334974694163975 0 -73.334974694163975 1235.0733957885241 0 0 0 0 -1082.4278696135557 -129.40287795013683 0 -129.40287795013683 1274.4851905774103 0 0 0 0 -666.70703770401292 740.78549014778764 0 740.78549014778764 440.93545375956819 0 0 0 0 -1259.8675914101 590.75607968243821 0 590.75607968243821 1120.203649271707 0 0 0 0 -1317.9763699034609 1131.3699311949254 0 1131.3699311949254 1907.1927450371186 0 0 0 0 -201.21734449617938 -316.49663695470372 0 -316.49663695470372 -120.95629388762154 0 0 0 0 -761.10159238147355 508.73842992847221 0 508.73842992847221 1936.0222611854333 0 0 0 0 -940.59356880222049 1645.3329689732409 0 1645.3329689732409 2598.1587099737808 0 0 0 0 2.6668851267864477 2621.5395563032826 0 2621.5395563032826 3491.0176919923142 0 0 0 0 -959.96672242739339 1278.9707952716781 0 1278.9707952716781 1820.2232564688757 0 0 0 0 -559.36502040462005 677.90031661393368 0 677.90031661393368 2140.5150825951423 0 0 0 0 -570.54406057971312 684.88733879167762 0 684.88733879167762 2705.2565806454913 0 0 0 0 -675.62719456539003 996.03966953655072 0 996.03966953655072 2705.8809029775912 0 0 0 0 -641.82874174710446 1048.6410835008173 0 1048.6410835008173 1620.3865007074837 0 0 0 0 -1140.031673020515 1301.5517021614996 0 1301.5517021614996 3503.1239123826031 0 0 0 0 -968.40350684732368 1082.6106774875025 0 1082.6106774875025 2682.0326897901759 0 0 0 0 -884.57660250545302 818.06462180830567 0 818.06462180830567 3494.2524273112467 0 0 0 0 -554.28415527899904 614.11947569256517 0 614.11947569256517 2767.8739015603387 0 0 0 0 68.098845061310953 375.83094495842852 0 375.83094495842852 2605.7190483082541 0 0 0 0 -557.59445309803846 393.83579625402024 0 393.83579625402024 2605.4384174616571 0 0 0 0 246.93438935668144 711.26800396606086 0 711.26800396606086 2795.891446701411 0 0 0 0 35.222837599121704 204.52359373095896 0 204.52359373095896 2951.4576647627064 0 0 0 0 269.99532281607225 1062.4997214325085 0 1062.4997214325085 3499.5486786471902 0 0 0 0 -2.659182359206512 -0.78329892619133545 0 -0.78329892619133545 7.7667861980268214 0 0 0 0 -34.782892870901037 213.98210156276946 0 213.98210156276946 1924.2653904408689 0 0 0 0 -19.371631030402284 360.41971336178631 0 360.41971336178631 1855.9239520963856 0 0 0 0 -2.5474103152238028 -0.92180493365557226 0 -0.92180493365557226 6.4601294766768618 0 0 0 0 -864.12129871357195 -120.10298378900097 0 -120.10298378900097 3067.2345968345908 0 0 0 0 -884.14888399989036 -74.112064207200092 0 -74.112064207200092 3498.4412188439637 0 0 0 0 -290.28952768990428 -32.245575697533241 0 -32.245575697533241 2601.6813318223649 0 0 0 0 -272.59823284124332 91.482666126237746 0 91.482666126237746 3286.0814993654312 0 0 0 0 -135.43035167177663 791.79603609487094 0 791.79603609487094 3853.6608089558249 0 0 0 0 128.79830602796272 250.59476049727164 0 250.59476049727164 2584.2484391296348 0 0 0 0 13.086930619266241 345.69802912871091 0 345.69802912871091 2580.7952368585115 0 0 0 0 -225.24062155177171 -34.61708936571813 0 -34.61708936571813 2584.3593813732841 0 0 0 0 35.489042574625614 282.96989257429686 0 282.96989257429686 2120.3820050876457 0 0 0 0 80.277382683289716 221.45005278847384 0 221.45005278847384 2022.9846227395828 0 0 0 0 41.826015275237296 278.07828446460098 0 278.07828446460098 2084.2712503590519 0 0 0 0 126.23548192465933 393.90076931817384 0 393.90076931817384 2106.6174635868001 0 0 0 0 124.50928186864212 349.1768098903849 0 349.1768098903849 2290.8402096816062 0 0 0 0 234.82317298011912 720.65962768721511 0 720.65962768721511 2166.3940982177137 0 0 0 0 252.04660666819478 638.91543005589483 0 638.91543005589483 2444.5975275984492 0 0 0 0 -4.5009375628121155 -3.8275779967343553 0 -3.8275779967343553 8.0831193694714187 0 0 0 0 129.95245956305763 1291.7646806055473 0 1291.7646806055473 4041.079947994469 0 0 0 0 -236.66619777262611 729.85511387072984 0 729.85511387072984 2588.2362575454827 0 0 0 0 134.62041789660643 437.08140289398034 0 437.08140289398034 2836.130768995441 0 0 0 0 -29.454784896173237 303.89552510717658 0 303.89552510717658 2803.5153675556721 0 0 0 0 -590.2429165916551 -1174.1295128605143 0 -1174.1295128605143 3194.6284519095752 0 0 0 0 -529.52605166137937 -667.72480037047171 0 -667.72480037047171 3241.3648601869863 0 0 0 0 -787.19279232083068 -766.4798284219687 0 -766.4798284219687 3499.5905616716918 0 0 0 0 -472.95748150936424 -854.99062458072513 0 -854.99062458072513 2658.79848437705 0 0 0 0 -448.31807620046663 -808.83845208657067 0 -808.83845208657067 2232.6156113318211 0 0 0 0 -702.5945604044482 -493.02996771724156 0 -493.02996771724156 3109.8555122486578 0 0 0 0 -720.2354728820394 -587.04130384181917 0 -587.04130384181917 3020.0661659642665 0 0 0 0 -815.4237770963756 -334.49852037454912 0 -334.49852037454912 3499.9887776103628 0 0 0 0 -538.91441561193392 -356.41782214868908 0 -356.41782214868908 2655.9310439255678 0 0 0 0 -477.7626603319768 -195.48027677143546 0 -195.48027677143546 2987.7967812719326 0 0 0 0 -346.21523361852132 -334.45643547809959 0 -334.45643547809959 2654.3134991544612 0 0 0 0 -231.55756578679058 -123.29022184876203 0 -123.29022184876203 2212.6125167724531 0 0 0 0 69.786504297331589 153.77845040745342 0 153.77845040745342 1660.4804185781832 0 0 0 0 134.95700571327643 37.883056752856646 0 37.883056752856646 1623.3192747996072 0 0 0 0 50.753516595974588 140.75934748834879 0 140.75934748834879 1788.9754838899098 0 0 0 0 -122.91141032765063 -202.92614579783913 0 -202.92614579783913 2010.4643991143967 0 0 0 0 123.57592114423574 -32.572781474827934 0 -32.572781474827934 1197.4301048702764 0 0 0 0 81.499378834579602 -137.25861371838255 0 -137.25861371838255 1515.3585880160208 0 0 0 0 -107.33963457095888 -400.00450322507822 0 -400.00450322507822 1547.0620711842639 0 0 0 0 -315.08366472000648 -467.19986026269999 0 -467.19986026269999 2117.3253447137031 0 0 0 0 -329.48084794866804 -448.07721681272596 0 -448.07721681272596 2185.758103493994 0 0 0 0 -119.7077291327862 -215.52440465726613 0 -215.52440465726613 2059.8522870285015 0 0 0 0 -161.78208838142916 -613.96045098223112 0 -613.96045098223112 1303.5931979918896 0 0 0 0 -154.19720987326082 -523.42365091827742 0 -523.42365091827742 2005.2806558487064 0 0 0 0 -12.192280660225379 -476.29481252290134 0 -476.29481252290134 1406.744697515147 0 0 0 0 83.487832997660689 -322.94295805439106 0 -322.94295805439106 886.45740076272341 0 0 0 0 -482.06792522037949 -589.87011092699322 0 -589.87011092699322 1285.5597664103771 0 0 0 0 6.0366268075410972 -471.31006784354031 0 -471.31006784354031 662.41947979591714 0 0 0 0 -345.88507691581196 -866.81215717789564 0 -866.81215717789564 2202.709428308408 0 0 0 0 -63.936553186656226 -923.90341046722097 0 -923.90341046722097 1168.423320099253 0 0 0 0 18.29390657807005 33.50811603533748 0 33.50811603533748 30.818189379817341 0 0 0 0 309.26891166653081 221.12568412796463 0 221.12568412796463 246.42190456928802 0 0 0 0 -120.1372043844907 203.10008037059924 0 203.10008037059924 460.924000839972 0 0 0 0 24.737454844857382 -52.124077173764817 0 -52.124077173764817 -77.369773783466371 0 0 0 0 190.06287672190592 -50.616767407103907 0 -50.616767407103907 320.96055184416036 0 0 0 0 -167.51650660139717 -533.31046996226451 0 -533.31046996226451 243.46843214156979 0 0 0 0 -164.19207760491338 -465.09822027067639 0 -465.09822027067639 731.12180796311441 0 0 0 0 28.908738983218939 4.2669894139244207 0 4.2669894139244207 504.46026477100531 0 0 0 0 203.65011768764248 39.990299259905441 0 39.990299259905441 814.73942830799933 0 0 0 0 205.77901245059411 40.674699715247698 0 40.674699715247698 814.3830293890278 0 0 0 0 327.75648896158168 154.10916969018217 0 154.10916969018217 367.15013425482175 0 0 0 0 285.23472345804259 369.36689180668327 0 369.36689180668327 584.31001267572356 0 0 0 0 613.85128839720312 570.69130764759029 0 570.69130764759029 597.00427840066732 0 0 0 0 468.01257474618728 675.42326825776945 0 675.42326825776945 1003.7195101315847 0 0 0 0 349.0310578147878 265.45291364609147 0 265.45291364609147 852.34701666930778 0 0 0 0 352.59041746117595 263.80218933256765 0 263.80218933256765 846.62950664927484 0 0 0 0 226.28684825732716 14.294779557938455 0 14.294779557938455 848.14211694467008 0 0 0 0 233.79203569258971 109.24230412706856 0 109.24230412706856 1272.5784163727658 0 0 0 0 318.19355491665533 291.5992718508387 0 291.5992718508387 990.0672005755041 0 0 0 0 302.68326468492342 328.10351080492637 0 328.10351080492637 1183.4382729401405 0 0 0 0 232.25703895475544 353.97666221327381 0 353.97666221327381 1270.0303501129547 0 0 0 0 152.47869031017808 123.79460991948145 0 123.79460991948145 1342.7736959106405 0 0 0 0 244.59384439961923 412.04093841370923 0 412.04093841370923 1477.8892145031386 0 0 0 0 149.33955718949346 142.50423180357029 0 142.50423180357029 1613.3782406078535 0 0 0 0 228.84767097849397 340.99751248372331 0 340.99751248372331 1390.5841616622056 0 0 0 0 321.9990679529742 491.66109387551842 0 491.66109387551842 1295.8653289689464 0 0 0 0 2.0935129694896952 6.6018496690013961 0 6.6018496690013961 7.2721351992157679 0 0 0 0 405.25105481666014 434.82705930150223 0 434.82705930150223 788.01355509788846 0 0 0 0 287.79298220780379 444.73619086733379 0 444.73619086733379 1252.4710322058527 0 0 0 0 338.98696111558797 416.28252733570844 0 416.28252733570844 1178.2195414558082 0 0 0 0 316.88551864281976 478.31156212200221 0 478.31156212200221 967.70569441261614 0 0 0 0 261.62492788019699 551.31119009955 0 551.31119009955 985.75074105598105 0 0 0 0 107.04609292479093 180.26355677003539 0 180.26355677003539 189.25258639822277 0 0 0 0 56.727585343637053 -66.509497437639311 0 -66.509497437639311 -15.415748745035671 0 0 0 0 194.22110055245889 449.02553708533105 0 449.02553708533105 896.68392359641439 0 0 0 0 180.83526804266285 381.02303839700107 0 381.02303839700107 645.95505823705525 0 0 0 0 1.3175893168942974 1.267565602538312 0 1.267565602538312 -0.9327661162807459 0 0 0 0 494.28671531501305 382.48021613129822 0 382.48021613129822 346.59351254613284 0 0 0 0 494.40745159211542 464.55172167191631 0 464.55172167191631 368.28179217662455 0 0 0 0 196.46108301668505 537.97197543294897 0 537.97197543294897 854.19139517606891 0 0 0 0 425.23421460395605 207.68848696982104 0 207.68848696982104 429.15591600814514 0 0 0 0 -36.327652190786921 331.69907391117886 0 331.69907391117886 428.45720317417727 0 0 0 0 -120.92033796674514 22.505447494964756 0 22.505447494964756 102.42193591800333 0 0 0 0 -109.13426377571068 3.5230295148357982 0 3.5230295148357982 96.896439417727379 0 0 0 0 -817.50864319839502 -79.907817835533933 0 -79.907817835533933 440.47588555777111 0 0 0 0 -859.25140215854969 -922.39984986912987 0 -922.39984986912987 -642.65952352311797 0 0 0 0 -465.45870190582036 -188.07818531984412 0 -188.07818531984412 310.24717254952338 0 0 0 0 -466.47694680628092 -170.427698100736 0 -170.427698100736 62.360174560391897 0 0 0 0 -9.9844830595493868 -11.063504727216618 0 -11.063504727216618 17.128634847635176 0 0 0 0 246.73981117184201 654.18859261659418 0 654.18859261659418 2461.4798654648657 0 0 0 0 278.43918328753057 559.59404100493339 0 559.59404100493339 1481.3191538200699 0 0 0 0 248.78292999209361 415.39767233862949 0 415.39767233862949 1462.9414424481088 0 0 0 0 123.58812808817333 347.52020364070995 0 347.52020364070995 1598.5564123920194 0 0 0 0 240.85158981151653 406.76549190311198 0 406.76549190311198 1614.5201179619908 0 0 0 0 251.75198945121292 569.99084465758278 0 569.99084465758278 1712.2785438798674 0 0 0 0 133.39089342872626 495.87703439073812 0 495.87703439073812 1528.2069923722702 0 0 0 0 296.57418161696228 481.98676730970328 0 481.98676730970328 1512.6550701877568 0 0 0 0 413.47328612918591 557.55429691719473 0 557.55429691719473 1436.6288415122326 0 0 0 0 293.80413464665253 499.20366159250898 0 499.20366159250898 1409.0831610888563 0 0 0 0 374.91214428508601 463.21072106468637 0 463.21072106468637 1212.5868004511431 0 0 0 0 594.58144158838286 860.66152283592965 0 860.66152283592965 775.78500987717416 0 0 0 0 162.33322340545669 708.66245719899598 0 708.66245719899598 1626.5438168594119 0 0 0 0 -4.4057888294619207 -0.68473552088757117 0 -0.68473552088757117 9.1190203096889917 0 0 0 0 8.4055787768355454 25.793308270141662 0 25.793308270141662 38.692729134020297 0 0 0 0 -9.7766210780010034 -13.466475631758421 0 -13.466475631758421 25.477383849308822 0 0 0 0 -121.43216377387762 35.032575798271864 0 35.032575798271864 74.943510162584062 0 0 0 0 -109.96042675714398 16.263390546784649 0 16.263390546784649 69.095239660902735 0 0 0 0 46.286366282868244 178.168218421044 0 178.168218421044 100.07036702494588 0 0 0 0 37.467418681046865 -48.136876467040565 0 -48.136876467040565 -83.522880371750944 0 0 0 0 -81.656319790523469 -30.321445986750405 0 -30.321445986750405 762.65705846387209 0 0 0 0 54.964704206463693 -98.575877853807469 0 -98.575877853807469 182.24197691123845 0 0 0 0 -32.091292976988484 32.574115251196417 0 32.574115251196417 467.48695434980618 0 0 0 0 7.329566967257259 23.529990567189891 0 23.529990567189891 34.892766749593562 0 0 0 0 -494.9647456046564 197.44225735245345 0 197.44225735245345 24.106811057856248 0 0 0 0 -669.42418683749111 258.74619920411442 0 258.74619920411442 475.25125016296442 0 0 0 0 -494.96561446786654 196.60829972595639 0 196.60829972595639 141.78479991812492 0 0 0 0 -644.18951351757505 731.54989470688633 0 731.54989470688633 -340.77329450316029 0 0 0 0 115.31940820868181 -177.75536221846278 0 -177.75536221846278 1029.7213926419245 0 0 0 0 5.2252455113451592 18.583721407807388 0 18.583721407807388 28.023947091457437 0 0 0 0 240.59655465565311 -559.72142858229745 0 -559.72142858229745 1292.9737889865701 0 0 0 0 -64.163903228071462 -133.20746289462159 0 -133.20746289462159 2119.4425344927731 0 0 0 0 -78.306962565624872 -294.32247767424087 0 -294.32247767424087 1460.0176126377883 0 0 0 0 123.27141595988668 -388.55454127685937 0 -388.55454127685937 682.63936754210954 0 0 0 0 -117.19195951049602 -33.972923267921942 0 -33.972923267921942 763.4035736289934 0 0 0 0 -204.78442092916197 -267.96606595288904 0 -267.96606595288904 1318.6817614903994 0 0 0 0 -99.160364074533277 -112.70938339280838 0 -112.70938339280838 1372.2004995470234 0 0 0 0 -150.61222612519737 -248.12327644539982 0 -248.12327644539982 1245.8746501395945 0 0 0 0 -79.467452240517218 -76.11189762160393 0 -76.11189762160393 1208.1831396662274 0 0 0 0 -155.62449954378121 -165.58354973630776 0 -165.58354973630776 1495.7294984251057 0 0 0 0 -136.87397345411011 -177.2256552551371 0 -177.2256552551371 1396.1935638768045 0 0 0 0 3.0621388399682985 -76.034568086085983 0 -76.034568086085983 1304.9503136839485 0 0 0 0 59.58791869311699 44.816908357901411 0 44.816908357901411 1468.5741312027239 0 0 0 0 30.540238777923378 76.065995142849715 0 76.065995142849715 1568.8004407303888 0 0 0 0 -30.116239293626421 59.261152592668168 0 59.261152592668168 1622.343354045428 0 0 0 0 74.243569214486797 226.10483773388842 0 226.10483773388842 1749.2167535699887 0 0 0 0 42.905738199497449 106.38067505151957 0 106.38067505151957 1697.8879002158355 0 0 0 0 -40.812420742964832 112.31220075537203 0 112.31220075537203 1769.0950146290652 0 0 0 0 105.27552189499738 249.09997553785433 0 249.09997553785433 1883.63658583906 0 0 0 0 35.291924912200074 143.22579579518606 0 143.22579579518606 1907.5665090717266 0 0 0 0 215.45757261821109 220.75469030164277 0 220.75469030164277 1917.6602966417695 0 0 0 0 -49.698593423283 27.688951699816243 0 27.688951699816243 1756.6394463308097 0 0 0 0 -278.62842163713958 393.25812925856007 0 393.25812925856007 3496.4925618287016 0 0 0 0 787.77026053921645 -17.883014644479772 0 -17.883014644479772 1283.9790982445302 0 0 0 0 509.44229066584273 797.57184173345013 0 797.57184173345013 1661.4302542439291 0 0 0 0 -440.50100840345226 -359.78520737291547 0 -359.78520737291547 1340.4108298953506 0 0 0 0 -523.23427462863458 -40.114134821811604 0 -40.114134821811604 2556.702697539502 0 0 0 0 81.448718532036565 117.507365839665 0 117.507365839665 698.56877637920479 0 0 0 0 97.205752689101018 187.58925728990289 0 187.58925728990289 943.73532950059735 0 0 0 0 -186.08734936072159 31.291359064871358 0 31.291359064871358 1441.2449454569723 0 0 0 0 -251.23530795145086 -242.10242918544463 0 -242.10242918544463 1322.0500053010001 0 0 0 0 -172.9619872723477 -325.4003869772032 0 -325.4003869772032 1314.8747808451444 0 0 0 0 49.933440331980705 -97.254661502120143 0 -97.254661502120143 897.59141516395903 0 0 0 0 -56.83357976667844 -345.04766064609066 0 -345.04766064609066 1227.3139237079195 0 0 0 0 -1219.96823951088 -1441.4911085991989 0 -1441.4911085991989 1296.1411698613974 0 0 0 0 -54.61496828129718 -434.59454935225722 0 -434.59454935225722 17.129944404143316 0 0 0 0 -472.36464170599334 433.5926256249204 0 433.5926256249204 586.52124687310243 0 0 0 0 -2.1168894362920283 -2.0690093721259473 0 -2.0690093721259473 27.294139628863519 0 0 0 0 98.241335736518863 2000.1369550402942 0 2000.1369550402942 2713.6445018480881 0 0 0 0 -580.47466763927696 1339.0631668399292 0 1339.0631668399292 3072.3054145660935 0 0 0 0 -200.41556379127314 1148.9604677398802 0 1148.9604677398802 804.4904880839531 0 0 0 0 -4.2943603827097308 -7.7679364423139816 0 -7.7679364423139816 55.864801058910302 0 0 0 0 -1538.1077608827313 -630.77205394180965 0 -630.77205394180965 401.5762552654196 0 0 0 0 -571.28438299230766 649.53387947093506 0 649.53387947093506 2153.0560414325009 0 0 0 0 -537.76782362569884 346.20261412195759 0 346.20261412195759 2628.1437017024364 0 0 0 0 5.256174758782322 488.79634940119649 0 488.79634940119649 1162.4974241501441 0 0 0 0 -96.84288646503677 373.4778470537658 0 373.4778470537658 1981.1081386296719 0 0 0 0 -216.14536666610178 22.987840858873824 0 22.987840858873824 1228.8053136566959 0 0 0 0 27.25360371855038 178.66678275366212 0 178.66678275366212 1463.161285413873 0 0 0 0 -23.39193092080518 318.00047967508453 0 318.00047967508453 1282.1754284658746 0 0 0 0 77.231486001248186 487.67631660508414 0 487.67631660508414 1676.4104240112429 0 0 0 0 3.0714958379459176 318.03778865421191 0 318.03778865421191 2069.8323855371636 0 0 0 0 46.092871662228674 485.40780644775441 0 485.40780644775441 2194.0946390573372 0 0 0 0 -46.903627044661675 354.13688347685093 0 354.13688347685093 2369.8671574857435 0 0 0 0 107.28647338513883 511.01463325579971 0 511.01463325579971 2443.0401557836958 0 0 0 0 -7.6967451676681549 331.10346137615488 0 331.10346137615488 2473.3913632057229 0 0 0 0 -101.36707289937044 376.76302957692678 0 376.76302957692678 2816.5705325562158 0 0 0 0 -14.483834988062881 304.27192130840558 0 304.27192130840558 2463.0342525965825 0 0 0 0 -5.7059625891793475 53.605861342805994 0 53.605861342805994 18.826042948674292 0 0 0 0 8.7089428397131243 -30.418067034261455 0 -30.418067034261455 18.078252792047806 0 0 0 0 -135.34856040563625 247.73538529396683 0 247.73538529396683 2943.0553979298675 0 0 0 0 37.743144379286377 316.5086212619899 0 316.5086212619899 2795.3705205461156 0 0 0 0 115.75126472000375 552.18534192921652 0 552.18534192921652 2638.7310518573795 0 0 0 0 0.93822001719606885 14.324136270443574 0 14.324136270443574 13.09045829719328 0 0 0 0 2.3023262610909381 -0.8624413130095121 0 -0.8624413130095121 8.3220730403830885 0 0 0 0 -58.568586380135372 3.0333471583526261 0 3.0333471583526261 3899.1564609008055 0 0 0 0 24.52637308396686 25.003125456084717 0 25.003125456084717 2910.9251180556021 0 0 0 0 77.010489249422108 524.35661769535727 0 524.35661769535727 2982.7385840483767 0 0 0 0 -39.651811110703648 182.42689280759078 0 182.42689280759078 2749.6285447881128 0 0 0 0 82.081814649975286 447.79356071523216 0 447.79356071523216 1976.1756611087008 0 0 0 0 -176.39278493051154 188.33526861887185 0 188.33526861887185 2481.2567169603426 0 0 0 0 -274.13848956549816 482.90938449227087 0 482.90938449227087 2473.3551523038186 0 0 0 0 -583.27762741165043 -18.192326752825466 0 -18.192326752825466 3169.101969990872 0 0 0 0 -535.41236511527404 294.90276555882883 0 294.90276555882883 2780.8421828613573 0 0 0 0 -385.75060120260878 -97.610954347263032 0 -97.610954347263032 2939.7594442829832 0 0 0 0 -350.41334113424136 -181.07560991042192 0 -181.07560991042192 3136.312646619961 0 0 0 0 113.26139743464591 -460.78870467696106 0 -460.78870467696106 1802.0505286642401 0 0 0 0 8.8893782358863298 8.4315269516229847 0 8.4315269516229847 -3.4087537845445173 0 0 0 0 -982.40314505354445 406.08496054345596 0 406.08496054345596 2756.8585784643255 0 0 0 0 -922.54578926691556 -26.954717641619482 0 -26.954717641619482 4705.7391917985151 0 0 0 0 70.919128237890448 291.15973623523269 0 291.15973623523269 1847.332152168623 0 0 0 0 61.608651805297541 344.91177103899463 0 344.91177103899463 1984.4781016032084 0 0 0 0 78.409700279943081 325.80412572787463 0 325.80412572787463 1995.06914522841 0 0 0 0 55.343929706927611 315.79566159731257 0 315.79566159731257 2004.0418063906254 0 0 0 0 56.268544967899629 317.19223204812988 0 317.19223204812988 1988.6122792242313 0 0 0 0 74.83753588868467 308.58504523940974 0 308.58504523940974 1982.3336188461399 0 0 0 0 41.673838411634051 249.5833541497741 0 249.5833541497741 1939.4373893539414 0 0 0 0 75.312306867336247 325.15778900330952 0 325.15778900330952 1939.1377037095226 0 0 0 0 51.559298835642949 276.04411052329669 0 276.04411052329669 1855.7396142008583 0 0 0 0 73.922825272235059 178.37073325212623 0 178.37073325212623 1586.2843019724633 0 0 0 0 95.386830619424245 364.21535792439681 0 364.21535792439681 1647.5279642771711 0 0 0 0 79.849566494044893 132.07280601380262 0 132.07280601380262 1380.8569214308372 0 0 0 0 62.867917135996777 239.19860127002903 0 239.19860127002903 1739.404070335906 0 0 0 0 47.262623635439923 271.06684402402243 0 271.06684402402243 1819.7938274179396 0 0 0 0 79.581520006920528 451.69432701146434 0 451.69432701146434 1963.1147183191169 0 0 0 0 68.707142888954422 378.3212806789852 0 378.3212806789852 1972.6048465255371 0 0 0 0 42.594732171630767 317.75417028462471 0 317.75417028462471 1996.1843681267856 0 0 0 0 116.10032890286038 357.57717519225844 0 357.57717519225844 1752.7870091553477 0 0 0 0 96.475201455773458 352.67115010492125 0 352.67115010492125 2001.0525597080541 0 0 0 0 60.117036155464348 371.37101152280775 0 371.37101152280775 2152.1224677559803 0 0 0 0 58.393259637064602 288.96672913954535 0 288.96672913954535 2179.8540231840743 0 0 0 0 28.875195055546783 402.30483881997861 0 402.30483881997861 2206.7669107298643 0 0 0 0 63.421304573751058 269.35565176376986 0 269.35565176376986 2288.4220292466962 0 0 0 0 42.936204915031567 355.1525210928221 0 355.1525210928221 2295.5867109911196 0 0 0 0 60.338867941390617 307.52294895623709 0 307.52294895623709 2170.9647589016167 0 0 0 0 39.512149297636483 345.68024449356108 0 345.68024449356108 2399.7177167214832 0 0 0 0 101.0903247737765 228.48743490396009 0 228.48743490396009 2418.3316970160631 0 0 0 0 8.6586170445309563 404.96315247187886 0 404.96315247187886 2326.5372048321224 0 0 0 0 46.4747071886095 -41.152571126265684 0 -41.152571126265684 520.0341591997485 0 0 0 0 10.897883274845526 78.692870642880735 0 78.692870642880735 2762.4191582013082 0 0 0 0 -41.939242362020764 309.11178294334604 0 309.11178294334604 2670.4355084658455 0 0 0 0 193.49738465413225 168.59184597876629 0 168.59184597876629 2430.0385363066234 0 0 0 0 -74.641117147432851 25.037405586390378 0 25.037405586390378 519.27070713839566 0 0 0 0 92.349732474517168 -53.983572107354121 0 -53.983572107354121 417.25114040714288 0 0 0 0 8.2890575787339458 278.46273077935439 0 278.46273077935439 2452.7453439184246 0 0 0 0 10.319088468274076 -23.652122152368392 0 -23.652122152368392 4.3446403024583509 0 0 0 0 -23.905530355131759 209.51397087860823 0 209.51397087860823 2404.8469289897766 0 0 0 0 50.799455458832767 337.9912405550217 0 337.9912405550217 2029.9530758781693 0 0 0 0 48.987586168184862 335.50948380554473 0 335.50948380554473 2134.9363295385629 0 0 0 0 51.132688858847814 170.8996687520339 0 170.8996687520339 2247.4959662724432 0 0 0 0 39.287888834484306 314.92593120655238 0 314.92593120655238 2117.5684791292442 0 0 0 0 31.196970884827465 269.94270920261789 0 269.94270920261789 1983.7644945361171 0 0 0 0 31.44481380585421 277.16825940721537 0 277.16825940721537 2096.8294378362916 0 0 0 0 42.768882419373313 234.70476059055909 0 234.70476059055909 2006.5874608498452 0 0 0 0 12.222013619878272 -18.014694829735674 0 -18.014694829735674 4.7323092283611778 0 0 0 0 139.74468929613181 -76.595983360795799 0 -76.595983360795799 269.12316210453537 0 0 0 0 52.54012281091417 206.86274494840706 0 206.86274494840706 2044.8552837181633 0 0 0 0 104.18086437831198 -0.29118602552625816 0 -0.29118602552625816 337.04739543429969 0 0 0 0 21.83299705946547 -120.63289415782856 0 -120.63289415782856 368.24311803855198 0 0 0 0 -98.554260116954083 -56.170063658206345 0 -56.170063658206345 440.39111805972789 0 0 0 0 -62.009140500567696 55.032062097729067 0 55.032062097729067 370.32536791517487 0 0 0 0 23.829328563903573 -7.5174823600555101 0 -7.5174823600555101 193.06092885689236 0 0 0 0 10.636329755262407 -13.033587766998068 0 -13.033587766998068 3.5186883870168133 0 0 0 0 167.78522895256401 155.64723980396229 0 155.64723980396229 1716.5891610334729 0 0 0 0 65.737416438037144 256.50824976211879 0 256.50824976211879 1910.4449865566585 0 0 0 0 -7.8706498780898073 189.83813398625716 0 189.83813398625716 1949.94389422526 0 0 0 0 13.016342978709417 241.78801947789907 0 241.78801947789907 2023.675172409763 0 0 0 0 57.294413433912723 304.53201987644934 0 304.53201987644934 2005.5429673715626 0 0 0 0 95.701748850510285 320.32874467868896 0 320.32874467868896 1964.5583690933472 0 0 0 0 75.994036275023859 287.49485810656688 0 287.49485810656688 2178.912619530638 0 0 0 0 126.64997309093724 179.40647847381297 0 179.40647847381297 2051.3468978869118 0 0 0 0 53.417297848181988 300.77262779418925 0 300.77262779418925 2058.4944204952153 0 0 0 0 183.12742712175987 621.22576009838122 0 621.22576009838122 2731.9815782724354 0 0 0 0 348.31496907618384 556.51284949997353 0 556.51284949997353 2500.7802032940599 0 0 0 0 260.68343632135793 283.96576044074391 0 283.96576044074391 2151.9067834995221 0 0 0 0 329.17995924108936 374.58253205001438 0 374.58253205001438 1667.3573902069111 0 0 0 0 197.83691786079044 7.9946142392846014 0 7.9946142392846014 897.82837469063088 0 0 0 0 3.1046577612016151 2.9956262072302877 0 2.9956262072302877 3.0475268753685958 0 0 0 0 -43.276287940592283 29.524503758623723 0 29.524503758623723 1824.1139475932978 0 0 0 0 46.814685813382312 43.692822938208337 0 43.692822938208337 1637.9293869583423 0 0 0 0 30.782604850709959 -34.09379769165389 0 -34.09379769165389 137.79351362326906 0 0 0 0 5.7836327143126045 -7.973160163019628 0 -7.973160163019628 3.0001465361762918 0 0 0 0 -3.0414074278864973 -146.90837480184655 0 -146.90837480184655 -25.815339994603619 0 0 0 0 1.5941718189963225 -1.87145466390254 0 -1.87145466390254 1.9155154521316735 0 0 0 0 -34.713638630775677 -169.76686367770708 0 -169.76686367770708 1629.3007022736965 0 0 0 0 -163.73743287399839 92.424757881220557 0 92.424757881220557 2107.1387787222302 0 0 0 0 126.32796245109557 -19.153715696602376 0 -19.153715696602376 1538.190442412495 0 0 0 0 153.17721422001341 -128.61553596013619 0 -128.61553596013619 578.16564609307261 0 0 0 0 -34.151202300454315 -357.67187005296364 0 -357.67187005296364 697.46100746195225 0 0 0 0 -55.487972662617722 -73.604825821608756 0 -73.604825821608756 992.92519354119395 0 0 0 0 6.2784055824945426 -326.1893606288495 0 -326.1893606288495 695.76429971211201 0 0 0 0 90.922614823884032 106.21242383075696 0 106.21242383075696 872.50231292023818 0 0 0 0 -133.57895716200255 -74.816162829778477 0 -74.816162829778477 1790.6744188462471 0 0 0 0 3.5563213478142863 7.3014809804774856 0 7.3014809804774856 3.1138906226071317 0 0 0 0 43.523943182058701 -20.231766426338254 0 -20.231766426338254 1335.0612929729632 0 0 0 0 -80.029039114528132 439.28550736420038 0 439.28550736420038 1022.0469217812952 0 0 0 0 -144.5333221486635 310.08148914650337 0 310.08148914650337 774.51358740570868 0 0 0 0 156.54136500298637 19.212807886334303 0 19.212807886334303 1042.7959031057107 0 0 0 0 -171.50701768482395 -0.74958061864526826 0 -0.74958061864526826 1537.1499329496062 0 0 0 0 5.78623266571282 6.5910822865310834 0 6.5910822865310834 3.7450310468651287 0 0 0 0 -63.295493375589103 296.42084882516065 0 296.42084882516065 1903.5545016758174 0 0 0 0 -53.170811669147952 247.81837714338599 0 247.81837714338599 1392.4313565993689 0 0 0 0 157.52764154738179 39.648222792223351 0 39.648222792223351 2202.0533487615885 0 0 0 0 -383.75501149955858 987.61160290267344 0 987.61160290267344 2833.6723172724815 0 0 0 0 -260.41531390432465 982.0767557567624 0 982.0767557567624 1536.0809051371502 0 0 0 0 -279.18774844666768 980.25238449982362 0 980.25238449982362 1535.9037399566369 0 0 0 0 548.20105212764247 1767.5944365059895 0 1767.5944365059895 1326.0497749156002 0 0 0 0 -85.816475271612944 975.75620859949595 0 975.75620859949595 1026.3120871216015 0 0 0 0 -285.21452905775186 906.79312071802451 0 906.79312071802451 1290.1523025423594 0 0 0 0 -315.89254764688394 904.76005384982091 0 904.76005384982091 1734.9752780826193 0 0 0 0 -76.440532244607311 1148.5620036343562 0 1148.5620036343562 1443.5712908466958 0 0 0 0 -269.77960487671226 1181.4548649848821 0 1181.4548649848821 2387.3978000338802 0 0 0 0 -463.9336874269502 845.40465398802007 0 845.40465398802007 1808.1846354814552 0 0 0 0 -297.66461896360556 766.25014151971391 0 766.25014151971391 859.64312146776501 0 0 0 0 -232.92412425773841 271.52052463570544 0 271.52052463570544 1113.5779006939483 0 0 0 0 -926.42630187628856 -244.81275559044843 0 -244.81275559044843 1685.744388985735 0 0 0 0 260.30805933182364 708.18402424459418 0 708.18402424459418 73.497042087217778 0 0 0 0 -521.78856455639243 138.5617268246092 0 138.5617268246092 508.73619848853559 0 0 0 0 -1009.2183119587854 689.38751914512363 0 689.38751914512363 371.26945282239831 0 0 0 0 -1054.2300849502271 626.91316050824753 0 626.91316050824753 285.27252037225344 0 0 0 0 -1.2180220280213052 7.7239592060055351 0 7.7239592060055351 27.115847656250892 0 0 0 0 -320.47060031753563 279.14841937885831 0 279.14841937885831 2179.7494751283084 0 0 0 0 -268.25294019544708 453.16042860740163 0 453.16042860740163 -329.47107386716016 0 0 0 0 -22.84843587794785 1184.3731624127158 0 1184.3731624127158 -452.63280932195937 0 0 0 0 11.100612964128004 631.28025356113767 0 631.28025356113767 -467.45374366221222 0 0 0 0 227.67040778230103 -729.54379122617502 0 -729.54379122617502 3083.0200025703125 0 0 0 0 2.5939163953457296 7.1612419467318134 0 7.1612419467318134 11.750320788770566 0 0 0 0 399.96046293973404 339.83125633770942 0 339.83125633770942 2362.4566456530301 0 0 0 0 447.02669068436671 -153.91744592038901 0 -153.91744592038901 1355.6487885678871 0 0 0 0 237.46308295759684 61.901107975333844 0 61.901107975333844 1966.47334530644 0 0 0 0 84.792997446470963 113.87732957780099 0 113.87732957780099 1958.4243970688476 0 0 0 0 76.856121083520065 114.01197859711169 0 114.01197859711169 2392.5648703467414 0 0 0 0 -415.82786110150846 -270.67198379528963 0 -270.67198379528963 2143.7447678404533 0 0 0 0 -359.04975536409484 448.56575229669033 0 448.56575229669033 2860.5012955643342 0 0 0 0 -0.72432929850905192 4.0563127774320504 0 4.0563127774320504 15.322418650502883 0 0 0 0 -1677.3007976334488 -552.89509996870606 0 -552.89509996870606 2104.6091510785518 0 0 0 0 -152.57049022953674 200.72510863778734 0 200.72510863778734 1718.437287674773 0 0 0 0 0.36162904338768809 2.5272340244373765 0 2.5272340244373765 9.9001779018109062 0 0 0 0 0.84905070794889115 -87.788371751183149 0 -87.788371751183149 508.29284335247212 0 0 0 0 658.30718992494201 -1598.3922881644248 0 -1598.3922881644248 2189.3162475965819 0 0 0 0 -1093.6518070627271 -1120.9250498080582 0 -1120.9250498080582 1685.7194247928419 0 0 0 0 167.88471390051222 -504.67527157071891 0 -504.67527157071891 156.02882404552656 0 0 0 0 -744.37170614913521 -69.893774784715788 0 -69.893774784715788 -287.19338196908302 0 0 0 0 1315.81270861805 2516.2529950446369 0 2516.2529950446369 4777.1896356078796 0 0 0 0 0.80151037063562391 -11.47522483562264 0 -11.47522483562264 27.225355143769406 0 0 0 0 -1228.7021716666331 -2210.7202540266517 0 -2210.7202540266517 -546.77871045108714 0 0 0 0 663.31637989633657 -330.5935083858385 0 -330.5935083858385 677.05479770463899 0 0 0 0 43.657581611659225 831.59289103456831 0 831.59289103456831 5797.2896113510797 0 0 0 0 44.167091507565146 845.60636487833108 0 845.60636487833108 3231.4208362939535 0 0 0 0 1290.9668727448393 2937.3369509650365 0 2937.3369509650365 2173.2059273167833 0 0 0 0 -365.02345571027172 -33.324670525369584 0 -33.324670525369584 -57.15126250423782 0 0 0 0 1.9016217054446392 -27.549969786317988 0 -27.549969786317988 56.948477581405882 0 0 0 0 -1569.1484155544415 -778.49434236140951 0 -778.49434236140951 77.020612883701688 0 0 0 0 -187.59631289224444 407.77804407913209 0 407.77804407913209 516.06897025907892 0 0 0 0 -779.92968750449722 -528.01625653404335 0 -528.01625653404335 1250.0650005952339 0 0 0 0 -829.13074147379996 -8.0914388008714013 0 -8.0914388008714013 679.24769753278088 0 0 0 0 -599.69369910008686 129.30150456284173 0 129.30150456284173 381.02691112443426 0 0 0 0 -395.1611612859864 11.803413821756578 0 11.803413821756578 443.68713378738903 0 0 0 0 -401.89711867130711 531.43771318100835 0 531.43771318100835 878.75020110639161 0 0 0 0 -151.47319550026293 382.38808484160108 0 382.38808484160108 966.93192221498612 0 0 0 0 1.6146314957498864 425.01372486891887 0 425.01372486891887 1144.278807329858 0 0 0 0 -239.12859163431551 510.15175779483616 0 510.15175779483616 1674.2565125191468 0 0 0 0 -161.43481553519894 871.79820528415439 0 871.79820528415439 1802.8472045195158 0 0 0 0 -1.0961077470741429 251.51055192225249 0 251.51055192225249 2391.9445433454312 0 0 0 0 -645.56835131679998 710.11368236078852 0 710.11368236078852 3496.4165655035949 0 0 0 0 -541.39261872042619 918.60858960060068 0 918.60858960060068 2455.7533664349758 0 0 0 0 -341.33862536467745 989.2364656134414 0 989.2364656134414 2429.9977904473708 0 0 0 0 -143.19856392377551 553.35018942484021 0 553.35018942484021 1639.2227293102478 0 0 0 0 -366.3446697091785 711.92719735801256 0 711.92719735801256 1568.6474910474935 0 0 0 0 -104.53693875526608 435.69883458067488 0 435.69883458067488 916.94923767026921 0 0 0 0 82.317972560985652 613.44396346503345 0 613.44396346503345 805.86115496392631 0 0 0 0 -262.91331263662971 555.17848317944299 0 555.17848317944299 1454.4245252361579 0 0 0 0 21.027464627949257 329.78465412723017 0 329.78465412723017 719.07036581089778 0 0 0 0 286.78239420211548 372.35542378676473 0 372.35542378676473 248.40382740207133 0 0 0 0 508.33763893743185 898.08408885997778 0 898.08408885997778 960.59789360992727 0 0 0 0 304.18727514730108 814.23157308849477 0 814.23157308849477 1084.084490911293 0 0 0 0 -3.2880366848657445 818.79900561281102 0 818.79900561281102 1371.7926472998297 0 0 0 0 -407.46898004016896 1397.2566271145115 0 1397.2566271145115 3502.0168186985757 0 0 0 0 -29.06854281201305 998.45711928810124 0 998.45711928810124 2041.3513301972853 0 0 0 0 557.63503005861674 1558.2939311123555 0 1558.2939311123555 2105.3386849421586 0 0 0 0 459.18382231176997 -1553.2219758370738 0 -1553.2219758370738 1293.227060678124 0 0 0 0 1.7318231941174718 -0.50444456137670102 0 -0.50444456137670102 22.912793122925166 0 0 0 0 2337.474743293008 2983.8925571650907 0 2983.8925571650907 3493.5491191472724 0 0 0 0 521.89025068606122 1232.1808775049724 0 1232.1808775049724 1810.4229444883531 0 0 0 0 571.3344460358785 1135.2828619476131 0 1135.2828619476131 1846.6542167927437 0 0 0 0 -397.644327302769 223.90316139121205 0 223.90316139121205 -87.863097121546161 0 0 0 0 -1.5362068107385083 -4.0026959895993528 0 -4.0026959895993528 57.833809092544413 0 0 0 0 -634.2717026587319 134.6244896782955 0 134.6244896782955 171.31590861954464 0 0 0 0 215.03208702280585 269.88175141338434 0 269.88175141338434 -20.246304540451092 0 0 0 0 -0.90358512299540439 2.3665057324175081 0 2.3665057324175081 -3.4033122402944684 0 0 0 0 -577.97000694546023 296.68281604163246 0 296.68281604163246 313.76331939014199 0 0 0 0 1514.5808264121233 1274.2193936391559 0 1274.2193936391559 881.13177426323819 0 0 0 0 497.40068469845437 357.26437680836352 0 357.26437680836352 327.6202102395182 0 0 0 0 -5.6574092916768368 -12.361565507556087 0 -12.361565507556087 75.061499244856719 0 0 0 0 85.149369586326884 262.21856478484551 0 262.21856478484551 564.40692536950519 0 0 0 0 -198.31063602015286 45.865031314318912 0 45.865031314318912 229.6868202786427 0 0 0 0 -5.7614893018201849 11.446092550116958 0 11.446092550116958 5.5325960725427876 0 0 0 0 340.91331216384697 337.08987861061178 0 337.08987861061178 151.3615069687512 0 0 0 0 34.89210855837382 204.04541501186759 0 204.04541501186759 322.61028783557413 0 0 0 0 -275.11777628911636 415.18812721980066 0 415.18812721980066 227.06870867588441 0 0 0 0 330.21708777206322 219.24949042770459 0 219.24949042770459 67.199356653742143 0 0 0 0 111.88321329575638 316.70887846207188 0 316.70887846207188 156.05749668281351 0 0 0 0 82.367805509342247 254.69157183302377 0 254.69157183302377 68.084637995780213 0 0 0 0 310.80560311025749 269.97943800600478 0 269.97943800600478 28.728755408978031 0 0 0 0 155.80856504075598 209.77504473437148 0 209.77504473437148 194.86633172049187 0 0 0 0 138.31040024057344 299.11401923015728 0 299.11401923015728 20.360310801130254 0 0 0 0 38.164264027347826 202.84849586146447 0 202.84849586146447 243.43824731097266 0 0 0 0 154.06832680121158 287.92902457297168 0 287.92902457297168 304.43282229042961 0 0 0 0 307.9735035565476 228.04527929149481 0 228.04527929149481 141.69937128431047 0 0 0 0 159.45157859307005 94.884093876906263 0 94.884093876906263 373.36492348642787 0 0 0 0 512.65373910104222 214.53628484539149 0 214.53628484539149 104.3353302054893 0 0 0 0 657.13324812966414 431.85340495219498 0 431.85340495219498 430.45092862061574 0 0 0 0 393.57211415825628 247.82087888240494 0 247.82087888240494 644.4974953776109 0 0 0 0 314.12653544271956 268.79800381298264 0 268.79800381298264 405.23750981081685 0 0 0 0 380.58921415359993 172.27814480130473 0 172.27814480130473 372.45057455590359 0 0 0 0 -0.85600647675987385 -6.1045092672667991 0 -6.1045092672667991 2.8828677044088238 0 0 0 0 435.34416156360226 219.06241990660055 0 219.06241990660055 106.08517756967922 0 0 0 0 332.21561864022681 183.24188731314644 0 183.24188731314644 166.47005888980311 0 0 0 0 -162.4538544518546 -149.52473682457639 0 -149.52473682457639 210.4623492493256 0 0 0 0 -15.639001891462385 -109.79062247147522 0 -109.79062247147522 -33.119101231524837 0 0 0 0 -4.212278905085733 -18.561315085677549 0 -18.561315085677549 63.006968928701326 0 0 0 0 -150.36354898506113 212.59643580546981 0 212.59643580546981 313.33502995046729 0 0 0 0 -308.48583245357759 468.11865962747834 0 468.11865962747834 933.53848636608745 0 0 0 0 -265.56633275470199 90.417335747973993 0 90.417335747973993 639.98832400251558 0 0 0 0 0.76261744677613053 -29.125871231157973 0 -29.125871231157973 59.734389642048541 0 0 0 0 -546.31310088773694 -411.71015361422178 0 -411.71015361422178 -38.179820598856168 0 0 0 0 167.74656100452361 49.883209216655814 0 49.883209216655814 -104.35597427402899 0 0 0 0 -0.28954567182645508 0.84843062119973922 0 0.84843062119973922 2.8914635430428461 0 0 0 0 -71.089869800880777 -147.58296730115035 0 -147.58296730115035 349.93460389939719 0 0 0 0 469.20110950617703 241.5704676137284 0 241.5704676137284 172.58076596303727 0 0 0 0 376.4466149229757 284.47437111226463 0 284.47437111226463 821.96418609468674 0 0 0 0 280.02152277737099 302.13232050668012 0 302.13232050668012 834.5456504112808 0 0 0 0 77.978714816391232 753.02667035501236 0 753.02667035501236 1134.2102193531755 0 0 0 0 358.80855463343084 707.2671752252063 0 707.2671752252063 544.94895803587133 0 0 0 0 1.4591704790214273 376.97043188304451 0 376.97043188304451 1591.2614393055555 0 0 0 0 90.98056084296536 342.46164631748979 0 342.46164631748979 1784.144303705878 0 0 0 0 18.460079751323235 222.76840082381386 0 222.76840082381386 1914.9523712964874 0 0 0 0 23.73998235022043 154.06002157344483 0 154.06002157344483 2337.7785167305265 0 0 0 0 -12.437687101742398 153.64987601790926 0 153.64987601790926 2367.4977874567849 0 0 0 0 18.718656184509314 -5.2190510196960531 0 -5.2190510196960531 2891.9489685590088 0 0 0 0 219.2438871383514 361.28579597940552 0 361.28579597940552 1785.1049994137866 0 0 0 0 125.28079718680576 455.63432699714031 0 455.63432699714031 2382.2811008727585 0 0 0 0 154.20193122283939 295.38649984906988 0 295.38649984906988 2828.5709715655539 0 0 0 0 519.45522021123077 594.8751937765046 0 594.8751937765046 1526.7197177903363 0 0 0 0 134.32448759906799 110.5863806597481 0 110.5863806597481 2722.1650526911544 0 0 0 0 126.81109440719362 199.04676613093034 0 199.04676613093034 1347.4489946563845 0 0 0 0 202.42232390853388 366.01554623628908 0 366.01554623628908 1222.0693765548349 0 0 0 0 140.59218764021898 153.93951196047419 0 153.93951196047419 1361.2059796308677 0 0 0 0 80.011096230750724 524.01600821605552 0 524.01600821605552 1465.107860318938 0 0 0 0 223.98151384983862 326.92292337019171 0 326.92292337019171 1090.1983915351157 0 0 0 0 44.625693904824686 259.33660244048588 0 259.33660244048588 1607.6450247899629 0 0 0 0 60.633008797895172 176.16538690823654 0 176.16538690823654 1830.0206862998748 0 0 0 0 41.539400250230415 -13.517744729571859 0 -13.517744729571859 1793.0587977620162 0 0 0 0 23.496924530018418 39.542435740324436 0 39.542435740324436 1697.5668937056325 0 0 0 0 86.019068031483954 -72.409405045720632 0 -72.409405045720632 1622.873209542915 0 0 0 0 98.520874094249052 -27.689375975707662 0 -27.689375975707662 1438.4813829600753 0 0 0 0 220.71240305623763 138.14783525307575 0 138.14783525307575 1203.5439711263753 0 0 0 0 227.33240607804032 139.46583302200452 0 139.46583302200452 951.1082501081255 0 0 0 0 168.17389295541085 -40.092811706686916 0 -40.092811706686916 1298.5958056019881 0 0 0 0 120.90279336314944 -62.543240646424238 0 -62.543240646424238 1288.3658887373967 0 0 0 0 127.9932952896599 -187.14452741161222 0 -187.14452741161222 1230.1333287286325 0 0 0 0 174.55541275465816 -51.252446717131534 0 -51.252446717131534 1028.5349356995284 0 0 0 0 197.25495214888508 70.578498359784135 0 70.578498359784135 768.83245914061263 0 0 0 0 194.68280062017607 16.750776259246777 0 16.750776259246777 994.03736338317685 0 0 0 0 147.08747359578797 -37.361576631119533 0 -37.361576631119533 949.64701460498327 0 0 0 0 267.52643629303407 156.74354365737236 0 156.74354365737236 723.61735291587684 0 0 0 0 115.11876993830856 196.42949606154798 0 196.42949606154798 541.38602041601553 0 0 0 0 210.59623705587077 219.76706332946924 0 219.76706332946924 545.24218670684786 0 0 0 0 246.99935837162599 54.286585924259271 0 54.286585924259271 593.21179119322915 0 0 0 0 372.45129874751552 230.44168583717692 0 230.44168583717692 635.09512067649484 0 0 0 0 257.73096372485924 107.2042221580632 0 107.2042221580632 923.06685679338989 0 0 0 0 -175.30256364357638 154.45973169667559 0 154.45973169667559 275.06966389597801 0 0 0 0 -402.40672893251985 270.91982542056212 0 270.91982542056212 484.11472855000466 0 0 0 0 -181.31228234146852 240.5191558747174 0 240.5191558747174 536.78025872516082 0 0 0 0 12.879259524087502 163.08222390367882 0 163.08222390367882 536.30130214214296 0 0 0 0 98.122079046466752 -47.492182361966115 0 -47.492182361966115 656.82858439290794 0 0 0 0 -13.956661844736118 43.148386626518914 0 43.148386626518914 432.86626259219702 0 0 0 0 -45.915139335554386 113.98843005087838 0 113.98843005087838 761.23371383747144 0 0 0 0 76.070729739293256 -129.57528495117003 0 -129.57528495117003 970.36374460799561 0 0 0 0 -82.056924763283178 -130.01493276560359 0 -130.01493276560359 1000.0517202456831 0 0 0 0 156.84517546775965 -20.269105723986286 0 -20.269105723986286 679.01488090161001 0 0 0 0 -23.939568678414162 -50.310224688400922 0 -50.310224688400922 582.45344668072721 0 0 0 0 -254.39545602347971 138.89848924243415 0 138.89848924243415 714.46923844674893 0 0 0 0 -257.9101441197422 37.05403947763989 0 37.05403947763989 363.97197150616557 0 0 0 0 -571.13920059324391 -76.66286842343834 0 -76.66286842343834 535.96660108210199 0 0 0 0 -358.84949962816245 207.5398655835379 0 207.5398655835379 295.06083946731087 0 0 0 0 -746.08228621871604 -17.886135905864649 0 -17.886135905864649 181.52611392793642 0 0 0 0 -549.83773593908688 93.022401519433515 0 93.022401519433515 228.97648410596594 0 0 0 0 -747.48536858334046 354.15020769059629 0 354.15020769059629 144.36720000339847 0 0 0 0 -8.4138469330981174 4.487932445280336 0 4.487932445280336 75.164897278952537 0 0 0 0 -726.96255662771136 334.62490123355383 0 334.62490123355383 225.0451578931461 0 0 0 0 -552.57326583640452 246.03946183606968 0 246.03946183606968 26.910609944563475 0 0 0 0 -720.95430550420065 296.03674966391509 0 296.03674966391509 103.00155931427435 0 0 0 0 -1155.8570511201024 50.560789760515036 0 50.560789760515036 57.36731748074817 0 0 0 0 -570.27721017238537 238.78875515486288 0 238.78875515486288 384.98090297529416 0 0 0 0 -396.24792034254801 218.1786963165323 0 218.1786963165323 143.80916712171165 0 0 0 0 -558.49345696072032 398.58067704491259 0 398.58067704491259 242.25134488740878 0 0 0 0 -555.54227234325572 341.82854838167441 0 341.82854838167441 -97.410189195521525 0 0 0 0 -6.6767103772545964 12.856568412868015 0 12.856568412868015 87.653763215021087 0 0 0 0 -95.009697220863529 5.576060867585511 0 5.576060867585511 137.45824780786643 0 0 0 0 -73.806544456244865 -23.984632738602158 0 -23.984632738602158 158.55473473294114 0 0 0 0 -386.26109607252783 368.00397588779015 0 368.00397588779015 -93.424020860425117 0 0 0 0 -494.76748444800387 582.50275257935755 0 582.50275257935755 -469.78613833215786 0 0 0 0 -708.09646973890187 277.01911630689574 0 277.01911630689574 -11.415306673792657 0 0 0 0 -342.03537737096804 322.86626115370746 0 322.86626115370746 -624.40415309750824 0 0 0 0 -316.28558995494996 454.42443603742868 0 454.42443603742868 -101.3848108928978 0 0 0 0 -338.70316508209112 169.3020578754913 0 169.3020578754913 -4.3809988907305524 0 0 0 0 -414.94362133620984 298.57629722309139 0 298.57629722309139 316.17751133056299 0 0 0 0 -157.48244619873731 315.68098472526617 0 315.68098472526617 102.38753262298997 0 0 0 0 -488.86264016457881 394.69117936586554 0 394.69117936586554 51.598839123042126 0 0 0 0 -396.24451846391958 249.10236696572611 0 249.10236696572611 142.7474150358903 0 0 0 0 -142.11363037562478 197.80053894894809 0 197.80053894894809 316.38563014313695 0 0 0 0 34.881140881072497 153.31919951174496 0 153.31919951174496 215.48364206289989 0 0 0 0 31.548026307862628 283.53756195352435 0 283.53756195352435 6.1226155777985696 0 0 0 0 -171.30670831199723 395.11992795478727 0 395.11992795478727 87.400980570928368 0 0 0 0 -183.95115262331626 325.02435599692399 0 325.02435599692399 -118.84532641369151 0 0 0 0 -6.7330646261993934 241.83819101975678 0 241.83819101975678 55.543419695546618 0 0 0 0 -81.910120520455166 439.79893245857966 0 439.79893245857966 16.852761008456582 0 0 0 0 -167.45452745854641 402.30746072281909 0 402.30746072281909 40.343743104880559 0 0 0 0 -263.90253200820035 636.64377696956581 0 636.64377696956581 -230.92798776683048 0 0 0 0 -255.01263172824883 1009.2802357168985 0 1009.2802357168985 -952.04427707523428 0 0 0 0 -255.77541642940582 818.36053227900993 0 818.36053227900993 234.45387097627099 0 0 0 0 -198.19190344709114 579.54742225297923 0 579.54742225297923 -57.985552382888272 0 0 0 0 -295.04805317592957 502.36349571741448 0 502.36349571741448 -412.77650281185197 0 0 0 0 -259.48339463545824 393.79864624529 0 393.79864624529 -113.06670249145827 0 0 0 0 -661.09187515815574 690.19080234330613 0 690.19080234330613 -322.33641310467647 0 0 0 0 -4.7607033202892239 508.40260746239437 0 508.40260746239437 1340.0665561017668 0 0 0 0 -0.64623311155129759 1.4514308526995734 0 1.4514308526995734 0.83527313104659839 0 0 0 0 -231.29115733049065 498.10027056089893 0 498.10027056089893 1961.8067075807776 0 0 0 0 -337.62362630273196 993.15704465056479 0 993.15704465056479 711.10192740641924 0 0 0 0 -564.30518041587106 669.87788985145903 0 669.87788985145903 356.66037652820523 0 0 0 0 52.388556125118953 -219.83664442309964 0 -219.83664442309964 692.67695978349639 0 0 0 0 6.9170903668325536 -848.47015281175845 0 -848.47015281175845 1612.4325789510403 0 0 0 0 -98.949966464747703 -226.23182576158251 0 -226.23182576158251 1989.2400368028611 0 0 0 0 88.50090805384562 -502.02653388511681 0 -502.02653388511681 2377.6729625133885 0 0 0 0 -257.08430089323508 -869.32492147541416 0 -869.32492147541416 2445.14316696897 0 0 0 0 -150.64109011688254 -630.6770859006956 0 -630.6770859006956 2698.0633941991255 0 0 0 0 -413.82615594885323 -1728.4222667563736 0 -1728.4222667563736 3493.3827237810528 0 0 0 0 -319.62300564878808 -708.79986966414799 0 -708.79986966414799 2034.8334241095436 0 0 0 0 -371.24471197131214 -38.415332448212212 0 -38.415332448212212 2787.8644131507244 0 0 0 0 -416.97535149640157 -22.645678206627053 0 -22.645678206627053 3535.1190367214876 0 0 0 0 -365.31744750404425 -245.46378881137207 0 -245.46378881137207 3500.7602598712515 0 0 0 0 363.63144428651299 -130.77096438044828 0 -130.77096438044828 2486.7148614924899 0 0 0 0 -53.553412567513078 228.96804481483559 0 228.96804481483559 2557.0104738317314 0 0 0 0 -206.66325529844198 -128.69091987012507 0 -128.69091987012507 2609.0552097933978 0 0 0 0 -10.383198761042422 273.15857267934189 0 273.15857267934189 1940.6602832803546 0 0 0 0 256.21386090533895 -135.14822674157949 0 -135.14822674157949 9.8110429633816238 0 0 0 0 59.210731220424179 -378.52947235878673 0 -378.52947235878673 2302.5643160044056 0 0 0 0 551.82214098704753 329.07664585960083 0 329.07664585960083 218.89735488660517 0 0 0 0 1.7625082482118606 1.5431860931031736 0 1.5431860931031736 8.5997115530514634 0 0 0 0 -6.9007669672120073 -8.2373567953454767 0 -8.2373567953454767 51.239362410444301 0 0 0 0 -3.8699423608853651 1.1251516243910373 0 1.1251516243910373 10.343315392108103 0 0 0 0 67.713885142609001 -30.187850841371983 0 -30.187850841371983 2.5906622411566786 0 0 0 0 -479.77488484097648 256.91006264279713 0 256.91006264279713 -70.520280914628529 0 0 0 0 -4.1591537894608415 -1.749726489134197 0 -1.749726489134197 44.88520933162394 0 0 0 0 -7.6003981841715369 5.6603484309370344 0 5.6603484309370344 23.214259737125388 0 0 0 0 -708.44117137715943 98.500704031575879 0 98.500704031575879 94.319296341753216 0 0 0 0 -18.452282350479663 -41.708260321800481 0 -41.708260321800481 101.69845429891939 0 0 0 0 6.440404611549253 -12.861811562343732 0 -12.861811562343732 24.826851460428802 0 0 0 0 -6.3376834268399387 -21.245966684609606 0 -21.245966684609606 46.857111784285607 0 0 0 0 -28.17643192462333 -65.50186759546159 0 -65.50186759546159 45.137849690727307 0 0 0 0 -65.356459728439404 -122.38232240259094 0 -122.38232240259094 231.98861371201201 0 0 0 0 -19.819197222096363 -7.8786555365072815 0 -7.8786555365072815 19.367174027141889 0 0 0 0 1118.400725508413 702.11058423549548 0 702.11058423549548 -938.11721142241004 0 0 0 0 -444.85123246387775 128.05471554450924 0 128.05471554450924 160.25638248375617 0 0 0 0 -500.81953762846706 -622.61730003777302 0 -622.61730003777302 986.32012789307919 0 0 0 0 12.248327645870631 -172.11281689473981 0 -172.11281689473981 -306.1531493683251 0 0 0 0 -7.2846920136175441 -0.92388141022107106 0 -0.92388141022107106 0.57890333391926418 0 0 0 0 -219.24724344601862 584.58258550431401 0 584.58258550431401 671.49231669758592 0 0 0 0 -118.24817950073884 -156.57887847860911 0 -156.57887847860911 8.3498080320814552 0 0 0 0 22.524357217847136 -33.798348355480044 0 -33.798348355480044 32.186863239108988 0 0 0 0 38.198535946161556 -52.941993066453051 0 -52.941993066453051 1569.1876591220644 0 0 0 0 194.78161794869939 652.82153071685025 0 652.82153071685025 2076.0556939426569 0 0 0 0 10.08025983174957 -12.201484692858912 0 -12.201484692858912 16.004387667611212 0 0 0 0 100.84936411477915 1052.530214241242 0 1052.530214241242 3987.2305573093035 0 0 0 0 -18.699597970881257 1011.8979798583177 0 1011.8979798583177 5235.5730129389267 0 0 0 0 600.05651207615756 -80.544928202041774 0 -80.544928202041774 3500.7626614028268 0 0 0 0 197.94670902067134 -433.49760660490938 0 -433.49760660490938 3731.7359112909908 0 0 0 0 -207.79692899515251 34.277653859440761 0 34.277653859440761 3499.476447251338 0 0 0 0 -285.50360145434689 -938.59860632128402 0 -938.59860632128402 3500.2026266729649 0 0 0 0 968.9545540697161 -230.87258607020226 0 -230.87258607020226 3697.860168789477 0 0 0 0 1045.854328246711 -1057.9527002415271 0 -1057.9527002415271 4852.5703916494895 0 0 0 0 116.0959211882282 -1069.9439826761809 0 -1069.9439826761809 -134.75320318683225 0 0 0 0 299.02884579334318 -1831.278199571223 0 -1831.278199571223 1871.7969960608389 0 0 0 0 -578.63862783635886 -1349.0244773877821 0 -1349.0244773877821 3977.7970037482019 0 0 0 0 -332.80677883233403 -1159.5098880010173 0 -1159.5098880010173 2195.7886071337343 0 0 0 0 -258.39935131332948 -1346.4536384233397 0 -1346.4536384233397 2126.3061269980171 0 0 0 0 71.784048989372764 -716.09801334391159 0 -716.09801334391159 522.99072548939148 0 0 0 0 -1.7079235732459681 0.84051536734322241 0 0.84051536734322241 2.0826014881203889 0 0 0 0 -1163.7322302753182 -670.94134398567257 0 -670.94134398567257 115.18454777497391 0 0 0 0 -227.29572830828241 -743.04193401901102 0 -743.04193401901102 362.58288014634672 0 0 0 0 -1054.2272313554759 -338.97849262351519 0 -338.97849262351519 843.91533210380658 0 0 0 0 -739.26910452783068 -1.6792340016945673 0 -1.6792340016945673 133.09907154006214 0 0 0 0 -1916.5301151231138 -325.39146323392924 0 -325.39146323392924 350.71873257728294 0 0 0 0 -585.14475127471223 82.087709752409864 0 82.087709752409864 -201.83578916644183 0 0 0 0 -591.24402427781342 22.825275638399035 0 22.825275638399035 258.3302676409694 0 0 0 0 -825.35718949857846 45.573159771447536 0 45.573159771447536 38.909761522978442 0 0 0 0 -1098.098623823849 -648.24900392793279 0 -648.24900392793279 -523.87966767320904 0 0 0 0 -2164.1940942852325 -1081.5612349730227 0 -1081.5612349730227 -4.8538635994555079 0 0 0 0 -5.3057649792593145 3.0364767415015024 0 3.0364767415015024 1.7825220727728066 0 0 0 0 276.82264573249938 805.13395973106526 0 805.13395973106526 128.35175438809424 0 0 0 0 -398.53783387643921 -392.37786361503277 0 -392.37786361503277 191.09514439487975 0 0 0 0 -5.4765686070178647 1.1387788220318527 0 1.1387788220318527 10.452533001149902 0 0 0 0 105.01911857463074 374.46461466301844 0 374.46461466301844 532.71872208540663 0 0 0 0 93.458468235780401 60.962501753161632 0 60.962501753161632 123.76428540928464 0 0 0 0 -8.7467584112055192 57.181843631289667 0 57.181843631289667 253.67480783402334 0 0 0 0 43.307199589594347 10.357959367163858 0 10.357959367163858 74.561325232920353 0 0 0 0 -38.163762655599157 78.042657119935029 0 78.042657119935029 85.920826351560663 0 0 0 0 -12.289230919217328 8.2402750009233117 0 8.2402750009233117 3.1803903147337422 0 0 0 0 134.48379413949851 407.54634772035206 0 407.54634772035206 94.694601491255071 0 0 0 0 -10.761424142428826 7.6907003067497861 0 7.6907003067497861 27.677950048443279 0 0 0 0 -213.04417539734197 -77.678505408212004 0 -77.678505408212004 150.45256497321679 0 0 0 0 -208.93270461231532 208.51649652021297 0 208.51649652021297 -47.1629407398068 0 0 0 0 -15.792100709422506 6.9308152675255315 0 6.9308152675255315 82.071879922953713 0 0 0 0 -36.191789734824624 126.57010910420649 0 126.57010910420649 100.8920533219225 0 0 0 0 -19.215167860276715 16.670456191981856 0 16.670456191981856 23.098595339794741 0 0 0 0 -741.21581744895866 104.35299175394175 0 104.35299175394175 134.72442475035496 0 0 0 0 -19.287643095771031 21.711206160359193 0 21.711206160359193 11.797744938226288 0 0 0 0 -965.56520857490978 -319.49078569216363 0 -319.49078569216363 179.96355298235721 0 0 0 0 -640.74650876846863 37.724382123735268 0 37.724382123735268 119.22984595742582 0 0 0 0 -696.54518006991884 -47.569776645086677 0 -47.569776645086677 745.40645396155742 0 0 0 0 79.69745195739506 -2.3134511612465758 0 -2.3134511612465758 773.36958002623578 0 0 0 0 -229.35376846929694 344.5683771891363 0 344.5683771891363 384.76398533969405 0 0 0 0 -29.515078463394502 364.98425453758682 0 364.98425453758682 118.3881934453193 0 0 0 0 -631.19023435221607 -168.30460936937925 0 -168.30460936937925 257.20873080095043 0 0 0 0 -1305.2203472094309 -686.65133790996515 0 -686.65133790996515 -110.72641202014347 0 0 0 0 -549.75071931140701 1114.0034467791993 0 1114.0034467791993 1442.946404339611 0 0 0 0 -308.43695540883516 634.88942824652304 0 634.88942824652304 1553.11079450127 0 0 0 0 -550.33945771292474 1173.1710285681911 0 1173.1710285681911 2693.0913035381018 0 0 0 0 -269.01433905023259 624.79213824676117 0 624.79213824676117 1551.9072286500887 0 0 0 0 -264.37285658503259 365.15872174912568 0 365.15872174912568 559.00299744877702 0 0 0 0 -190.48898658743747 988.42056911085092 0 988.42056911085092 1484.4644227824792 0 0 0 0 -360.93900016672524 119.70549058320421 0 119.70549058320421 -100.98210260336054 0 0 0 0 -993.85206240000298 300.28366904838185 0 300.28366904838185 325.91468310129767 0 0 0 0 -2.2873304625274251 1.2628347402445925 0 1.2628347402445925 27.811188601639401 0 0 0 0 -772.99285241376128 -81.160975910832349 0 -81.160975910832349 205.97346105589531 0 0 0 0 -15.940482675457588 42.210383835830726 0 42.210383835830726 159.34033339139569 0 0 0 0 -0.72743298709339577 15.290677300034481 0 15.290677300034481 43.414859578683433 0 0 0 0 160.86762043452472 -54.091392888003611 0 -54.091392888003611 129.22954896028386 0 0 0 0 -98.142650728802892 199.34574939804406 0 199.34574939804406 2368.5042150770387 0 0 0 0 124.29839800256559 -744.97378495201883 0 -744.97378495201883 2542.0005526195164 0 0 0 0 497.46792362265842 1650.0407856319071 0 1650.0407856319071 623.91420819114865 0 0 0 0 3.7536553822471763 7.4622826891184566 0 7.4622826891184566 16.002818669205112 0 0 0 0 444.58854614919619 1135.8173118906998 0 1135.8173118906998 3392.6468199730862 0 0 0 0 1455.0749980637793 811.87296839541887 0 811.87296839541887 1690.3593827544901 0 0 0 0 -36.073722000632642 160.96835522231413 0 160.96835522231413 1501.7846409893755 0 0 0 0 -384.75655623305101 90.541242693114327 0 90.541242693114327 2358.9099050558652 0 0 0 0 811.36800121587612 116.82992065615326 0 116.82992065615326 2993.7570623573411 0 0 0 0 -346.30854293195148 1080.9242605924946 0 1080.9242605924946 2205.1431987832912 0 0 0 0 747.66405719360046 430.49100198010638 0 430.49100198010638 1749.258129323799 0 0 0 0 -418.71832263912802 1139.6989392485993 0 1139.6989392485993 1802.0894013848592 0 0 0 0 794.26719666615645 393.83066423661876 0 393.83066423661876 530.27505762100918 0 0 0 0 -417.93526969764912 1841.5347323939895 0 1841.5347323939895 2898.9923946639392 0 0 0 0 295.95117213925641 372.86001773251701 0 372.86001773251701 2596.5172587814086 0 0 0 0 -26.547006328443103 1609.2376658642079 0 1609.2376658642079 1530.1462009176394 0 0 0 0 -2263.0678189268542 -321.85806399662397 0 -321.85806399662397 1416.0239456147974 0 0 0 0 -637.97650117935109 294.993791503588 0 294.993791503588 380.74822300952655 0 0 0 0 -423.34066321394312 497.06591171161017 0 497.06591171161017 -592.12271636428341 0 0 0 0 103.08522855946148 -545.17707013975814 0 -545.17707013975814 1366.8748086980086 0 0 0 0 -1381.5410306481426 -2285.9470364955741 0 -2285.9470364955741 1966.1715693818878 0 0 0 0 -1.9291245294858346 -4.6051053933566948 0 -4.6051053933566948 29.229831090097889 0 0 0 0 -576.65302320700175 -1427.957510885426 0 -1427.957510885426 3830.7997181375395 0 0 0 0 -722.41074129163167 -1136.6899509125778 0 -1136.6899509125778 3846.7528329307825 0 0 0 0 639.4130835598462 -306.38653971743406 0 -306.38653971743406 434.74247419260064 0 0 0 0 438.72366389504623 -1318.258702354462 0 -1318.258702354462 2990.9868924416405 0 0 0 0 -25.245848916746581 463.37476177504504 0 463.37476177504504 2372.167867275246 0 0 0 0 73.053349246363268 228.20358865162052 0 228.20358865162052 115.6878545102154 0 0 0 0 -199.97105841928601 216.86508816789865 0 216.86508816789865 247.35972308924465 0 0 0 0 -222.26666391057188 49.715887005088007 0 49.715887005088007 936.19883895888597 0 0 0 0 846.41388821482906 -1463.648937954189 0 -1463.648937954189 1347.4480010287134 0 0 0 0 14.550964963649692 -10.954082693796678 0 -10.954082693796678 8.3766562169817433 0 0 0 0 323.90144204462558 -517.82746509514982 0 -517.82746509514982 -247.78334187452856 0 0 0 0 15.646816553647113 -85.989776419446571 0 -85.989776419446571 4312.7924112410328 0 0 0 0 811.15255854817701 -1059.3466812896431 0 -1059.3466812896431 3438.1220580826339 0 0 0 0 1263.2238781084575 -415.73904748107816 0 -415.73904748107816 1900.9456265757071 0 0 0 0 833.66016885394038 380.588631264367 0 380.588631264367 1583.7247690775766 0 0 0 0 270.46778765953877 -142.50493626559 0 -142.50493626559 2335.5315896308894 0 0 0 0 554.00710873866228 -212.38937669097504 0 -212.38937669097504 2611.7923373710546 0 0 0 0 335.26266784905511 52.438803325556364 0 52.438803325556364 4499.0371953957365 0 0 0 0 -227.61371341561107 -195.00267662899569 0 -195.00267662899569 3967.8209507139254 0 0 0 0 -155.22591833254774 -24.676764171337709 0 -24.676764171337709 3004.4101349748498 0 0 0 0 641.56838021929298 -398.56829468259457 0 -398.56829468259457 2969.4080188600929 0 0 0 0 188.22395308896512 456.36426415720325 0 456.36426415720325 1735.1817285330326 0 0 0 0 -74.107760937859666 205.64704412771789 0 205.64704412771789 1615.4951454688126 0 0 0 0 235.43940703970338 -86.930931187471288 0 -86.930931187471288 1660.3102340072292 0 0 0 0 -20.607064094442933 34.177289916814459 0 34.177289916814459 19.777099542819187 0 0 0 0 -159.31751365120226 -150.63383414044802 0 -150.63383414044802 164.6631395131044 0 0 0 0 199.88441829436124 -236.95065519077616 0 -236.95065519077616 1111.8239534652384 0 0 0 0 33.841629361528454 -26.273350672802991 0 -26.273350672802991 32.342480963287016 0 0 0 0 -10.831027332390477 21.122862301650457 0 21.122862301650457 115.74645222930849 0 0 0 0 26.17686036690543 -77.30479501564696 0 -77.30479501564696 753.55734089285397 0 0 0 0 8.2275442186276333 22.476966209348248 0 22.476966209348248 5.2231213077230052 0 0 0 0 3.4392895254650284 6.5349863809387898 0 6.5349863809387898 87.600284660031321 0 0 0 0 7.9230548540181189 48.340360575646628 0 48.340360575646628 81.104656141309533 0 0 0 0 188.94961134837922 4.9831765633498435 0 4.9831765633498435 391.33091062097083 0 0 0 0 16.752650973448155 20.706252414924492 0 20.706252414924492 17.439536725712465 0 0 0 0 7.1025830386993221 4.4484322978387354 0 4.4484322978387354 124.99284897301368 0 0 0 0 -179.26962257309788 -15.303506426042077 0 -15.303506426042077 1825.6722828262791 0 0 0 0 -339.17883864481018 -100.9551388515647 0 -100.9551388515647 2819.1177828788059 0 0 0 0 -101.34343343787441 -76.234966967342189 0 -76.234966967342189 1794.4789125865227 0 0 0 0 -223.13210330170432 60.502634313750605 0 60.502634313750605 2855.552413243211 0 0 0 0 -326.71491665212147 -152.82249310768202 0 -152.82249310768202 3319.188066643721 0 0 0 0 -9.4884773114517884 -319.67320724055025 0 -319.67320724055025 2706.1632911433062 0 0 0 0 -303.88847863156411 -273.95173166999302 0 -273.95173166999302 2780.481385368912 0 0 0 0 -38.860517455181707 -390.81530580464823 0 -390.81530580464823 2422.0902545727295 0 0 0 0 208.25124073083134 -751.40849709991744 0 -751.40849709991744 2945.7671703807646 0 0 0 0 -16.726950128181528 28.266936056898459 0 28.266936056898459 30.077099977067107 0 0 0 0 14.054934054322075 -454.94904596955894 0 -454.94904596955894 2445.483078813355 0 0 0 0 -12.180546352219555 21.828371805767773 0 21.828371805767773 25.135883652712238 0 0 0 0 30.430397916565198 -322.72141730985459 0 -322.72141730985459 665.35562040311561 0 0 0 0 -418.73085176715449 238.19381767306186 0 238.19381767306186 277.19081873903633 0 0 0 0 13.965936988745398 -881.60222606353454 0 -881.60222606353454 3701.552756514684 0 0 0 0 574.73387756649299 -1000.9824521595947 0 -1000.9824521595947 3513.4912326011327 0 0 0 0 -89.612871366281411 1630.2331309840697 0 1630.2331309840697 -593.17103643935116 0 0 0 0 -3.9247939342306495 8.2898577378597338 0 8.2898577378597338 11.724183787994207 0 0 0 0 74.278256130555746 -1438.2689787170602 0 -1438.2689787170602 5881.3979576103811 0 0 0 0 122.20683604573333 -32.225961766707769 0 -32.225961766707769 285.80039824326377 0 0 0 0 -774.72862976158103 183.95826635732737 0 183.95826635732737 1319.1623252507998 0 0 0 0 -552.54195437173803 -447.07501307445273 0 -447.07501307445273 974.00029952866316 0 0 0 0 -681.8231568529236 -471.47025050443335 0 -471.47025050443335 1457.8936759830376 0 0 0 0 -386.36530705662972 -391.9055169471394 0 -391.9055169471394 496.37287757482409 0 0 0 0 -407.8910368595516 -356.88912553913178 0 -356.88912553913178 1018.6104355072894 0 0 0 0 -612.17807614848334 -799.27866672384698 0 -799.27866672384698 1082.4373669421111 0 0 0 0 -552.45514719466064 -864.07723763118702 0 -864.07723763118702 118.52265846196678 0 0 0 0 3.0499797525447576 -4.7411783834658294 0 -4.7411783834658294 5.097119194887739 0 0 0 0 -726.07480687701718 -5.3822465691482648 0 -5.3822465691482648 134.85300446385213 0 0 0 0 -529.93924144182256 -208.98133906246039 0 -208.98133906246039 329.84381166184903 0 0 0 0 -336.41404626213443 -86.684975270065479 0 -86.684975270065479 465.13459667877032 0 0 0 0 -565.79037582596243 -229.52280116038673 0 -229.52280116038673 646.1570149842737 0 0 0 0 -376.56955632552729 -75.164618595559659 0 -75.164618595559659 916.88761352487199 0 0 0 0 -253.86394994194507 -366.21605989528325 0 -366.21605989528325 792.38239174709452 0 0 0 0 45.508201096238054 -110.80168034928101 0 -110.80168034928101 926.01922957801435 0 0 0 0 137.25149069586928 -78.659661591547774 0 -78.659661591547774 987.77163953086711 0 0 0 0 169.81074124501018 -360.52006967140142 0 -360.52006967140142 1209.4238037396572 0 0 0 0 296.82151799258781 -610.35043069432868 0 -610.35043069432868 1205.6323149928758 0 0 0 0 -41.866710419108628 -525.94937800208572 0 -525.94937800208572 1981.5966222589486 0 0 0 0 4.1487553265584669 -0.21946033147499122 0 -0.21946033147499122 1.5732853445080224 0 0 0 0 52.870442998942053 -225.23674317545056 0 -225.23674317545056 297.23886392148415 0 0 0 0 -450.30663199818764 -257.14970515670575 0 -257.14970515670575 1008.3705252793443 0 0 0 0 -17.437577008582576 31.457427566864681 0 31.457427566864681 30.856138680943957 0 0 0 0 82.421618626305644 73.669171641071443 0 73.669171641071443 171.07817520749813 0 0 0 0 33.901987737220509 -217.41738871448752 0 -217.41738871448752 228.77238001184014 0 0 0 0 50.968163865930705 74.488393143124995 0 74.488393143124995 945.68293185955554 0 0 0 0 -335.98472249297026 -60.146422084289952 0 -60.146422084289952 1105.4733545463532 0 0 0 0 96.514184814873715 95.702829853675212 0 95.702829853675212 47.351194970673532 0 0 0 0 225.07225626891477 -302.00557891555218 0 -302.00557891555218 1409.5875921591942 0 0 0 0 164.0241624568327 -369.15645764025248 0 -369.15645764025248 1562.2668412364583 0 0 0 0 139.29788952612893 -173.90816693442321 0 -173.90816693442321 1512.5458217759515 0 0 0 0 169.09062573219592 -125.20407142621116 0 -125.20407142621116 1273.9858957765537 0 0 0 0 13.90060686966831 -3.5592734276684013 0 -3.5592734276684013 -0.36730842806026942 0 0 0 0 17.190692215594652 -294.86125599862862 0 -294.86125599862862 1810.8519494657958 0 0 0 0 99.344794716389231 -180.17306576030387 0 -180.17306576030387 1573.8767032513133 0 0 0 0 73.866052952895416 -238.05742854835989 0 -238.05742854835989 1675.3725235773345 0 0 0 0 37.139033114017366 -73.197446767793735 0 -73.197446767793735 1640.7189083705598 0 0 0 0 51.847949371696814 -128.14195490327256 0 -128.14195490327256 1782.6372542546887 0 0 0 0 139.6778931361406 -326.80273615970509 0 -326.80273615970509 2015.4178953237861 0 0 0 0 -25.283837231945881 776.59335055410338 0 776.59335055410338 -285.00363058308722 0 0 0 0 35.467907337148063 -164.90764885210956 0 -164.90764885210956 229.71616979819009 0 0 0 0 -17.803251939130234 27.554557299305984 0 27.554557299305984 26.856791078883404 0 0 0 0 23.56467204404154 -8.2948739701118939 0 -8.2948739701118939 8.3273749718774681 0 0 0 0 8.2920679203796226 -115.0424719764269 0 -115.0424719764269 1834.3305348924405 0 0 0 0 29.196072207895298 -185.76731711782486 0 -185.76731711782486 2000.1073961585644 0 0 0 0 -26.907353074757907 32.383895645078155 0 32.383895645078155 1913.5836723835091 0 0 0 0 -11.237026912108647 -40.277008013588784 0 -40.277008013588784 2203.7696211464354 0 0 0 0 34.5190692523189 -258.50452026503626 0 -258.50452026503626 2224.7574954169686 0 0 0 0 5.4397102201469352 -180.10274520560051 0 -180.10274520560051 2016.0499314294138 0 0 0 0 10.759083550773539 -309.27989632992831 0 -309.27989632992831 2057.9276309352572 0 0 0 0 93.359190027965155 -316.15980071343074 0 -316.15980071343074 1871.7691207219505 0 0 0 0 249.15635217890804 -1346.847849311278 0 -1346.847849311278 4326.8484286129533 0 0 0 0 194.98650811558204 -222.26086644375755 0 -222.26086644375755 2651.8321958838496 0 0 0 0 140.43775586195716 -352.53645004260761 0 -352.53645004260761 3929.8493068916141 0 0 0 0 678.47645872690782 -1086.1944719135354 0 -1086.1944719135354 2761.4685382070602 0 0 0 0 635.48924959091858 -896.03125426100451 0 -896.03125426100451 2444.2627386451641 0 0 0 0 138.83394388128613 -447.16321079985937 0 -447.16321079985937 2787.7134757995373 0 0 0 0 158.78261717628368 -376.7772101395567 0 -376.7772101395567 2338.6971420621849 0 0 0 0 117.84782198150765 -207.54684655851452 0 -207.54684655851452 2447.9958038114128 0 0 0 0 101.05290304865525 -188.77210899125203 0 -188.77210899125203 2698.4165704721381 0 0 0 0 10.526302862395482 -99.206040540389949 0 -99.206040540389949 2142.0923584187985 0 0 0 0 12.968242388076419 -147.200507617119 0 -147.200507617119 2432.2628758630017 0 0 0 0 40.37888940864832 -247.82689231529366 0 -247.82689231529366 2239.555493171094 0 0 0 0 375.19448529728925 -528.22460756835062 0 -528.22460756835062 2067.2561252727028 0 0 0 0 -585.40239300707708 668.61245350862737 0 668.61245350862737 -21.040370941918809 0 0 0 0 -879.06824726596733 236.82244300752063 0 236.82244300752063 -284.06429388350807 0 0 0 0 -1258.744846413199 -52.198342276027688 0 -52.198342276027688 -368.78703774893074 0 0 0 0 -1042.7847022709861 974.56362096882367 0 974.56362096882367 -2730.1683988486184 0 0 0 0 -1.0946471967419997 -1.1817712116223333 0 -1.1817712116223333 9.2026238656899295 0 0 0 0 -373.24287715024457 81.943075903305726 0 81.943075903305726 1311.1890504304465 0 0 0 0 -463.20361895643163 145.22009277720281 0 145.22009277720281 -367.07079575996613 0 0 0 0 -528.55015743952174 1040.0077121930526 0 1040.0077121930526 883.62346392835025 0 0 0 0 -365.19521604489546 621.41938210884109 0 621.41938210884109 -166.29855371949816 0 0 0 0 -176.07453621198101 465.47370588786725 0 465.47370588786725 757.46447769778024 0 0 0 0 -263.2253660174257 1020.7366719116362 0 1020.7366719116362 140.70102169620804 0 0 0 0 -610.12085429645686 243.08087756793248 0 243.08087756793248 1534.2882087584876 0 0 0 0 184.69979153397253 135.09865590103436 0 135.09865590103436 -489.4337465836652 0 0 0 0 -203.49120636027237 550.11803550906552 0 550.11803550906552 624.8179334543529 0 0 0 0 -375.57206641203675 -233.87525397226273 0 -233.87525397226273 1255.2871856643251 0 0 0 0 -250.6665561942018 -520.38092115629115 0 -520.38092115629115 296.53526253037853 0 0 0 0 -388.44496574805726 65.360873550889664 0 65.360873550889664 1247.2013338996621 0 0 0 0 -489.47127104630658 -346.87047129635903 0 -346.87047129635903 854.5992703155498 0 0 0 0 -140.07260996128844 -91.727862593397731 0 -91.727862593397731 598.70248352515046 0 0 0 0 -119.78006583005063 126.23606501296308 0 126.23606501296308 1594.9207374917169 0 0 0 0 -160.8656926561323 -68.649555459029216 0 -68.649555459029216 1344.4250657828306 0 0 0 0 -409.9815366653728 -46.381592461570108 0 -46.381592461570108 2197.0770700869907 0 0 0 0 -185.95341092476963 -377.17053492787818 0 -377.17053492787818 2379.4563633746147 0 0 0 0 48.828376668611327 -514.38414018734329 0 -514.38414018734329 2328.7300150993688 0 0 0 0 -464.63493453092508 -276.44747645949246 0 -276.44747645949246 2639.224496242794 0 0 0 0 115.41957767505301 -806.53883590501937 0 -806.53883590501937 2749.0716572837991 0 0 0 0 93.98569696366576 -173.95052605352976 0 -173.95052605352976 2517.6991535037378 0 0 0 0 38.439071083104068 -363.33094185093796 0 -363.33094185093796 2846.9601189844834 0 0 0 0 6.7469684454756589 84.730492067872547 0 84.730492067872547 2802.7234188327275 0 0 0 0 -161.42736268347988 51.691617035805393 0 51.691617035805393 2581.6998611399176 0 0 0 0 -216.39520269040281 -179.39297086623264 0 -179.39297086623264 2556.2133976095502 0 0 0 0 -225.54981338007693 -195.82589123822981 0 -195.82589123822981 2060.1040811778948 0 0 0 0 -47.844087167486848 32.308798248741368 0 32.308798248741368 2230.4026877695287 0 0 0 0 -70.984865745319325 25.410716898993996 0 25.410716898993996 1855.3909787520824 0 0 0 0 -227.32140909376949 -257.08738988406549 0 -257.08738988406549 2337.0927278386371 0 0 0 0 -59.673214094622836 -121.41237676034507 0 -121.41237676034507 1766.0241012980259 0 0 0 0 -300.42718678269864 -161.900942225373 0 -161.900942225373 1404.0117780623405 0 0 0 0 -4.6924320223465656 51.87412007911189 0 51.87412007911189 1141.5702767520488 0 0 0 0 29.24079969035165 -530.2463082820359 0 -530.2463082820359 2000.7269324023946 0 0 0 0 154.69930021198661 -337.72195040999213 0 -337.72195040999213 1006.3539786322654 0 0 0 0 -126.6642015432235 -118.73474931711098 0 -118.73474931711098 2296.8691831499673 0 0 0 0 -75.932418897660227 -358.52457390217023 0 -358.52457390217023 2703.7827066342579 0 0 0 0 -319.48105688936448 -128.77398919629195 0 -128.77398919629195 2858.7589845734765 0 0 0 0 -319.35254589302349 -123.66755860480771 0 -123.66755860480771 2968.8546350568067 0 0 0 0 -395.96258809609344 -130.41349600986723 0 -130.41349600986723 2996.6729096265044 0 0 0 0 -356.86575123651733 -174.6371393180525 0 -174.6371393180525 2804.4014916273445 0 0 0 0 -141.21580301333518 -190.41353810694636 0 -190.41353810694636 3119.9181227313529 0 0 0 0 -192.0247521105685 27.592158624174772 0 27.592158624174772 3011.4168928139625 0 0 0 0 -381.28728873101409 -211.79647175395075 0 -211.79647175395075 3298.1381050708806 0 0 0 0 -209.5353235223435 -537.83560966520599 0 -537.83560966520599 4494.0128797724901 0 0 0 0 542.46705153309108 -1023.3229368532411 0 -1023.3229368532411 1506.5066355104718 0 0 0 0 -219.50635896627563 -408.94286524799554 0 -408.94286524799554 2896.7617408908845 0 0 0 0 -335.32570319052911 -309.87317872640415 0 -309.87317872640415 2816.5786359853664 0 0 0 0 -230.40556876866708 -193.55789487757647 0 -193.55789487757647 1955.3026670680119 0 0 0 0 -365.65084394494488 -448.29584099101339 0 -448.29584099101339 2839.467628618635 0 0 0 0 -166.69944178748983 -283.25870431582734 0 -283.25870431582734 1927.5959600388596 0 0 0 0 230.9544077154244 -189.3359987588592 0 -189.3359987588592 641.84596036745643 0 0 0 0 70.965209556056379 -277.62030513164063 0 -277.62030513164063 1342.5385433847987 0 0 0 0 5.8602034899420286 26.619580407438647 0 26.619580407438647 42.198527063130712 0 0 0 0 18.21604706395658 104.39831345187849 0 104.39831345187849 -26.445847964700079 0 0 0 0 -195.84246285442507 -207.09386565005116 0 -207.09386565005116 269.44519676578784 0 0 0 0 1.6422019901034552 21.370325953846603 0 21.370325953846603 36.20620423762125 0 0 0 0 70.983556055492812 19.030139590031467 0 19.030139590031467 1.4900559278321452 0 0 0 0 95.642496640501037 52.469455440374077 0 52.469455440374077 9.6563631186727434 0 0 0 0 1.0373942311680902 0.98055030449854996 0 0.98055030449854996 1.2626516118355084 0 0 0 0 -4.523762914179815 21.42597608393929 0 21.42597608393929 21.506771583550332 0 0 0 0 -32.204997027034096 31.996779775479808 0 31.996779775479808 65.951871630441019 0 0 0 0 17.844589110881316 17.412986053161148 0 17.412986053161148 27.503471192569123 0 0 0 0 -89.387893534166153 8.7590565086611605 0 8.7590565086611605 41.885631893921527 0 0 0 0 -13.868291099623775 50.066182653725264 0 50.066182653725264 41.495000723475528 0 0 0 0 -14.808970056051525 8.4094210925477739 0 8.4094210925477739 13.661045124769444 0 0 0 0 -6.2681209539202882 91.619723642274039 0 91.619723642274039 53.858748178994574 0 0 0 0 -35.583167429034461 80.672552745207213 0 80.672552745207213 89.636538777478563 0 0 0 0 299.18421644397989 -4.0606931406146032 0 -4.0606931406146032 -11.0326239159549 0 0 0 0 49.606817314155592 111.40189839486266 0 111.40189839486266 60.529031553203822 0 0 0 0 97.834793816934337 80.416362512881278 0 80.416362512881278 20.289707903342787 0 0 0 0 159.19242586435348 -306.01432447684056 0 -306.01432447684056 9.8983435838308651 0 0 0 0 -164.6458779845351 -121.36881747451844 0 -121.36881747451844 -91.178974585149263 0 0 0 0 267.33585425260878 404.47972938960811 0 404.47972938960811 687.36536598154635 0 0 0 0 -144.45614967823781 156.90903662439268 0 156.90903662439268 1374.2212031320232 0 0 0 0 22.47347214275942 1363.4991149728739 0 1363.4991149728739 2251.7803509169535 0 0 0 0 -352.91929570354978 -561.83122100836044 0 -561.83122100836044 4149.7365204698581 0 0 0 0 -446.73826954572604 -33.735381196107483 0 -33.735381196107483 2480.1271565695351 0 0 0 0 955.73375851520086 -2188.9412985032614 0 -2188.9412985032614 3571.3509240097846 0 0 0 0 3.0391652469669781 6.8455499241867841 0 6.8455499241867841 20.165609713255321 0 0 0 0 340.19608147370036 937.17297379908268 0 937.17297379908268 533.7841708982196 0 0 0 0 224.59235441261899 295.49023198599025 0 295.49023198599025 3720.8845393049342 0 0 0 0 1015.7270697951271 -25.934183578326156 0 -25.934183578326156 2928.2416479363164 0 0 0 0 931.73122558735679 -1180.4282894194259 0 -1180.4282894194259 3209.1992964946985 0 0 0 0 19.035751073915435 -618.39444911253668 0 -618.39444911253668 2935.8577646746853 0 0 0 0 21.983770376610174 -808.76687888383844 0 -808.76687888383844 3115.464111698835 0 0 0 0 -546.41198687213443 -417.05290628444345 0 -417.05290628444345 3290.9367236301332 0 0 0 0 -24.76941871641651 -241.75958661542245 0 -241.75958661542245 2966.2728046000848 0 0 0 0 -238.10014199910182 -317.40749411918659 0 -317.40749411918659 2939.9642336643519 0 0 0 0 -537.31362477715186 -165.65666157686792 0 -165.65666157686792 2870.9844755298982 0 0 0 0 341.11857342665007 -502.13981665656684 0 -502.13981665656684 538.08734276221367 0 0 0 0 -194.6526796312873 -206.24976936393978 0 -206.24976936393978 921.68187766769552 0 0 0 0 -94.396771317884088 -758.27178786891454 0 -758.27178786891454 2259.999181442312 0 0 0 0 -336.1853264459541 -355.35448422947957 0 -355.35448422947957 2358.8618456805998 0 0 0 0 -419.61213703967326 -146.16110211297928 0 -146.16110211297928 2231.6641996968028 0 0 0 0 -232.70351546186288 -532.43172829921241 0 -532.43172829921241 1165.300949675031 0 0 0 0 -314.26180136614954 -387.75540934508899 0 -387.75540934508899 1940.3296731824375 0 0 0 0 -4.3554390415541162 8.9081888366829105 0 8.9081888366829105 1.9385851097229576 0 0 0 0 289.40928012344619 -101.40183387734578 0 -101.40183387734578 54.834849636372383 0 0 0 0 -0.075214997243939707 5.3123633381512398 0 5.3123633381512398 -0.84279611450017455 0 0 0 0 -378.60634728044568 306.02014808016702 0 306.02014808016702 70.246421135845594 0 0 0 0 -630.7605320036414 -260.58306999168417 0 -260.58306999168417 1249.3957563576114 0 0 0 0 -3.5224077893254981 10.8476335732758 0 10.8476335732758 7.1928017509252129 0 0 0 0 -6.1603373347240904 7.9083655094946153 0 7.9083655094946153 8.6780101468466455 0 0 0 0 -563.02019286558084 91.658025443644874 0 91.658025443644874 898.60802434783545 0 0 0 0 290.50154879069873 109.0553614874807 0 109.0553614874807 -124.06604631888331 0 0 0 0 -209.43855344454934 -204.19834787102582 0 -204.19834787102582 -54.329979138274211 0 0 0 0 0.74993058386667144 7.1104006166860927 0 7.1104006166860927 3.4171493383619236 0 0 0 0 -2.6704270444582221 5.7967929694714257 0 5.7967929694714257 3.3146070134753245 0 0 0 0 -6.7510975824528714 1.3057065581306233 0 1.3057065581306233 -17.969283943166374 0 0 0 0 2.1004851200327721 8.5131932996300748 0 8.5131932996300748 -0.92269502314229612 0 0 0 0 -8.0281323144325221 8.5930337162901651 0 8.5930337162901651 -0.91105653603153769 0 0 0 0 0.58229114039366558 6.2387078136969674 0 6.2387078136969674 0.21610702616601429 0 0 0 0 -0.35581970663092677 2.7561163216814748 0 2.7561163216814748 9.3254745154918055 0 0 0 0 -0.00016963259560360232 1.2606763398216572 0 1.2606763398216572 10.211651080746378 0 0 0 0 -0.83749643498138571 4.7070124076672002 0 4.7070124076672002 7.7540721489119733 0 0 0 0 -0.62589389281491048 1.3646223149626167 0 1.3646223149626167 7.0515769092125993 0 0 0 0 -1.8588790643948652 5.6887827854952775 0 5.6887827854952775 9.4345192693508579 0 0 0 0 -2.2461736875388145 2.8762544270502985 0 2.8762544270502985 16.00942200836289 0 0 0 0 -3.9937604563466857 -0.63678513687131044 0 -0.63678513687131044 3.6905457740404728 0 0 0 0 -1.7855571074439818 -491.00036268721306 0 -491.00036268721306 2799.9052323734213 0 0 0 0 -0.98015012388230849 3.7800333390001271 0 3.7800333390001271 14.344770447856092 0 0 0 0 508.51867030589995 -1077.8863389444923 0 -1077.8863389444923 2403.2387607673299 0 0 0 0 435.20226095708551 461.92479787034972 0 461.92479787034972 495.97522546670007 0 0 0 0 -196.57722415652233 125.19266277841143 0 125.19266277841143 3360.5563857693342 0 0 0 0 537.47012200803101 74.51385248520819 0 74.51385248520819 2800.7832886257602 0 0 0 0 340.93311952828788 -473.1256965332359 0 -473.1256965332359 2767.1851658221822 0 0 0 0 0.67374632956257663 -288.43369245719015 0 -288.43369245719015 2696.8944556987844 0 0 0 0 85.575593219986729 -465.21842112248123 0 -465.21842112248123 2346.6398641797859 0 0 0 0 156.69267538459735 -406.68539974432497 0 -406.68539974432497 2320.8597744505096 0 0 0 0 110.31044549882142 -171.49516935660677 0 -171.49516935660677 2654.2607937319117 0 0 0 0 171.44399932422118 -177.74369002982712 0 -177.74369002982712 2634.0793372235712 0 0 0 0 167.45842464612826 -196.71471150033904 0 -196.71471150033904 2750.3548919408131 0 0 0 0 -69.775562149559619 -621.04517417090392 0 -621.04517417090392 2824.8647246340406 0 0 0 0 59.128124133918831 -691.57447494866483 0 -691.57447494866483 2770.7523287534714 0 0 0 0 699.12168715129849 -646.78463161544641 0 -646.78463161544641 2373.5605138711617 0 0 0 0 448.13425960531424 -130.94123325998225 0 -130.94123325998225 2759.0678124699698 0 0 0 0 167.65500039969496 -298.74500374844683 0 -298.74500374844683 3081.9534286194248 0 0 0 0 488.5702913254147 -1187.9663078133017 0 -1187.9663078133017 2913.5617225995356 0 0 0 0 7.1501372674419557 7.6475092300501473 0 7.6475092300501473 11.403173692008608 0 0 0 0 -553.9135179482796 -458.92586048835255 0 -458.92586048835255 3318.1056067080062 0 0 0 0 286.09773999219874 228.0005909088286 0 228.0005909088286 -401.76470058785344 0 0 0 0 256.8721088087745 200.66423019492868 0 200.66423019492868 -279.93520813595387 0 0 0 0 -203.34078338315157 859.15826671206742 0 859.15826671206742 1149.0279088086681 0 0 0 0 7.5021456599605223 4.8926535812118459 0 4.8926535812118459 13.601035733247144 0 0 0 0 -464.22282707017075 1018.8532114238478 0 1018.8532114238478 -2115.1766796925804 0 0 0 0 -137.12394626596188 -826.16357320090174 0 -826.16357320090174 5531.9156435744953 0 0 0 0 266.74706191758014 1632.374803419516 0 1632.374803419516 -1702.3184931891738 0 0 0 0 -117.6227735365801 -186.73916192328761 0 -186.73916192328761 -1441.2186656422564 0 0 0 0 21.838723442297123 58.262761918616889 0 58.262761918616889 523.5731818092172 0 0 0 0 -202.02946384211054 485.08806901369826 0 485.08806901369826 -289.88722102812517 0 0 0 0 -39.572704271149632 2210.7225762434173 0 2210.7225762434173 745.35545504451147 0 0 0 0 -254.31458770213874 148.29173764285224 0 148.29173764285224 4769.7421402196051 0 0 0 0 -2103.8655304012068 -2410.9330981167077 0 -2410.9330981167077 4420.4760199020966 0 0 0 0 581.28347900177869 -205.14235432280111 0 -205.14235432280111 -416.83679634199598 0 0 0 0 -997.31202411572758 2692.0849795015238 0 2692.0849795015238 5323.6853531198285 0 0 0 0 180.70628532474427 -278.01967999531917 0 -278.01967999531917 1055.5295485639654 0 0 0 0 912.91519767558566 353.90369179559639 0 353.90369179559639 2733.5985831857543 0 0 0 0 4.7534111714213116 11.777805916227294 0 11.777805916227294 21.334410661259597 0 0 0 0 122.39772515619313 -641.2229661654128 0 -641.2229661654128 1234.1758337134452 0 0 0 0 166.61424300952791 -436.39998480305803 0 -436.39998480305803 1341.1136311676528 0 0 0 0 -0.46005914404512743 -232.96870427692193 0 -232.96870427692193 2148.4703000356531 0 0 0 0 82.42588909057929 -357.86496399391035 0 -357.86496399391035 2296.7917867739379 0 0 0 0 436.3484761735449 -807.06313391889125 0 -807.06313391889125 1223.5952959163551 0 0 0 0 0.0082493505967744102 45.256614404373977 0 45.256614404373977 413.90431656658257 0 0 0 0 8.0520527812925735 19.250212424572965 0 19.250212424572965 445.75296900459216 0 0 0 0 3.2090672932609792 31.39770882960147 0 31.39770882960147 446.97071548373788 0 0 0 0 22.548107858357241 25.563331024655781 0 25.563331024655781 405.24860336078564 0 0 0 0 19.318658442736307 21.847374967370342 0 21.847374967370342 445.48986511505791 0 0 0 0 26.800856288609225 7.6912489812530112 0 7.6912489812530112 408.72052916185567 0 0 0 0 34.143872783486273 26.161233352835552 0 26.161233352835552 370.03273084368266 0 0 0 0 33.148317913842931 16.007228344988107 0 16.007228344988107 406.19645504576329 0 0 0 0 29.168905244633947 26.414535776704724 0 26.414535776704724 405.32327924889887 0 0 0 0 65.868006343328034 19.519309838527988 0 19.519309838527988 364.24825427449832 0 0 0 0 58.306262193092095 0.57527793286863016 0 0.57527793286863016 365.41016219228914 0 0 0 0 119.86244419271384 -39.000553301848413 0 -39.000553301848413 335.16203636475257 0 0 0 0 46.986229692044105 41.339121882680047 0 41.339121882680047 340.43227999414376 0 0 0 0 44.962460151261681 37.737341500542243 0 37.737341500542243 358.16319583797303 0 0 0 0 175.55466784427131 70.794897120409587 0 70.794897120409587 337.45982378681219 0 0 0 0 -20.300161708702475 47.270509310648777 0 47.270509310648777 375.51900788006606 0 0 0 0 15.492604187947215 48.778665841469774 0 48.778665841469774 372.38814515643026 0 0 0 0 5.200437401452632 23.042622418965038 0 23.042622418965038 396.74486793250981 0 0 0 0 -0.036297512298101041 48.438287083467003 0 48.438287083467003 357.29702331458975 0 0 0 0 -5.3987026459991654 -3.7046293016537675 0 -3.7046293016537675 310.65098183952796 0 0 0 0 0.014485076063679769 32.781613560619007 0 32.781613560619007 168.24262036134314 0 0 0 0 -23.66760902600079 10.110826320255001 0 10.110826320255001 301.3954225028283 0 0 0 0 -0.63210953005956227 -10.93304412188445 0 -10.93304412188445 139.7897406325792 0 0 0 0 -18.819249798072661 6.3960908977460349 0 6.3960908977460349 262.21736630468513 0 0 0 0 -14.476111703566119 6.3550166545974207 0 6.3550166545974207 131.93184829111851 0 0 0 0 20.657416201668351 -14.705102020056074 0 -14.705102020056074 36.595132175003528 0 0 0 0 -1.8629264662743452 -38.020273619549698 0 -38.020273619549698 156.98493828869141 0 0 0 0 -0.027318101535275266 32.01469921846239 0 32.01469921846239 55.321363441777066 0 0 0 0 19.330546060494243 -20.056051453539112 0 -20.056051453539112 -35.511015263560694 0 0 0 0 13.718246825403895 29.106342377235705 0 29.106342377235705 -7.2037193022115389 0 0 0 0 11.202570731630829 9.3506473469969933 0 9.3506473469969933 -36.238647857928299 0 0 0 0 0.028182367147167042 -1.1478019745263737 0 -1.1478019745263737 40.663662937447953 0 0 0 0 -0.546307806885025 0.50872878720340964 0 0.50872878720340964 0.37969318028445542 0 0 0 0 -1.1104040624710183 2.5806314539950108 0 2.5806314539950108 4.5805621270847041 0 0 0 0 -0.13925457589611925 0.082524865284142379 0 0.082524865284142379 -0.066456717018319011 0 0 0 0 0.0014829810417866362 1.497043843180244 0 1.497043843180244 6.3532420196424937 0 0 0 0 0.23428646882941173 0.64422108825280588 0 0.64422108825280588 1.8067133395006394 0 0 0 0 47.230711649659497 27.306348880403675 0 27.306348880403675 22.969322442710109 0 0 0 0 6.20146097972912 6.6422593688839697 0 6.6422593688839697 -0.99318066140403971 0 0 0 0 -0.096501267535211294 3.1369488409212312 0 3.1369488409212312 2.4642123814532511 0 0 0 0 0.69928406761073347 5.1177947495452827 0 5.1177947495452827 2.2489467780505947 0 0 0 0 -2.901551567244006 7.3190767597961894 0 7.3190767597961894 2.3039371497288812 0 0 0 0 0.46527486022847736 2.2548710122369684 0 2.2548710122369684 4.7581020866867902 0 0 0 0 -0.75829577938294346 4.8710495294890279 0 4.8710495294890279 2.5626273723319173 0 0 0 0 -4.2843722642749071 5.3465117257874226 0 5.3465117257874226 3.8863213681906927 0 0 0 0 -2.6334060414113765 -4.2156385796115501 0 -4.2156385796115501 -11.41819399900487 0 0 0 0 -1.2864840518967262 3.2667929536720521 0 3.2667929536720521 2.6218727713451386 0 0 0 0 -2.7368714141190935 3.9384504883200862 0 3.9384504883200862 3.0516672048834153 0 0 0 0 7.7664837733528884 8.4205677101999754 0 8.4205677101999754 3.6577353070897516 0 0 0 0 -24.583169270739404 22.970555847641663 0 22.970555847641663 -9.8036465787445195 0 0 0 0 -0.033806614686833825 0.27715902471225462 0 0.27715902471225462 -1.1829116075645629 0 0 0 0 -22.145156262489024 12.604060627250874 0 12.604060627250874 28.054204858868616 0 0 0 0 6.9500856760114118 19.19928898506987 0 19.19928898506987 -18.371044511120999 0 0 0 0 -12.839399238725719 29.977495608800382 0 29.977495608800382 53.729037746670656 0 0 0 0 39.727297260552405 16.789369288599119 0 16.789369288599119 8.2294056867831387 0 0 0 0 70.91257490741009 -0.14530636736526503 0 -0.14530636736526503 -15.385585486277705 0 0 0 0 -0.38611809259738583 1.1522672630786066 0 1.1522672630786066 7.299474885128177 0 0 0 0 34.716278547962133 49.371813450306945 0 49.371813450306945 11.687999992253026 0 0 0 0 101.29149946260142 66.314794737536431 0 66.314794737536431 -0.76483138150069863 0 0 0 0 0.2417308379146037 0.12795117953288049 0 0.12795117953288049 2.7327113212712675 0 0 0 0 257.23855032699038 95.845201374606404 0 95.845201374606404 67.73943008351489 0 0 0 0 43.006180093727551 -27.458696609472099 0 -27.458696609472099 118.24361525769928 0 0 0 0 169.46520080139089 5.882495244659367 0 5.882495244659367 -22.822740067240375 0 0 0 0 106.85782335596443 99.08036308091323 0 99.08036308091323 121.05970989709022 0 0 0 0 -0.22242386605715769 -0.42167975347069842 0 -0.42167975347069842 -0.09353616875358739 0 0 0 0 -50.237168912990739 9.1673091679913341 0 9.1673091679913341 77.770014611276565 0 0 0 0 62.161797757994236 -29.372613039711723 0 -29.372613039711723 -106.54209904659365 0 0 0 0 -2.0969038338797361 10.4560725078627 0 10.4560725078627 79.365085669618566 0 0 0 0 -12.89968640561051 -24.202774335193681 0 -24.202774335193681 20.321644978190307 0 0 0 0 18.747362359326701 8.2096037880110089 0 8.2096037880110089 56.439837205747608 0 0 0 0 18.587168380890432 -53.203145905092242 0 -53.203145905092242 114.31273613911617 0 0 0 0 -11.437307566171626 -18.657372891604609 0 -18.657372891604609 286.03645132266684 0 0 0 0 -12.354953590268778 71.098866235557466 0 71.098866235557466 465.3066169222584 0 0 0 0 -6.6469867675305068 -111.37425432009331 0 -111.37425432009331 271.75199214997701 0 0 0 0 4.9214990501440639 18.419088633723732 0 18.419088633723732 422.71416936480091 0 0 0 0 192.44105104932612 154.51706589141759 0 154.51706589141759 147.72066706730402 0 0 0 0 7.6326959686830378 50.852161210750637 0 50.852161210750637 245.521514475804 0 0 0 0 -98.508952641435769 118.61033836062188 0 118.61033836062188 110.38581961965247 0 0 0 0 -105.86050009718582 -57.955211886437041 0 -57.955211886437041 150.86006141238613 0 0 0 0 -1.3655286933117636 0.54687407200756866 0 0.54687407200756866 -0.4961257875263243 0 0 0 0 56.535625289661311 121.41911072390212 0 121.41911072390212 14.742597858348745 0 0 0 0 71.226889543953916 40.350291756134538 0 40.350291756134538 24.769921720057027 0 0 0 0 -72.313503852709687 93.502317562612006 0 93.502317562612006 40.839973850423121 0 0 0 0 39.823241169282255 55.937450218669255 0 55.937450218669255 4.9004577747691656 0 0 0 0 40.062951594077219 57.68961332001345 0 57.68961332001345 11.89572758693248 0 0 0 0 -33.696148627180435 70.240406196102413 0 70.240406196102413 37.135910530603724 0 0 0 0 18.518451341673313 94.272804299806012 0 94.272804299806012 26.952526220666186 0 0 0 0 -109.76131129257709 35.436155182484072 0 35.436155182484072 45.572133297246182 0 0 0 0 -64.18556573539351 -24.295027630967525 0 -24.295027630967525 1.3699959343939554 0 0 0 0 -14.646986772778661 10.104870735167424 0 10.104870735167424 11.169713914976455 0 0 0 0 -23.168441192475029 50.546249185790657 0 50.546249185790657 38.833050946595904 0 0 0 0 -0.13799148627560953 55.977875549244345 0 55.977875549244345 25.384261800267268 0 0 0 0 -25.782117525586955 44.830630730968551 0 44.830630730968551 29.965331752755446 0 0 0 0 50.074687839828698 67.526332763052778 0 67.526332763052778 17.634523116692435 0 0 0 0 10.263503181710149 59.138611505928566 0 59.138611505928566 19.814492491306737 0 0 0 0 51.345529334029266 68.734675251471344 0 68.734675251471344 18.564964490920829 0 0 0 0 -13.736419235599726 69.598019964607374 0 69.598019964607374 44.529395495308563 0 0 0 0 -34.423293589990521 65.738741898981971 0 65.738741898981971 45.119306753593264 0 0 0 0 -5.18828033572359 49.509414767824637 0 49.509414767824637 34.159783143957611 0 0 0 0 0.40749901798199062 53.003576865114155 0 53.003576865114155 32.071959647801123 0 0 0 0 34.926198388863156 50.992040174976864 0 50.992040174976864 18.656297742039897 0 0 0 0 -6.6128121578431092 69.000634337353404 0 69.000634337353404 36.825150521617616 0 0 0 0 -5.8031459446556255 20.260423950909171 0 20.260423950909171 19.162808243592735 0 0 0 0 -68.150350072350875 -28.854332334478386 0 -28.854332334478386 119.08911617092963 0 0 0 0 -13.647258851195602 59.784427595375746 0 59.784427595375746 30.464005412417464 0 0 0 0 2.5542249677318334 18.335713456599805 0 18.335713456599805 33.246284979095662 0 0 0 0 0.55101691956653454 3.5584836230188586 0 3.5584836230188586 5.6360728609227522 0 0 0 0 -19.992538754397529 9.6582930817501165 0 9.6582930817501165 12.856541087530786 0 0 0 0 27.361403115349816 -5.4194245806429535 0 -5.4194245806429535 -11.573540285477065 0 0 0 0 61.819706477185363 31.613439054031915 0 31.613439054031915 -2.4791528104105964 0 0 0 0 38.187598767585627 29.385065392561955 0 29.385065392561955 3.7091275295824744 0 0 0 0 32.332643515714054 24.549192831502296 0 24.549192831502296 -0.18196987413102761 0 0 0 0 1.9357159333571019 14.309371918876423 0 14.309371918876423 7.8516657963918988 0 0 0 0 4.6219284618335337 4.0239279528614134 0 4.0239279528614134 7.493310975987697 0 0 0 0 -18.977351111008886 -8.3218226027966011 0 -8.3218226027966011 6.2153800207597669 0 0 0 0 -4.5836724716331574 3.7201816832675831 0 3.7201816832675831 7.7519372960596229 0 0 0 0 -4.2711075477908977 5.0736891866836231 0 5.0736891866836231 13.600923694546509 0 0 0 0 -9.7633865093262102 10.269068010813498 0 10.269068010813498 12.23526084565674 0 0 0 0 8.600219655178762 -17.076948472109507 0 -17.076948472109507 14.038136815746839 0 0 0 0 -3.0125708282259378 3.8507277711624965 0 3.8507277711624965 2.4060109793593085 0 0 0 0 2.3139274325381791 15.212535056810339 0 15.212535056810339 28.375929513899138 0 0 0 0 30.241601241560602 -30.757978342320712 0 -30.757978342320712 118.00340799211699 0 0 0 0 7.0304782051742905 -1.986194517754484 0 -1.986194517754484 9.9832542357034981 0 0 0 0 -17.263528672673715 38.278260826293263 0 38.278260826293263 89.08435290644411 0 0 0 0 -54.75103361120847 76.215588999270039 0 76.215588999270039 262.6162943864183 0 0 0 0 -71.064529773372783 23.573086760596198 0 23.573086760596198 263.87054287761566 0 0 0 0 -27.608954716041012 32.314350444983575 0 32.314350444983575 280.54965147297298 0 0 0 0 -39.583904766527809 99.054048710223924 0 99.054048710223924 490.59043263684725 0 0 0 0 38.458766469160992 75.129379571160825 0 75.129379571160825 384.51442056047381 0 0 0 0 -7.3824866666981279 81.151375499008282 0 81.151375499008282 390.95031187434506 0 0 0 0 -61.100855129374906 49.761826584850496 0 49.761826584850496 380.06063654676836 0 0 0 0 -90.607340465078096 29.742774694634136 0 29.742774694634136 369.67725312754919 0 0 0 0 -40.008110530319414 45.570318456921086 0 45.570318456921086 268.87012858526032 0 0 0 0 17.612925058597909 -17.896008092197007 0 -17.896008092197007 358.19654403911409 0 0 0 0 -52.866670213086593 -35.830590123496222 0 -35.830590123496222 346.9370740702725 0 0 0 0 19.984011925565881 -10.849723276478471 0 -10.849723276478471 349.49822393553768 0 0 0 0 21.911438100590544 15.612444997059356 0 15.612444997059356 391.82594364988472 0 0 0 0 16.045226578904249 -7.4977322389822803 0 -7.4977322389822803 380.85631827318139 0 0 0 0 -48.263642152221507 36.103570867577218 0 36.103570867577218 399.54937629922642 0 0 0 0 -15.70062018743738 17.605485228268662 0 17.605485228268662 368.20743268168371 0 0 0 0 -27.824489979891553 1.2178700653385022 0 1.2178700653385022 387.78878091476508 0 0 0 0 35.379314867999142 26.576463140387204 0 26.576463140387204 410.22077879552671 0 0 0 0 21.15549149839353 35.505336040332622 0 35.505336040332622 397.50650251515981 0 0 0 0 -4.1382066113820315 18.76021570231751 0 18.76021570231751 408.71219090690283 0 0 0 0 16.667571282785673 21.133800385014183 0 21.133800385014183 438.78364102446358 0 0 0 0 24.931436672496488 5.4698336115980055 0 5.4698336115980055 453.11912174410099 0 0 0 0 43.255532359761901 11.222591158446448 0 11.222591158446448 425.23281670694269 0 0 0 0 32.556107565100149 34.937742828707997 0 34.937742828707997 418.08321078868903 0 0 0 0 116.55588343797467 41.685676510147459 0 41.685676510147459 383.4466452837587 0 0 0 0 33.354992242367189 85.056366310820522 0 85.056366310820522 375.57980936366948 0 0 0 0 65.177262164759725 72.798106071101756 0 72.798106071101756 367.42744599499565 0 0 0 0 10.310640098719091 61.726351013108797 0 61.726351013108797 389.61803050838353 0 0 0 0 54.983859628193869 33.710493968375886 0 33.710493968375886 407.13473941282427 0 0 0 0 133.04872304013702 41.938868997385725 0 41.938868997385725 289.01014171897805 0 0 0 0 169.41014437812464 51.282683870856999 0 51.282683870856999 217.02871717172093 0 0 0 0 202.50168071547023 105.9459681626613 0 105.9459681626613 282.48422501055757 0 0 0 0 116.69586855572561 41.586959758060402 0 41.586959758060402 300.09921443430358 0 0 0 0 139.02091684173581 27.685129373801828 0 27.685129373801828 251.84762589883758 0 0 0 0 -37.656823782083393 -14.266999519481033 0 -14.266999519481033 211.24645082230018 0 0 0 0 -37.058780280083738 -13.594064323064231 0 -13.594064323064231 202.74615673187509 0 0 0 0 114.6054686040361 14.666683713963721 0 14.666683713963721 256.07299184729345 0 0 0 0 119.774946820379 -23.493254660417733 0 -23.493254660417733 138.50735844663723 0 0 0 0 163.8126364348613 115.68958717413443 0 115.68958717413443 276.98007246306224 0 0 0 0 -51.372586548226082 2.1944033437030157 0 2.1944033437030157 282.49714187603968 0 0 0 0 192.7023460280123 15.46196300736483 0 15.46196300736483 167.47243581159273 0 0 0 0 6.9228727495074054 182.73331591125316 0 182.73331591125316 240.98483078457502 0 0 0 0 -67.499343227949566 96.500965074512351 0 96.500965074512351 166.6980645920994 0 0 0 0 121.70815814122011 -3.5486280363729747 0 -3.5486280363729747 530.26033455862489 0 0 0 0 466.76921097227591 120.00336883896671 0 120.00336883896671 247.05588557134615 0 0 0 0 164.60856485346869 301.04390904497996 0 301.04390904497996 575.43475548736751 0 0 0 0 98.643113399040544 142.49440108940689 0 142.49440108940689 370.75148156999785 0 0 0 0 71.543414281121159 143.27421393350232 0 143.27421393350232 373.05387231224813 0 0 0 0 13.580230864463147 -88.949957417338737 0 -88.949957417338737 236.68941165596334 0 0 0 0 2.5782739409319797 3.255106367524192 0 3.255106367524192 4.5046970980443461 0 0 0 0 -4.3018652321061381 -41.819884191914753 0 -41.819884191914753 671.12047719833208 0 0 0 0 323.04012615340207 201.46452563020284 0 201.46452563020284 20.575451206888829 0 0 0 0 8.7727119708426926 -22.561454799961211 0 -22.561454799961211 68.700754344870802 0 0 0 0 4.2130169754564548 28.045196271713849 0 28.045196271713849 67.622470988149871 0 0 0 0 26.61179872520065 30.654897345278187 0 30.654897345278187 67.923826765661943 0 0 0 0 1.2854682469482812 5.2954009669385158 0 5.2954009669385158 7.0599436368455315 0 0 0 0 -30.565979267453258 21.592775159544544 0 21.592775159544544 0.81978159467689693 0 0 0 0 -28.181584658654629 -0.24412872660468565 0 -0.24412872660468565 -12.187268441804918 0 0 0 0 -11.121430457875249 14.848228715389268 0 14.848228715389268 -3.1914780844017514 0 0 0 0 3.7108128806798231 5.7748493851390208 0 5.7748493851390208 2.1176491178518404 0 0 0 0 -31.029351456502752 23.007791025273036 0 23.007791025273036 16.873049079687917 0 0 0 0 -29.264347697976177 -4.2687001255308132 0 -4.2687001255308132 25.333636306342669 0 0 0 0 -5.630658596294758 -5.3952588119024369 0 -5.3952588119024369 31.092743969847987 0 0 0 0 1.0151434632240797 27.361964925994272 0 27.361964925994272 -4.5905101658043392 0 0 0 0 13.136964848047455 20.552275643534813 0 20.552275643534813 68.539292182540521 0 0 0 0 0.27489973176567695 2.3157825486367187 0 2.3157825486367187 -0.97961685451860347 0 0 0 0 -4.0487649775760648 19.414792650044234 0 19.414792650044234 -5.2448373157565413 0 0 0 0 6.103866653447767 38.182721428747755 0 38.182721428747755 30.374231769819744 0 0 0 0 2.5883238275841904 30.784686775659793 0 30.784686775659793 40.789050257066265 0 0 0 0 17.738381817430309 32.106300621882838 0 32.106300621882838 40.72503698093351 0 0 0 0 65.118704639268799 29.475162219845515 0 29.475162219845515 -142.116779156946 0 0 0 0 -0.723742695716866 27.952953308986906 0 27.952953308986906 -5.1902182651250151 0 0 0 0 -41.93407691084758 -26.918813007767312 0 -26.918813007767312 139.86638914409559 0 0 0 0 11.763268563162455 54.299529692842043 0 54.299529692842043 88.888383998106292 0 0 0 0 -13.005740288099332 8.5831653691711836 0 8.5831653691711836 102.89836978584935 0 0 0 0 36.199977507888889 -21.920577150915051 0 -21.920577150915051 -103.68901317535529 0 0 0 0 -22.405616668425182 -4.6326089032372693 0 -4.6326089032372693 29.149868112595868 0 0 0 0 108.39375845059567 89.867453300234047 0 89.867453300234047 43.734892283516274 0 0 0 0 47.861037380148559 138.71049534623671 0 138.71049534623671 172.03270435654849 0 0 0 0 -9.4692101141258718 9.7774199049526942 0 9.7774199049526942 107.66956675959591 0 0 0 0 17.673040924718862 255.7135231932989 0 255.7135231932989 258.87750684456159 0 0 0 0 -2.1309160690971112 105.85390433424982 0 105.85390433424982 268.24998699309072 0 0 0 0 -61.729922960100794 349.6119980253643 0 349.6119980253643 579.37733508080237 0 0 0 0 106.84779917279434 392.80873623555817 0 392.80873623555817 463.99842615178204 0 0 0 0 -100.17429073713981 277.38782002812695 0 277.38782002812695 524.46967350326304 0 0 0 0 -39.966157170894576 219.73616320620567 0 219.73616320620567 519.90028982513468 0 0 0 0 -231.4148658726167 458.1846426183547 0 458.1846426183547 294.9059591616242 0 0 0 0 -77.205567781868467 5.0563234478977392 0 5.0563234478977392 897.42074337482882 0 0 0 0 -0.42812678610974775 0.99606589399311929 0 0.99606589399311929 1.7340864048381945 0 0 0 0 -204.81211001225438 514.90693586531415 0 514.90693586531415 -189.54852232699341 0 0 0 0 -8.8190178284303329 123.2721556659817 0 123.2721556659817 866.79275016360407 0 0 0 0 111.08183573522729 -324.85940209950058 0 -324.85940209950058 897.57454029665814 0 0 0 0 0.017143558792940716 0.91597464257375805 0 0.91597464257375805 2.5281330283180239 0 0 0 0 73.557802825972203 83.542555517095025 0 83.542555517095025 -33.573716551662073 0 0 0 0 115.70163272286391 54.137536332054879 0 54.137536332054879 410.6691302053805 0 0 0 0 16.385552324234709 168.14003769314877 0 168.14003769314877 447.86128210110473 0 0 0 0 60.467670842360803 186.93962050862319 0 186.93962050862319 861.10455920557615 0 0 0 0 208.98026308691146 90.988671628798329 0 90.988671628798329 468.54207991011208 0 0 0 0 -18.574408713985122 223.88521321825101 0 223.88521321825101 477.44650489202468 0 0 0 0 53.820079793474633 172.24946361569164 0 172.24946361569164 439.8025515584086 0 0 0 0 21.229717691463975 34.807167265666067 0 34.807167265666067 391.22500444003526 0 0 0 0 -9.2877884128247388 149.75661153979308 0 149.75661153979308 180.13115176688007 0 0 0 0 145.25568044287525 63.959895604246412 0 63.959895604246412 212.70619484472263 0 0 0 0 -14.968604955526871 52.212387300183764 0 52.212387300183764 65.193098374758847 0 0 0 0 -1.6077275101045068 42.494816854676159 0 42.494816854676159 3.0275762294171926 0 0 0 0 75.139047074178279 41.320882603191421 0 41.320882603191421 -138.37934567766206 0 0 0 0 70.299309210150909 123.71337221590147 0 123.71337221590147 -16.074809836296481 0 0 0 0 -2.9915731914350174 31.180012251030462 0 31.180012251030462 23.071334805283065 0 0 0 0 11.466614167641637 79.293471881217556 0 79.293471881217556 168.39609851584828 0 0 0 0 1.8754922399488105 62.53134452745276 0 62.53134452745276 18.734408502824191 0 0 0 0 -122.6832450800631 83.403057163817721 0 83.403057163817721 241.66623063924635 0 0 0 0 71.56312296145768 -9.7739586569659878 0 -9.7739586569659878 278.91602318009245 0 0 0 0 5.3571075040294733 10.004770605571608 0 10.004770605571608 19.03435972912914 0 0 0 0 -28.304494116640853 59.324042054082383 0 59.324042054082383 389.4133462677928 0 0 0 0 68.943482056269488 165.86076819624577 0 165.86076819624577 15.363295836657926 0 0 0 0 5.5049427860061524 63.437147966436655 0 63.437147966436655 8.6787926212527466 0 0 0 0 41.145376221561946 120.20069247148058 0 120.20069247148058 161.33134400364361 0 0 0 0 -8.6731452219639777 111.34782942285528 0 111.34782942285528 160.07201612769859 0 0 0 0 -33.272503440861556 168.00329279557081 0 168.00329279557081 209.79355457180645 0 0 0 0 -137.24997976594864 134.83687917671705 0 134.83687917671705 293.33786960526777 0 0 0 0 -51.146196114045779 64.648526626704552 0 64.648526626704552 163.87982527017812 0 0 0 0 -27.647238747410825 147.32033443150067 0 147.32033443150067 433.12918109509337 0 0 0 0 -15.379635199057475 13.479236458864762 0 13.479236458864762 681.39954892754031 0 0 0 0 -6.6848317998396283 14.287519232488194 0 14.287519232488194 316.66019468520244 0 0 0 0 71.417963553073605 -124.65260298571957 0 -124.65260298571957 279.08149656336172 0 0 0 0 164.04050756110564 -202.38809393527481 0 -202.38809393527481 381.81336786627071 0 0 0 0 82.81560128711385 -102.73440650313569 0 -102.73440650313569 259.68078522229916 0 0 0 0 -65.50654313161499 49.414919226815982 0 49.414919226815982 334.10218539154448 0 0 0 0 -38.768304155060378 -47.089034990793152 0 -47.089034990793152 419.60527134445147 0 0 0 0 -55.398981343483342 17.005312267878253 0 17.005312267878253 241.92444195295684 0 0 0 0 -9.1302502598525734 -76.241663691900612 0 -76.241663691900612 270.87266323620861 0 0 0 0 -16.539101513423702 -42.618945420588716 0 -42.618945420588716 182.68813794330345 0 0 0 0 22.347389347880039 -74.393018970298726 0 -74.393018970298726 202.26961021579336 0 0 0 0 28.980463875510964 -102.72310747799202 0 -102.72310747799202 267.75346265267581 0 0 0 0 71.642174678034735 -124.38547961719451 0 -124.38547961719451 175.50071998759086 0 0 0 0 72.213490173555087 -142.03937222427066 0 -142.03937222427066 209.10702208662406 0 0 0 0 39.257195372514616 -72.470940987710492 0 -72.470940987710492 99.008369561837753 0 0 0 0 -14.178486440545385 -97.175010264036246 0 -97.175010264036246 189.56909438531147 0 0 0 0 28.031896907700229 -85.469476236554328 0 -85.469476236554328 172.18883022101363 0 0 0 0 -25.927688655825932 -9.0693138801252644 0 -9.0693138801252644 38.429542897392821 0 0 0 0 17.322443510595804 -20.801278660612297 0 -20.801278660612297 114.28912544625564 0 0 0 0 -2.629275245291995 1.7803983117255768 0 1.7803983117255768 6.8063754482806758 0 0 0 0 0.45623419564151035 4.0120713968728268 0 4.0120713968728268 7.2840719037519648 0 0 0 0 -2.6940796098240298 7.5855271472391905 0 7.5855271472391905 9.599991136288736 0 0 0 0 -65.048261913411807 41.325491178045922 0 41.325491178045922 -14.277564145624638 0 0 0 0 -169.70487345935817 121.39372471318347 0 121.39372471318347 -73.459686171525391 0 0 0 0 -1.6704877752288114 2.0333863936730552 0 2.0333863936730552 4.1719910624634053 0 0 0 0 -238.15919808044964 177.18271029309835 0 177.18271029309835 -56.346536783006741 0 0 0 0 -57.412432073092646 -50.885799840063555 0 -50.885799840063555 54.83228706047521 0 0 0 0 0.38909088046923479 2.820522931493457 0 2.820522931493457 5.2492067504279589 0 0 0 0 24.592310506025115 32.419433912116801 0 32.419433912116801 -20.319349811288703 0 0 0 0 72.506703835741064 -131.22584533222835 0 -131.22584533222835 255.03285926446551 0 0 0 0 -316.20097845557257 63.0715044541721 0 63.0715044541721 10.825483006745344 0 0 0 0 -319.60731732451313 123.80860510612547 0 123.80860510612547 9.3363454352365807 0 0 0 0 -173.78724201048817 86.70846172128222 0 86.70846172128222 -213.13524852775845 0 0 0 0 -183.58409495490218 200.27453524115117 0 200.27453524115117 88.002446725295158 0 0 0 0 -62.288427178044401 61.912965267334584 0 61.912965267334584 112.71331928047584 0 0 0 0 -158.92441504322096 4.7061179114680272 0 4.7061179114680272 92.625677468477988 0 0 0 0 -251.76430138452383 77.537667416312615 0 77.537667416312615 115.10746833898884 0 0 0 0 -179.77827707183451 0.19808474973251577 0 0.19808474973251577 98.164377628341754 0 0 0 0 -183.58097430428506 -1.1225005664018681 0 -1.1225005664018681 190.125088569941 0 0 0 0 -241.64452509159037 121.62628556333948 0 121.62628556333948 -4.5817072383215418 0 0 0 0 -232.77103230857983 54.281232679684763 0 54.281232679684763 3.0970669784219353 0 0 0 0 -197.43748158730227 57.41327307145184 0 57.41327307145184 61.932055579178268 0 0 0 0 -195.94083974031901 36.608216552820522 0 36.608216552820522 49.78682749067957 0 0 0 0 -198.87051041692166 -59.787305988189473 0 -59.787305988189473 102.81518132334895 0 0 0 0 -221.318944489552 8.7965898544789525 0 8.7965898544789525 128.62192035812768 0 0 0 0 -187.57632331531431 -11.761534728037077 0 -11.761534728037077 160.33520414162922 0 0 0 0 -36.158301981027762 -13.301782451132567 0 -13.301782451132567 126.76179775924538 0 0 0 0 -35.5620207671777 -42.290880227791604 0 -42.290880227791604 82.826109513858682 0 0 0 0 -158.8370093090889 -109.48368050501449 0 -109.48368050501449 140.62248226568045 0 0 0 0 -162.24880335356397 -45.818381924957066 0 -45.818381924957066 27.220314037920616 0 0 0 0 -286.28468331325394 -144.2848880288293 0 -144.2848880288293 26.833423869983022 0 0 0 0 -0.45197934008592711 -4.9525748410669621 0 -4.9525748410669621 125.79707623228387 0 0 0 0 14.826069493050909 -19.556695070968999 0 -19.556695070968999 127.68818169837778 0 0 0 0 -1.2628756033173598 -4.3961658575464355 0 -4.3961658575464355 9.885122491791634 0 0 0 0 -103.89782410707721 0.92386327086569509 0 0.92386327086569509 15.835638946038671 0 0 0 0 -68.64209730798666 -8.0179350502148736 0 -8.0179350502148736 16.254140409539104 0 0 0 0 -1.9965499153989725 1.5259060261729758 0 1.5259060261729758 8.7824749285292967 0 0 0 0 -102.95683411486516 -7.1708835072349757 0 -7.1708835072349757 44.038956273332587 0 0 0 0 -172.95556572927239 18.886395462977816 0 18.886395462977816 36.63675640024303 0 0 0 0 -75.80728796080075 -1.1272998912318144 0 -1.1272998912318144 503.79543438745895 0 0 0 0 14.058842392873899 126.01601612862032 0 126.01601612862032 340.10821282077814 0 0 0 0 8.623192032641839 67.390061041733361 0 67.390061041733361 342.18564773515391 0 0 0 0 -0.80611196749597536 -4.0035407580732709 0 -4.0035407580732709 8.3143737329619682 0 0 0 0 -164.28110492120231 -40.742733596060134 0 -40.742733596060134 -91.848554114840226 0 0 0 0 -200.19156808598564 -467.97219179059175 0 -467.97219179059175 -161.12044383456487 0 0 0 0 -0.11426905884852445 -1.6884866825484153 0 -1.6884866825484153 3.6763930816788957 0 0 0 0 78.199320558696854 336.75053356138233 0 336.75053356138233 1078.1510097793944 0 0 0 0 72.996467756410311 207.00291244131222 0 207.00291244131222 475.06573267225031 0 0 0 0 53.028031900684709 -18.771949469133688 0 -18.771949469133688 600.79619913754141 0 0 0 0 -1.9803285193579541 -136.58778566831461 0 -136.58778566831461 894.17300240819532 0 0 0 0 9.4443802172927462 -26.992528436509019 0 -26.992528436509019 570.81480722085689 0 0 0 0 12.16516235947833 -13.81291025900191 0 -13.81291025900191 552.21856974864204 0 0 0 0 0.62334378794208511 0.16965294702558253 0 0.16965294702558253 1.2601018835556665 0 0 0 0 -17.154419863766179 -14.320324683067156 0 -14.320324683067156 616.95857146033086 0 0 0 0 1.7370666278692397 4.3754538128287095 0 4.3754538128287095 562.64375858732092 0 0 0 0 -50.307052290046386 43.805218903742571 0 43.805218903742571 547.14979219184897 0 0 0 0 -29.865322872601155 -24.922049257511389 0 -24.922049257511389 756.21986079842463 0 0 0 0 -90.300199586064537 -5.3291750439311727 0 -5.3291750439311727 628.87990591994458 0 0 0 0 0.031138874766043045 0.080690125058680451 0 0.080690125058680451 1.0264966199300218 0 0 0 0 -37.61582995156374 -66.63828967927202 0 -66.63828967927202 593.10807078728249 0 0 0 0 -81.735215227733079 -53.909364604442089 0 -53.909364604442089 561.09551012478187 0 0 0 0 -85.508967748302894 -30.357279255222238 0 -30.357279255222238 565.89482062048774 0 0 0 0 -29.739305025056638 -22.779794625868817 0 -22.779794625868817 508.15398012303922 0 0 0 0 -68.875934868150352 -30.492699550046382 0 -30.492699550046382 452.5512819080468 0 0 0 0 -86.569744915604133 -21.597011250025389 0 -21.597011250025389 508.86628606151498 0 0 0 0 -33.713352362974092 -1.7061338902931311 0 -1.7061338902931311 455.91764495633106 0 0 0 0 -58.320264855949063 -32.605882873613155 0 -32.605882873613155 446.9336339377769 0 0 0 0 -86.530113472788344 1.744993055712257 0 1.744993055712257 412.86711519143137 0 0 0 0 -83.192025141705017 -51.405583151659812 0 -51.405583151659812 367.52540192297602 0 0 0 0 -109.90367962145683 -18.16361346263875 0 -18.16361346263875 451.72460922777827 0 0 0 0 73.067049190777425 -28.184244496609608 0 -28.184244496609608 452.98934418575664 0 0 0 0 3.9608633488551277 -4.4044932174510905 0 -4.4044932174510905 457.90881782738143 0 0 0 0 -37.378759460668789 11.211490427493118 0 11.211490427493118 447.88570272194193 0 0 0 0 -6.2082622803545746 -38.857583064600476 0 -38.857583064600476 412.15583951371082 0 0 0 0 -40.813029501062829 -0.77582750964938896 0 -0.77582750964938896 494.40154829253152 0 0 0 0 13.289676881875948 -12.199542529029713 0 -12.199542529029713 457.44844666939025 0 0 0 0 16.288376772881804 5.7781742681527248 0 5.7781742681527248 473.87621306447545 0 0 0 0 29.194455293777082 3.3357932752442139 0 3.3357932752442139 486.00696144709946 0 0 0 0 4.2947187780641798 -8.1419088955881307 0 -8.1419088955881307 518.12679561504046 0 0 0 0 -45.644532578741291 -12.768405238057312 0 -12.768405238057312 535.82891301735799 0 0 0 0 6.1636501644313739 -4.8580268584155419 0 -4.8580268584155419 493.17182712029899 0 0 0 0 -0.59915196331303378 -24.888296031829668 0 -24.888296031829668 538.64127274855127 0 0 0 0 14.385513451248244 -7.4287554958427791 0 -7.4287554958427791 517.88554788507827 0 0 0 0 -9.4202680309268771 -2.2454297362219222 0 -2.2454297362219222 559.01107452076394 0 0 0 0 15.845845918594591 -16.912578390711133 0 -16.912578390711133 551.7639413834986 0 0 0 0 26.525871943277252 -20.236727764975512 0 -20.236727764975512 509.23869727466081 0 0 0 0 30.767965547831636 -34.782592548654065 0 -34.782592548654065 553.7345839980444 0 0 0 0 32.677907618700374 -53.404005237000092 0 -53.404005237000092 491.66148409938614 0 0 0 0 53.128812047007159 -26.154144378277124 0 -26.154144378277124 490.52164201845858 0 0 0 0 49.487240475719432 -23.256268607521633 0 -23.256268607521633 490.99465705236071 0 0 0 0 49.141329205415786 -19.218701155186864 0 -19.218701155186864 508.91578601214314 0 0 0 0 56.69568086834397 -15.465262614539824 0 -15.465262614539824 481.75035881891563 0 0 0 0 56.15585340676239 -16.215306329308078 0 -16.215306329308078 483.47359094090643 0 0 0 0 56.816562815685984 -46.161902865758748 0 -46.161902865758748 503.49647734066821 0 0 0 0 78.514776095596972 -39.022633800195763 0 -39.022633800195763 497.18297473336133 0 0 0 0 89.776592729499043 -77.91197999848373 0 -77.91197999848373 530.99037505604792 0 0 0 0 55.144022757266953 -98.911789935369598 0 -98.911789935369598 583.01048240475939 0 0 0 0 91.261054467664053 -94.139913937193342 0 -94.139913937193342 522.90154867470847 0 0 0 0 70.83896017357074 -25.211055767249491 0 -25.211055767249491 485.21698061155621 0 0 0 0 105.0631593677814 -39.590313458376841 0 -39.590313458376841 476.57479388461797 0 0 0 0 3.1946986604636152 -87.224842496611927 0 -87.224842496611927 627.65185573761119 0 0 0 0 29.711797030405705 -82.669657608217676 0 -82.669657608217676 573.15294976676523 0 0 0 0 4.8200103420139584 -73.155655687445687 0 -73.155655687445687 596.8715196531557 0 0 0 0 56.886012911554189 -101.35067688202253 0 -101.35067688202253 578.40056893954898 0 0 0 0 24.309222688904356 -67.488086796918651 0 -67.488086796918651 560.9638947114654 0 0 0 0 35.348117253431383 -39.21847620033077 0 -39.21847620033077 509.45227242376131 0 0 0 0 65.399000319282663 -70.240458323398343 0 -70.240458323398343 537.71524295459676 0 0 0 0 10.35420039765836 -65.262663218687521 0 -65.262663218687521 565.35130260141523 0 0 0 0 -8.6653923070680321 -32.537160925763601 0 -32.537160925763601 529.6935219448751 0 0 0 0 13.906499120289709 -62.850544297107263 0 -62.850544297107263 544.6326003990107 0 0 0 0 -11.088464864687523 -78.494540118546865 0 -78.494540118546865 599.8955994798016 0 0 0 0 -3.9035268567764376 -63.536715213716889 0 -63.536715213716889 492.99987821518152 0 0 0 0 43.822219337933547 -44.941195989131302 0 -44.941195989131302 507.12341439937882 0 0 0 0 16.249923788424667 -16.938817945316259 0 -16.938817945316259 478.92632288763707 0 0 0 0 24.943588013750059 -98.221718242493807 0 -98.221718242493807 447.01434700541722 0 0 0 0 32.109265974674599 -65.619300288635714 0 -65.619300288635714 557.21141178625112 0 0 0 0 55.451234726129087 -62.401065357011248 0 -62.401065357011248 260.36387142758758 0 0 0 0 -10.912194919202534 16.567843773722416 0 16.567843773722416 401.84645442172769 0 0 0 0 0.25019084151183479 -0.54262990010639101 0 -0.54262990010639101 0.97679589476765472 0 0 0 0 -2.1290603672908333 -35.189270076520188 0 -35.189270076520188 825.67784005658177 0 0 0 0 81.42695743910852 -58.505548138709855 0 -58.505548138709855 505.93868162037688 0 0 0 0 71.456529177817856 -25.129157532301178 0 -25.129157532301178 502.28015591049916 0 0 0 0 0.19169584156892139 0.27118539658312102 0 0.27118539658312102 1.0441224949490575 0 0 0 0 -0.28839099189281114 -49.317180736536102 0 -49.317180736536102 588.04473657013205 0 0 0 0 55.556848448462006 -82.891963686401141 0 -82.891963686401141 631.64819981909386 0 0 0 0 9.9270282228742417 -31.540358262696827 0 -31.540358262696827 553.24635242378099 0 0 0 0 10.086114535244405 -35.730692946293857 0 -35.730692946293857 583.00452847419001 0 0 0 0 0.78399910211595802 0.35943568059926179 0 0.35943568059926179 1.2633076811458572 0 0 0 0 5.9310478514624947 -21.848035331866413 0 -21.848035331866413 582.0479713644454 0 0 0 0 -37.26800006362464 -13.777163367558387 0 -13.777163367558387 615.44566237440176 0 0 0 0 33.520698497650102 36.644416228064983 0 36.644416228064983 650.28526339193922 0 0 0 0 14.930337700682003 -40.142437074609916 0 -40.142437074609916 575.83934508216043 0 0 0 0 -27.554949802340616 -106.49390861741995 0 -106.49390861741995 562.78073936069268 0 0 0 0 -69.163244473147643 -198.32903828288545 0 -198.32903828288545 411.90730632892519 0 0 0 0 -127.51541027538542 -126.88414698665292 0 -126.88414698665292 739.77510189339591 0 0 0 0 -217.83781891114057 -371.81756670710911 0 -371.81756670710911 326.6223382884782 0 0 0 0 35.722584677921532 -144.76999711157259 0 -144.76999711157259 186.22620564467252 0 0 0 0 -11.597641970251971 -57.361933775158832 0 -57.361933775158832 75.493823384109419 0 0 0 0 56.29701063200099 -85.001017295287056 0 -85.001017295287056 362.9596341005381 0 0 0 0 57.292251185109706 -85.337902894496438 0 -85.337902894496438 307.01864055207989 0 0 0 0 112.61037396757725 -25.015126054131542 0 -25.015126054131542 355.34528533362027 0 0 0 0 111.00811006769663 -41.562770561642537 0 -41.562770561642537 237.23437055547765 0 0 0 0 86.436378003906725 -21.053684874992541 0 -21.053684874992541 445.79558243887732 0 0 0 0 90.896187029383782 -19.930793680796342 0 -19.930793680796342 368.07550952791644 0 0 0 0 53.114017221331096 -69.102979318806319 0 -69.102979318806319 385.12225960676733 0 0 0 0 53.443969694202679 -58.677476858334558 0 -58.677476858334558 478.19005073014705 0 0 0 0 30.623078218382659 19.152161744430487 0 19.152161744430487 476.54955879421686 0 0 0 0 49.446381539140134 -12.299822363856947 0 -12.299822363856947 500.44040912065975 0 0 0 0 79.728780917664153 -10.232389479773701 0 -10.232389479773701 452.75510992459022 0 0 0 0 44.799726514673011 -15.363354895845987 0 -15.363354895845987 539.10341720160795 0 0 0 0 73.906615681077483 23.164221386818099 0 23.164221386818099 375.5948362300951 0 0 0 0 70.398185084787457 -4.3742027205662453 0 -4.3742027205662453 449.79808125973796 0 0 0 0 25.564520579692555 21.000407687322877 0 21.000407687322877 461.61161548125892 0 0 0 0 18.783648576843582 4.4631583138107089 0 4.4631583138107089 486.37510880721675 0 0 0 0 34.916456026801711 -4.6126645405893214 0 -4.6126645405893214 499.15585611706774 0 0 0 0 10.905512002222906 8.4121039540077618 0 8.4121039540077618 567.0036254535953 0 0 0 0 15.741593406632319 23.842179825987841 0 23.842179825987841 511.56135496026036 0 0 0 0 8.0370524154200496 11.772238510797251 0 11.772238510797251 535.82112004233204 0 0 0 0 1.3210105001821404 28.406153125466517 0 28.406153125466517 596.06828573571693 0 0 0 0 14.854561673316596 30.051971437882457 0 30.051971437882457 559.05087235477731 0 0 0 0 8.3064982374172871 12.509168205850074 0 12.509168205850074 646.86301485868171 0 0 0 0 41.295306307059207 -58.591420878885401 0 -58.591420878885401 587.82706819153827 0 0 0 0 27.876425720395332 18.690081237386039 0 18.690081237386039 611.71831693065724 0 0 0 0 -41.689051207902025 -26.339293363249453 0 -26.339293363249453 508.83304384033545 0 0 0 0 6.1201329600573899 -34.261538960297912 0 -34.261538960297912 448.55094611166714 0 0 0 0 0.18664829256028748 -1.781357720791334 0 -1.781357720791334 1.4355512521124965 0 0 0 0 -14.010922748820086 -65.336195498136476 0 -65.336195498136476 584.32013702926633 0 0 0 0 -2.6331231159450113 -0.99703532203420764 0 -0.99703532203420764 505.71020126916846 0 0 0 0 -8.2341085919289299 -32.462941064986808 0 -32.462941064986808 502.27591398460936 0 0 0 0 -10.610859136981901 -70.607206978713293 0 -70.607206978713293 599.88401997712208 0 0 0 0 7.2575228879404676 -71.283871307008667 0 -71.283871307008667 560.1008332643687 0 0 0 0 -23.222331757778917 -74.323280727785459 0 -74.323280727785459 560.01952205084672 0 0 0 0 -1.1359896200208368 -69.414675911801169 0 -69.414675911801169 577.55130771987751 0 0 0 0 -1.6657493766237792 -99.305352563285851 0 -99.305352563285851 615.758314454215 0 0 0 0 10.695123649042444 -88.23340400277084 0 -88.23340400277084 625.0090077431887 0 0 0 0 -2.267631291730595 -106.99398346745875 0 -106.99398346745875 659.31889657844295 0 0 0 0 11.240899880104507 -76.490185818896862 0 -76.490185818896862 599.9946248683591 0 0 0 0 17.945116186002792 -106.94368107199261 0 -106.94368107199261 619.21091710815381 0 0 0 0 -2.0851907738462598 -0.79302955114906126 0 -0.79302955114906126 0.98522208501422881 0 0 0 0 19.926699681143305 -114.41302764547436 0 -114.41302764547436 643.01935688126832 0 0 0 0 8.8776910542271708 -115.43828532045154 0 -115.43828532045154 648.51171968260314 0 0 0 0 17.217909126961217 -115.77772741331137 0 -115.77772741331137 636.9317417692946 0 0 0 0 -1.9115556747010487 -89.83639673118887 0 -89.83639673118887 625.48770586343016 0 0 0 0 3.3835703993627249 -93.642177157773403 0 -93.642177157773403 619.5875609821087 0 0 0 0 8.0060825260477486 -111.02889975464132 0 -111.02889975464132 651.438971863201 0 0 0 0 -2.9154069357393837 -82.857861790093011 0 -82.857861790093011 637.82391933341205 0 0 0 0 -7.8070211340873925 -12.688796828115301 0 -12.688796828115301 624.79004564776187 0 0 0 0 6.8619433903382401 -84.449687405976874 0 -84.449687405976874 607.29314462133334 0 0 0 0 -0.37326106997328456 -2.0399077881864969 0 -2.0399077881864969 1.5933540845136527 0 0 0 0 0.53378186385975823 -24.442254072193464 0 -24.442254072193464 640.93132506973052 0 0 0 0 -0.63932931557497108 -1.5165404081101599 0 -1.5165404081101599 1.6892048436348404 0 0 0 0 -30.260435889265366 -0.51821242439473281 0 -0.51821242439473281 851.29009298457095 0 0 0 0 -37.30248034975034 -40.435509662420372 0 -40.435509662420372 784.43794716948469 0 0 0 0 4.184974495824008 -1.7696219920435396 0 -1.7696219920435396 693.24218098464917 0 0 0 0 -8.0357439606751768 -98.274535729011404 0 -98.274535729011404 726.81824433985457 0 0 0 0 0.088992139743055532 -137.93082506046994 0 -137.93082506046994 648.65576822072035 0 0 0 0 -21.754313764940861 -147.69180941510785 0 -147.69180941510785 837.83351616367872 0 0 0 0 19.959454874324113 -112.80860488379136 0 -112.80860488379136 617.00552843465994 0 0 0 0 -1.2772789881131068 -1.0149745229313396 0 -1.0149745229313396 0.97022425826079228 0 0 0 0 -0.13810903659194326 0.97863517591741811 0 0.97863517591741811 5.2495417835443732 0 0 0 0 308.47072374318509 -696.34076927728893 0 -696.34076927728893 798.96485880995169 0 0 0 0 0.010164188549084033 3.6696880014860653 0 3.6696880014860653 4.9275733455251611 0 0 0 0 -0.58622957942545484 -0.2886637658271809 0 -0.2886637658271809 0.99044767797830957 0 0 0 0 377.66328445580069 -653.53083646862069 0 -653.53083646862069 659.76097553106956 0 0 0 0 56.308673719108754 -146.49311524755467 0 -146.49311524755467 449.92811505105419 0 0 0 0 43.514246870669076 -327.8110744054502 0 -327.8110744054502 860.11268073794781 0 0 0 0 49.349146887231221 -436.12872393493308 0 -436.12872393493308 1625.7352036914526 0 0 0 0 43.635205226618076 30.875556164792215 0 30.875556164792215 1007.9121336482131 0 0 0 0 1.6769232949894555 65.941061271536455 0 65.941061271536455 1132.6026008806293 0 0 0 0 -36.196794420536435 40.428780187416123 0 40.428780187416123 1105.9635781799479 0 0 0 0 -2.2756356889157274 32.199920627565007 0 32.199920627565007 547.00502509062426 0 0 0 0 -0.29711645986276214 -0.47290060271845391 0 -0.47290060271845391 1.6413552422380526 0 0 0 0 1.5792158669156322 27.028594835406693 0 27.028594835406693 524.54577477685962 0 0 0 0 0.015214167682450812 38.249154331875168 0 38.249154331875168 531.86703547032084 0 0 0 0 -0.017705463363610049 38.964314160257345 0 38.964314160257345 510.73735827087512 0 0 0 0 -0.57183600047664207 38.153359993941194 0 38.153359993941194 527.80331287527224 0 0 0 0 -1.9820505715161403 34.389546174050338 0 34.389546174050338 564.92926146515128 0 0 0 0 7.5222140607860695 35.258126447097311 0 35.258126447097311 528.7195843126101 0 0 0 0 9.6741431453476991 40.758395654851483 0 40.758395654851483 540.7934399307851 0 0 0 0 -0.35199613474756575 21.748493124461675 0 21.748493124461675 519.61318939688863 0 0 0 0 10.837310859542526 23.732439338913537 0 23.732439338913537 487.84902807963954 0 0 0 0 7.2141954532972079 30.61259018239798 0 30.61259018239798 506.76502838284796 0 0 0 0 19.940530927062468 21.42025750666653 0 21.42025750666653 445.47717900563043 0 0 0 0 8.2607694323805561 23.530179132434569 0 23.530179132434569 487.90523998429126 0 0 0 0 13.140247823353462 26.846644157165429 0 26.846644157165429 446.97368943415273 0 0 0 0 -1.2415626714001384 26.871702536871453 0 26.871702536871453 486.95510852740699 0 0 0 0 9.4255708630134514 24.033399486757844 0 24.033399486757844 487.56185585435014 0 0 0 0 0.012205769641810367 42.074782970325032 0 42.074782970325032 450.67462044046897 0 0 0 0 207.51540389101649 123.62574456014408 0 123.62574456014408 328.14014273261273 0 0 0 0 176.50656465287949 2.4479990947156693 0 2.4479990947156693 -56.774828032328514 0 0 0 0 218.89037765296416 -32.834993537031551 0 -32.834993537031551 248.25823512332136 0 0 0 0 -49.580987140619982 -3.2552018227434019 0 -3.2552018227434019 397.07826786313308 0 0 0 0 25.458347539164151 143.14460023492938 0 143.14460023492938 305.73005893435038 0 0 0 0 -70.999450993004757 98.094360069797403 0 98.094360069797403 317.32322950659727 0 0 0 0 -26.101740654921741 -12.549100991571322 0 -12.549100991571322 292.55493684173416 0 0 0 0 -61.847361083832766 41.491406201836071 0 41.491406201836071 88.714009153791267 0 0 0 0 -119.65562979400056 104.32362979088612 0 104.32362979088612 251.87061032484053 0 0 0 0 -101.15526701542694 79.781126549976761 0 79.781126549976761 71.265493029262871 0 0 0 0 -143.35685507392509 281.65984273550202 0 281.65984273550202 -89.412604522978654 0 0 0 0 -231.00588720943733 1.1082881243746669 0 1.1082881243746669 68.093866222407087 0 0 0 0 -237.67859964578884 228.22275510630789 0 228.22275510630789 122.13567559465582 0 0 0 0 34.204686663074426 124.91071713990459 0 124.91071713990459 108.34307467380131 0 0 0 0 12.749213048156889 -12.233422308299851 0 -12.233422308299851 168.33740917235991 0 0 0 0 37.050995003718981 -87.664045508010531 0 -87.664045508010531 -113.94651591078218 0 0 0 0 14.167347538108672 12.400653390748566 0 12.400653390748566 9.7172031849585849 0 0 0 0 2.7740789135597197 462.80507711705286 0 462.80507711705286 -301.64928502818657 0 0 0 0 85.948427117114761 -267.35753552119604 0 -267.35753552119604 240.8795652891622 0 0 0 0 4.3900847482774221 1.3376059608468438 0 1.3376059608468438 -3.9193023360989159 0 0 0 0 -94.840943675458334 174.56427100392102 0 174.56427100392102 -471.81098843799555 0 0 0 0 108.06246385088093 -71.04846291573449 0 -71.04846291573449 84.724571963372 0 0 0 0 -621.10142875844724 1357.4958763062677 0 1357.4958763062677 901.60438952117693 0 0 0 0 -554.6727111791979 -22.28690262163218 0 -22.28690262163218 289.14199980520789 0 0 0 0 0.40001525389120496 18.258591964073986 0 18.258591964073986 179.84025172572206 0 0 0 0 396.43643962075566 -25.288450541676866 0 -25.288450541676866 177.4749816893609 0 0 0 0 623.51641632391329 -75.108550760378421 0 -75.108550760378421 -27.195220748806605 0 0 0 0 -112.58134206304794 -294.83993660767919 0 -294.83993660767919 157.85559312178884 0 0 0 0 7.3783312445088969 1.8918137052757587 0 1.8918137052757587 0.78361534956962231 0 0 0 0 502.19965863064181 185.71127058849925 0 185.71127058849925 -335.00690532102453 0 0 0 0 191.31038822303924 248.60003551131558 0 248.60003551131558 1021.9689091778127 0 0 0 0 411.40496497192339 160.48378726040937 0 160.48378726040937 -116.26466438026546 0 0 0 0 -0.39171199147300406 18.096115142857407 0 18.096115142857407 179.81378911265244 0 0 0 0 -379.79874426369179 613.49402705383181 0 613.49402705383181 696.31655382151439 0 0 0 0 -1310.8392442343452 -16.350560702896473 0 -16.350560702896473 615.96794661162858 0 0 0 0 -854.21363109538902 -249.52923389551142 0 -249.52923389551142 351.7375614347111 0 0 0 0 472.23839257727627 -446.1135974402896 0 -446.1135974402896 -464.63379084758344 0 0 0 0 1304.1820937123284 359.81768104806542 0 359.81768104806542 -266.90659688404412 0 0 0 0 7.1048230231892262 -0.80432478104279426 0 -0.80432478104279426 -4.0419237048704062 0 0 0 0 3.3279684392374613 -4.6264024963065111 0 -4.6264024963065111 0.96387954142697296 0 0 0 0 150.35138490598638 223.25340804864391 0 223.25340804864391 529.41879282190348 0 0 0 0 374.66768782448116 509.1066334508796 0 509.1066334508796 389.35561313929793 0 0 0 0 11.887519393982075 -17.942993740158272 0 -17.942993740158272 47.329466601513559 0 0 0 0 615.27047987350647 459.48539165380498 0 459.48539165380498 50.167234582640958 0 0 0 0 411.43984415569867 -184.29304641451017 0 -184.29304641451017 213.57817502254693 0 0 0 0 4.5304617543973613 -9.1328041760894223 0 -9.1328041760894223 1.6426402143741115 0 0 0 0 -81.483684045446353 -69.790084233936795 0 -69.790084233936795 187.40938252757041 0 0 0 0 -10.180294728686542 5.9787044760769135 0 5.9787044760769135 33.235986993814208 0 0 0 0 0.35697567162248944 0.62304608838005393 0 0.62304608838005393 2.9264238165184082 0 0 0 0 -182.19487774650042 93.167944245084072 0 93.167944245084072 96.727854330965783 0 0 0 0 -327.90598906383093 351.88086544929683 0 351.88086544929683 24.244325278821634 0 0 0 0 -577.5026194265738 339.63986482680775 0 339.63986482680775 433.50525456270407 0 0 0 0 -358.64206466817541 -184.84733141880133 0 -184.84733141880133 671.13028149152524 0 0 0 0 -694.62411522901311 101.70451054799196 0 101.70451054799196 732.03044825791221 0 0 0 0 -8.3401212972230496 31.627852401470591 0 31.627852401470591 312.21447970597364 0 0 0 0 332.92026715066822 -481.36955801272416 0 -481.36955801272416 3.5567160581449571 0 0 0 0 88.975426707791939 -396.24032499263558 0 -396.24032499263558 1075.7505549943817 0 0 0 0 70.706334311374121 -159.04584699513362 0 -159.04584699513362 642.48675424064277 0 0 0 0 268.66405350093987 -249.33996081997066 0 -249.33996081997066 600.22110222988704 0 0 0 0 216.42961141585693 -171.44151271086594 0 -171.44151271086594 601.15728287289676 0 0 0 0 27.190029879653594 -165.06594330667576 0 -165.06594330667576 654.48516801218648 0 0 0 0 164.75054707320442 -241.17774962274052 0 -241.17774962274052 668.49490377423353 0 0 0 0 92.709351266086742 -12.37133912355057 0 -12.37133912355057 368.81133921611763 0 0 0 0 61.529792173927717 46.545686799694522 0 46.545686799694522 706.613216229096 0 0 0 0 -81.384039819122336 26.851712089955981 0 26.851712089955981 342.30494297777477 0 0 0 0 -82.441244926127482 -37.906798328556874 0 -37.906798328556874 462.68501073360676 0 0 0 0 -87.181973291388204 -38.651916563736449 0 -38.651916563736449 452.13408187725872 0 0 0 0 -83.618639172960798 24.633483271009482 0 24.633483271009482 338.26500893761113 0 0 0 0 -92.211359436187195 -9.1369570164606557 0 -9.1369570164606557 285.71932746385573 0 0 0 0 -15.948650168515087 -0.93575816958764335 0 -0.93575816958764335 314.26224057786158 0 0 0 0 -29.626697030098512 12.607907639256155 0 12.607907639256155 535.77039587695617 0 0 0 0 -19.323654657084262 -120.56234074119857 0 -120.56234074119857 578.80428763869713 0 0 0 0 -24.542943551838107 -50.137889488083601 0 -50.137889488083601 445.18988442210684 0 0 0 0 38.020988761152921 -106.82351047045086 0 -106.82351047045086 568.94814573002805 0 0 0 0 8.5920106498542737 -199.88914058644878 0 -199.88914058644878 618.33498609038725 0 0 0 0 8.5202233155014255 -138.53985116945842 0 -138.53985116945842 501.52674814750935 0 0 0 0 -43.260831005327418 -113.27865464305796 0 -113.27865464305796 535.0652734987525 0 0 0 0 -16.079434427921569 -58.813196318089467 0 -58.813196318089467 420.68808491260279 0 0 0 0 -66.202417861143658 -26.37103271036176 0 -26.37103271036176 440.50264585901459 0 0 0 0 30.054696679984772 -94.621505562296079 0 -94.621505562296079 427.17011293930409 0 0 0 0 -51.27748361009435 304.93539111583959 0 304.93539111583959 -228.92810308870685 0 0 0 0 42.891543973424632 -254.91352828424715 0 -254.91352828424715 626.87853561881275 0 0 0 0 18.012591386352142 -98.218203002383234 0 -98.218203002383234 438.66479981370503 0 0 0 0 12.60893748642785 8.1567261474207413 0 8.1567261474207413 5.3456441836161872 0 0 0 0 123.97803403753642 -267.78913519663183 0 -267.78913519663183 504.70300662255977 0 0 0 0 30.222488565506751 -196.92974613118486 0 -196.92974613118486 553.08380094918539 0 0 0 0 164.05583111407032 -194.40370540381991 0 -194.40370540381991 438.97254101640402 0 0 0 0 109.8540806666042 -107.907108143605 0 -107.907108143605 376.31655618009972 0 0 0 0 -159.23886232782024 -61.018867945167585 0 -61.018867945167585 206.69994271646283 0 0 0 0 18.986457979986881 -92.067948482559586 0 -92.067948482559586 67.962353439597791 0 0 0 0 231.45683931013264 -111.00021671177092 0 -111.00021671177092 -326.43982883944409 0 0 0 0 10.376972466247025 -83.651124003165023 0 -83.651124003165023 359.96497634885691 0 0 0 0 12.75752809193034 11.387703134798933 0 11.387703134798933 10.07716375073484 0 0 0 0 -92.178777114202148 79.298986498852173 0 79.298986498852173 150.41439004428321 0 0 0 0 37.592225036141826 -69.036473291795119 0 -69.036473291795119 357.68745057428168 0 0 0 0 -25.934686852997402 -52.811447640029655 0 -52.811447640029655 397.75286144181155 0 0 0 0 -16.266412027653132 -34.503950336249545 0 -34.503950336249545 371.61519999010488 0 0 0 0 -26.687969178272397 -64.47059718289529 0 -64.47059718289529 443.16185598045558 0 0 0 0 -37.884203767767758 -0.25972936884500086 0 -0.25972936884500086 359.78319123383699 0 0 0 0 -18.514952017016185 -29.733074998839584 0 -29.733074998839584 335.30450376437511 0 0 0 0 -20.092295541406202 -29.238445662907907 0 -29.238445662907907 335.8770146658353 0 0 0 0 24.7082403274635 -83.82072262856309 0 -83.82072262856309 317.90503067641293 0 0 0 0 19.58609081225768 -58.51789066919082 0 -58.51789066919082 261.70301885229492 0 0 0 0 17.703665054350495 -38.326368180143618 0 -38.326368180143618 224.65578937804821 0 0 0 0 -14.822006076505204 -13.904443409031956 0 -13.904443409031956 297.97833535881364 0 0 0 0 -11.553588003704135 -11.565657748891681 0 -11.565657748891681 274.24889518239797 0 0 0 0 -4.9401489373976801 0.60657454374450026 0 0.60657454374450026 252.89374669027166 0 0 0 0 -10.95776438349094 13.98554451356722 0 13.98554451356722 254.73878623750352 0 0 0 0 -17.397203897982763 9.8905665655183839 0 9.8905665655183839 281.82926022834909 0 0 0 0 -19.60376087457098 11.658734099941285 0 11.658734099941285 282.57488690341415 0 0 0 0 -8.5711344516967074 -18.678502387188928 0 -18.678502387188928 301.5080586696713 0 0 0 0 -29.132210775667772 4.8256731878136634 0 4.8256731878136634 318.5806071946281 0 0 0 0 -34.929238327253188 17.791328246094054 0 17.791328246094054 299.99106637794466 0 0 0 0 -2.2031627748219762 37.463496906031651 0 37.463496906031651 259.01794702433835 0 0 0 0 -25.266523318319287 28.47281946715475 0 28.47281946715475 307.93764602663578 0 0 0 0 -25.923218856336462 38.758502020196602 0 38.758502020196602 264.04499253341055 0 0 0 0 -45.40748923636238 56.177145260990073 0 56.177145260990073 282.57861697302724 0 0 0 0 5.8248872674435006 44.242065557275964 0 44.242065557275964 199.71865048407199 0 0 0 0 -15.354143075477623 85.131278231885517 0 85.131278231885517 197.66220809923107 0 0 0 0 -9.9797933581112375 51.778944825528015 0 51.778944825528015 235.97810886890511 0 0 0 0 -16.971660911829531 79.917650354480429 0 79.917650354480429 240.15325393062813 0 0 0 0 -78.125983216616078 87.704580263904063 0 87.704580263904063 270.32281202859303 0 0 0 0 -136.58683594945069 106.00338004303921 0 106.00338004303921 281.10252416579169 0 0 0 0 -106.80977167089804 54.979477062654041 0 54.979477062654041 265.82822215178749 0 0 0 0 -145.46189588782181 41.917692024042481 0 41.917692024042481 350.63679264046004 0 0 0 0 -68.973828080523162 36.524552126626077 0 36.524552126626077 328.66225844594737 0 0 0 0 -75.483035985502738 41.812826980339196 0 41.812826980339196 340.60620649138582 0 0 0 0 -62.559753459470812 -33.948061495102593 0 -33.948061495102593 416.35904953641875 0 0 0 0 -55.444141132193181 -8.7013624318715301 0 -8.7013624318715301 400.65899867726694 0 0 0 0 -56.5629202073942 33.643039021924778 0 33.643039021924778 320.43800891214778 0 0 0 0 -41.137280847295187 36.927062279729398 0 36.927062279729398 318.83767026680289 0 0 0 0 -33.040722270159677 -37.92144790812381 0 -37.92144790812381 258.81168759386583 0 0 0 0 6.3023997421805689 30.24511635762974 0 30.24511635762974 268.50627495502704 0 0 0 0 65.807999141481559 -0.84063442047772696 0 -0.84063442047772696 266.137940317225 0 0 0 0 130.25337820944151 -49.113571927726298 0 -49.113571927726298 214.371484307012 0 0 0 0 81.414167626659037 5.9852674653229769 0 5.9852674653229769 254.73266453305405 0 0 0 0 72.987294726718574 -62.963837981065808 0 -62.963837981065808 193.34094188747986 0 0 0 0 95.811420798469044 -40.945913141094934 0 -40.945913141094934 212.47747303951655 0 0 0 0 64.033745557789189 10.399908379433327 0 10.399908379433327 240.61449284071568 0 0 0 0 3.4929162319058378 -91.687004362625885 0 -91.687004362625885 240.58027832697553 0 0 0 0 -10.477507749559209 -15.944022349121497 0 -15.944022349121497 257.14344531880488 0 0 0 0 -28.198669959099789 -1.7049463976727566 0 -1.7049463976727566 247.76190546750877 0 0 0 0 30.172898311595418 -11.234846623541671 0 -11.234846623541671 257.50098472961145 0 0 0 0 104.57472222144042 5.5794685123328236 0 5.5794685123328236 170.23248255779617 0 0 0 0 26.689380548748886 6.6320850516021892 0 6.6320850516021892 248.01963694223559 0 0 0 0 26.385074495392246 10.297108619164419 0 10.297108619164419 244.21062745879317 0 0 0 0 0.63100824621246332 -1.4393454451592049 0 -1.4393454451592049 0.53324708502340457 0 0 0 0 42.66880907664563 60.05894992152389 0 60.05894992152389 149.77658031744932 0 0 0 0 -2.0752079635876726 7.9616712012248172 0 7.9616712012248172 113.3229312873591 0 0 0 0 48.452074111782167 55.126857167835624 0 55.126857167835624 148.98396168104955 0 0 0 0 53.737527590649734 46.347418951889267 0 46.347418951889267 139.86314356392722 0 0 0 0 47.102167228501457 54.163456103269709 0 54.163456103269709 148.30079095351539 0 0 0 0 -20.00712792499553 39.79088620204584 0 39.79088620204584 262.70715512746756 0 0 0 0 34.898936844983631 11.600745068666981 0 11.600745068666981 -5.8663082091573564 0 0 0 0 103.38887385120688 104.49793756334384 0 104.49793756334384 -74.226657884039014 0 0 0 0 118.51317760718894 294.98365985613964 0 294.98365985613964 178.80619413327622 0 0 0 0 187.82136465683197 -229.51039325694728 0 -229.51039325694728 8.9327161117544165 0 0 0 0 -152.01773746286199 217.7933896561517 0 217.7933896561517 -200.39039910728025 0 0 0 0 -2.8502705467835767 92.384155685125734 0 92.384155685125734 -95.546357015035028 0 0 0 0 1.6989586476967329 5.8952853422600171 0 5.8952853422600171 4.1993261280670069 0 0 0 0 7.0638083136361338 -3.4037961017913005 0 -3.4037961017913005 -8.2007379914691896 0 0 0 0 10.024172063716833 30.864675765536958 0 30.864675765536958 174.26800699159503 0 0 0 0 -151.65640379915203 -0.95097332219302189 0 -0.95097332219302189 1.3324973505368689 0 0 0 0 -296.48474537988295 114.43469727705087 0 114.43469727705087 154.3844094453234 0 0 0 0 -210.9867164965126 91.573437255457975 0 91.573437255457975 265.73657319629274 0 0 0 0 -106.11281661442263 79.496522177687439 0 79.496522177687439 233.92510021716589 0 0 0 0 -130.92442125188973 135.42791594121081 0 135.42791594121081 156.76677113720507 0 0 0 0 -77.167676944679442 140.57080093784862 0 140.57080093784862 180.92282368638553 0 0 0 0 -27.278237626211194 99.970969458972831 0 99.970969458972831 148.90855413753889 0 0 0 0 -122.29031297018082 209.30430880266795 0 209.30430880266795 23.624973142897943 0 0 0 0 31.410099965378322 117.70998152377433 0 117.70998152377433 92.654224002333649 0 0 0 0 38.537143798901525 43.967751563046477 0 43.967751563046477 134.57095534497057 0 0 0 0 29.863429370763761 14.116478185208891 0 14.116478185208891 -3.1303423358412275 0 0 0 0 48.87386247341783 57.430685500774416 0 57.430685500774416 124.78065162440907 0 0 0 0 34.281439036238226 59.968814221450884 0 59.968814221450884 176.47703094528697 0 0 0 0 32.75102276083544 21.380956994067674 0 21.380956994067674 104.91862435101302 0 0 0 0 42.5882111081728 21.32870515104878 0 21.32870515104878 187.37170449660334 0 0 0 0 -6.5502960377580166 27.979473734194471 0 27.979473734194471 218.15011194819817 0 0 0 0 -12.303198121732294 55.534117915658499 0 55.534117915658499 157.89361185169946 0 0 0 0 19.391544160122976 22.719947154429974 0 22.719947154429974 141.86801481184921 0 0 0 0 22.243076954042401 19.390501536332074 0 19.390501536332074 12.274153320709701 0 0 0 0 22.156753289799781 11.925229261327331 0 11.925229261327331 170.56223866243818 0 0 0 0 28.108173174256081 -1.1431107647331373 0 -1.1431107647331373 167.81053924397929 0 0 0 0 31.673291716954964 -0.98216494166990742 0 -0.98216494166990742 153.68152754644689 0 0 0 0 30.687333358921933 2.6421169453533366 0 2.6421169453533366 155.35139170195907 0 0 0 0 1.8994372754859796 13.784686611594225 0 13.784686611594225 225.61094907862844 0 0 0 0 15.008305850472425 -3.2774983741483084 0 -3.2774983741483084 203.53419411937284 0 0 0 0 6.2934615873850817 1.3386439565529145 0 1.3386439565529145 227.90592140303852 0 0 0 0 -14.847868381775015 29.36861586091436 0 29.36861586091436 211.11036345204593 0 0 0 0 3.463300798795272 9.823232020468474 0 9.823232020468474 3.3893428574141939 0 0 0 0 -29.469281044768195 -26.579656904212243 0 -26.579656904212243 542.11527245587968 0 0 0 0 189.05137401239836 138.31664208794064 0 138.31664208794064 447.75833527517898 0 0 0 0 -35.206226673796664 16.743373553645142 0 16.743373553645142 242.3555058784832 0 0 0 0 -25.10312411277846 -10.610202799003218 0 -10.610202799003218 290.02516748332891 0 0 0 0 -63.690640345977954 174.44178210406062 0 174.44178210406062 222.07229937761804 0 0 0 0 11.095092112126293 11.050114316776089 0 11.050114316776089 3.2418679822512333 0 0 0 0 278.71278685743346 152.36803756030531 0 152.36803756030531 -508.0228847979688 0 0 0 0 -166.93111397582834 -259.43906516991046 0 -259.43906516991046 1036.5434050503245 0 0 0 0 -240.22148687282242 274.45748777080644 0 274.45748777080644 649.52166856780423 0 0 0 0 -108.26060596225216 -68.274637880205773 0 -68.274637880205773 641.29078237880094 0 0 0 0 -165.15090207496314 16.402044759715864 0 16.402044759715864 515.26367727682191 0 0 0 0 -38.397500178683117 -130.46237973805546 0 -130.46237973805546 485.43596232967502 0 0 0 0 -199.94338910617262 -130.72452416253145 0 -130.72452416253145 626.85851615534193 0 0 0 0 28.678733558992917 -307.72490020312671 0 -307.72490020312671 730.7867709555685 0 0 0 0 -80.185732499346955 -58.303160159055096 0 -58.303160159055096 340.63678672069182 0 0 0 0 -56.435879186111862 -54.268591904917287 0 -54.268591904917287 450.65703471810048 0 0 0 0 -69.08988578991557 25.054507864150764 0 25.054507864150764 409.00433507834896 0 0 0 0 8.4124910157900104 -2.8763738384277531 0 -2.8763738384277531 345.17485561322599 0 0 0 0 -34.488352030079369 -40.342570276672632 0 -40.342570276672632 342.74500180673203 0 0 0 0 13.252518849273713 -26.258074642727479 0 -26.258074642727479 346.16760915200575 0 0 0 0 -3.2239195202004822 7.3041702621165463 0 7.3041702621165463 1.9068809410006846 0 0 0 0 -32.037234442963239 -94.033009707308793 0 -94.033009707308793 483.85202297420801 0 0 0 0 -46.689585830882152 6.2438647981125541 0 6.2438647981125541 262.59161550536373 0 0 0 0 4.8549424596435529 -56.299666984595206 0 -56.299666984595206 229.31753533251322 0 0 0 0 54.283935740979359 139.21373544007838 0 139.21373544007838 54.747516359113433 0 0 0 0 47.490819072743307 -4.1995947341965802 0 -4.1995947341965802 281.78060601646212 0 0 0 0 3.3985243046465712 -89.85204564878677 0 -89.85204564878677 353.14820088640772 0 0 0 0 40.970579367887467 -60.420249262175275 0 -60.420249262175275 250.32620184976258 0 0 0 0 -139.29283468055155 -104.85941957170326 0 -104.85941957170326 238.86455681797088 0 0 0 0 0.80570127937689051 -3.2996357602005588 0 -3.2996357602005588 23.418500921545736 0 0 0 0 51.982072564899681 760.39747980271932 0 760.39747980271932 86.65972010477708 0 0 0 0 30.650944327726137 -274.95275375069917 0 -274.95275375069917 757.45019674768992 0 0 0 0 -318.20030764736066 233.96477743263495 0 233.96477743263495 -479.24189272777858 0 0 0 0 5.6012760979445755 3.6671554453645285 0 3.6671554453645285 2.4498004363556731 0 0 0 0 -5.5140523402224062 241.13627320414889 0 241.13627320414889 595.86436767746636 0 0 0 0 -214.05496453559181 -73.164911317977385 0 -73.164911317977385 386.42016164416782 0 0 0 0 468.39629279490146 214.11212061332117 0 214.11212061332117 0.83983244065166218 0 0 0 0 264.8799708723368 -99.056799187012075 0 -99.056799187012075 -142.46021860793189 0 0 0 0 127.21103112792866 -394.53963756272788 0 -394.53963756272788 -124.67896763511089 0 0 0 0 -12.851048985094621 -64.086216277893982 0 -64.086216277893982 489.84742593527335 0 0 0 0 -12.585148246137109 4.6451903528639491 0 4.6451903528639491 6.8125748824325267 0 0 0 0 69.798170950631174 -21.92351363277885 0 -21.92351363277885 -171.71542832491286 0 0 0 0 0.21372531048930909 -98.503617107653554 0 -98.503617107653554 448.98346423788462 0 0 0 0 16.687755265718472 -96.46172394011063 0 -96.46172394011063 408.79796136038203 0 0 0 0 14.651854879755888 -43.683634832124881 0 -43.683634832124881 335.49611963522693 0 0 0 0 46.275202351981562 -78.17782189305899 0 -78.17782189305899 327.25573321683623 0 0 0 0 43.250870826090072 -94.166241477504627 0 -94.166241477504627 421.99737611404998 0 0 0 0 -13.392151247794914 -64.32746908464469 0 -64.32746908464469 455.35003792377029 0 0 0 0 -2.2638056586415587 -149.25855428266004 0 -149.25855428266004 756.1739519090188 0 0 0 0 123.18817816145975 -132.04282748858896 0 -132.04282748858896 473.20079525963956 0 0 0 0 147.38407075609621 -116.84165611911158 0 -116.84165611911158 366.74285396683808 0 0 0 0 10.655626823245711 -15.6582359522763 0 -15.6582359522763 451.66188732916635 0 0 0 0 104.52607743701446 -5.3236737901970628 0 -5.3236737901970628 550.50120353543025 0 0 0 0 17.495778359722181 -60.502697536374399 0 -60.502697536374399 273.66522139760491 0 0 0 0 25.435906327948032 -96.46176589751849 0 -96.46176589751849 776.06116949427815 0 0 0 0 -3.6130018437501796 -55.768678011429927 0 -55.768678011429927 30.307865647887901 0 0 0 0 -0.62861286153253237 1.3898041016064653 0 1.3898041016064653 26.795980737224205 0 0 0 0 102.52845541805436 -18.354612929444556 0 -18.354612929444556 682.06239174108487 0 0 0 0 -0.32720995229901373 -0.26691127780441093 0 -0.26691127780441093 6.5366770196487263 0 0 0 0 -17.79071261898298 -23.280109977567918 0 -23.280109977567918 338.60260088223731 0 0 0 0 -7.9234424599237627 -67.606627515847322 0 -67.606627515847322 342.86852297181758 0 0 0 0 45.575487331356271 -6.0039843632621341 0 -6.0039843632621341 162.39007993372161 0 0 0 0 22.305195287546667 -98.737418312462978 0 -98.737418312462978 518.66795280913357 0 0 0 0 55.422473912937221 -29.788309911775286 0 -29.788309911775286 338.6569630428985 0 0 0 0 1.1882832392957425 -1.8075926380079181 0 -1.8075926380079181 441.64884031877227 0 0 0 0 -35.012307550896367 22.617396694462514 0 22.617396694462514 554.68551307500456 0 0 0 0 47.687823400325442 -75.159635673019693 0 -75.159635673019693 342.72544614639628 0 0 0 0 0.22234657275619946 4.9795946756334608 0 4.9795946756334608 -1.3275373745722732 0 0 0 0 -117.73916967913101 113.40751233050833 0 113.40751233050833 27.963912161993903 0 0 0 0 -28.128002052980946 -45.585003134236104 0 -45.585003134236104 408.51900011628823 0 0 0 0 -35.997708362501726 0.5795006894004473 0 0.5795006894004473 388.23213854064124 0 0 0 0 -15.856640838976896 25.164507143229187 0 25.164507143229187 31.241803867163249 0 0 0 0 -9.822831897481592 16.698268925138109 0 16.698268925138109 60.400371483214258 0 0 0 0 -22.803459490725974 28.956641114452395 0 28.956641114452395 34.746635052128227 0 0 0 0 -1.9899070839182968 -27.641396210994571 0 -27.641396210994571 401.50654955591017 0 0 0 0 5.088603723567009 7.3740649993305212 0 7.3740649993305212 -24.49646588149173 0 0 0 0 4.4325553052561872 56.626464302711966 0 56.626464302711966 23.146373466776492 0 0 0 0 1.695448822415055 -58.060827910067623 0 -58.060827910067623 37.180102301077255 0 0 0 0 -130.02357138349453 4.6931947263892653 0 4.6931947263892653 552.51233365895314 0 0 0 0 24.33794687862428 23.089239679531602 0 23.089239679531602 291.20734176491897 0 0 0 0 -14.570353077836216 7.2614190322674403 0 7.2614190322674403 415.71150101292733 0 0 0 0 19.687189651161134 22.437579855613876 0 22.437579855613876 413.27179358727153 0 0 0 0 -1.1611251315332618 55.416217010126438 0 55.416217010126438 15.395563847209655 0 0 0 0 7.4879115015305047 27.123351118811115 0 27.123351118811115 357.06747396080027 0 0 0 0 -10.915992065619667 18.430875252991569 0 18.430875252991569 49.083145209148476 0 0 0 0 -0.48085908180610204 10.703179658128647 0 10.703179658128647 332.88170189020457 0 0 0 0 413.0220857775239 -105.88621720086667 0 -105.88621720086667 327.84029851670493 0 0 0 0 -5.5663452537301694 45.221912564626663 0 45.221912564626663 35.556317542021318 0 0 0 0 -0.57567231409893793 -56.410294297260407 0 -56.410294297260407 279.27537433772522 0 0 0 0 -344.28504314102065 266.9502502766918 0 266.9502502766918 612.64191713199398 0 0 0 0 -14.213345336818747 26.399433062615572 0 26.399433062615572 133.56268595122674 0 0 0 0 -62.40120779807512 -64.716028642353194 0 -64.716028642353194 338.93701544353098 0 0 0 0 13.022033496300537 5.0290541473186749 0 5.0290541473186749 182.36272289512272 0 0 0 0 -62.666639010541118 54.549041168578228 0 54.549041168578228 137.77351893659736 0 0 0 0 12.665135933752026 274.48155381223478 0 274.48155381223478 105.96910114343336 0 0 0 0 -37.788979492819635 -11.684272316233546 0 -11.684272316233546 276.64930574553728 0 0 0 0 -31.014683516713511 63.259065329459276 0 63.259065329459276 105.43787220104537 0 0 0 0 110.91773764322556 -10.673849413167773 0 -10.673849413167773 50.362131880043307 0 0 0 0 27.137049277867391 -85.517679209954622 0 -85.517679209954622 27.215516022952215 0 0 0 0 -54.994528432839843 -207.34140717953051 0 -207.34140717953051 -16.12055850566685 0 0 0 0 1.7041313786201044 -9.3984133559242764 0 -9.3984133559242764 -42.938177569245454 0 0 0 0 29.860746000897052 -83.625388002328691 0 -83.625388002328691 124.78418662882177 0 0 0 0 17.266940261166383 -4.6987257809523726 0 -4.6987257809523726 121.73331622634487 0 0 0 0 183.52180492737943 -80.167717476928374 0 -80.167717476928374 110.48888593501033 0 0 0 0 12.111510725473639 22.39607773699931 0 22.39607773699931 51.011420482158883 0 0 0 0 111.23767300605823 44.451724553891836 0 44.451724553891836 166.51628711234662 0 0 0 0 -100.68689748058569 143.20756455637456 0 143.20756455637456 73.597669771043002 0 0 0 0 -119.67521007188225 143.63949203449738 0 143.63949203449738 37.727661367927794 0 0 0 0 0.17494667992863189 23.047147519811922 0 23.047147519811922 154.08508385973698 0 0 0 0 -3.6889401403207263 21.636896390048332 0 21.636896390048332 53.275308158067887 0 0 0 0 -13.720393516911486 26.821734244394975 0 26.821734244394975 47.562335788548808 0 0 0 0 -451.57760179383877 -111.73141419005151 0 -111.73141419005151 80.463051084425388 0 0 0 0 -79.610115583280276 28.515412665448821 0 28.515412665448821 194.72605360078887 0 0 0 0 -8.2784936000428964 21.980432960419307 0 21.980432960419307 78.174821400441147 0 0 0 0 9.8507341030277917 49.343784188688545 0 49.343784188688545 73.624878374031965 0 0 0 0 -138.02731118441307 76.292245529220963 0 76.292245529220963 112.57719205284957 0 0 0 0 -52.889078237760259 78.813537963575072 0 78.813537963575072 -33.546461902391457 0 0 0 0 17.397184532356277 19.354863306514744 0 19.354863306514744 157.73225195771374 0 0 0 0 -1.3759316136141564 0.23600678907683914 0 0.23600678907683914 0.58088200316890237 0 0 0 0 -30.217779958817573 61.966529734141659 0 61.966529734141659 349.56787775230441 0 0 0 0 -2.1472053089914569 61.701285172730721 0 61.701285172730721 18.068091054910685 0 0 0 0 49.867851293411377 10.371988487519047 0 10.371988487519047 246.06712752968451 0 0 0 0 -17.833307357378089 8.6851096723530645 0 8.6851096723530645 263.89947649313399 0 0 0 0 -3.3329658885824855 0.28869387922819101 0 0.28869387922819101 -1.2566067109051176 0 0 0 0 -51.446956597931603 134.24942570462736 0 134.24942570462736 478.51466452580644 0 0 0 0 35.228071427289251 40.839915092277806 0 40.839915092277806 199.19605252347537 0 0 0 0 67.984927467717398 75.644277500941826 0 75.644277500941826 284.62774377431197 0 0 0 0 -22.768211007797163 42.863745974325866 0 42.863745974325866 327.50729980955566 0 0 0 0 -6.201857777388037 62.157471305288055 0 62.157471305288055 12.622415166977344 0 0 0 0 16.600308872731375 24.867775075177633 0 24.867775075177633 247.88384616385156 0 0 0 0 -15.235701050950411 35.725045232728007 0 35.725045232728007 311.80881621132175 0 0 0 0 5.9120912873531779 235.68526976824796 0 235.68526976824796 524.92208772442245 0 0 0 0 -4.7996259335339948 0.41125586712902873 0 0.41125586712902873 24.116993766493223 0 0 0 0 -25.78284951389287 112.21503840977675 0 112.21503840977675 570.37644805993477 0 0 0 0 -14.739291099490401 11.017074941904866 0 11.017074941904866 289.10282753108186 0 0 0 0 0.24550016454155443 -1.1942272972889185 0 -1.1942272972889185 2.8295146414686485 0 0 0 0 28.985558420179586 50.392558914754773 0 50.392558914754773 497.10956654252368 0 0 0 0 38.410292841468618 200.05057920450417 0 200.05057920450417 363.84972066472983 0 0 0 0 -144.60663293022026 14.355668178453925 0 14.355668178453925 125.73438000660099 0 0 0 0 -64.193488162500216 7.2759281124090194 0 7.2759281124090194 116.76747871401312 0 0 0 0 -67.517231261047073 -90.75475789772463 0 -90.75475789772463 29.556993503345439 0 0 0 0 -143.7177076500308 -73.356587748411243 0 -73.356587748411243 86.688189472246449 0 0 0 0 0.11292897626708331 -2.4274550825973336 0 -2.4274550825973336 5.2417608093515469 0 0 0 0 102.20414473514438 199.21187212422956 0 199.21187212422956 173.58203864670941 0 0 0 0 4.4420210421822048 9.8828495382113033 0 9.8828495382113033 250.6138189302219 0 0 0 0 17.668172180851656 150.42584379692653 0 150.42584379692653 235.8384801162756 0 0 0 0 -26.27453179054919 100.63015561459179 0 100.63015561459179 14.866435453688609 0 0 0 0 -90.008921889856992 101.05359361224691 0 101.05359361224691 169.25875621565501 0 0 0 0 -86.781805766846446 82.521343091455492 0 82.521343091455492 209.28162115522719 0 0 0 0 -66.637867427474703 84.532967450890283 0 84.532967450890283 155.25454330872526 0 0 0 0 -59.936051548995238 3.6687035575305345 0 3.6687035575305345 193.04253926149977 0 0 0 0 -73.310111696721378 182.06884453057864 0 182.06884453057864 301.28783121828747 0 0 0 0 78.306043995777145 -75.540005139875575 0 -75.540005139875575 -109.46681012867339 0 0 0 0 -42.569117681589432 7.1299827234324766 0 7.1299827234324766 285.83956248118193 0 0 0 0 1.2492880245861215 -29.07920555808596 0 -29.07920555808596 177.49619217755389 0 0 0 0 -331.74741085015376 -239.39449627046997 0 -239.39449627046997 136.70944291964406 0 0 0 0 0.1699097085613932 0.80276184690211494 0 0.80276184690211494 1.6957972269645438 0 0 0 0 1.2148772220025421 -31.030296801807708 0 -31.030296801807708 135.78556483445573 0 0 0 0 -24.596619611723781 -68.803166359059105 0 -68.803166359059105 203.51948924391763 0 0 0 0 -13.090515743183573 -41.517656031257502 0 -41.517656031257502 109.39266909053549 0 0 0 0 -58.781445616468773 -115.16771527675155 0 -115.16771527675155 147.53975802712375 0 0 0 0 -101.30647307128629 -76.91543728299439 0 -76.91543728299439 202.66495954585844 0 0 0 0 0.21971885980497863 -1.1674908188047226 0 -1.1674908188047226 2.2789871174543634 0 0 0 0 -34.670119221782329 -32.086144206577956 0 -32.086144206577956 -100.81275451941474 0 0 0 0 -324.13981497656823 -255.16971484580245 0 -255.16971484580245 134.96630814560922 0 0 0 0 7.0337486582488964 188.5121211724545 0 188.5121211724545 293.1696914077329 0 0 0 0 -169.29365505566432 -234.0037959834608 0 -234.0037959834608 -32.332024734598235 0 0 0 0 -25.937720391349103 -71.845041820502956 0 -71.845041820502956 303.7952132991777 0 0 0 0 -91.804763460859249 77.737476482827333 0 77.737476482827333 398.86103741059196 0 0 0 0 -32.485815813419777 63.774856642885425 0 63.774856642885425 202.11065238792798 0 0 0 0 -74.915370899509981 37.481895244709449 0 37.481895244709449 210.98873826086856 0 0 0 0 46.048030440855655 116.75849071251287 0 116.75849071251287 162.19345130488 0 0 0 0 -53.217967242131408 14.790413449314656 0 14.790413449314656 57.46825745368551 0 0 0 0 -104.83486547203643 46.535388292602875 0 46.535388292602875 200.98084909953468 0 0 0 0 -67.034295688220027 49.52897599645803 0 49.52897599645803 115.43761596664262 0 0 0 0 -71.151334342355312 70.112663230964245 0 70.112663230964245 173.65837221138645 0 0 0 0 -17.476268744503443 57.093098214392739 0 57.093098214392739 20.656300015340094 0 0 0 0 -44.068693679743319 31.690528376417205 0 31.690528376417205 112.72965134073456 0 0 0 0 -27.503946275749058 77.608756465866463 0 77.608756465866463 51.043512136144273 0 0 0 0 0.21648553792898362 1.0054098213909839 0 1.0054098213909839 1.8284308182844597 0 0 0 0 -24.229573040078321 100.76325449729484 0 100.76325449729484 -56.660572222479459 0 0 0 0 -27.773636548549803 -24.58633878830733 0 -24.58633878830733 -41.090964386705309 0 0 0 0 -40.249981631159244 14.464453001317452 0 14.464453001317452 11.190399514365708 0 0 0 0 -62.769329294079853 24.160003257158678 0 24.160003257158678 111.28392364489264 0 0 0 0 -21.39672479247929 104.61858694163675 0 104.61858694163675 -23.845906791302696 0 0 0 0 -102.26536337575453 16.452276256481127 0 16.452276256481127 85.17273212170403 0 0 0 0 -16.35666430915262 32.855652074613317 0 32.855652074613317 87.254275098064682 0 0 0 0 -64.424310697449073 -24.182357153244084 0 -24.182357153244084 163.82056448717049 0 0 0 0 -74.221255646389636 -38.398877470390289 0 -38.398877470390289 21.025155292343698 0 0 0 0 8.9855743133912256 0.14443637903605122 0 0.14443637903605122 52.772099743095168 0 0 0 0 -39.644088810373432 -11.102669894309656 0 -11.102669894309656 369.63781548439874 0 0 0 0 23.850521264034342 -1.3746015668657492 0 -1.3746015668657492 110.68597530756961 0 0 0 0 -0.21754000436965359 2.1737027240707505 0 2.1737027240707505 4.4372687266886146 0 0 0 0 6.2033026101880751 -2.1301721007548622 0 -2.1301721007548622 9.8234494293938042 0 0 0 0 0.45460286900613767 16.664365401866917 0 16.664365401866917 104.59308364524622 0 0 0 0 -6.8237621480420785 -5.0998510069475742 0 -5.0998510069475742 52.397392782266252 0 0 0 0 -1.135625965163312 -0.97546150334976289 0 -0.97546150334976289 2.6274648423163569 0 0 0 0 72.822531727469141 -70.41888498904882 0 -70.41888498904882 39.558450071228435 0 0 0 0 239.21396178788837 -364.15984053327702 0 -364.15984053327702 442.09285533164075 0 0 0 0 5.5149765035376026 9.4007849681359161 0 9.4007849681359161 15.199926249635155 0 0 0 0 114.83731505325613 133.53439517461084 0 133.53439517461084 848.08278720583621 0 0 0 0 -84.831215246196962 -3.3492702876010298 0 -3.3492702876010298 -61.941022870101733 0 0 0 0 -95.643855489182897 123.73652434271207 0 123.73652434271207 -44.951955001830356 0 0 0 0 102.01672875849204 -157.2698982157417 0 -157.2698982157417 213.51424564114131 0 0 0 0 -35.583959342742673 88.630981437083392 0 88.630981437083392 422.52151050551038 0 0 0 0 59.471341426991785 -106.81671212510264 0 -106.81671212510264 334.9995745793276 0 0 0 0 -68.357977872819674 -7.0250887715883437 0 -7.0250887715883437 257.6304820679361 0 0 0 0 -28.851227161330826 91.025033617544977 0 91.025033617544977 202.7162100542846 0 0 0 0 -71.097183572029053 68.172651226045673 0 68.172651226045673 207.69570552537334 0 0 0 0 37.2677218595054 78.464721116302826 0 78.464721116302826 55.975680662246305 0 0 0 0 130.09996490879075 205.59010682513326 0 205.59010682513326 225.2823231598959 0 0 0 0 -0.15933785751269269 -0.37873019249710183 0 -0.37873019249710183 2.5745291857571146 0 0 0 0 -172.38842536871039 -311.46548052671642 0 -311.46548052671642 298.48405268426723 0 0 0 0 -0.65842805278805283 -0.29343783556213054 0 -0.29343783556213054 5.0724646301904386 0 0 0 0 -133.03757355581479 80.281606895128789 0 80.281606895128789 106.14023195183108 0 0 0 0 -88.287509066758503 33.612799540038395 0 33.612799540038395 64.806054803109873 0 0 0 0 -19.621203176372546 70.667081184647941 0 70.667081184647941 6.3069263999495888 0 0 0 0 110.84879198665476 177.5077172698584 0 177.5077172698584 103.14737200418108 0 0 0 0 49.922236883714959 237.64610012344565 0 237.64610012344565 192.27052535969415 0 0 0 0 294.37896706740116 73.91372824471182 0 73.91372824471182 -41.842797511446406 0 0 0 0 690.06672026683782 436.16055708362546 0 436.16055708362546 231.60882839053374 0 0 0 0 550.55755042089004 -1388.9224821770913 0 -1388.9224821770913 -401.67293470980803 0 0 0 0 -15.834212076980748 19.58335535475635 0 19.58335535475635 62.271622729655064 0 0 0 0 -15.74527999508291 24.79074882210989 0 24.79074882210989 12.902087185211712 0 0 0 0 -54.418242321981381 5.253265316694069 0 5.253265316694069 121.91210829484044 0 0 0 0 -51.561777720836744 -22.527967746595095 0 -22.527967746595095 234.48312958957104 0 0 0 0 27.717996635409236 62.13743874157808 0 62.13743874157808 103.04582130014751 0 0 0 0 8.7336844403130272 102.72843570280111 0 102.72843570280111 304.46948694206367 0 0 0 0 148.01377850838162 276.19414194015553 0 276.19414194015553 363.85140026398585 0 0 0 0 -184.73446278225265 -130.52715493203141 0 -130.52715493203141 75.557225094386013 0 0 0 0 -0.32085130132908457 0.01785113791319759 0 0.01785113791319759 2.4140934070928211 0 0 0 0 71.333357451815118 -50.495612520091527 0 -50.495612520091527 354.65611162126879 0 0 0 0 3.469058088075144 58.749887685349677 0 58.749887685349677 585.59359827630396 0 0 0 0 12.226279082266956 49.274796950681775 0 49.274796950681775 225.84971513923665 0 0 0 0 -52.864754659133723 -84.813206586775777 0 -84.813206586775777 358.11097882363538 0 0 0 0 35.764024144906216 -129.10755332559347 0 -129.10755332559347 264.63082432336159 0 0 0 0 2.4509273989265239 -14.922406629031684 0 -14.922406629031684 340.28755038847157 0 0 0 0 14.660532414579848 -287.37435075460962 0 -287.37435075460962 445.6373534335944 0 0 0 0 -16.10140105078608 -194.32515237510233 0 -194.32515237510233 360.94401140111586 0 0 0 0 -0.78515610833290772 -0.54266862249133396 0 -0.54266862249133396 -1.8127360195873905 0 0 0 0 -13.265063308484969 -38.488816633180249 0 -38.488816633180249 117.74287704570452 0 0 0 0 -10.987194657317559 -37.516767471657658 0 -37.516767471657658 116.49852327083499 0 0 0 0 15.352810129201771 -76.449380083777214 0 -76.449380083777214 135.22653746398282 0 0 0 0 -21.017607347061585 -78.960351369913042 0 -78.960351369913042 142.81382588000997 0 0 0 0 -82.194713147497851 46.930274725969866 0 46.930274725969866 473.07559180996032 0 0 0 0 -66.100875311523851 -2.3905211984165362 0 -2.3905211984165362 522.52169331171899 0 0 0 0 -51.989360124846371 -15.122190391957702 0 -15.122190391957702 373.27401528676273 0 0 0 0 25.639721874070119 -86.339897066569392 0 -86.339897066569392 341.5410342788673 0 0 0 0 -47.782528927730255 17.851073865342187 0 17.851073865342187 469.9243372253768 0 0 0 0 -13.757859228754569 -1.7648029961637803 0 -1.7648029961637803 469.66283048453624 0 0 0 0 -61.446383431556569 12.515743626863696 0 12.515743626863696 482.31688005358228 0 0 0 0 11.260061307330943 0.70628326991936774 0 0.70628326991936774 463.62799657465075 0 0 0 0 -8.0632231204572236 9.0097636933824106 0 9.0097636933824106 488.92924207012402 0 0 0 0 13.023105001107069 -103.59567582181535 0 -103.59567582181535 506.73473220039159 0 0 0 0 -157.41884687067568 -23.984213764486412 0 -23.984213764486412 488.80529463126732 0 0 0 0 14.576762950769989 9.5050736759440042 0 9.5050736759440042 482.83880043069803 0 0 0 0 65.11152396209377 7.7742243638049331 0 7.7742243638049331 441.80384904574021 0 0 0 0 28.04037343535083 -35.994319368812285 0 -35.994319368812285 390.33871998909308 0 0 0 0 -50.335432313282581 -99.408792229623941 0 -99.408792229623941 500.17233848184696 0 0 0 0 36.429857116732023 -117.50598457185856 0 -117.50598457185856 460.6851243347337 0 0 0 0 -51.589099048707794 -74.360784091593814 0 -74.360784091593814 549.16573538875673 0 0 0 0 -3.6284895182352557 -13.548764096667583 0 -13.548764096667583 462.84984976601436 0 0 0 0 -18.193038749953985 -24.076848762795635 0 -24.076848762795635 511.94765565232956 0 0 0 0 -72.291774842599807 -41.129024574824143 0 -41.129024574824143 506.8031897708679 0 0 0 0 -71.847877017412429 -35.133082525888312 0 -35.133082525888312 568.82757038194541 0 0 0 0 -84.106224934288548 4.838140571693657 0 4.838140571693657 531.61818818239408 0 0 0 0 -81.479643967000811 -40.513936004965217 0 -40.513936004965217 523.37525235115163 0 0 0 0 -82.471899026332409 -47.136113086073237 0 -47.136113086073237 557.16308474054676 0 0 0 0 -103.05046459256232 -41.129751897744427 0 -41.129751897744427 555.50533062216709 0 0 0 0 -92.391417786451939 -56.609816556265287 0 -56.609816556265287 552.17330268256774 0 0 0 0 -97.485863154396156 -27.62013785981253 0 -27.62013785981253 531.25789218220234 0 0 0 0 -94.325241691903329 -59.776165026138187 0 -59.776165026138187 566.17039136597305 0 0 0 0 -97.488214408309432 -30.525011378631461 0 -30.525011378631461 592.93907168736041 0 0 0 0 -93.925069751152023 -56.790620804680657 0 -56.790620804680657 557.53128653488238 0 0 0 0 -82.913573639511924 -145.08584396287188 0 -145.08584396287188 568.35489990301721 0 0 0 0 -124.39791789570972 -60.72780411414351 0 -60.72780411414351 653.56370991653239 0 0 0 0 -102.77504471684824 -67.346013318434416 0 -67.346013318434416 617.60183277194665 0 0 0 0 -106.5003833843748 54.476408609269129 0 54.476408609269129 665.39346634418325 0 0 0 0 -80.693722512087732 40.702192531192395 0 40.702192531192395 607.33579803146131 0 0 0 0 -39.875490331168294 124.04455965607485 0 124.04455965607485 518.37387749089248 0 0 0 0 -5.0798281707734532 116.93267839688633 0 116.93267839688633 509.87845594121609 0 0 0 0 6.9507713509487985 90.12934241273615 0 90.12934241273615 406.70180679726036 0 0 0 0 -65.441163838449484 13.479335358897515 0 13.479335358897515 514.01536747464706 0 0 0 0 -77.847765347828926 19.780349199594639 0 19.780349199594639 526.8833484845818 0 0 0 0 -95.182450280567537 -31.839101559715346 0 -31.839101559715346 524.86825955352106 0 0 0 0 -66.952171104680019 -20.385560869581241 0 -20.385560869581241 380.21817306132289 0 0 0 0 -64.163682420196778 12.640301915835153 0 12.640301915835153 450.68720100236533 0 0 0 0 -79.857712389746439 -33.1403602258506 0 -33.1403602258506 354.41294758177537 0 0 0 0 -90.525195853972036 -13.741515132431232 0 -13.741515132431232 456.68845484057056 0 0 0 0 -89.399486826741054 -27.013266489539092 0 -27.013266489539092 453.64900020437199 0 0 0 0 -108.93656275972353 -36.310578121148865 0 -36.310578121148865 523.75103090653465 0 0 0 0 -348.66254593151916 269.41385648019059 0 269.41385648019059 1325.1493950295389 0 0 0 0 -354.27154583437095 235.9428903622611 0 235.9428903622611 2777.8503547900546 0 0 0 0 -7.0731572096215132 -450.46203600487934 0 -450.46203600487934 848.73808594584989 0 0 0 0 -133.85503991283531 -438.37692599546062 0 -438.37692599546062 1380.1158464947366 0 0 0 0 2.8792330628268301 -6.3980309941479021 0 -6.3980309941479021 24.628135710663315 0 0 0 0 151.8065306843946 -991.70616125233209 0 -991.70616125233209 2128.177062396222 0 0 0 0 979.3778874836421 -778.93849881324422 0 -778.93849881324422 515.46790377014258 0 0 0 0 -4.2349002122338515 -7.0889012670499199 0 -7.0889012670499199 10.751590300625082 0 0 0 0 352.99419100736691 61.710930271105099 0 61.710930271105099 19.844729813310551 0 0 0 0 91.969176431021879 -472.45808886587838 0 -472.45808886587838 546.21613281421014 0 0 0 0 60.918708501669926 -525.44780851410178 0 -525.44780851410178 833.91761261844658 0 0 0 0 -181.65688610449888 -217.15697313247074 0 -217.15697313247074 857.15289143125847 0 0 0 0 -130.60881799125673 -179.34283695252088 0 -179.34283695252088 637.77047394399415 0 0 0 0 -76.718143382433595 -166.2328174560289 0 -166.2328174560289 619.72691852656135 0 0 0 0 -141.1641716011427 -62.904317219472432 0 -62.904317219472432 773.03533049490943 0 0 0 0 -198.64932987563452 -13.018529086617491 0 -13.018529086617491 764.85009315228672 0 0 0 0 -166.93299647079766 -194.0638682707613 0 -194.0638682707613 863.32204091965104 0 0 0 0 -208.03871502263291 18.687613808469905 0 18.687613808469905 1032.6862930702191 0 0 0 0 -223.48951228226173 156.60775554023076 0 156.60775554023076 1017.4971094574721 0 0 0 0 -221.52460050290847 155.84870217603748 0 155.84870217603748 860.43954305754596 0 0 0 0 -133.26248003084856 161.21778178764362 0 161.21778178764362 741.97787575249095 0 0 0 0 -27.098712903582964 240.63245528887637 0 240.63245528887637 751.01890314360571 0 0 0 0 -117.61662426362182 67.824927361434675 0 67.824927361434675 688.71728275631904 0 0 0 0 -102.74319609207214 112.53879522283387 0 112.53879522283387 788.44918998137291 0 0 0 0 -32.413166661575815 174.92558288427244 0 174.92558288427244 637.23446934738968 0 0 0 0 -39.979681360514746 122.39847077768809 0 122.39847077768809 548.11226009367965 0 0 0 0 83.826063235281254 118.43028892049915 0 118.43028892049915 121.65917884843657 0 0 0 0 -32.301193253269957 151.51631418743636 0 151.51631418743636 546.57248981279417 0 0 0 0 1.1984097871742136 0.32789789518949419 0 0.32789789518949419 -0.019907725106421026 0 0 0 0 -79.713654276672514 378.84816104325728 0 378.84816104325728 510.08090422388341 0 0 0 0 31.104704164707982 35.375991159147816 0 35.375991159147816 -0.54991220117699413 0 0 0 0 360.63841922948905 303.42245088874552 0 303.42245088874552 -415.10144977062009 0 0 0 0 -13.861846284641615 1.1452295491835685 0 1.1452295491835685 38.540980177354868 0 0 0 0 0.86696082182867329 0.58039177005130682 0 0.58039177005130682 4.2697577834398075 0 0 0 0 -180.80360752309161 441.9213447941147 0 441.9213447941147 955.71144692943199 0 0 0 0 1909.8528017656931 901.96036642573017 0 901.96036642573017 637.05648491592729 0 0 0 0 -237.18212838399722 163.31479932359798 0 163.31479932359798 592.92399061600372 0 0 0 0 1053.4644783602325 -686.29046838278737 0 -686.29046838278737 -920.41103610754362 0 0 0 0 139.61087884125379 -14.522483850021672 0 -14.522483850021672 -74.684412533713839 0 0 0 0 -9.3282230261770547 -35.335351077957512 0 -35.335351077957512 4.7094822549154358 0 0 0 0 -6.691927012781532 -0.67672879289600019 0 -0.67672879289600019 -6.0906500019110297 0 0 0 0 164.0150535460117 -504.5585032089366 0 -504.5585032089366 -566.05857738078339 0 0 0 0 -55.323112077443227 -405.23351437551173 0 -405.23351437551173 41.861841470294166 0 0 0 0 3.3040739965961019 -21.445490692066031 0 -21.445490692066031 -13.081250943970588 0 0 0 0 -16.08199704224063 -48.113833787874029 0 -48.113833787874029 -4.283263126303229 0 0 0 0 11.70670227913979 -104.19427416343569 0 -104.19427416343569 47.087076440235251 0 0 0 0 2.6737583197887549 21.327297360571322 0 21.327297360571322 69.865158087150462 0 0 0 0 -384.49491707496463 -86.690576264874835 0 -86.690576264874835 147.52426827128511 0 0 0 0 -646.24667208902611 -315.86368102492997 0 -315.86368102492997 -47.57035815538984 0 0 0 0 -35.83000368892499 -456.26079956267495 0 -456.26079956267495 -588.8087773922307 0 0 0 0 -98.478803846505798 40.249076735140989 0 40.249076735140989 -529.85189336742587 0 0 0 0 216.16162230149143 -572.49651433256076 0 -572.49651433256076 2355.3220561417693 0 0 0 0 92.002307773459734 582.94087018519349 0 582.94087018519349 351.74561389301198 0 0 0 0 -574.42741120449455 -170.73840908975399 0 -170.73840908975399 404.33897907161736 0 0 0 0 -166.31250107110372 -529.77382883556129 0 -529.77382883556129 -565.18495640192577 0 0 0 0 147.36815024257021 -211.96300713354867 0 -211.96300713354867 117.14285940775881 0 0 0 0 108.69649876146923 -226.69429305497761 0 -226.69429305497761 186.54110960334219 0 0 0 0 249.7143635725306 -429.23623260917884 0 -429.23623260917884 319.30278169333906 0 0 0 0 169.4244124355746 -233.00188547471043 0 -233.00188547471043 37.316999200047576 0 0 0 0 40.638439886054584 73.652229865088884 0 73.652229865088884 -139.98889796118601 0 0 0 0 -177.85794356689757 200.57143276043644 0 200.57143276043644 149.53920373432629 0 0 0 0 519.01255294053681 167.50327908536565 0 167.50327908536565 -126.2901420823473 0 0 0 0 1573.4334499653355 -614.84238402275514 0 -614.84238402275514 200.49937208768461 0 0 0 0 672.05741709154665 -700.2830990853854 0 -700.2830990853854 477.37927889675484 0 0 0 0 -22.885335806628518 -369.54332532793342 0 -369.54332532793342 1075.2026010738737 0 0 0 0 -33.330316967942167 -303.81228577095771 0 -303.81228577095771 749.30263496906991 0 0 0 0 250.94657288329995 -1043.4493852475098 0 -1043.4493852475098 2051.7820032564487 0 0 0 0 -31.575326227074584 551.30995599474409 0 551.30995599474409 2007.9989101584642 0 0 0 0 226.35358484288554 194.67899635550566 0 194.67899635550566 536.98622068360885 0 0 0 0 935.43526876489659 778.05047653448855 0 778.05047653448855 536.96749700143118 0 0 0 0 372.23127406062463 220.34224635450846 0 220.34224635450846 145.22464988185675 0 0 0 0 -115.47848349564765 50.710253730545446 0 50.710253730545446 723.27839286029484 0 0 0 0 93.529070788541958 431.20427072559505 0 431.20427072559505 446.81838677589985 0 0 0 0 -1449.7191428187657 995.85885895963293 0 995.85885895963293 4264.1776666489168 0 0 0 0 -450.07389793494144 1478.1947547592135 0 1478.1947547592135 2761.133491908924 0 0 0 0 517.74834859594375 -780.06647800554856 0 -780.06647800554856 4152.5793178504246 0 0 0 0 4.718026411287668 10.366574560149161 0 10.366574560149161 28.905757478940956 0 0 0 0 -468.52654353923322 -3248.5742427112855 0 -3248.5742427112855 976.85981073629227 0 0 0 0 -372.82495783378249 1068.636483492548 0 1068.636483492548 1291.4601306685945 0 0 0 0 702.72962499599748 158.98980159632629 0 158.98980159632629 -383.85063138717669 0 0 0 0 9.6517838522063784 6.3689109492747775 0 6.3689109492747775 6.9662983683428052 0 0 0 0 -58.629358838771623 171.60281170682356 0 171.60281170682356 226.67361611286469 0 0 0 0 293.0230375966089 -911.96451146168693 0 -911.96451146168693 542.56551801839669 0 0 0 0 1.2282421715885756 4.4090001818287092 0 4.4090001818287092 5.3063706216987327 0 0 0 0 152.27219794113523 -50.488014119284344 0 -50.488014119284344 439.05041203604833 0 0 0 0 -670.52288096321331 802.00968225406905 0 802.00968225406905 638.45097271390841 0 0 0 0 149.50387649866434 -181.39093863403104 0 -181.39093863403104 63.368380648000311 0 0 0 0 5063.7182838918125 5037.2585592732066 0 5037.2585592732066 6759.6344834859774 0 0 0 0 15.236309412401351 8.0141030366557828 0 8.0141030366557828 32.934096095834377 0 0 0 0 -71.39575598767783 -91.189628004161932 0 -91.189628004161932 67.787216733704554 0 0 0 0 -13.941955047106376 -39.749743101823697 0 -39.749743101823697 116.85398162709316 0 0 0 0 0.67396252332572004 -13.34882238351684 0 -13.34882238351684 82.480256854024901 0 0 0 0 -11.899501505202352 -38.855653750490092 0 -38.855653750490092 115.49918575730408 0 0 0 0 92.837910996784331 32.331031608347985 0 32.331031608347985 53.157366085157264 0 0 0 0 -23.874518839014627 -5.054140354412084 0 -5.054140354412084 58.430182594743655 0 0 0 0 -8.9737541319889296 12.055878860926846 0 12.055878860926846 25.527692676003994 0 0 0 0 -0.0062708896664402936 -7.6315303595576047 0 -7.6315303595576047 20.799223021348865 0 0 0 0 -122.55442743713593 -49.387809810323233 0 -49.387809810323233 67.326257129869191 0 0 0 0 180.57949353812796 -4.4386064978448303 0 -4.4386064978448303 -53.915027009687037 0 0 0 0 163.10714079266651 120.07682422420294 0 120.07682422420294 205.7020402639173 0 0 0 0 334.0297453658759 177.32408257503084 0 177.32408257503084 175.00523350197182 0 0 0 0 153.02439527716615 1.2512559574461193 0 1.2512559574461193 39.276069988343806 0 0 0 0 177.79747586420967 217.66085602471503 0 217.66085602471503 171.27149953375556 0 0 0 0 18.285960356702844 181.89208696987043 0 181.89208696987043 260.11098488445714 0 0 0 0 44.065663350284581 110.70607843920789 0 110.70607843920789 85.737528231293254 0 0 0 0 49.063531654901482 27.124316925583116 0 27.124316925583116 1.6310346417594701 0 0 0 0 23.177303205112594 87.610686442214501 0 87.610686442214501 107.2569493041301 0 0 0 0 -5.3037263590999828 23.850364581816393 0 23.850364581816393 20.993062041536177 0 0 0 0 19.355246085691761 -68.971712901082356 0 -68.971712901082356 119.38834571092957 0 0 0 0 16.864802402648138 40.363955958233419 0 40.363955958233419 -35.070097824303957 0 0 0 0 -13.953453416424622 21.322348799634192 0 21.322348799634192 12.717269266939084 0 0 0 0 -3.5554296775553667 -27.551813088990457 0 -27.551813088990457 156.88851802994031 0 0 0 0 -22.119173023946928 3.8030575270768168 0 3.8030575270768168 4.5727613574563293 0 0 0 0 -10.532682199322801 17.395880917764529 0 17.395880917764529 -3.8313575147824395 0 0 0 0 -72.300859032699918 -58.293535048183912 0 -58.293535048183912 5.0766985272130114 0 0 0 0 -3.299325568090353 15.768573702873255 0 15.768573702873255 32.779719950587605 0 0 0 0 104.3277536388423 31.45173556732334 0 31.45173556732334 -46.569814638525713 0 0 0 0 75.838645552454182 -69.947849219322961 0 -69.947849219322961 -103.02987204889359 0 0 0 0 -126.44629145710633 -4.2954921744931198 0 -4.2954921744931198 135.98375832180318 0 0 0 0 0.96935924006827712 17.722171114183869 0 17.722171114183869 146.42891499704695 0 0 0 0 -489.50017189472828 951.13907336896591 0 951.13907336896591 425.06471864145351 0 0 0 0 0.88609232255004056 4.8824782415117181 0 4.8824782415117181 102.21806535915525 0 0 0 0 -63.808425101135072 -7.5336090416094521 0 -7.5336090416094521 145.99723490835459 0 0 0 0 -70.005460942316063 138.60625187623373 0 138.60625187623373 25.497106834198348 0 0 0 0 -0.71426773118400888 33.124067170338094 0 33.124067170338094 219.43470592425001 0 0 0 0 27.318554791079805 43.995180113539391 0 43.995180113539391 166.90335305671033 0 0 0 0 25.297553439387915 29.128410500500621 0 29.128410500500621 23.776510412242978 0 0 0 0 33.254892675970041 4.2415064438100671 0 4.2415064438100671 210.50431525267049 0 0 0 0 47.556954385212521 -37.050450612649001 0 -37.050450612649001 399.0156325214557 0 0 0 0 201.90022653842243 76.407343408980523 0 76.407343408980523 -27.359461089283286 0 0 0 0 11.814528098261967 -1.4326423510597124 0 -1.4326423510597124 -6.3188808406583235 0 0 0 0 87.018889867327744 42.080742780693981 0 42.080742780693981 269.79286314727324 0 0 0 0 70.43339742266653 11.695620693059027 0 11.695620693059027 251.80648288618249 0 0 0 0 196.74130494677638 98.17955859266408 0 98.17955859266408 308.46031818670599 0 0 0 0 -320.20551032434287 379.80983248472467 0 379.80983248472467 595.47218175166563 0 0 0 0 209.10294042358419 -125.01338543751262 0 -125.01338543751262 194.80326408844121 0 0 0 0 -62.695325799414604 54.530373314656345 0 54.530373314656345 29.359273002457485 0 0 0 0 70.640012114061392 -497.6944365434756 0 -497.6944365434756 1097.0662004110636 0 0 0 0 -61.606833870258924 77.515185297310381 0 77.515185297310381 337.67539168482472 0 0 0 0 11.093297422556134 -7.1398441320379789 0 -7.1398441320379789 206.81427052720028 0 0 0 0 3.2812785204419868 2.00743879803575 0 2.00743879803575 3.1482294980242216 0 0 0 0 12.965779919120905 -89.20105290216452 0 -89.20105290216452 437.24360097701174 0 0 0 0 -1.1423939689956057 -0.082736622562315176 0 -0.082736622562315176 3.3054967266899666 0 0 0 0 14.329184652135453 30.287453640408813 0 30.287453640408813 12.996167538202513 0 0 0 0 16.32563590241989 -83.391987491937471 0 -83.391987491937471 223.85827636464091 0 0 0 0 0.052773071432277163 26.074431847527251 0 26.074431847527251 12.62541661165676 0 0 0 0 -5.5159203998011925 -7.0879375600974086 0 -7.0879375600974086 1.0560418597640755 0 0 0 0 8.9046909890166717 50.402311597936205 0 50.402311597936205 17.033526186813106 0 0 0 0 9.3142918235411116 26.826512899960562 0 26.826512899960562 198.36852766634911 0 0 0 0 0.011930934547365268 86.640603493975732 0 86.640603493975732 119.35109479389212 0 0 0 0 0.29298705802466429 56.944960936631105 0 56.944960936631105 119.53676355465177 0 0 0 0 11.371684753919908 26.589950522600702 0 26.589950522600702 144.63303335965611 0 0 0 0 -43.557542071743683 74.228697092695256 0 74.228697092695256 221.18855223213177 0 0 0 0 -43.584600698079157 76.999738972026535 0 76.999738972026535 126.58805989899884 0 0 0 0 -128.91497107261512 6.0536322372572613 0 6.0536322372572613 310.84717550100322 0 0 0 0 -261.04824743867994 169.34680958340323 0 169.34680958340323 298.62516134007092 0 0 0 0 4.8070605136199447 52.600345262679184 0 52.600345262679184 230.2690125221925 0 0 0 0 -9.6584122916137858 66.848647490829535 0 66.848647490829535 281.22230318711809 0 0 0 0 17.107331284007159 67.773898777079012 0 67.773898777079012 234.38772074239387 0 0 0 0 -7.5346208825781886 1.7828282619181408 0 1.7828282619181408 21.240334398260799 0 0 0 0 9.5577793711345294 28.058155525737675 0 28.058155525737675 221.76626926477184 0 0 0 0 14.179682593654434 52.461618650813762 0 52.461618650813762 258.23999215876393 0 0 0 0 40.976190993525961 54.755542755345232 0 54.755542755345232 247.49611498384184 0 0 0 0 14.733034772817518 70.390814014526768 0 70.390814014526768 276.48253201885382 0 0 0 0 17.3397032275534 37.659056639800838 0 37.659056639800838 229.40023218054557 0 0 0 0 22.963210238056632 63.682198065657936 0 63.682198065657936 69.867846220343893 0 0 0 0 -29.001727272530538 -34.399855834012968 0 -34.399855834012968 78.269843684042144 0 0 0 0 -52.232130066636486 -62.22630805033392 0 -62.22630805033392 368.17162968795014 0 0 0 0 -96.19796923074864 -8.3554075540778285 0 -8.3554075540778285 591.6052138675841 0 0 0 0 -103.0491420803296 -110.12502955576929 0 -110.12502955576929 352.74576688883099 0 0 0 0 33.944283195469325 37.360578665444336 0 37.360578665444336 365.73826248972182 0 0 0 0 -112.08369672234767 164.60149087906029 0 164.60149087906029 852.92386136260757 0 0 0 0 -5.0396923008711383 175.90282011827367 0 175.90282011827367 569.47399748073076 0 0 0 0 -45.660426049365654 -60.916533541478543 0 -60.916533541478543 371.76631389201145 0 0 0 0 -291.49474600796475 -175.3094246832552 0 -175.3094246832552 432.35245685926657 0 0 0 0 -71.326041482363507 -61.170198696203443 0 -61.170198696203443 353.44913799578353 0 0 0 0 -4.0340261257627006 -2.4716413091783664 0 -2.4716413091783664 0.3621896257124817 0 0 0 0 -147.92944694454491 290.34561598029541 0 290.34561598029541 665.64543627004241 0 0 0 0 -362.02530471471619 236.39650040230481 0 236.39650040230481 862.42443399534386 0 0 0 0 -71.368661079346566 22.600553804040828 0 22.600553804040828 661.32671140714956 0 0 0 0 33.350273196611852 194.56421835154106 0 194.56421835154106 611.61167071835371 0 0 0 0 -163.27075700789737 34.163963769082329 0 34.163963769082329 555.15882476291154 0 0 0 0 -222.14376403902043 50.643137029517675 0 50.643137029517675 555.03435747670301 0 0 0 0 -221.57944195970049 33.636401312833186 0 33.636401312833186 1000.349638925265 0 0 0 0 -78.838405950655215 -185.4224884811847 0 -185.4224884811847 628.4411904229346 0 0 0 0 -67.554888901812319 -186.27128889615688 0 -186.27128889615688 343.06326379505481 0 0 0 0 -211.8445149464178 -242.35964563110974 0 -242.35964563110974 396.65279251816901 0 0 0 0 -46.421107627775328 -61.146954463522817 0 -61.146954463522817 370.34409429384232 0 0 0 0 84.006953791902561 -214.03001262104954 0 -214.03001262104954 214.80102016292221 0 0 0 0 -103.96862208494986 -124.18507419045818 0 -124.18507419045818 300.16934863503411 0 0 0 0 -154.2857640728007 -242.7919204843738 0 -242.7919204843738 235.36012495057366 0 0 0 0 -23.39703410472066 -39.910565000358474 0 -39.910565000358474 299.51195295539947 0 0 0 0 -21.776148773155001 -45.728188663128094 0 -45.728188663128094 314.0652436186092 0 0 0 0 194.82391990250653 84.381248642290302 0 84.381248642290302 316.37715672273043 0 0 0 0 41.453301286908754 -67.678498817076616 0 -67.678498817076616 425.32857902480464 0 0 0 0 66.819306643841628 -32.435697165050442 0 -32.435697165050442 206.11045627694693 0 0 0 0 593.88079216274309 32.104855013822089 0 32.104855013822089 396.94033325387772 0 0 0 0 145.80909491804232 -134.28569011197942 0 -134.28569011197942 199.82045022109378 0 0 0 0 -48.661423781794369 -57.734268311366264 0 -57.734268311366264 366.6881970272658 0 0 0 0 73.92850018756144 -75.634613129212084 0 -75.634613129212084 263.64437440368874 0 0 0 0 -355.17045559317012 -416.23448523543448 0 -416.23448523543448 390.75891801437683 0 0 0 0 -442.53105967394367 -222.83375210284976 0 -222.83375210284976 483.46690001842944 0 0 0 0 -53.385220478711126 -52.115238088570251 0 -52.115238088570251 359.58581526467708 0 0 0 0 -307.90150362552595 155.37344223562468 0 155.37344223562468 895.63978098556981 0 0 0 0 234.75691689798077 309.89941312583505 0 309.89941312583505 505.71704218239211 0 0 0 0 11.907298692175573 209.95626404266659 0 209.95626404266659 596.06819491424903 0 0 0 0 36.089507575630705 300.1995589554117 0 300.1995589554117 508.97456908114691 0 0 0 0 91.718004011341691 205.92513757954293 0 205.92513757954293 358.14419159136742 0 0 0 0 -148.8970824699536 -106.70258859855858 0 -106.70258859855858 1178.8239955120735 0 0 0 0 197.61259071370932 365.60213239577752 0 365.60213239577752 987.81823101641203 0 0 0 0 64.709010560335628 -205.72231769599784 0 -205.72231769599784 1096.0477300066705 0 0 0 0 211.89412324931254 -96.894033672353544 0 -96.894033672353544 156.26515909810041 0 0 0 0 268.19778516095721 665.9605952166512 0 665.9605952166512 1178.4802660075034 0 0 0 0 5.4132390491965907 3.4509401312667762 0 3.4509401312667762 18.800406234497444 0 0 0 0 -21.518919417475445 33.912507785789785 0 33.912507785789785 99.17101068370539 0 0 0 0 1058.9083116342299 174.12454851940856 0 174.12454851940856 1504.9446584033431 0 0 0 0 21.502087792464792 6.491044233669335 0 6.491044233669335 -2.5245393040225537 0 0 0 0 -321.52822147497989 -471.48694473538308 0 -471.48694473538308 74.993961437618054 0 0 0 0 -0.21718603458033869 -2.1588241451290848 0 -2.1588241451290848 10.151231090676745 0 0 0 0 146.62098870660526 1127.5474728332699 0 1127.5474728332699 1283.0012380009503 0 0 0 0 1096.1527896171283 -310.14823649052414 0 -310.14823649052414 877.56791254631025 0 0 0 0 20.448715637720639 7.9433717852175292 0 7.9433717852175292 5.8230719107171609 0 0 0 0 -165.65565340482112 57.672322468006314 0 57.672322468006314 1374.5133736808821 0 0 0 0 51.93973700375409 1.4768412699686451 0 1.4768412699686451 33.564485338592931 0 0 0 0 20.033683092553044 16.232129078334737 0 16.232129078334737 0.21636424065687265 0 0 0 0 3.7484971408557612 23.955101406982067 0 23.955101406982067 84.708032447582809 0 0 0 0 35.097755545395415 25.052302791454149 0 25.052302791454149 -0.47020782803570427 0 0 0 0 20.487705450497742 273.65030397439477 0 273.65030397439477 639.11737078661463 0 0 0 0 29.730795641838995 32.266652240739859 0 32.266652240739859 155.90764977199751 0 0 0 0 0.95743770024230557 -1.6980573708053832 0 -1.6980573708053832 60.053038379954749 0 0 0 0 13.117270254646428 35.121299537222512 0 35.121299537222512 208.65776386157086 0 0 0 0 32.336128601462761 30.012503473317004 0 30.012503473317004 12.998287869264811 0 0 0 0 92.336647040909156 43.718989340479311 0 43.718989340479311 682.12755017807649 0 0 0 0 -2.0455456995514396 218.50299255287609 0 218.50299255287609 777.64524063871795 0 0 0 0 11.059602712570388 -16.269575349416819 0 -16.269575349416819 14.554434768958593 0 0 0 0 39.658711655425577 40.974742131702442 0 40.974742131702442 159.63529354674938 0 0 0 0 -11.999453875672771 52.318249435507823 0 52.318249435507823 65.020260468089873 0 0 0 0 12.534739159708806 23.263520590026019 0 23.263520590026019 -9.2709606442404038 0 0 0 0 1.7004412876153232 -1.1522835359080723 0 -1.1522835359080723 16.521126339351717 0 0 0 0 167.26220635799837 1088.4197904697103 0 1088.4197904697103 1264.6501153721983 0 0 0 0 777.50778954568068 1374.2013878217749 0 1374.2013878217749 840.58904109709874 0 0 0 0 -208.12777241673757 294.31656367937694 0 294.31656367937694 721.26482759676219 0 0 0 0 -18.337790870143181 -245.80381262510855 0 -245.80381262510855 69.263726747878536 0 0 0 0 -1.5651793237795779 -2.8217033190530287 0 -2.8217033190530287 13.43384011953642 0 0 0 0 897.10759508933484 632.96900220267321 0 632.96900220267321 370.81189725797594 0 0 0 0 63.047451089859351 -12.871172221617599 0 -12.871172221617599 -128.14166828792077 0 0 0 0 666.88175159756065 766.88906165824301 0 766.88906165824301 791.00415554510982 0 0 0 0 191.12360139368502 -127.86084575880886 0 -127.86084575880886 92.819615689255443 0 0 0 0 -3.2936475962941856 0.32091522292394981 0 0.32091522292394981 9.0427663984039413 0 0 0 0 0.4102268479561566 -11.606767799632557 0 -11.606767799632557 31.39393302991256 0 0 0 0 -128.37270315205302 -81.788222158065423 0 -81.788222158065423 57.493539441180474 0 0 0 0 368.41684638475635 224.18605002412369 0 224.18605002412369 1039.6778934236697 0 0 0 0 -102.61275265770837 100.42627793346151 0 100.42627793346151 -14.685173072619364 0 0 0 0 91.118587740272687 -37.674224236110604 0 -37.674224236110604 60.812408871899606 0 0 0 0 135.50474881870846 120.00991711189818 0 120.00991711189818 46.942370095821389 0 0 0 0 -520.94342901769755 -288.84704899487588 0 -288.84704899487588 -132.20371387470186 0 0 0 0 -0.88161488738395488 -7.2309068271801493 0 -7.2309068271801493 25.927872787597849 0 0 0 0 -34.717053574610986 -24.704457093141173 0 -24.704457093141173 -202.11314131943072 0 0 0 0 -228.26850001081948 -257.02623834078076 0 -257.02623834078076 -236.50850415614332 0 0 0 0 -176.47282914566222 -140.88767831773293 0 -140.88767831773293 -182.83077196334489 0 0 0 0 -323.10534326266838 -27.933064750601261 0 -27.933064750601261 -183.664490400668 0 0 0 0 -154.81219193600487 -133.75043918686788 0 -133.75043918686788 -291.20628021157972 0 0 0 0 28.692513642706217 -11.591321027786762 0 -11.591321027786762 261.65707923712034 0 0 0 0 -34.189078380430828 -221.11358002340421 0 -221.11358002340421 282.23027288108278 0 0 0 0 45.259842365262102 21.856971701807197 0 21.856971701807197 134.2088138334293 0 0 0 0 -12.582586493488861 15.768235290881421 0 15.768235290881421 226.1236029745487 0 0 0 0 -0.46260398161757621 68.440186813360015 0 68.440186813360015 206.09722392310141 0 0 0 0 -27.039064320986867 -41.033527319865584 0 -41.033527319865584 71.085564594411281 0 0 0 0 -13.728814226536542 -14.91657449840568 0 -14.91657449840568 275.49364977707046 0 0 0 0 -5.3523101908658646 31.986932052758675 0 31.986932052758675 124.26471347571714 0 0 0 0 -3.146232079571746 8.4713606349832844 0 8.4713606349832844 181.5092372743311 0 0 0 0 13.452027975774399 76.726073967040179 0 76.726073967040179 -25.098349784257152 0 0 0 0 -28.960819326665757 -12.170755002508706 0 -12.170755002508706 130.36335441937052 0 0 0 0 -41.730655371527064 -4.7856089928900474 0 -4.7856089928900474 166.09413231315011 0 0 0 0 27.270669037116022 131.80100286722882 0 131.80100286722882 221.51780772283018 0 0 0 0 27.048704242320127 138.03322083956004 0 138.03322083956004 232.17623705785445 0 0 0 0 514.45687125682343 499.16351537502396 0 499.16351537502396 300.15664014103913 0 0 0 0 9.7140653021415346 307.84304259254077 0 307.84304259254077 853.61376281741286 0 0 0 0 7.4683091702045203 -210.93823947653709 0 -210.93823947653709 533.57464200843606 0 0 0 0 20.978472152397444 34.992566687348699 0 34.992566687348699 136.54242342600446 0 0 0 0 -21.824556324122476 -11.190027300243337 0 -11.190027300243337 149.29572289591755 0 0 0 0 -115.00080319791959 -95.672510299851638 0 -95.672510299851638 328.62437657766168 0 0 0 0 45.540575523373263 59.412337775072956 0 59.412337775072956 188.55937200652261 0 0 0 0 62.378188112525777 138.17788516523797 0 138.17788516523797 436.4587539269487 0 0 0 0 -17.92108949644998 -32.152476468803968 0 -32.152476468803968 93.97820760647474 0 0 0 0 -39.355765737471309 -46.56164288002099 0 -46.56164288002099 86.32435213654098 0 0 0 0 42.943980437426944 13.449924342286977 0 13.449924342286977 212.16864210266067 0 0 0 0 20.012211535673472 -10.322522257190689 0 -10.322522257190689 31.619030777705479 0 0 0 0 122.70818755449363 -109.23105056033637 0 -109.23105056033637 -26.257085291514159 0 0 0 0 39.827010239063384 27.383133410819937 0 27.383133410819937 195.23714982365527 0 0 0 0 24.030512083947542 41.707869018156998 0 41.707869018156998 225.20948501923613 0 0 0 0 23.149756317739957 48.067707360307395 0 48.067707360307395 208.64870105602768 0 0 0 0 -46.271474262273841 13.057836201471218 0 13.057836201471218 502.21574907522336 0 0 0 0 -56.157875612686908 -39.343132111767297 0 -39.343132111767297 355.89302532516882 0 0 0 0 -102.33731186488876 128.50751483038039 0 128.50751483038039 790.13180323074266 0 0 0 0 55.031352956220466 96.862326920678754 0 96.862326920678754 125.15816025936488 0 0 0 0 34.74288466971484 63.683864761656878 0 63.683864761656878 207.179581064378 0 0 0 0 -3.1487692635692213 -1.1719508002403138 0 -1.1719508002403138 123.47426954590767 0 0 0 0 3.5934151241937542 16.239730289494283 0 16.239730289494283 46.092074548011468 0 0 0 0 10.5500579761847 -8.3515727506973292 0 -8.3515727506973292 70.692194916532685 0 0 0 0 8.8548337045867811 52.832163886560011 0 52.832163886560011 565.49979063788669 0 0 0 0 -38.136749990594296 -22.198591326600997 0 -22.198591326600997 154.51340717299718 0 0 0 0 -28.514043415507757 46.884674902992629 0 46.884674902992629 494.92298185810796 0 0 0 0 35.167465226825698 94.555659430166997 0 94.555659430166997 437.21937909822736 0 0 0 0 -20.299014761346371 73.437664156015671 0 73.437664156015671 371.05944733126671 0 0 0 0 18.223409461004451 -30.904422839826807 0 -30.904422839826807 3.8146822168633605 0 0 0 0 35.280739092329441 92.80354389076092 0 92.80354389076092 252.66515435068413 0 0 0 0 -19.711884884586652 290.78468857496046 0 290.78468857496046 118.22206149312115 0 0 0 0 -87.924292609680379 53.956034653729148 0 53.956034653729148 752.42776309252076 0 0 0 0 235.91376828075681 -137.80305183601013 0 -137.80305183601013 491.82543333090507 0 0 0 0 -55.817254328608897 123.67669075067897 0 123.67669075067897 488.312185631803 0 0 0 0 75.246931544916606 210.8562340155986 0 210.8562340155986 197.59158052859129 0 0 0 0 49.060511710080164 8.0434581000045 0 8.0434581000045 40.160741326079005 0 0 0 0 0.38212589019169663 -2.1496081874159856 0 -2.1496081874159856 18.412444861208115 0 0 0 0 -27.445424357793172 -63.634151060263321 0 -63.634151060263321 117.67083272879245 0 0 0 0 -133.54474320171948 -19.426337146440346 0 -19.426337146440346 104.61294698657002 0 0 0 0 76.58821152168457 182.03296628362659 0 182.03296628362659 443.50169683707645 0 0 0 0 27.996765082237289 18.186087409721949 0 18.186087409721949 209.4479686523191 0 0 0 0 -4.2410400041380854 -39.251451842337701 0 -39.251451842337701 307.60508211801789 0 0 0 0 -51.308780448028756 56.837311769038934 0 56.837311769038934 543.96120950803379 0 0 0 0 269.65114578089515 183.90301918128534 0 183.90301918128534 195.84947402724356 0 0 0 0 111.69587384721854 -173.26929591000953 0 -173.26929591000953 167.08787558178301 0 0 0 0 -94.192989019295055 -73.996112183653167 0 -73.996112183653167 308.92001187067763 0 0 0 0 1.7110775381995995 -0.99209700806654411 0 -0.99209700806654411 -2.6212231039822314 0 0 0 0 -129.2176616134584 95.718490917399322 0 95.718490917399322 106.81580233050045 0 0 0 0 77.635502385431209 -75.164808003526559 0 -75.164808003526559 66.782983152057568 0 0 0 0 67.686198966897848 -41.677306108183984 0 -41.677306108183984 -0.14802562320255674 0 0 0 0 -8.3564632056909431 -46.007965340038936 0 -46.007965340038936 9.0792797673348105 0 0 0 0 -6.300207192608692 -22.328040013492938 0 -22.328040013492938 13.002054170953784 0 0 0 0 168.50035644825948 -107.15631040597509 0 -107.15631040597509 -117.52272599973367 0 0 0 0 62.670487408751796 40.286831759738561 0 40.286831759738561 -98.594877906929469 0 0 0 0 40.689550263641877 -105.85078600029601 0 -105.85078600029601 103.38962327802437 0 0 0 0 163.11162564886163 -263.84667228158719 0 -263.84667228158719 113.35586802035687 0 0 0 0 -7.3594930203032334 -34.6358099761419 0 -34.6358099761419 -34.421717895922484 0 0 0 0 -11.764069589293911 -30.698555814407882 0 -30.698555814407882 115.41461876677204 0 0 0 0 1.6228315933126396 -48.519336848927196 0 -48.519336848927196 -2.2942011306822678 0 0 0 0 -33.441562271268708 -48.445972314289975 0 -48.445972314289975 17.011916221148567 0 0 0 0 37.377784005072044 -79.935742579924408 0 -79.935742579924408 14.963950241886778 0 0 0 0 -76.415877733017624 -91.586840867992578 0 -91.586840867992578 40.725570167982369 0 0 0 0 -6.766615025378087 -25.895518162840744 0 -25.895518162840744 -26.587939377750445 0 0 0 0 -2.3312265526339981 -14.069586397416948 0 -14.069586397416948 19.585880077138597 0 0 0 0 -15.660828551095165 -32.854072759069822 0 -32.854072759069822 -10.149644217744935 0 0 0 0 -9.1895530145875455 -21.783353773775161 0 -21.783353773775161 -6.3483616900557536 0 0 0 0 -17.449187567287026 -27.382988040852069 0 -27.382988040852069 12.507103143150744 0 0 0 0 17.774338537003587 -17.928415594833496 0 -17.928415594833496 10.987492402708995 0 0 0 0 -25.668067191991213 -27.634787164686713 0 -27.634787164686713 0.13449727665329192 0 0 0 0 8.5357315093442594 -42.81797369466949 0 -42.81797369466949 -0.66800447097148208 0 0 0 0 -9.3428721609152205 -21.922923348382994 0 -21.922923348382994 18.650090426504605 0 0 0 0 5.0298217120503068 -52.910207388230447 0 -52.910207388230447 -53.005517311765288 0 0 0 0 -14.690778094636698 -0.033627721793891396 0 -0.033627721793891396 62.975930664790212 0 0 0 0 -6.1590290742678917 -28.855722777141636 0 -28.855722777141636 30.658975101392571 0 0 0 0 -14.301377587840916 -17.460079828574436 0 -17.460079828574436 24.56038600966977 0 0 0 0 -47.59821083743509 -22.37958063899714 0 -22.37958063899714 101.13911151318553 0 0 0 0 -68.133966317619524 -45.693341508136655 0 -45.693341508136655 51.681858300184103 0 0 0 0 -46.979039313332578 -73.655975810099335 0 -73.655975810099335 27.090616356028477 0 0 0 0 -29.498352145732497 -89.148561513320601 0 -89.148561513320601 13.252766442303255 0 0 0 0 6.9609094446095696 -105.12783991335891 0 -105.12783991335891 44.977414243847306 0 0 0 0 -58.591389621401277 -79.314993716045137 0 -79.314993716045137 110.71793990963488 0 0 0 0 -57.623704559516227 -77.505272413286548 0 -77.505272413286548 81.082459139608545 0 0 0 0 -120.57811257685717 33.92167785863785 0 33.92167785863785 28.707508501560369 0 0 0 0 -167.98657373487276 -20.171825446905132 0 -20.171825446905132 146.7725944234935 0 0 0 0 -74.84991474447861 -67.125309986395223 0 -67.125309986395223 159.98156364509487 0 0 0 0 -107.51810159743218 -102.70519659259844 0 -102.70519659259844 222.41848128174024 0 0 0 0 43.50105904796601 -244.80012190738489 0 -244.80012190738489 633.20353324520693 0 0 0 0 35.518144017363738 -192.61408873525943 0 -192.61408873525943 292.0579259415681 0 0 0 0 21.766397744126152 273.2725284952794 0 273.2725284952794 544.64865710602317 0 0 0 0 -0.18969357869404124 -0.55407150585256204 0 -0.55407150585256204 7.2675834387228235 0 0 0 0 326.15156890247818 -186.13540089240269 0 -186.13540089240269 98.178210942473015 0 0 0 0 46.48629941377817 9.9568145103385177 0 9.9568145103385177 25.921385085093789 0 0 0 0 -12.59183557275901 -133.26405414004694 0 -133.26405414004694 147.85401282533167 0 0 0 0 91.596177133881156 -90.363254547777615 0 -90.363254547777615 25.783984162073466 0 0 0 0 -69.26109449136402 -56.325334248176659 0 -56.325334248176659 146.71032361965263 0 0 0 0 -2.2344814806838968 -1.0043325220581778 0 -1.0043325220581778 1.4007744050882991 0 0 0 0 -182.91600448938607 10.869050885936304 0 10.869050885936304 221.82278081936238 0 0 0 0 -106.69520033033359 -57.649163961643353 0 -57.649163961643353 347.78945835243212 0 0 0 0 -23.173675734531116 20.606236568270106 0 20.606236568270106 186.54765694399248 0 0 0 0 -27.192770933645988 45.87393481010804 0 45.87393481010804 352.05757268656089 0 0 0 0 -11.154635223722153 34.991411888990115 0 34.991411888990115 320.58718236042478 0 0 0 0 47.721246007210539 -32.671060887616477 0 -32.671060887616477 -9.3518797702417942 0 0 0 0 -2.1888138976200331 -0.96387502520062185 0 -0.96387502520062185 1.4838059429577157 0 0 0 0 -32.316580646534021 0.14310320611548377 0 0.14310320611548377 52.020530553716526 0 0 0 0 -0.88880340734378649 -0.36806774630579753 0 -0.36806774630579753 0.82776315313067528 0 0 0 0 -14.135928543447562 134.67489932877652 0 134.67489932877652 480.53506157651282 0 0 0 0 -38.869811505587109 -49.853542121709779 0 -49.853542121709779 -11.728196818912693 0 0 0 0 -19.55999427402547 -14.9311280672799 0 -14.9311280672799 21.747374234449381 0 0 0 0 -28.145610361048966 -38.332276120403549 0 -38.332276120403549 -3.6921571858074458 0 0 0 0 -63.68642017949071 10.258205278518062 0 10.258205278518062 113.03529816948867 0 0 0 0 -111.64655473260882 0.6602748133627756 0 0.6602748133627756 111.52605583573313 0 0 0 0 -1.6456502848677701 38.687711477166886 0 38.687711477166886 -4.5856877630176314 0 0 0 0 -3.4923938699296286 58.071501945697491 0 58.071501945697491 58.365928223523952 0 0 0 0 -22.812940934203663 -10.016207891349808 0 -10.016207891349808 21.800091661769073 0 0 0 0 -23.214783200098282 -36.838430569667253 0 -36.838430569667253 -9.3796069989621174 0 0 0 0 17.80044906296467 19.89675726918388 0 19.89675726918388 18.695207327544722 0 0 0 0 51.647128091102786 -102.16947454476031 0 -102.16947454476031 286.21661384380423 0 0 0 0 42.73140089678509 -110.27079360260541 0 -110.27079360260541 415.09095425458509 0 0 0 0 -127.79266187391522 -87.293642498341796 0 -87.293642498341796 346.75277923094109 0 0 0 0 -10.884112888689113 -51.873650767780475 0 -51.873650767780475 331.98899054592766 0 0 0 0 2.2893246792030091 3.0268023846983567 0 3.0268023846983567 5.9105160549935931 0 0 0 0 12.195727608796915 28.441110504048993 0 28.441110504048993 -3.4002178553055273 0 0 0 0 57.472264889167946 -26.469612759581651 0 -26.469612759581651 41.351418926074984 0 0 0 0 13.182546602232605 30.91544926966526 0 30.91544926966526 -4.6690740915946662 0 0 0 0 -4.7115188885437913 -0.54490005939010189 0 -0.54490005939010189 6.8910182587317763 0 0 0 0 -31.431353929610964 -0.31605098664658726 0 -0.31605098664658726 247.11802818378783 0 0 0 0 -10.221112230898932 -154.45087958629716 0 -154.45087958629716 378.69021475166664 0 0 0 0 10.673314582645617 -128.91792678988713 0 -128.91792678988713 319.98088916893175 0 0 0 0 7.2949297960469721 -143.33584796587911 0 -143.33584796587911 537.33501921611605 0 0 0 0 -35.612134941188287 9.2257364416545897 0 9.2257364416545897 518.45109433669859 0 0 0 0 -34.042560810779833 17.262117877460696 0 17.262117877460696 450.71795948745057 0 0 0 0 79.130191597892917 75.550832398643252 0 75.550832398643252 255.50833264099492 0 0 0 0 -43.372590473883974 -33.013091107080982 0 -33.013091107080982 444.49636808333162 0 0 0 0 88.617561215691239 393.96007199470478 0 393.96007199470478 756.52075278937991 0 0 0 0 0.39788567210035097 0.42854610186620334 0 0.42854610186620334 0.8818760961867298 0 0 0 0 252.957405675269 -357.51383728138899 0 -357.51383728138899 506.46991756913485 0 0 0 0 0.55572408569943299 -1.1969818880845935 0 -1.1969818880845935 1.5316360426976985 0 0 0 0 -29.317816521603163 -120.98611874160997 0 -120.98611874160997 988.94603461255247 0 0 0 0 146.60710399350137 -182.73957076430816 0 -182.73957076430816 299.16074538141038 0 0 0 0 161.82210380714437 -276.924099857069 0 -276.924099857069 519.36660690806457 0 0 0 0 -133.1625898994771 111.65145167364972 0 111.65145167364972 -34.523171817221737 0 0 0 0 152.6023203380588 -42.528849253846829 0 -42.528849253846829 679.82665536526474 0 0 0 0 11.945810786691801 12.913025683516892 0 12.913025683516892 11.54083016102598 0 0 0 0 -60.83436592837279 -38.428756747987791 0 -38.428756747987791 540.17515968427324 0 0 0 0 -46.076010987721929 -238.84173639818619 0 -238.84173639818619 830.50558282333077 0 0 0 0 242.99830652966193 -235.6727623562474 0 -235.6727623562474 33.097346359470976 0 0 0 0 15.936058856121463 -3.8211858042086533 0 -3.8211858042086533 105.80249492349685 0 0 0 0 -4.9579121455316866 -23.591211450096168 0 -23.591211450096168 17.424859595765021 0 0 0 0 1.8407837465410921 11.388789201255349 0 11.388789201255349 97.423483281956578 0 0 0 0 -1.5098679579923555 -2.2040123357219272 0 -2.2040123357219272 75.534319492806389 0 0 0 0 -2.9625768232799601 22.478110295094666 0 22.478110295094666 69.5067433897093 0 0 0 0 15.309061082648441 -65.779272029474669 0 -65.779272029474669 145.36159771902749 0 0 0 0 -0.55479365396847324 -6.0222611038421618 0 -6.0222611038421618 -0.70771393174004515 0 0 0 0 -2.4261594543304739 2.6837786890037592 0 2.6837786890037592 7.3841937631464418 0 0 0 0 0.45200664574531402 -2.5983876922455238 0 -2.5983876922455238 18.776089951192262 0 0 0 0 0.51604150332510912 -1.3384936592077281 0 -1.3384936592077281 1.8733154243389123 0 0 0 0 3.4117570851321943 2.5912415466300445 0 2.5912415466300445 21.080066953501955 0 0 0 0 4.9792975998316251 -0.47178102573525393 0 -0.47178102573525393 42.956881771684039 0 0 0 0 -9.884077415595975 -5.6378340706579451 0 -5.6378340706579451 47.913046677218091 0 0 0 0 -13.403759919021013 0.91602548285663943 0 0.91602548285663943 66.953532599480241 0 0 0 0 -16.625254800242146 13.190482776826684 0 13.190482776826684 115.2173828156665 0 0 0 0 -3.2950153133157798 1.7420490520830185 0 1.7420490520830185 -0.91852190622720542 0 0 0 0 -5.4193598306665081 11.381562030252098 0 11.381562030252098 32.721541084669298 0 0 0 0 -2.1801178948536819 -0.96427184371424346 0 -0.96427184371424346 1.1720903245488756 0 0 0 0 9.4409688690611802 4.0683925359335262 0 4.0683925359335262 32.78498957962438 0 0 0 0 -0.30111200526607718 2.4880458851403091 0 2.4880458851403091 241.99758049321099 0 0 0 0 69.419528137175803 213.34840100274596 0 213.34840100274596 447.59525804613804 0 0 0 0 398.89060322585192 -411.11470713016752 0 -411.11470713016752 228.45507340969925 0 0 0 0 -142.38912732262725 165.0169148343266 0 165.0169148343266 436.85322557304607 0 0 0 0 24.42586167697732 -30.371366448177895 0 -30.371366448177895 13.492034209278543 0 0 0 0 -356.01208252136848 371.37235803937074 0 371.37235803937074 726.43565105552261 0 0 0 0 236.75292830950875 331.67835538314563 0 331.67835538314563 524.57785063721531 0 0 0 0 -42.38090897485381 129.26970438845456 0 129.26970438845456 833.58265440049581 0 0 0 0 -154.17572417557494 302.78856656052085 0 302.78856656052085 506.46426277568389 0 0 0 0 -46.804829206777185 83.327565633390805 0 83.327565633390805 366.57247519238445 0 0 0 0 -135.32992989719605 63.128440495682298 0 63.128440495682298 446.53964985813218 0 0 0 0 -219.95464034112956 245.69200984572672 0 245.69200984572672 218.23348394630739 0 0 0 0 -125.37107147043798 56.216790288541233 0 56.216790288541233 90.604973184614209 0 0 0 0 -132.32347796623253 274.35104243911337 0 274.35104243911337 144.35525803468772 0 0 0 0 -105.98802100111607 152.62982706511684 0 152.62982706511684 -283.70815394630517 0 0 0 0 -211.09080013313906 9.3625290148520435 0 9.3625290148520435 27.676893724084948 0 0 0 0 -54.148156489214671 -375.97855733912729 0 -375.97855733912729 1439.3314051477792 0 0 0 0 217.46685659179457 -217.98294311800419 0 -217.98294311800419 788.08083295081451 0 0 0 0 3.8534028477457092 4.6054238110439201 0 4.6054238110439201 4.7888498942259901 0 0 0 0 57.951015635858766 -431.83001918846639 0 -431.83001918846639 1128.3721485379356 0 0 0 0 -183.5497685808823 576.81355641529808 0 576.81355641529808 -213.76855059120135 0 0 0 0 -294.88171696634345 558.51700964405609 0 558.51700964405609 439.11978210613597 0 0 0 0 96.485898489845567 1028.3262967829651 0 1028.3262967829651 1492.8894287843123 0 0 0 0 -391.24247571212618 -29.763423290598439 0 -29.763423290598439 1448.3649272567127 0 0 0 0 4.6170207238631065 17.259558694269799 0 17.259558694269799 124.49421786374296 0 0 0 0 -14.456337632325415 126.58853634163734 0 126.58853634163734 228.70659865645575 0 0 0 0 14.662612058730462 -29.528331337543349 0 -29.528331337543349 11.282289816900011 0 0 0 0 8.2154939065485451 8.2194740345366881 0 8.2194740345366881 140.05085541019071 0 0 0 0 25.207466671034126 18.739630867014057 0 18.739630867014057 87.627315473582712 0 0 0 0 22.259312503078945 16.810882509824296 0 16.810882509824296 119.71437943822821 0 0 0 0 128.89867000753634 39.757698903604251 0 39.757698903604251 82.493750119872857 0 0 0 0 137.26866399622656 112.20951449395216 0 112.20951449395216 81.680397519474354 0 0 0 0 108.82992238356121 135.24878169067961 0 135.24878169067961 90.443669979504193 0 0 0 0 106.47822037796186 148.11436703267645 0 148.11436703267645 69.56572318659164 0 0 0 0 27.660075362171028 95.038030910713132 0 95.038030910713132 94.478879967919056 0 0 0 0 59.406177573167042 204.55606234270454 0 204.55606234270454 310.58209955584607 0 0 0 0 109.04712303781889 183.25292528049613 0 183.25292528049613 168.88910299498639 0 0 0 0 269.42991644070025 217.67635203916871 0 217.67635203916871 172.33314906741725 0 0 0 0 28.266003169783289 -243.74131102518731 0 -243.74131102518731 796.66865601667678 0 0 0 0 325.97379263915627 101.21825129641547 0 101.21825129641547 107.60739159108198 0 0 0 0 -47.797853289320756 -1.3827046302540111 0 -1.3827046302540111 297.06134448968078 0 0 0 0 -2.9834171922947945 -10.837898731692661 0 -10.837898731692661 13.667443671939907 0 0 0 0 -41.547909900074956 80.039665371547017 0 80.039665371547017 82.00433864651859 0 0 0 0 9.0452491070097203 40.239564702755445 0 40.239564702755445 130.00952274572225 0 0 0 0 -3.7604756328131792 6.5102718318119202 0 6.5102718318119202 29.937788393407402 0 0 0 0 156.50385232996041 -2.2646298543113517 0 -2.2646298543113517 55.390185648328043 0 0 0 0 -125.62907448800297 52.680778922120226 0 52.680778922120226 248.09854645683663 0 0 0 0 23.126115776824861 134.20924587119544 0 134.20924587119544 127.32313537006848 0 0 0 0 -50.429026143608553 56.624958380998578 0 56.624958380998578 124.43117868683476 0 0 0 0 19.270937455735293 149.61605725739355 0 149.61605725739355 248.48592997772448 0 0 0 0 -105.2857869369293 73.252821098656568 0 73.252821098656568 265.01460456757923 0 0 0 0 -99.617677436994768 67.816856971225207 0 67.816856971225207 240.01626565671177 0 0 0 0 28.043176970963373 98.357750113813381 0 98.357750113813381 283.27555883730383 0 0 0 0 -39.687739079446146 152.8945234724888 0 152.8945234724888 337.3880851017384 0 0 0 0 73.497988861882959 209.28746905174194 0 209.28746905174194 377.35123308170296 0 0 0 0 145.60038837119902 184.52022340833355 0 184.52022340833355 194.61857425258495 0 0 0 0 45.71676783903969 115.12042166786705 0 115.12042166786705 147.27195842855144 0 0 0 0 95.83825544525962 153.2678227015349 0 153.2678227015349 141.86700884629681 0 0 0 0 106.27790813167599 85.752486361016054 0 85.752486361016054 82.596443184127565 0 0 0 0 138.99488115630299 155.14100907888223 0 155.14100907888223 273.4605472208641 0 0 0 0 226.48504385863225 23.677868092920107 0 23.677868092920107 30.180316956641036 0 0 0 0 279.47787315297865 146.63639421587868 0 146.63639421587868 84.764359604054334 0 0 0 0 28.954807309506577 28.325646883808076 0 28.325646883808076 84.604003635759 0 0 0 0 27.217507790351874 55.711616994021824 0 55.711616994021824 47.458679740739171 0 0 0 0 37.321728973124664 19.070009965267673 0 19.070009965267673 39.749750052593299 0 0 0 0 0.26142010348901668 -0.73803615560260027 0 -0.73803615560260027 1.928801094068902 0 0 0 0 287.9453048874575 354.95029305291246 0 354.95029305291246 433.73690566187724 0 0 0 0 485.70701948441774 257.88728634672589 0 257.88728634672589 276.99752393612289 0 0 0 0 -24.360971611317552 -65.731411667407883 0 -65.731411667407883 0.50560092435625847 0 0 0 0 465.75269139308512 454.8353567700251 0 454.8353567700251 480.54406373493839 0 0 0 0 -3.505270855124917 1.2444667787160597 0 1.2444667787160597 10.540842338344362 0 0 0 0 473.49285707011154 469.28912477383892 0 469.28912477383892 443.2358538293629 0 0 0 0 352.33695031211755 336.63658782698622 0 336.63658782698622 393.88644008385018 0 0 0 0 323.34043159171506 318.01367295889941 0 318.01367295889941 456.62391275845584 0 0 0 0 378.98722412141615 310.67895315698115 0 310.67895315698115 416.63517842558213 0 0 0 0 496.78543126267505 547.21804164725472 0 547.21804164725472 561.19156925930292 0 0 0 0 327.64784267840332 324.40098745006253 0 324.40098745006253 414.70147830705901 0 0 0 0 344.86447671532505 323.64390751181054 0 323.64390751181054 356.49474379877211 0 0 0 0 345.24478249266286 294.67281480156817 0 294.67281480156817 330.55906406504801 0 0 0 0 257.96986459919208 140.38263790747442 0 140.38263790747442 316.21683410722835 0 0 0 0 112.11151187147044 135.62558507190442 0 135.62558507190442 320.7493625873467 0 0 0 0 178.15324289693041 281.32777654270467 0 281.32777654270467 375.48958525259513 0 0 0 0 275.86887030198932 239.36078267122502 0 239.36078267122502 329.90041727551579 0 0 0 0 299.811125737353 269.46533018037735 0 269.46533018037735 348.50898878584121 0 0 0 0 302.39884940041861 310.47524422031347 0 310.47524422031347 381.73362486396218 0 0 0 0 270.20332118083388 293.32490130898805 0 293.32490130898805 352.19622368596902 0 0 0 0 299.45177349759615 278.9126063814083 0 278.9126063814083 446.48253078916605 0 0 0 0 4.3467251517394772 -13.472870736468764 0 -13.472870736468764 21.416466781293821 0 0 0 0 299.61400319548039 313.14925294660679 0 313.14925294660679 420.99333188336459 0 0 0 0 390.40719115982438 190.17938816870628 0 190.17938816870628 418.66308963575284 0 0 0 0 259.35159106996878 338.72024892739137 0 338.72024892739137 474.39999595712288 0 0 0 0 12.749964392501056 201.619028770554 0 201.619028770554 420.80380561186394 0 0 0 0 -272.92116427829114 79.917463803831197 0 79.917463803831197 352.64635878359695 0 0 0 0 15.143017444872072 73.037005577512673 0 73.037005577512673 258.39064234335092 0 0 0 0 -363.4405841006319 -161.40410484596214 0 -161.40410484596214 269.89630360957017 0 0 0 0 -59.469329639034477 0.86308199669339558 0 0.86308199669339558 185.89901227797492 0 0 0 0 24.051833172070474 317.55336961879948 0 317.55336961879948 221.4125485134864 0 0 0 0 -126.1477871463876 65.659918282595754 0 65.659918282595754 186.03324310005701 0 0 0 0 -183.90367870533873 19.819152860984104 0 19.819152860984104 298.71008080748288 0 0 0 0 -150.73002566080868 52.749492950108106 0 52.749492950108106 364.03962269124168 0 0 0 0 -45.254473908912814 178.53644635983801 0 178.53644635983801 352.14502579709369 0 0 0 0 -28.560258264573349 30.206255670222163 0 30.206255670222163 2.4417483697379794 0 0 0 0 2.2266922245449852 3.4027592324593314 0 3.4027592324593314 2.6770331372932787 0 0 0 0 -70.420649206123926 23.721546622575261 0 23.721546622575261 29.95468890714983 0 0 0 0 -0.86111045928242547 2.2026602835491929 0 2.2026602835491929 7.259326964224158 0 0 0 0 0.14240158114989754 4.2395089313304197 0 4.2395089313304197 41.198031053179875 0 0 0 0 -14.504443316502602 31.641862350956217 0 31.641862350956217 3.3572850773489336 0 0 0 0 -6.7890652597521264 4.6130479664312958 0 4.6130479664312958 44.609898527936394 0 0 0 0 -11.736716699139834 -4.0757448100848706 0 -4.0757448100848706 43.249371858540144 0 0 0 0 14.474161865934548 21.202745827518811 0 21.202745827518811 52.00228386784147 0 0 0 0 67.618659490056871 86.821347399732986 0 86.821347399732986 61.618741585945827 0 0 0 0 -12.477581489586555 20.433631680010876 0 20.433631680010876 73.576001927025573 0 0 0 0 13.304121295720339 19.007873532848521 0 19.007873532848521 8.6481975930468451 0 0 0 0 9.1575413703703816 29.374914541156613 0 29.374914541156613 46.457759032397007 0 0 0 0 10.455808196094495 19.158398909068637 0 19.158398909068637 60.257039625517791 0 0 0 0 -22.653032186963173 17.366651085569174 0 17.366651085569174 60.19489994120886 0 0 0 0 -2.7853833062017657 16.807703310325451 0 16.807703310325451 90.399854482631781 0 0 0 0 0.5389027077614621 15.197677818855908 0 15.197677818855908 5.9744561159326253 0 0 0 0 -16.084729816642721 -18.272450915508671 0 -18.272450915508671 64.405289457574327 0 0 0 0 37.88360002686386 26.513285785091284 0 26.513285785091284 -6.2942637338419445 0 0 0 0 200.35997836463366 251.66821124597118 0 251.66821124597118 799.14411456273228 0 0 0 0 1.2353439711669711 -8.1028897709075238 0 -8.1028897709075238 13.737691928810278 0 0 0 0 155.34612318896325 420.67782570594136 0 420.67782570594136 782.28514888904465 0 0 0 0 6.2973609522871357 21.619114141065438 0 21.619114141065438 53.163028788752854 0 0 0 0 -76.447052597327456 -52.971295988936618 0 -52.971295988936618 17.717457898092107 0 0 0 0 -2.5545125184344215 66.479774079478375 0 66.479774079478375 61.523542027462099 0 0 0 0 -73.235495762556184 59.947590406533379 0 59.947590406533379 91.57383523300814 0 0 0 0 -244.69808004114384 -225.63152350948076 0 -225.63152350948076 123.79352351313719 0 0 0 0 186.90421777492065 232.21819366503951 0 232.21819366503951 400.19703339476837 0 0 0 0 -0.36470493575971119 -2.3212378392241106 0 -2.3212378392241106 5.701529417523659 0 0 0 0 331.94534290256024 800.73561090843214 0 800.73561090843214 970.08302459122206 0 0 0 0 -10.053721484404377 35.996651824811124 0 35.996651824811124 783.53747783300241 0 0 0 0 -189.59303391237427 -125.76779364325193 0 -125.76779364325193 350.05562695067545 0 0 0 0 135.81752375127701 268.45537588680236 0 268.45537588680236 742.43647760126623 0 0 0 0 80.748966523717627 350.43534518483648 0 350.43534518483648 782.5712475719838 0 0 0 0 175.75761708672735 409.65841474661283 0 409.65841474661283 335.86822683429637 0 0 0 0 0.417492025319671 -4.2066666689775332 0 -4.2066666689775332 11.251131937103565 0 0 0 0 -73.210510426334963 -177.42319896297704 0 -177.42319896297704 60.14333814328711 0 0 0 0 15.552687917041055 -1.2863501239717152 0 -1.2863501239717152 128.36223044600047 0 0 0 0 16.710188778417091 4.3981237013131249 0 4.3981237013131249 -49.058720227782032 0 0 0 0 -7.9968883234960231 7.5704846677617752 0 7.5704846677617752 121.86922880464772 0 0 0 0 0.60588346298520435 -4.031597344418401 0 -4.031597344418401 10.13600643067636 0 0 0 0 -103.80982109444949 19.932604903900938 0 19.932604903900938 123.54237835413369 0 0 0 0 -197.01803318865677 -181.18326272874037 0 -181.18326272874037 112.48026186036441 0 0 0 0 164.0685497977704 224.70853281685231 0 224.70853281685231 87.652174510578334 0 0 0 0 100.4076449165168 -37.251006031136058 0 -37.251006031136058 -122.98884209150856 0 0 0 0 53.490514512562186 41.446001122349116 0 41.446001122349116 244.74799830761185 0 0 0 0 16.647754380356105 -61.988378618570096 0 -61.988378618570096 79.626625464967219 0 0 0 0 29.930419770296794 4.5531506104161963 0 4.5531506104161963 295.40789829317509 0 0 0 0 129.38346004930281 127.91646657574893 0 127.91646657574893 228.41357189698465 0 0 0 0 71.706725376826398 -41.891923630188103 0 -41.891923630188103 118.11139438175087 0 0 0 0 0.31086049297677221 -21.791379529618602 0 -21.791379529618602 51.823824672365056 0 0 0 0 177.57571198638834 169.25366297360233 0 169.25366297360233 91.582329614090895 0 0 0 0 184.19234591959503 98.179501336142494 0 98.179501336142494 299.56733686404914 0 0 0 0 290.282857697297 211.26901686641031 0 211.26901686641031 152.43917029817567 0 0 0 0 -60.856334353302373 -84.889036481843505 0 -84.889036481843505 92.027795989619335 0 0 0 0 -63.832721612648989 9.252975207012895 0 9.252975207012895 169.64391415814239 0 0 0 0 -330.80117305766146 -230.32247187479152 0 -230.32247187479152 194.61648588630487 0 0 0 0 -137.36016012022844 -24.083445294483681 0 -24.083445294483681 704.30657865096873 0 0 0 0 126.66579068265924 -145.77707260353782 0 -145.77707260353782 5.3439488645235542 0 0 0 0 -0.42308119577227066 -1.2582128530567616 0 -1.2582128530567616 6.0085418130213384 0 0 0 0 100.28483888846949 -262.79579417037166 0 -262.79579417037166 188.35856749638333 0 0 0 0 -60.377207542415739 46.748967166196735 0 46.748967166196735 -1.1118217974581057 0 0 0 0 68.379767157498463 -10.306913163476565 0 -10.306913163476565 -83.541745880902454 0 0 0 0 -13.101302474988643 -66.003955848373153 0 -66.003955848373153 3.217627255799016 0 0 0 0 4.7346962064741547 -108.11378688312107 0 -108.11378688312107 100.02882974175373 0 0 0 0 -100.25988113561948 -116.565146073699 0 -116.565146073699 21.245279546059464 0 0 0 0 146.86940184353443 144.21503007691717 0 144.21503007691717 195.7167602406189 0 0 0 0 -53.424313074068586 24.005566928977018 0 24.005566928977018 154.54438458256337 0 0 0 0 -45.62983376152647 -41.615627354767639 0 -41.615627354767639 73.686929133109516 0 0 0 0 -5.5553720047674933 3.3146808976764817 0 3.3146808976764817 28.314330115430636 0 0 0 0 34.815728737040899 12.469374627762591 0 12.469374627762591 133.37567302151001 0 0 0 0 6.888915782330514 83.464888978880481 0 83.464888978880481 179.02827532612355 0 0 0 0 44.720968067156264 11.007599017226312 0 11.007599017226312 118.13790639770741 0 0 0 0 63.033431274704981 27.919629647236434 0 27.919629647236434 127.49534722995668 0 0 0 0 14.830785932664469 -7.2584566626821214 0 -7.2584566626821214 65.793536235090073 0 0 0 0 170.56491481752164 -149.71408154086384 0 -149.71408154086384 42.466370233254565 0 0 0 0 10.171891314548702 32.885579179281194 0 32.885579179281194 96.095873791535269 0 0 0 0 53.266996185914607 46.979743360108358 0 46.979743360108358 104.80971825135776 0 0 0 0 -19.770782127923866 -7.4657934258423495 0 -7.4657934258423495 88.133507946109205 0 0 0 0 598.96883009753947 -77.522159678039316 0 -77.522159678039316 17.394409855456615 0 0 0 0 84.73010920625893 -37.64052734420693 0 -37.64052734420693 99.618955730416928 0 0 0 0 7.4392540378920131 9.7518466655944849 0 9.7518466655944849 12.748383117440227 0 0 0 0 -43.162960982930599 72.693961015287641 0 72.693961015287641 30.677109682714217 0 0 0 0 36.306535630477654 -3.1763218485883122 0 -3.1763218485883122 58.228241151057759 0 0 0 0 32.208657822624446 21.374588991640849 0 21.374588991640849 78.606137770433634 0 0 0 0 170.10311185671981 46.842633674330955 0 46.842633674330955 138.5681592948531 0 0 0 0 3.7236887789485991 -14.698375704901963 0 -14.698375704901963 60.791234106544486 0 0 0 0 28.241910383198785 -14.63044028737265 0 -14.63044028737265 39.612024482534643 0 0 0 0 32.085440414484765 41.100507771949196 0 41.100507771949196 147.72738775789367 0 0 0 0 47.013482875600857 8.8692221527030597 0 8.8692221527030597 119.59097463656872 0 0 0 0 22.679323492007001 37.904751317210135 0 37.904751317210135 28.293890205455817 0 0 0 0 19.7627201546984 3.3609723881909304 0 3.3609723881909304 102.29355649623358 0 0 0 0 -33.718505834815005 -2.7552430103432926 0 -2.7552430103432926 109.09618216563922 0 0 0 0 20.129578782381941 17.836386496950695 0 17.836386496950695 127.55545150463803 0 0 0 0 31.054233048000242 -11.153051760981725 0 -11.153051760981725 107.15746289752269 0 0 0 0 11.229310828943966 -19.561174560302746 0 -19.561174560302746 34.40796508350563 0 0 0 0 25.569999130362703 16.857723488319607 0 16.857723488319607 92.555815292080297 0 0 0 0 19.956882549745409 3.3228958507605952 0 3.3228958507605952 81.02435800268313 0 0 0 0 -9.1476585437267204 8.029859308578807 0 8.029859308578807 89.614087390119948 0 0 0 0 -2.5865954621203855 39.51616866410285 0 39.51616866410285 97.633313952102071 0 0 0 0 11.344448570811437 26.661280186201111 0 26.661280186201111 106.5322756283058 0 0 0 0 2.0625762760110433 -14.217091279459996 0 -14.217091279459996 27.551147868516807 0 0 0 0 -3.9426879355359574 -22.534643287402702 0 -22.534643287402702 62.664747388737851 0 0 0 0 20.328879257192966 -12.670784384575768 0 -12.670784384575768 75.343685420862016 0 0 0 0 76.924900183774298 -58.498170750841382 0 -58.498170750841382 -145.35369432514926 0 0 0 0 -145.50925621944407 -20.541749362375413 0 -20.541749362375413 85.764318663358608 0 0 0 0 -146.48131776100035 -26.255264468025416 0 -26.255264468025416 139.58453172118607 0 0 0 0 -209.61411419772412 -73.374276127364283 0 -73.374276127364283 109.56252469495666 0 0 0 0 -91.407267891549054 -91.219706548654358 0 -91.219706548654358 76.9929559546581 0 0 0 0 -84.865784580242689 -29.732713647157652 0 -29.732713647157652 77.552430925839872 0 0 0 0 85.42209342797014 -77.183397359639457 0 -77.183397359639457 32.06371556861086 0 0 0 0 3.3522929059388122 -1.0738807624185043 0 -1.0738807624185043 28.640806412145054 0 0 0 0 69.397150746153784 -69.209756147618691 0 -69.209756147618691 -96.839696516725098 0 0 0 0 109.4780459863141 35.832113311201056 0 35.832113311201056 93.11322745332086 0 0 0 0 1.9755425842463532 -16.731716729341933 0 -16.731716729341933 -1.4052381384414794 0 0 0 0 3.3543610036669023 -27.185742518728802 0 -27.185742518728802 91.422932142582198 0 0 0 0 2.6719141649874478 -8.8901698811511736 0 -8.8901698811511736 74.673838507807616 0 0 0 0 30.475792223945064 23.391469182681249 0 23.391469182681249 -1.882856014661229 0 0 0 0 -66.219536380569366 -109.99277227816071 0 -109.99277227816071 147.27551424495323 0 0 0 0 -220.41429320435054 104.94105002769356 0 104.94105002769356 62.02827826164139 0 0 0 0 3.3080840176972934 6.3124548320637963 0 6.3124548320637963 10.067366687076742 0 0 0 0 168.46134693754721 -226.92921736357766 0 -226.92921736357766 157.96274827355955 0 0 0 0 0.094877961593491378 -5.2700722365292698 0 -5.2700722365292698 95.283020944401784 0 0 0 0 -267.62299855067886 -73.362662413344879 0 -73.362662413344879 238.41318558638886 0 0 0 0 -21.099019331078125 -109.23224804156234 0 -109.23224804156234 48.741024332710367 0 0 0 0 48.457493099726889 2.1780057010546443 0 2.1780057010546443 139.70761778723806 0 0 0 0 263.84848245903368 -344.18691245460377 0 -344.18691245460377 494.38505076446017 0 0 0 0 1.5280887789162083 2.0485571098908935 0 2.0485571098908935 3.5247721332098934 0 0 0 0 -51.130646537490065 257.94940248667444 0 257.94940248667444 320.05601696501435 0 0 0 0 12.047789574546186 230.55610738660107 0 230.55610738660107 18.09649479026848 0 0 0 0 -31.250859885930424 106.46335300503529 0 106.46335300503529 76.830473956557398 0 0 0 0 -33.766257170073899 136.21503506311319 0 136.21503506311319 118.67830090235657 0 0 0 0 4.9602255451245583 150.61941635924995 0 150.61941635924995 2.625259122263742 0 0 0 0 -32.729353659779918 55.26001367904064 0 55.26001367904064 -80.550807452504159 0 0 0 0 -18.643797008035875 101.79164828305682 0 101.79164828305682 124.90820877442093 0 0 0 0 -22.880669874762248 65.667016734553727 0 65.667016734553727 139.37509819343722 0 0 0 0 -71.037882469089936 101.56762621302732 0 101.56762621302732 134.05988214521449 0 0 0 0 -84.165767368255615 66.726845017083178 0 66.726845017083178 247.70881574645682 0 0 0 0 -101.4184453388666 119.13605808075954 0 119.13605808075954 128.54591578862255 0 0 0 0 -67.441380420384803 54.087660721928842 0 54.087660721928842 11.432034457473492 0 0 0 0 12.827350205735343 89.773397609157655 0 89.773397609157655 -274.45306206820896 0 0 0 0 -27.876082065341961 51.790146707871827 0 51.790146707871827 -20.757229197773995 0 0 0 0 47.916163907129089 70.947366334795333 0 70.947366334795333 -499.47140419859352 0 0 0 0 -160.29877264497236 225.95637887780686 0 225.95637887780686 1275.4445376422182 0 0 0 0 24.755637536388804 -59.55706420623028 0 -59.55706420623028 659.74619809200522 0 0 0 0 3.34100373789577 0.85036048720731827 0 0.85036048720731827 0.67341798244023465 0 0 0 0 -9.4218147050978587 -5.9066277141791943 0 -5.9066277141791943 706.20315042822222 0 0 0 0 123.39727114049924 65.073112238571412 0 65.073112238571412 428.4456292385803 0 0 0 0 9.8806311719408235 5.2812359133331768 0 5.2812359133331768 1.6524356152066844 0 0 0 0 37.283662138750401 126.42327729802855 0 126.42327729802855 557.04572470924904 0 0 0 0 -168.97806222491909 62.390781323116244 0 62.390781323116244 33.678236174162521 0 0 0 0 -145.16348048038344 142.75213581543903 0 142.75213581543903 304.81952995055326 0 0 0 0 -6.9645513644163657 203.04859032657805 0 203.04859032657805 -114.62523735368177 0 0 0 0 -9.7369608288645395 186.83181000947297 0 186.83181000947297 42.452511641384262 0 0 0 0 85.479924897782212 259.32054489903294 0 259.32054489903294 377.48422768889577 0 0 0 0 -94.214282247949086 -61.552291218817118 0 -61.552291218817118 216.91011235484984 0 0 0 0 -270.93807110910075 -50.447613443802766 0 -50.447613443802766 324.69277498428346 0 0 0 0 -206.11113005480183 -62.104747126752045 0 -62.104747126752045 144.6367641462266 0 0 0 0 -329.82118682743931 -238.45937487546325 0 -238.45937487546325 -22.578059887309792 0 0 0 0 -248.76521794627843 -116.1581172727274 0 -116.1581172727274 153.7953662745067 0 0 0 0 5.7751823388519199 -6.2736681594415487 0 -6.2736681594415487 -9.4664416817069394 0 0 0 0 -404.32957000823262 -330.97771264484254 0 -330.97771264484254 -53.494184704934014 0 0 0 0 -402.77729795155574 -450.58802881184238 0 -450.58802881184238 -342.22906819602213 0 0 0 0 -545.19825917855451 -303.61338055990564 0 -303.61338055990564 80.44621783049115 0 0 0 0 -337.77753877685848 -2.1628443487877576 0 -2.1628443487877576 226.51966687080858 0 0 0 0 -287.86312992387866 32.166468312076177 0 32.166468312076177 73.263128806720488 0 0 0 0 -48.914765852911387 -107.27638147229663 0 -107.27638147229663 134.04345496207316 0 0 0 0 -241.85621446658342 -254.8085144566503 0 -254.8085144566503 -119.07045523726265 0 0 0 0 -520.30751874229327 -282.85358259743953 0 -282.85358259743953 4.0471227152920619 0 0 0 0 -92.260299955622941 -84.720922685528421 0 -84.720922685528421 -107.28811005729222 0 0 0 0 -571.49616790775553 -195.56744056183015 0 -195.56744056183015 9.2779255126806675 0 0 0 0 -0.36411718974188467 -17.112318476795089 0 -17.112318476795089 46.408712437458355 0 0 0 0 13.621092838241111 -16.409159685198915 0 -16.409159685198915 70.325325201323722 0 0 0 0 13.386053136325032 4.8122357046364641 0 4.8122357046364641 71.477179674377112 0 0 0 0 -6.2228520373027365 0.4928681462052964 0 0.4928681462052964 13.130773524325079 0 0 0 0 -2.9966305711218411 122.81089736493595 0 122.81089736493595 420.72620189761346 0 0 0 0 67.482504496266756 31.588015298253595 0 31.588015298253595 126.28046445028667 0 0 0 0 -10.280630538898663 229.52019964171359 0 229.52019964171359 440.66661060539627 0 0 0 0 37.012887183083194 9.3138752574250248 0 9.3138752574250248 11.640620670736098 0 0 0 0 -155.09888428517706 -16.402703283013579 0 -16.402703283013579 176.36801024077431 0 0 0 0 87.453976228050806 62.786944277302609 0 62.786944277302609 198.65905354843562 0 0 0 0 2.4305604799174034 23.591753032078486 0 23.591753032078486 219.05778021122387 0 0 0 0 80.050378998689666 23.556563541638752 0 23.556563541638752 139.60237119742305 0 0 0 0 -24.910629330984875 -65.509613996935514 0 -65.509613996935514 184.99724936861458 0 0 0 0 -57.74449685976424 -44.407881975692362 0 -44.407881975692362 189.15995105094044 0 0 0 0 -254.24086461016805 -168.62075552043643 0 -168.62075552043643 122.52764581525571 0 0 0 0 -440.84915220209456 -227.43747334291925 0 -227.43747334291925 -219.56837977388932 0 0 0 0 -0.36212585549690157 -0.98740044017560535 0 -0.98740044017560535 0.55398599054377939 0 0 0 0 2.8943177007531631 -20.994108707363921 0 -20.994108707363921 193.13126543240742 0 0 0 0 26.578118228215317 -18.268935315049021 0 -18.268935315049021 59.724924214897328 0 0 0 0 -6.7650972901540172 1.2658344717783621 0 1.2658344717783621 82.264730444534507 0 0 0 0 -241.95636175740356 -288.46239297772308 0 -288.46239297772308 -217.62047436470311 0 0 0 0 -390.88335698628816 -111.66021204671779 0 -111.66021204671779 11.957914179496584 0 0 0 0 -473.250390214258 -419.46400746501035 0 -419.46400746501035 48.189060760836583 0 0 0 0 50.90027111427753 63.40831622600308 0 63.40831622600308 54.729751744100213 0 0 0 0 -0.40565220587043616 -11.128656352237751 0 -11.128656352237751 38.667365612617203 0 0 0 0 -62.164761228543284 34.812153721355571 0 34.812153721355571 115.26340151185468 0 0 0 0 -18.792900376214675 14.731181246568667 0 14.731181246568667 39.362191750249622 0 0 0 0 2.1904983708191139 -27.353810160140711 0 -27.353810160140711 0.1578919415405835 0 0 0 0 -36.359577296747148 -32.422427599479533 0 -32.422427599479533 63.760847695428311 0 0 0 0 5.1868959669890025 -20.221378911044638 0 -20.221378911044638 42.383756646695581 0 0 0 0 197.12599980092091 289.37507760327446 0 289.37507760327446 222.8222619077371 0 0 0 0 -1.6102828402824798 -21.371620703515305 0 -21.371620703515305 55.114321537403157 0 0 0 0 -10.264934938884835 83.936660670935453 0 83.936660670935453 216.92022701091645 0 0 0 0 198.98870681642347 312.47671651703263 0 312.47671651703263 454.73594402885647 0 0 0 0 171.02537601771473 449.79581717142037 0 449.79581717142037 170.99385512303377 0 0 0 0 44.902254850145255 1146.6030711942387 0 1146.6030711942387 540.15290619108191 0 0 0 0 149.02748619932117 355.34210994980072 0 355.34210994980072 -225.34247602483629 0 0 0 0 -32.966896508426927 12.848031872313435 0 12.848031872313435 127.97951116026087 0 0 0 0 -11.413105684453072 24.442454287037314 0 24.442454287037314 148.98204355916141 0 0 0 0 -75.789378407808726 -8.6426545372578403 0 -8.6426545372578403 130.60950097948535 0 0 0 0 279.64161442266777 -994.31279080257991 0 -994.31279080257991 1890.7181804295815 0 0 0 0 1535.6803192225179 355.05504581463265 0 355.05504581463265 -654.22669977280248 0 0 0 0 -48.745088796713389 -131.42981707883712 0 -131.42981707883712 1309.8624922064707 0 0 0 0 9.9541063545971156 9.9434207406862996 0 9.9434207406862996 2.8837866367275398 0 0 0 0 14.660434385525761 7.1651583803342866 0 7.1651583803342866 30.076230338104864 0 0 0 0 -203.27942419569627 821.13033085997722 0 821.13033085997722 561.72059723301754 0 0 0 0 -17.331309996595557 -11.811831491829608 0 -11.811831491829608 26.543681371409917 0 0 0 0 -50.984688083881551 5.0053436086988299 0 5.0053436086988299 209.36023253526713 0 0 0 0 -91.279620340368638 -288.33769004717942 0 -288.33769004717942 543.10964679208701 0 0 0 0 893.95157424638819 470.02785559729728 0 470.02785559729728 -436.00923776115542 0 0 0 0 125.0915831678285 533.40422692973516 0 533.40422692973516 590.5066739461721 0 0 0 0 660.87347048822176 444.90946571026916 0 444.90946571026916 -114.51559780286334 0 0 0 0 -1.3948188391004805 -70.352625015422291 0 -70.352625015422291 69.692070227244358 0 0 0 0 -20.527872251678673 -764.89355114828413 0 -764.89355114828413 412.76131818670183 0 0 0 0 -3.3480035774680132 -18.77595729611323 0 -18.77595729611323 69.014601196845462 0 0 0 0 7.3741865054451878 -3.5958783676447013 0 -3.5958783676447013 48.469831679889239 0 0 0 0 16.732362231694424 -30.74057601190907 0 -30.74057601190907 69.945863183103938 0 0 0 0 -18.093082784052967 -44.306071042666645 0 -44.306071042666645 170.38867004259282 0 0 0 0 37.965439437055466 31.022654934626189 0 31.022654934626189 170.68864171706809 0 0 0 0 15.213829702799103 -25.21882397780837 0 -25.21882397780837 49.867575806227251 0 0 0 0 0.4735732200684275 -23.493164772568825 0 -23.493164772568825 45.186142200249691 0 0 0 0 -206.03719294610892 -191.14777730002606 0 -191.14777730002606 -9.5862935828772606 0 0 0 0 0.23363207108437223 -24.885373733825158 0 -24.885373733825158 40.120209462782732 0 0 0 0 1.6825381560665846 -16.902325539449521 0 -16.902325539449521 72.760068689291074 0 0 0 0 -18.380864013686733 -99.662106998519448 0 -99.662106998519448 -94.855116718666977 0 0 0 0 1.7172596343443729 -13.566034009585564 0 -13.566034009585564 72.631659955854047 0 0 0 0 -1.5926954777914943 -10.761300342957838 0 -10.761300342957838 71.103954859730948 0 0 0 0 4.9827672542123764 -7.1712745950662793 0 -7.1712745950662793 66.529541877958764 0 0 0 0 1.691960854230274 -13.480351292653722 0 -13.480351292653722 73.035630238842714 0 0 0 0 9.443711719573912 -18.197714442216238 0 -18.197714442216238 72.439175966807852 0 0 0 0 9.9956197108913329 -14.046427797853539 0 -14.046427797853539 72.592843271304446 0 0 0 0 38.377890254432714 17.880832307364017 0 17.880832307364017 250.19133039827625 0 0 0 0 2.7329443577209531 -18.245596282556107 0 -18.245596282556107 84.454590879928219 0 0 0 0 9.9405347297151394 -23.027946533343965 0 -23.027946533343965 57.389715825825583 0 0 0 0 3.5501926892566189 -8.5589393133727754 0 -8.5589393133727754 79.396156301261726 0 0 0 0 -5.5807856638103388 2.1286399457894731 0 2.1286399457894731 8.0507224526954815 0 0 0 0 0.027065750992332174 -3.717511160466529 0 -3.717511160466529 5.2242847218585666 0 0 0 0 -3.9171255057101293 8.0426241068053059 0 8.0426241068053059 18.805797586697736 0 0 0 0 -4.0317810732706754 -2.1873163018317427 0 -2.1873163018317427 5.0642924939893419 0 0 0 0 0.0097857533884776072 0.98776742501221448 0 0.98776742501221448 6.0905410200037409 0 0 0 0 0.62140450284158533 1.800824409830966 0 1.800824409830966 6.0299338766053552 0 0 0 0 -1.3428953814823927 1.5316389691652148 0 1.5316389691652148 8.1253572427958716 0 0 0 0 -3.6020055010587129 3.5831847503141034 0 3.5831847503141034 7.4964016077283304 0 0 0 0 -1.3790545641288077 3.9656367385468911 0 3.9656367385468911 7.2215933483676054 0 0 0 0 4.8520882240790684 4.0417313768994063 0 4.0417313768994063 -6.5525757803407032 0 0 0 0 -2.1722395042780906 14.488892542925669 0 14.488892542925669 16.767206134623848 0 0 0 0 -1.7540013293919836 4.0633891901518382 0 4.0633891901518382 7.366275731663336 0 0 0 0 -4.691232518746471 5.1553702843011706 0 5.1553702843011706 7.086532549088588 0 0 0 0 -6.4245316779305881 2.2243822382297367 0 2.2243822382297367 4.5178396532865008 0 0 0 0 -6.715849868440614 3.1636134166255943 0 3.1636134166255943 12.125252600002568 0 0 0 0 -4.1383210521530884 10.116266908498801 0 10.116266908498801 -3.2340578495204682 0 0 0 0 -6.191427168475542 8.7105987880859175 0 8.7105987880859175 -12.371065850922605 0 0 0 0 -11.224373741116892 9.8896469899264048 0 9.8896469899264048 -2.8959855152170348 0 0 0 0 -8.538899079755188 12.602289913433822 0 12.602289913433822 3.2959509947655388 0 0 0 0 -40.175139790313551 16.567058472981444 0 16.567058472981444 -3.3191370200147503 0 0 0 0 -6.5946310514385686 6.3343722563695337 0 6.3343722563695337 -1.2182964720996097 0 0 0 0 -10.121397953712213 12.769241962325509 0 12.769241962325509 1.6626619322478469 0 0 0 0 -0.22875075743734996 1.2849010291828051 0 1.2849010291828051 -3.0344431244256782 0 0 0 0 7.0334500808057783 20.78536950648413 0 20.78536950648413 -54.423327324002457 0 0 0 0 -9.7192913992057015 9.6042071488482179 0 9.6042071488482179 -0.29845543553528842 0 0 0 0 -2.1685562897868369 0.19904363760909405 0 0.19904363760909405 12.573304248736338 0 0 0 0 -3.6752773225522626 3.7366749118122868 0 3.7366749118122868 6.7152537619640498 0 0 0 0 -2.6038502014349092 2.0791783319145907 0 2.0791783319145907 12.506983647996094 0 0 0 0 -8.9941477876261047 5.9350601544101664 0 5.9350601544101664 9.4307500385475578 0 0 0 0 -2.339481143806438 1.2746864606015151 0 1.2746864606015151 5.6475090245658066 0 0 0 0 0.30460034381898188 0.70433438740239751 0 0.70433438740239751 1.0335816127686712 0 0 0 0 0.082868976511716166 0.67132033176004402 0 0.67132033176004402 8.1488768519976134 0 0 0 0 0.0011158353240577792 -0.2231855289574014 0 -0.2231855289574014 8.8267665588646196 0 0 0 0 0.69586316747919552 -0.77931016875663772 0 -0.77931016875663772 6.4702173156838398 0 0 0 0 -1.6708352161126885 1.7150670827177237 0 1.7150670827177237 15.617839036684018 0 0 0 0 -1.1878427098447528 1.9726978097984391 0 1.9726978097984391 9.0956056339201155 0 0 0 0 -1.1701044593790582 3.7198905458644731 0 3.7198905458644731 9.7333268300135387 0 0 0 0 -1.1086353497665045 -1.6036519488116028 0 -1.6036519488116028 16.548214523403658 0 0 0 0 -0.013338789466696983 -0.077253322904539345 0 -0.077253322904539345 4.7003384140394218 0 0 0 0 -0.58147853608763178 -1.4639804712933666 0 -1.4639804712933666 14.988529248215343 0 0 0 0 -1.6127614591968773 -2.3876367571137962 0 -2.3876367571137962 15.356193262006855 0 0 0 0 0.0010259200049779857 -1.9182354472723091 0 -1.9182354472723091 14.798536241185502 0 0 0 0 -0.49356328462987253 -2.7372479092300637 0 -2.7372479092300637 13.445882889485802 0 0 0 0 1.2933349531177214 1.3162312814238248 0 1.3162312814238248 18.736148567055352 0 0 0 0 -2.3031120740911319 -3.0258996367338113 0 -3.0258996367338113 18.228160300475338 0 0 0 0 -1.2589259594654711 -4.8726464948986887 0 -4.8726464948986887 18.670278821402462 0 0 0 0 8.859365301443404 -8.3863500985171413 0 -8.3863500985171413 18.008621691851658 0 0 0 0 1.5088972195512724 -6.6628531541064149 0 -6.6628531541064149 18.490548526198836 0 0 0 0 -0.0037286562377130952 -3.1052336490756716 0 -3.1052336490756716 14.680428412306355 0 0 0 0 0.028565956998992979 -2.5122545647523546 0 -2.5122545647523546 14.530737955766483 0 0 0 0 -3.7621394517604654 -2.2683242751736543 0 -2.2683242751736543 16.541994967585197 0 0 0 0 -1.0014151175155828 -1.8236569082655478 0 -1.8236569082655478 13.206214785950579 0 0 0 0 -2.6397806862100146 -3.7275614305617637 0 -3.7275614305617637 18.239914134013816 0 0 0 0 -0.26496206472007489 -0.239118719563578 0 -0.239118719563578 2.9224436609327284 0 0 0 0 10.572301754076065 5.1262710357113974 0 5.1262710357113974 13.923770390974823 0 0 0 0 1.0811356128353751 -2.286937963711098 0 -2.286937963711098 0.11073413072898575 0 0 0 0 4.8081205721637161 -6.311784548794094 0 -6.311784548794094 15.191895636446134 0 0 0 0 3.4318040895204867 -6.5978912433225787 0 -6.5978912433225787 5.714269793391253 0 0 0 0 7.8781716303264746 -13.514538612765721 0 -13.514538612765721 12.312619112475659 0 0 0 0 0.70054443985701953 3.4464119161406046 0 3.4464119161406046 11.008036124198611 0 0 0 0 -0.71920773309611974 10.040970245486278 0 10.040970245486278 27.947763405798469 0 0 0 0 50.469644825489638 -25.404067207571643 0 -25.404067207571643 483.91337678881428 0 0 0 0 7.2435856367109537 -11.473789765848778 0 -11.473789765848778 11.575672510760342 0 0 0 0 -0.010786509661482353 -0.02381844596364591 0 -0.02381844596364591 34.208350602246355 0 0 0 0 13.070008080452737 4.4412028861006547 0 4.4412028861006547 1.7965883142023813 0 0 0 0 -47.774447352561992 -93.064483097463381 0 -93.064483097463381 537.30281113620367 0 0 0 0 5.9086014880082596 0.66473530878474207 0 0.66473530878474207 -0.56154111048658706 0 0 0 0 89.147233921327484 -107.40676899705431 0 -107.40676899705431 187.68423293714295 0 0 0 0 5.2456249774998458 0.19223932082212514 0 0.19223932082212514 2.4743319587778529 0 0 0 0 7.4378776611067678 -4.0750508519195137 0 -4.0750508519195137 8.5481404705351451 0 0 0 0 6.7594635460495738 2.0796165748906787 0 2.0796165748906787 13.510415705590276 0 0 0 0 0.5668878276109901 -1.5824496412619311 0 -1.5824496412619311 2.1720550249191319 0 0 0 0 5.5209266142405795 -8.1099925764283398 0 -8.1099925764283398 18.895167759881588 0 0 0 0 11.188140190668264 -6.7290890324948123 0 -6.7290890324948123 16.925049075696734 0 0 0 0 6.9437487305025911 -4.4780143592852255 0 -4.4780143592852255 17.726881248527206 0 0 0 0 10.660087148383354 -6.1156806120707188 0 -6.1156806120707188 17.22091060065577 0 0 0 0 8.1985161843852552 -1.6876199445923703 0 -1.6876199445923703 15.973289950168692 0 0 0 0 -0.30273534743969321 -1.6561510143510532 0 -1.6561510143510532 16.475090584193822 0 0 0 0 14.385452003755972 2.3484160199004691 0 2.3484160199004691 4.1692557455971837 0 0 0 0 6.4399204034061768 -4.1478714762633899 0 -4.1478714762633899 23.671133180730976 0 0 0 0 -8.7529902028356332 -59.867671389655698 0 -59.867671389655698 -3.8112979682919104 0 0 0 0 5.3740359328304281 -9.4067242741655974 0 -9.4067242741655974 15.006528663436598 0 0 0 0 10.407734281006014 0.57827207863010699 0 0.57827207863010699 18.434995619230904 0 0 0 0 13.437824765055439 -2.9198589362349594 0 -2.9198589362349594 16.48457892445731 0 0 0 0 -59.959420419020944 8.4150582675683836 0 8.4150582675683836 102.65981888145325 0 0 0 0 3.2414295719261563 -8.7222227189641046 0 -8.7222227189641046 18.397468856315015 0 0 0 0 -17.962332490095832 -36.771698624172132 0 -36.771698624172132 45.843088011199143 0 0 0 0 -26.892874370720165 -39.585156471133814 0 -39.585156471133814 135.94244946849358 0 0 0 0 16.714620506756546 -8.597688958485378 0 -8.597688958485378 -4.8108339561970297 0 0 0 0 5.9572197118163785 -39.154253855136631 0 -39.154253855136631 72.4778376378963 0 0 0 0 21.313185127226916 -0.017706978600472212 0 -0.017706978600472212 85.563721848651767 0 0 0 0 26.951125346103254 -34.320163097523618 0 -34.320163097523618 87.401803518980159 0 0 0 0 5.6569077633566849 -9.4034519081833423 0 -9.4034519081833423 111.88158037212997 0 0 0 0 18.032647768689799 -1.5115437774747988 0 -1.5115437774747988 64.071790200439864 0 0 0 0 2.184922036082412 -19.498386909781402 0 -19.498386909781402 113.19416068051942 0 0 0 0 15.457662005562725 -40.125128964631585 0 -40.125128964631585 68.085607519038604 0 0 0 0 3.7380145578254087 -11.751409293530742 0 -11.751409293530742 47.949444651225349 0 0 0 0 36.016951404506017 -25.224715481359453 0 -25.224715481359453 -8.6324254903593101 0 0 0 0 -16.013264794253928 -9.2304122443310916 0 -9.2304122443310916 -11.872105320580886 0 0 0 0 -2.302859991104242 -10.149925248207182 0 -10.149925248207182 -1.670382038661046 0 0 0 0 20.702686077391718 -40.520904404867906 0 -40.520904404867906 20.40360826352844 0 0 0 0 30.339060006329646 -30.015854437042435 0 -30.015854437042435 -50.592196808058361 0 0 0 0 11.491178470592629 -7.0725995319176889 0 -7.0725995319176889 2.4336099687144923 0 0 0 0 78.394573228633021 -61.282600977356196 0 -61.282600977356196 55.2511518046731 0 0 0 0 -0.67095889857257918 -0.068397835299663257 0 -0.068397835299663257 0.84082761579884391 0 0 0 0 22.289903172538857 -91.006721205765643 0 -91.006721205765643 386.78973669209518 0 0 0 0 -31.493741773431111 -3.2854929071545484 0 -3.2854929071545484 352.24807147908723 0 0 0 0 -37.279996771676338 -49.568132222542772 0 -49.568132222542772 476.9590533618466 0 0 0 0 -71.343567699249206 -86.305508150728201 0 -86.305508150728201 388.21469453176542 0 0 0 0 237.77351721238483 -65.001814020914026 0 -65.001814020914026 -65.97753969184123 0 0 0 0 137.3905918186324 -78.713313588013989 0 -78.713313588013989 474.17253693732346 0 0 0 0 -27.110132708681704 -89.744295509932272 0 -89.744295509932272 482.24622535979142 0 0 0 0 -94.348398071059819 -26.864449647255242 0 -26.864449647255242 909.09406673756894 0 0 0 0 286.16183732978971 -540.8162425539922 0 -540.8162425539922 185.01775319466833 0 0 0 0 0.11769240661398594 0.54845556335212109 0 0.54845556335212109 0.54038475714229151 0 0 0 0 562.13783591879792 -258.66124564391794 0 -258.66124564391794 132.7026738608256 0 0 0 0 0.31506374954942062 0.16719451834093491 0 0.16719451834093491 0.97046632830176804 0 0 0 0 23.895299649749177 5.9463500806959928 0 5.9463500806959928 377.46364804248151 0 0 0 0 1.3300859258517903 -61.328879563175178 0 -61.328879563175178 530.56246989358624 0 0 0 0 -48.263380104009229 -79.34739956073463 0 -79.34739956073463 473.73114819471448 0 0 0 0 -2.6747010659639066 -0.42549907116585928 0 -0.42549907116585928 1.1195418622321114 0 0 0 0 27.499510608639639 -72.577794593915314 0 -72.577794593915314 278.1654892633378 0 0 0 0 35.798433079375627 -17.536955477386073 0 -17.536955477386073 -93.094116714287338 0 0 0 0 10.85384223663614 -6.6135314642699541 0 -6.6135314642699541 0.57175562165350158 0 0 0 0 -5.2820673183216016 8.5711868161374696 0 8.5711868161374696 -72.058709506454761 0 0 0 0 -22.744799734503545 -23.73570577265491 0 -23.73570577265491 39.794544760254212 0 0 0 0 -10.193092183380259 -36.92832897457447 0 -36.92832897457447 -31.92311551446619 0 0 0 0 -10.301797493319327 -28.17570810487814 0 -28.17570810487814 43.313981390660047 0 0 0 0 30.376043312275215 -25.325337867325288 0 -25.325337867325288 -30.409483621253457 0 0 0 0 27.070327019761407 -33.638633573995321 0 -33.638633573995321 43.153651473211312 0 0 0 0 -17.419420501823652 -31.461110710923094 0 -31.461110710923094 113.20133014414751 0 0 0 0 26.164653804030308 -27.893116699597158 0 -27.893116699597158 40.018338294554269 0 0 0 0 -13.587481280646671 -24.059000851144447 0 -24.059000851144447 217.77680944687745 0 0 0 0 7.9904587146693586 37.126461093866965 0 37.126461093866965 -7.3238829748879652 0 0 0 0 2.3160377895051845 16.183210600758571 0 16.183210600758571 6.870900657596934 0 0 0 0 9.1887967032471352 27.326535041516763 0 27.326535041516763 -31.913528873727046 0 0 0 0 -2.4922126065819725 7.6284026957127935 0 7.6284026957127935 17.049438600210124 0 0 0 0 -1.7880007022189366 14.439474716891255 0 14.439474716891255 7.1029479296603739 0 0 0 0 -12.736813512723302 -47.49253831511669 0 -47.49253831511669 188.79058493506454 0 0 0 0 32.864557855119301 -38.229124375720858 0 -38.229124375720858 112.68076584533583 0 0 0 0 14.647520081208313 -6.2250026154797524 0 -6.2250026154797524 115.59100179750749 0 0 0 0 21.000400705459754 -40.154817114633261 0 -40.154817114633261 133.56350453860068 0 0 0 0 -0.072075762915403629 21.189041425514006 0 21.189041425514006 -26.282660185839632 0 0 0 0 -5.7781325562850903 13.634792546118064 0 13.634792546118064 3.5367288621823576 0 0 0 0 10.81982640705246 -38.535454946832033 0 -38.535454946832033 137.19593185721897 0 0 0 0 -1.4061700413135441 -13.793122913681145 0 -13.793122913681145 182.84062022098806 0 0 0 0 0.041544320368139154 -0.74505486192848025 0 -0.74505486192848025 4.3593312112799918 0 0 0 0 7.2916386454868416 6.8704803286746028 0 6.8704803286746028 -13.033919259556569 0 0 0 0 -8.2245049028153971 21.758227442598582 0 21.758227442598582 13.747735459459363 0 0 0 0 8.9159147205091358 13.784752656181809 0 13.784752656181809 16.892562289001944 0 0 0 0 5.1977467124056034 43.183007138306493 0 43.183007138306493 71.530225752125261 0 0 0 0 25.738366398439894 17.727077459450811 0 17.727077459450811 2.3547129578801105 0 0 0 0 5.4864608167888491 18.44554928541038 0 18.44554928541038 62.303657110802305 0 0 0 0 -0.89439184338687028 20.374867175498366 0 20.374867175498366 93.529935519516584 0 0 0 0 16.913945616429828 40.04530572303338 0 40.04530572303338 54.056090377023793 0 0 0 0 0.32821659285150417 37.470673959709529 0 37.470673959709529 43.03625250353798 0 0 0 0 0.78548020021446519 33.429172762200324 0 33.429172762200324 23.513544649751566 0 0 0 0 -3.7943400865344756 31.982900148854242 0 31.982900148854242 47.715939000380502 0 0 0 0 7.8613173849728355 13.165550215911935 0 13.165550215911935 31.359795376560214 0 0 0 0 10.703216039904191 28.540130088535079 0 28.540130088535079 47.766750078721088 0 0 0 0 -6.102517119726599 7.5861475041456288 0 7.5861475041456288 96.980918665212812 0 0 0 0 4.3206034266379447 39.422659983909398 0 39.422659983909398 110.41036881583568 0 0 0 0 -7.7441502217850484 15.730716942573054 0 15.730716942573054 56.681464233311999 0 0 0 0 -11.935936668604427 17.501686293020612 0 17.501686293020612 57.976042732552742 0 0 0 0 -24.788363253969692 12.111320197138411 0 12.111320197138411 55.952338665229036 0 0 0 0 -1.9919383674336768 10.582666290633817 0 10.582666290633817 41.172640242583668 0 0 0 0 -6.6910282018893668 9.6189074083740707 0 9.6189074083740707 47.509192425830406 0 0 0 0 -6.3891521417644981 13.646910946117714 0 13.646910946117714 50.525542116658471 0 0 0 0 -16.894985544445262 22.139924345116015 0 22.139924345116015 46.102109630493942 0 0 0 0 -7.2643039780814309 6.067423116676423 0 6.067423116676423 5.0470482405046511 0 0 0 0 -16.630246632447438 4.9558075733657461 0 4.9558075733657461 62.540035259480646 0 0 0 0 0.50407257273371897 16.709067301888354 0 16.709067301888354 40.469220041093649 0 0 0 0 3.0740606984101708 11.972927063694684 0 11.972927063694684 35.919879964596817 0 0 0 0 -9.7693852008626436 29.857185223314445 0 29.857185223314445 45.104677510258625 0 0 0 0 0.013424750988860978 -28.386246602116444 0 -28.386246602116444 312.14028993679676 0 0 0 0 3.2996029820055188 4.7723221629790373 0 4.7723221629790373 -2.8134684759484117 0 0 0 0 5.7420801801474681 8.7869729702651966 0 8.7869729702651966 179.84051079336223 0 0 0 0 11.754165396690382 -18.417070020783285 0 -18.417070020783285 179.07502892828779 0 0 0 0 38.023647110894672 2.0291336592927109 0 2.0291336592927109 169.27457562056952 0 0 0 0 28.792481406866763 -27.30892105039311 0 -27.30892105039311 178.89273707795655 0 0 0 0 0.77145659352527218 -7.006416203774279 0 -7.006416203774279 169.11508473985305 0 0 0 0 -10.822492698939186 -13.516908092846279 0 -13.516908092846279 171.11967103180359 0 0 0 0 -1.0269000167135038 1.2245890634271177 0 1.2245890634271177 5.3755559603155518 0 0 0 0 3.9114670218202718 -5.5661206098484399 0 -5.5661206098484399 168.39419337893196 0 0 0 0 1.4943257002847758 -1.3331743369853939 0 -1.3331743369853939 161.01380112789047 0 0 0 0 5.4071268543573296 -0.36952919213217683 0 -0.36952919213217683 160.50070464261808 0 0 0 0 11.943357302790446 -8.8738317224560888 0 -8.8738317224560888 135.8344115405198 0 0 0 0 12.922341845351866 -8.6113081958392286 0 -8.6113081958392286 129.01262125269568 0 0 0 0 10.827814905576986 9.456913603200519 0 9.456913603200519 153.10058916734124 0 0 0 0 17.237796935973165 -7.5301266890601255 0 -7.5301266890601255 168.21518300710886 0 0 0 0 5.4021840162979515 9.1548678425460821 0 9.1548678425460821 186.98991695182485 0 0 0 0 14.572466021404921 -12.819704356141301 0 -12.819704356141301 134.57595691653842 0 0 0 0 -3.4789837458172457 -10.135009046680352 0 -10.135009046680352 181.49705475082737 0 0 0 0 11.192367047215953 -5.6932030795196624 0 -5.6932030795196624 228.83538053928351 0 0 0 0 -8.3890798352330194 -19.974977209967619 0 -19.974977209967619 226.01589038633392 0 0 0 0 6.7941672938086697 17.71095402142987 0 17.71095402142987 10.805080735694986 0 0 0 0 21.283054739027193 -37.986622608230391 0 -37.986622608230391 128.57287824415835 0 0 0 0 7.3705838749721693 -15.744301219081535 0 -15.744301219081535 59.556665892581805 0 0 0 0 -27.339396517543491 -34.08356019686471 0 -34.08356019686471 130.64319900588271 0 0 0 0 -5.8425409002593653 -50.66645966640499 0 -50.66645966640499 36.221151391699095 0 0 0 0 -23.860458523136472 -15.420425136893755 0 -15.420425136893755 134.71287676252859 0 0 0 0 12.652930801748198 -23.860452233442629 0 -23.860452233442629 69.088239219403476 0 0 0 0 -7.8053364261631515 -63.364730143177439 0 -63.364730143177439 -56.473219025385333 0 0 0 0 -30.022076106237108 4.7209653382706165 0 4.7209653382706165 51.937054009220446 0 0 0 0 -13.988666199283749 13.872359495951969 0 13.872359495951969 -105.19944654675783 0 0 0 0 -17.128695651472299 -6.0189101891519385 0 -6.0189101891519385 2.1688057255087188 0 0 0 0 6.3334135797292674 -56.727080223157827 0 -56.727080223157827 -34.216052509800647 0 0 0 0 18.787543420518517 -42.946965733084653 0 -42.946965733084653 -148.06602225927782 0 0 0 0 19.063887946859268 -75.079342899363837 0 -75.079342899363837 540.3934686757575 0 0 0 0 7.7645641722908092 -4.893509699736569 0 -4.893509699736569 0.92739601890626133 0 0 0 0 -88.312589337294412 -31.341200827155262 0 -31.341200827155262 -64.29060716200911 0 0 0 0 -34.768677195964017 31.465777813536988 0 31.465777813536988 -107.89600854713353 0 0 0 0 -0.74300545043882238 0.13519841290761292 0 0.13519841290761292 1.2423672349874977 0 0 0 0 25.531493516462774 26.562973094922199 0 26.562973094922199 880.93770468005096 0 0 0 0 38.992550968195019 -120.65335996408248 0 -120.65335996408248 633.34462447524129 0 0 0 0 17.641099060939496 -89.557265039387858 0 -89.557265039387858 610.2579308168788 0 0 0 0 -2.0922247861109726 -0.011815837678057051 0 -0.011815837678057051 1.3389118978995214 0 0 0 0 2.6687251859200387 -99.057495236687828 0 -99.057495236687828 634.60237031602446 0 0 0 0 21.954727095815997 -96.689381057265564 0 -96.689381057265564 609.52781720489293 0 0 0 0 280.01713665168427 -347.29624101083027 0 -347.29624101083027 762.49289722290996 0 0 0 0 252.69930097652602 -108.36586619817854 0 -108.36586619817854 426.5750301474036 0 0 0 0 66.442439811887198 -53.544000747584505 0 -53.544000747584505 512.19259832956595 0 0 0 0 183.83340415826024 -63.018658365763258 0 -63.018658365763258 463.77939918937045 0 0 0 0 120.30882293282855 -130.27818167250371 0 -130.27818167250371 563.0938399960869 0 0 0 0 83.507548455604137 -127.54977375477029 0 -127.54977375477029 584.33125644675101 0 0 0 0 84.987249289169085 -120.77283387701027 0 -120.77283387701027 575.43678693678521 0 0 0 0 106.52179794255699 -62.610231313447002 0 -62.610231313447002 -283.25580312251986 0 0 0 0 2.912176306668441 -1.5858814195947843 0 -1.5858814195947843 0.72677294569608364 0 0 0 0 -79.172909597412854 -182.47662684725947 0 -182.47662684725947 1054.1113948020429 0 0 0 0 115.57513121523334 -201.25593235599808 0 -201.25593235599808 -91.718795108012273 0 0 0 0 152.06442426799356 -317.50748409845073 0 -317.50748409845073 204.87289786139445 0 0 0 0 61.648780297026406 -139.75020200527069 0 -139.75020200527069 490.61651454037928 0 0 0 0 42.017076048901799 -89.58633984716289 0 -89.58633984716289 79.698794757336145 0 0 0 0 29.123722525672179 -1.5567498123054975 0 -1.5567498123054975 -48.951214444496145 0 0 0 0 14.03865356273991 -50.117418051922868 0 -50.117418051922868 -5.4646396137250122 0 0 0 0 69.570619793671483 -64.917401358910865 0 -64.917401358910865 50.286590432704543 0 0 0 0 31.832505864871337 -26.659251130004122 0 -26.659251130004122 30.148833598224883 0 0 0 0 -1.7256329592915449 -12.69279727063622 0 -12.69279727063622 133.05320892632881 0 0 0 0 37.753082671662696 -53.471960588320144 0 -53.471960588320144 148.15254425743478 0 0 0 0 14.854185935327678 -34.421196730458178 0 -34.421196730458178 174.22452405102376 0 0 0 0 18.61427454519162 -56.49757068551844 0 -56.49757068551844 187.78078163818282 0 0 0 0 -0.93999415947270659 0.2837094412456338 0 0.2837094412456338 0.74427619071236961 0 0 0 0 69.248452791428235 -118.24733405617008 0 -118.24733405617008 205.38807626337075 0 0 0 0 -43.774003671847822 -148.21749372776685 0 -148.21749372776685 199.01425214859046 0 0 0 0 132.56031727212644 -186.44863715090833 0 -186.44863715090833 148.28592394466978 0 0 0 0 73.876942817421423 -120.97166522224143 0 -120.97166522224143 112.92356818880216 0 0 0 0 80.952959661656223 -183.00100695271976 0 -183.00100695271976 275.74697114623268 0 0 0 0 47.673644702051661 -131.08359890733118 0 -131.08359890733118 234.51631472225563 0 0 0 0 51.315883919555233 -156.55968035281012 0 -156.55968035281012 173.2369284790766 0 0 0 0 -28.619935427596374 -61.342526808017283 0 -61.342526808017283 272.65369179591653 0 0 0 0 -53.117097559324918 -12.13968220088509 0 -12.13968220088509 397.40335700439755 0 0 0 0 4.3283968157115851 -94.358307736321876 0 -94.358307736321876 302.27723740220245 0 0 0 0 62.373413095453088 -75.990826001987443 0 -75.990826001987443 403.42047200168599 0 0 0 0 5.8036236268581405 -63.011153301737068 0 -63.011153301737068 412.27106646992615 0 0 0 0 -115.80138556918871 -4.1073258790511318 0 -4.1073258790511318 347.7829345799837 0 0 0 0 -78.725202429193359 -63.414583020334248 0 -63.414583020334248 230.11742175757536 0 0 0 0 -50.254528607906479 -56.484721055964883 0 -56.484721055964883 342.29573800222715 0 0 0 0 -92.968506186117338 -11.666382201598026 0 -11.666382201598026 306.114350445132 0 0 0 0 -58.970293816980018 -115.70882897402407 0 -115.70882897402407 56.630499746272108 0 0 0 0 -33.15026806723651 -106.63313148552061 0 -106.63313148552061 188.89241244246659 0 0 0 0 -52.338170286050627 -59.699489114878816 0 -59.699489114878816 137.06470527939382 0 0 0 0 -74.886354470758761 29.178126310333028 0 29.178126310333028 61.498379210082931 0 0 0 0 -13.904577546340988 -8.2977884478168562 0 -8.2977884478168562 -90.021296624603565 0 0 0 0 -123.01579109431805 -14.489282229871606 0 -14.489282229871606 212.22719218711427 0 0 0 0 -96.109991832654487 -167.12024801251391 0 -167.12024801251391 287.03497785086802 0 0 0 0 142.10637267221864 1.5915034951176494 0 1.5915034951176494 -11.49611657569767 0 0 0 0 50.781539616407827 40.427864415025397 0 40.427864415025397 445.90884652003297 0 0 0 0 18.944955063754151 -212.66483921185136 0 -212.66483921185136 -180.87195924615662 0 0 0 0 -0.68235497862804451 -0.15788472981893165 0 -0.15788472981893165 0.35456618823855024 0 0 0 0 -74.75523703207034 -246.00930025859998 0 -246.00930025859998 67.969991719292011 0 0 0 0 40.994069264071641 -115.53763496139436 0 -115.53763496139436 356.07411656197655 0 0 0 0 -1.5482713701031354 0.15429000068672849 0 0.15429000068672849 1.0829018885086441 0 0 0 0 14.190996528000596 -152.31486260933161 0 -152.31486260933161 305.77864722368395 0 0 0 0 40.783087934389641 -107.13613433580031 0 -107.13613433580031 302.82816930850095 0 0 0 0 -17.326881876686912 -79.017544964579429 0 -79.017544964579429 377.38550218840101 0 0 0 0 -1.0257135304975868 0.29522513860084132 0 0.29522513860084132 1.0105448510359309 0 0 0 0 -24.304453304167509 -76.345847800355841 0 -76.345847800355841 288.32450610648084 0 0 0 0 34.954482319015824 -54.447176865804067 0 -54.447176865804067 213.66220911567962 0 0 0 0 -17.714220340226348 -8.1939020746431197 0 -8.1939020746431197 225.38766255602604 0 0 0 0 4.6911058955404314 -17.967909886552661 0 -17.967909886552661 216.10288458579453 0 0 0 0 21.226788776803346 -41.504494888384215 0 -41.504494888384215 179.35920033790171 0 0 0 0 5.0164161338948361 -68.130203247499594 0 -68.130203247499594 260.53519664774285 0 0 0 0 6.6298751846611594 -32.175105880414776 0 -32.175105880414776 194.27808151442878 0 0 0 0 22.530261823641922 -30.223888793832884 0 -30.223888793832884 175.93311117707344 0 0 0 0 -5.0421008319067369 -10.585291811810748 0 -10.585291811810748 166.87817520385579 0 0 0 0 0.34545685619536926 -25.508091232248262 0 -25.508091232248262 141.97775587165961 0 0 0 0 -7.8459092993930426 -2.3754894787998637 0 -2.3754894787998637 173.00334312487394 0 0 0 0 -19.460846852240593 0.67457583311625058 0 0.67457583311625058 173.33640354409636 0 0 0 0 13.074942305346667 -33.914139584696386 0 -33.914139584696386 178.5974343000853 0 0 0 0 -11.059817812802521 5.8664835875533754 0 5.8664835875533754 108.55898387893831 0 0 0 0 -0.22266675895246379 0.39715392359266843 0 0.39715392359266843 -0.19026538949825067 0 0 0 0 8.5248531402576191 13.403198327228893 0 13.403198327228893 101.06134753932565 0 0 0 0 -5.1730306148900809 9.760428910212795 0 9.760428910212795 42.29422088003048 0 0 0 0 4.2056872481834944 9.184627294072925 0 9.184627294072925 43.614155241390108 0 0 0 0 1.2822131005741539 24.535629105521366 0 24.535629105521366 64.662893795932177 0 0 0 0 9.7937343499277176 11.045508552932006 0 11.045508552932006 49.115252188552404 0 0 0 0 -3.9952978511375736 5.2149861289930186 0 5.2149861289930186 -1.5940255567973054 0 0 0 0 -7.7628752765569189 -1.137908413895218 0 -1.137908413895218 2.5423714664658945 0 0 0 0 -2.9731282041083631 3.4361731783069445 0 3.4361731783069445 0.4941783672325073 0 0 0 0 -16.282911544783929 39.601621966154198 0 39.601621966154198 117.38048188440007 0 0 0 0 -19.321245568512836 82.534490035398903 0 82.534490035398903 28.35218983933737 0 0 0 0 -6.2440731040551327 20.719171355420258 0 20.719171355420258 48.239568196833716 0 0 0 0 -5.4306806181105483 -0.21530298824166039 0 -0.21530298824166039 2.36451230514119 0 0 0 0 -11.515691733858148 -35.108178299509746 0 -35.108178299509746 43.283913906459929 0 0 0 0 4.051020316752215 33.270188493148908 0 33.270188493148908 143.42220090888441 0 0 0 0 7.8917451170818822 -6.5298455884912983 0 -6.5298455884912983 101.77587003912049 0 0 0 0 6.5947995097039893 -1.0584843728502165 0 -1.0584843728502165 130.80354967777384 0 0 0 0 -18.897067093375426 25.987714756174682 0 25.987714756174682 125.90391171230294 0 0 0 0 10.784627481573807 13.099930699339893 0 13.099930699339893 4.1050381403401843 0 0 0 0 -4.4055638654281211 1.2833795463375282 0 1.2833795463375282 -3.7689152476887102 0 0 0 0 -24.016280343495964 21.19320067314402 0 21.19320067314402 5.9597210591455223 0 0 0 0 -51.546102924982733 21.797915470029693 0 21.797915470029693 23.438840553877526 0 0 0 0 -0.11735699416549572 0.57808728220548744 0 0.57808728220548744 -0.670862009440782 0 0 0 0 13.172997184167343 24.27108857431358 0 24.27108857431358 27.462020992563339 0 0 0 0 12.060631036414634 18.710349297587527 0 18.710349297587527 27.403312252296018 0 0 0 0 25.585536504329866 11.142852702731034 0 11.142852702731034 9.6289007882987789 0 0 0 0 7.0890473331769499 8.7405504108428431 0 8.7405504108428431 16.937624868514831 0 0 0 0 3.7369477716824804 14.485219706333737 0 14.485219706333737 29.173788457774208 0 0 0 0 -1.3770102175190004 25.972271201655531 0 25.972271201655531 58.625274052785244 0 0 0 0 6.5252019429481152 14.484532472277351 0 14.484532472277351 27.787345236305555 0 0 0 0 -1.082703500334901 22.371522828882007 0 22.371522828882007 37.028537748861709 0 0 0 0 -0.52732022631057518 6.7722953945309996 0 6.7722953945309996 9.6892632344360692 0 0 0 0 -7.9432802929104582 15.133274139661808 0 15.133274139661808 28.119043152448285 0 0 0 0 1.8867333624430103 20.878180241688824 0 20.878180241688824 21.165090977840009 0 0 0 0 8.0129782744779732 13.327999082197493 0 13.327999082197493 -3.6564757722007926 0 0 0 0 5.7931478077366592 5.8333443199735484 0 5.8333443199735484 2.2066022918588715 0 0 0 0 -4.2829230062179704 -5.041062734737352 0 -5.041062734737352 20.540105116218911 0 0 0 0 -0.35333295409994392 6.0335147188795588 0 6.0335147188795588 4.0301773371627121 0 0 0 0 5.4741655452335181 -4.5593404973187717 0 -4.5593404973187717 3.1610594632657012 0 0 0 0 -13.525764665594579 0.60614159061879036 0 0.60614159061879036 23.695882497348066 0 0 0 0 5.3591493929642127 0.060315027239767005 0 0.060315027239767005 13.769374026334845 0 0 0 0 40.977787670456166 -73.171593720188866 0 -73.171593720188866 -7.1936482085002353 0 0 0 0 -63.353873572897555 -14.989145111889229 0 -14.989145111889229 13.042722081474494 0 0 0 0 -0.066151028497302811 1.9691788169426303 0 1.9691788169426303 16.587987322093738 0 0 0 0 49.566975703523894 9.8528312123307842 0 9.8528312123307842 -21.594120314784959 0 0 0 0 4.8770274237740523 10.214680396711628 0 10.214680396711628 -16.244239166844636 0 0 0 0 -0.99963860871806531 -1.2172686695407151 0 -1.2172686695407151 9.1615560526699369 0 0 0 0 30.085030299066602 44.198874304864148 0 44.198874304864148 92.138179928020691 0 0 0 0 203.62672439942344 112.65849882746988 0 112.65849882746988 -4.63697153954854 0 0 0 0 -2.6093112343523899 9.4964227638629382 0 9.4964227638629382 9.2312757979816524 0 0 0 0 28.194906985763282 2.6568281763029518 0 2.6568281763029518 11.831895879775402 0 0 0 0 -0.12342042775397211 3.5342676654248351 0 3.5342676654248351 0.21212467803997015 0 0 0 0 -16.710055704442766 80.496029355555947 0 80.496029355555947 81.054728422954213 0 0 0 0 50.836859140236811 36.604866173525807 0 36.604866173525807 3.7736385497364608 0 0 0 0 36.421311960255935 180.23511466450145 0 180.23511466450145 346.42297466819582 0 0 0 0 -1.3216373314471639 58.060569255248993 0 58.060569255248993 93.631890863172885 0 0 0 0 33.686868975597463 129.72024180911103 0 129.72024180911103 375.7309594358303 0 0 0 0 -113.18329941550155 71.60251882060038 0 71.60251882060038 715.74217238985875 0 0 0 0 95.429259836271285 272.61294439554695 0 272.61294439554695 651.32759770021948 0 0 0 0 32.475639149268318 84.352874924174102 0 84.352874924174102 742.01220750691573 0 0 0 0 -13.652344395574801 184.89034833253027 0 184.89034833253027 549.75273574292078 0 0 0 0 -13.652935161089772 223.64692320186441 0 223.64692320186441 689.72431593927286 0 0 0 0 94.990979043183415 79.204506088975904 0 79.204506088975904 260.36353005415003 0 0 0 0 143.05253403335701 125.48337412863475 0 125.48337412863475 353.80720644822577 0 0 0 0 39.390162385760959 61.062074306857539 0 61.062074306857539 547.09148912472165 0 0 0 0 72.789809997861994 -4.0665424125254503 0 -4.0665424125254503 302.92023614522623 0 0 0 0 -10.812529845874451 44.330069808980625 0 44.330069808980625 281.26559278909554 0 0 0 0 244.47441261548738 146.760369657517 0 146.760369657517 226.50849036009458 0 0 0 0 364.13567880898245 67.619455655105412 0 67.619455655105412 276.71040575693041 0 0 0 0 293.48071590967356 16.754932885705784 0 16.754932885705784 575.08780695385212 0 0 0 0 150.13338553141148 46.021019309104304 0 46.021019309104304 569.18165448495711 0 0 0 0 206.85629619197425 282.92359070058592 0 282.92359070058592 272.73606522590853 0 0 0 0 521.292187690113 81.54474157004006 0 81.54474157004006 338.50419182055339 0 0 0 0 -32.951803402537735 186.1618068281241 0 186.1618068281241 1022.2170746725897 0 0 0 0 237.04490319515958 -432.27752056479403 0 -432.27752056479403 512.81481377704768 0 0 0 0 256.31801444070516 -5.2488063164164487 0 -5.2488063164164487 1124.3881198866875 0 0 0 0 69.81285146377877 262.86723159155008 0 262.86723159155008 856.72732619050657 0 0 0 0 40.738989089890993 121.0288960034668 0 121.0288960034668 879.42759302261402 0 0 0 0 -65.160530288822883 -5.7560118087239971 0 -5.7560118087239971 68.116752938891295 0 0 0 0 0.034797735803902441 -0.27117552279389656 0 -0.27117552279389656 3.9930089959852353 0 0 0 0 344.28055546411724 380.90071222168262 0 380.90071222168262 505.43495482639264 0 0 0 0 -0.039133312958581357 0.29224358306966991 0 0.29224358306966991 6.5829506423585826 0 0 0 0 87.754106062820028 163.50777590641155 0 163.50777590641155 103.59758171564317 0 0 0 0 34.311387252000713 -148.14786653796909 0 -148.14786653796909 150.20019371980743 0 0 0 0 -14.315965627404694 -172.73491184438899 0 -172.73491184438899 424.38869347190848 0 0 0 0 -57.966911879326517 -139.01695944767562 0 -139.01695944767562 454.01359373400919 0 0 0 0 -34.487533881775562 136.60408153882599 0 136.60408153882599 914.23542947341048 0 0 0 0 -9.1940953209328882 42.353393021145166 0 42.353393021145166 45.726120013729087 0 0 0 0 -2.4684501108775336 0.56095369309844045 0 0.56095369309844045 0.90996657742824993 0 0 0 0 -37.243101893751373 134.49894562253758 0 134.49894562253758 414.17907157615991 0 0 0 0 106.14637071440484 210.10289841782287 0 210.10289841782287 381.24351426509384 0 0 0 0 131.42398826624321 190.27447279899934 0 190.27447279899934 356.87267930410599 0 0 0 0 24.159414542214563 142.89312576699012 0 142.89312576699012 435.01330987468828 0 0 0 0 81.837410190648825 234.42164988344302 0 234.42164988344302 354.22602597484365 0 0 0 0 11.728630829779831 27.307709450949915 0 27.307709450949915 303.54560897122656 0 0 0 0 51.235159357833254 64.154784626400215 0 64.154784626400215 194.55971936245624 0 0 0 0 17.563359459455569 8.2847963602107484 0 8.2847963602107484 224.65940593497362 0 0 0 0 46.35381260616532 -5.0411439303788939 0 -5.0411439303788939 146.66596509862575 0 0 0 0 68.78467072843705 85.134393063694006 0 85.134393063694006 267.56839443826175 0 0 0 0 12.630434589560537 56.961624122966896 0 56.961624122966896 282.93091823084978 0 0 0 0 89.07132428681507 107.39382592224865 0 107.39382592224865 307.12972120721133 0 0 0 0 91.589445933379466 66.42983498670219 0 66.42983498670219 319.06629910483025 0 0 0 0 40.004523817604422 127.77264029947401 0 127.77264029947401 269.52693008034839 0 0 0 0 16.423771683523455 -52.209437693441032 0 -52.209437693441032 195.56520884335623 0 0 0 0 78.21829533266191 41.646609179551888 0 41.646609179551888 6.8166861500940286 0 0 0 0 3.8802232663656469 89.683351777624921 0 89.683351777624921 -7.9083146626981033 0 0 0 0 -42.011096799708866 -46.965616802917793 0 -46.965616802917793 37.279926731047453 0 0 0 0 36.583992172280887 -49.251128483396315 0 -49.251128483396315 -50.828641092783073 0 0 0 0 -12.884594121421742 -14.931155886784836 0 -14.931155886784836 182.18951843629475 0 0 0 0 44.731134691812258 17.833427292469423 0 17.833427292469423 55.587973587855231 0 0 0 0 30.68762040602212 -6.37219508371345 0 -6.37219508371345 -67.892998068666202 0 0 0 0 -1.8697483309784957 -51.812003050790736 0 -51.812003050790736 21.489155728428159 0 0 0 0 -7.6574840574041039 -1.086903140332538 0 -1.086903140332538 -0.062666522061391561 0 0 0 0 16.375223746151732 -62.681652947576367 0 -62.681652947576367 54.55141436343547 0 0 0 0 25.216712898587957 -233.40854802630929 0 -233.40854802630929 624.04980790500122 0 0 0 0 127.04877746723469 -138.10463874414381 0 -138.10463874414381 269.57686027849559 0 0 0 0 -71.405375282615296 -71.499780937105243 0 -71.499780937105243 805.47426919754798 0 0 0 0 2.1190974862622038 0.59400790286125016 0 0.59400790286125016 0.11623018214869774 0 0 0 0 -44.823722817840178 11.808961165163055 0 11.808961165163055 461.53860101710598 0 0 0 0 -28.543742882861636 -131.69347962219035 0 -131.69347962219035 501.89860124852567 0 0 0 0 44.095430933614807 -149.47827739059721 0 -149.47827739059721 398.51905593094125 0 0 0 0 -9.5135579357333881 -105.85785663534261 0 -105.85785663534261 456.46880532582873 0 0 0 0 -34.234414151789451 -57.281245764592313 0 -57.281245764592313 386.27729026704037 0 0 0 0 59.551512063687369 26.789295312779359 0 26.789295312779359 19.448184693930671 0 0 0 0 -4.8793143447137624 -39.201622723718174 0 -39.201622723718174 213.49562153761508 0 0 0 0 -26.543335846634363 21.095963165644207 0 21.095963165644207 175.68694910302384 0 0 0 0 80.54291469146392 -66.386776479550463 0 -66.386776479550463 182.27304072567495 0 0 0 0 -29.162447493322361 -32.065716556237021 0 -32.065716556237021 306.79083213593549 0 0 0 0 36.574595377178184 -38.125293034896458 0 -38.125293034896458 60.885490764652786 0 0 0 0 -91.947158999832027 -42.383204326462874 0 -42.383204326462874 207.76904467698478 0 0 0 0 0.26922474586020773 6.3946494632385438 0 6.3946494632385438 21.549536312675968 0 0 0 0 43.980741142386933 24.026722704158601 0 24.026722704158601 6.7107869639003184 0 0 0 0 -46.977061349194628 83.138233350604423 0 83.138233350604423 73.365651603506194 0 0 0 0 -5.6389128118250529 9.6046121357310881 0 9.6046121357310881 12.988318798505645 0 0 0 0 -13.461756073509605 6.6456207374867518 0 6.6456207374867518 27.692047332326183 0 0 0 0 -9.9382331525166592 82.997985372479889 0 82.997985372479889 -42.42635046664509 0 0 0 0 -51.241887555399671 47.661301112104411 0 47.661301112104411 11.427739587044925 0 0 0 0 -81.077040311244673 43.464006729256653 0 43.464006729256653 31.421135345372022 0 0 0 0 -0.36938462382750004 10.220401895407122 0 10.220401895407122 29.678791918078787 0 0 0 0 -5.5677743932692465 10.529906295516412 0 10.529906295516412 42.219597166884341 0 0 0 0 -7.5395463757991337 0.67961609289886837 0 0.67961609289886837 4.3464334035556647 0 0 0 0 -0.44487961402333198 11.728633720761245 0 11.728633720761245 19.971420834974367 0 0 0 0 -16.630621052564948 4.7758960640494479 0 4.7758960640494479 27.153858028177638 0 0 0 0 -14.102107068414625 8.3644007266848348 0 8.3644007266848348 22.388557044207118 0 0 0 0 -15.546875869840733 12.33441579999635 0 12.33441579999635 22.318658461294035 0 0 0 0 -18.291665429919703 16.076433913156507 0 16.076433913156507 27.129227894009091 0 0 0 0 -9.1010355946459924 0.49127788807501105 0 0.49127788807501105 24.441738336508649 0 0 0 0 -13.968163403285384 -0.44760909859019193 0 -0.44760909859019193 12.678462995896339 0 0 0 0 -13.809191568661845 9.7676023944222834 0 9.7676023944222834 37.292644904024201 0 0 0 0 -1.5563658463174761 3.5594567368534626 0 3.5594567368534626 29.215829687673249 0 0 0 0 -7.1155146882683766 6.8766770104411989 0 6.8766770104411989 27.316701365780318 0 0 0 0 -13.271952474189675 8.4540879588166717 0 8.4540879588166717 30.403589236317202 0 0 0 0 -13.360686743261795 6.4996018725942122 0 6.4996018725942122 26.803890679264441 0 0 0 0 -15.316900895068102 11.100157002685592 0 11.100157002685592 28.058002837846288 0 0 0 0 -12.537910041199666 8.1796221804615925 0 8.1796221804615925 29.050964248075616 0 0 0 0 -10.09952099389011 8.801547073177062 0 8.801547073177062 28.106632088863989 0 0 0 0 -17.875453804057543 14.573568497784436 0 14.573568497784436 32.048047547694296 0 0 0 0 -8.0775057777548227 4.7731628461042419 0 4.7731628461042419 34.613819369958946 0 0 0 0 -4.6039216674265049 0.062721413816689164 0 0.062721413816689164 43.846098648718907 0 0 0 0 -7.3799299958446802 -5.7936289702340105 0 -5.7936289702340105 5.1158002281717216 0 0 0 0 -8.8341786489914149 8.7973435657164316 0 8.7973435657164316 8.0708860880148876 0 0 0 0 -12.248619403923307 8.3901694991548084 0 8.3901694991548084 75.642568156748894 0 0 0 0 13.379874294968431 37.450129624550755 0 37.450129624550755 37.740128654309956 0 0 0 0 -9.4164813819771886 0.92642349660076206 0 0.92642349660076206 1.633579772840605 0 0 0 0 -0.79072486845984891 1.2697410270252192 0 1.2697410270252192 2.2134312185799274 0 0 0 0 -14.984957926527045 10.828936956324469 0 10.828936956324469 142.65147492934193 0 0 0 0 -42.144711901213441 21.573065246640908 0 21.573065246640908 19.289586766812135 0 0 0 0 64.247082740273527 -17.306574578997242 0 -17.306574578997242 -160.5931793966447 0 0 0 0 12.340652629528449 70.206683724092727 0 70.206683724092727 -114.039507017289 0 0 0 0 -3.3440073886071913 -0.98835542510252594 0 -0.98835542510252594 0.35259911461632498 0 0 0 0 60.454272839701844 -49.28361372409563 0 -49.28361372409563 -84.563536866364302 0 0 0 0 -29.009076903207671 -75.414395686180796 0 -75.414395686180796 175.46452073621913 0 0 0 0 21.225979556832272 83.238265711610438 0 83.238265711610438 9.4663735293288482 0 0 0 0 -2.7043239936700729 31.528855162556283 0 31.528855162556283 94.030648155370727 0 0 0 0 -8.4804232185131241 35.548649416319677 0 35.548649416319677 120.87848121931893 0 0 0 0 11.126792106836547 17.628185346831742 0 17.628185346831742 89.495730373670085 0 0 0 0 1.6113420597118875 42.712553150606254 0 42.712553150606254 97.637507628685853 0 0 0 0 18.327044177610958 46.137464701707358 0 46.137464701707358 140.26623489494523 0 0 0 0 5.5198348682637857 -88.419573167620911 0 -88.419573167620911 103.29575092911546 0 0 0 0 0.18025034142516105 -2.4592271612448826 0 -2.4592271612448826 1.2749880195367354 0 0 0 0 -30.299107708821282 -54.804325803321262 0 -54.804325803321262 280.66743886910263 0 0 0 0 -65.429846153366356 -44.75993714449578 0 -44.75993714449578 280.50305447340361 0 0 0 0 -1.1255812775299319 24.627417319974484 0 24.627417319974484 251.72849858776317 0 0 0 0 26.881403262904769 -104.13475839106104 0 -104.13475839106104 421.5602989227591 0 0 0 0 -72.82805986625317 -84.157497237843927 0 -84.157497237843927 441.81649811322131 0 0 0 0 -46.751274352650398 -115.34623753816413 0 -115.34623753816413 437.3090561365525 0 0 0 0 -53.124578262933824 -44.805065680819098 0 -44.805065680819098 408.85143845889252 0 0 0 0 -56.20048189766942 -29.756431115762098 0 -29.756431115762098 445.25011071859717 0 0 0 0 -56.274440643425578 -63.052812196176092 0 -63.052812196176092 609.43144695738738 0 0 0 0 -42.958653202002097 -68.190573921558098 0 -68.190573921558098 447.83751216978999 0 0 0 0 104.70228312469197 -258.79573056990921 0 -258.79573056990921 760.20468042371795 0 0 0 0 16.22787211286655 -95.292962449479091 0 -95.292962449479091 458.49501852570393 0 0 0 0 147.23533764666965 -78.588450960996852 0 -78.588450960996852 175.33232970857352 0 0 0 0 86.811095800820794 37.155024985491764 0 37.155024985491764 250.01753039005416 0 0 0 0 -24.313552583645446 -113.58402214234229 0 -113.58402214234229 452.43791277397395 0 0 0 0 -10.86657597983185 -39.029644678048498 0 -39.029644678048498 782.19938595929125 0 0 0 0 40.730632933152606 -65.090918075497029 0 -65.090918075497029 389.49418896505085 0 0 0 0 338.37080312159947 -29.77532477331988 0 -29.77532477331988 393.63062589346009 0 0 0 0 83.638452411771425 -133.31594251572096 0 -133.31594251572096 186.11879701269936 0 0 0 0 98.436629663808617 -281.80886123492382 0 -281.80886123492382 346.64407935281633 0 0 0 0 33.230186282677522 98.028968398139114 0 98.028968398139114 -101.23591209950973 0 0 0 0 -6.2511198656059435 -82.779666309346794 0 -82.779666309346794 223.52094045461126 0 0 0 0 103.17109475419147 217.0664750666474 0 217.0664750666474 180.25865332689136 0 0 0 0 130.10223180760482 -105.42245749588074 0 -105.42245749588074 102.26176478745765 0 0 0 0 -0.025090545924161711 -1.2469151017883462 0 -1.2469151017883462 3.982507608450419 0 0 0 0 -29.822288803552709 161.85448322392767 0 161.85448322392767 420.87019928978407 0 0 0 0 -49.939951787968994 159.71571774272888 0 159.71571774272888 807.04543663059667 0 0 0 0 -1.0599244992066177 0.34462147510762975 0 0.34462147510762975 3.5749348207899629 0 0 0 0 6.7412283090239953 -22.788564101298107 0 -22.788564101298107 208.89686868398712 0 0 0 0 220.20512982538756 78.942027547403995 0 78.942027547403995 44.152716785611119 0 0 0 0 -0.96802822761195562 2.2964038455083369 0 2.2964038455083369 10.977106036067852 0 0 0 0 -2.5646994715186544 2.0686497391579906 0 2.0686497391579906 18.596972700790502 0 0 0 0 -6.1649978555006122 -1.840681198038709 0 -1.840681198038709 12.036895736784118 0 0 0 0 -3.8668588561005208 1.2922239156396245 0 1.2922239156396245 18.402900389657589 0 0 0 0 -24.457362934852426 -38.754069114584127 0 -38.754069114584127 -27.918623751669656 0 0 0 0 -5.5554906779203757 1.085035074133998 0 1.085035074133998 9.8676379618735268 0 0 0 0 -11.645832548211217 -5.6264070687235517 0 -5.6264070687235517 11.396936535186789 0 0 0 0 -43.001855833451373 -34.410048738805926 0 -34.410048738805926 -13.94481148403429 0 0 0 0 -8.2358565617023007 -3.3988240873688511 0 -3.3988240873688511 28.782482428584842 0 0 0 0 -59.908640807775328 -62.653643187397392 0 -62.653643187397392 3.6773617342405487 0 0 0 0 13.732719881434605 8.8192544416961027 0 8.8192544416961027 -79.185860223107738 0 0 0 0 3.6774034450801691 -2.9484343757179943 0 -2.9484343757179943 0.66588545455330461 0 0 0 0 -15.18021642701666 -4.2496810244920198 0 -4.2496810244920198 1.5152797629802706 0 0 0 0 -35.498508475673134 -32.201685893531248 0 -32.201685893531248 -15.025885616181768 0 0 0 0 3.7501546003113617 2.5132456329592969 0 2.5132456329592969 25.616936245889519 0 0 0 0 13.598110725947436 -42.488489539682632 0 -42.488489539682632 73.450007176739746 0 0 0 0 -11.457690570748127 -38.629390219342895 0 -38.629390219342895 47.676618467405206 0 0 0 0 19.791797604728345 -5.0026566151791485 0 -5.0026566151791485 51.193467093193249 0 0 0 0 -9.8079363796659891 -21.011271252442384 0 -21.011271252442384 -10.278236594618647 0 0 0 0 20.797806872116553 -40.752735769910942 0 -40.752735769910942 1.9731196712236851 0 0 0 0 -25.004475478303902 -53.154126145687769 0 -53.154126145687769 3.096456202911213 0 0 0 0 -6.9858213215429714 -38.040925857159891 0 -38.040925857159891 6.3009191656492476 0 0 0 0 -35.214377082489818 -46.073151969587343 0 -46.073151969587343 -2.8470359062484931 0 0 0 0 -83.42517984594906 -45.157874354845262 0 -45.157874354845262 28.968417302909074 0 0 0 0 7.2353644676950353 -43.249632852821378 0 -43.249632852821378 26.626486676017521 0 0 0 0 -34.956198344892982 -50.38704713874904 0 -50.38704713874904 35.881165115250042 0 0 0 0 -13.137924986687722 -13.647669728830806 0 -13.647669728830806 78.736300618038513 0 0 0 0 25.667454014246687 21.433788916197955 0 21.433788916197955 63.400090472692682 0 0 0 0 -14.723403520458305 -40.961786117592965 0 -40.961786117592965 -3.923483743914403 0 0 0 0 -32.338550342377857 -1.0153177255851915 0 -1.0153177255851915 61.662347393576056 0 0 0 0 -32.486774584429881 -26.87872848517668 0 -26.87872848517668 -46.740304897044552 0 0 0 0 27.05971653130473 44.421006320699234 0 44.421006320699234 131.44394030714466 0 0 0 0 -24.737241098258494 58.032713570841224 0 58.032713570841224 130.01597042111098 0 0 0 0 -2.5913677257340169 -16.356686112121679 0 -16.356686112121679 68.668205790148932 0 0 0 0 -31.641186081308263 -19.915766963725218 0 -19.915766963725218 71.617828522517812 0 0 0 0 44.672635572278523 76.824851938668871 0 76.824851938668871 158.8659602357402 0 0 0 0 2.5676726619194596 10.753329799175845 0 10.753329799175845 155.33207807206782 0 0 0 0 50.796223306634602 58.015836487618799 0 58.015836487618799 191.3073793691874 0 0 0 0 54.470692309047081 91.403104460652685 0 91.403104460652685 232.45741518018622 0 0 0 0 22.665958969810163 21.40408349147765 0 21.40408349147765 212.43067153984521 0 0 0 0 41.120955602375034 29.318073097994784 0 29.318073097994784 116.0073907797705 0 0 0 0 0.12906148160618613 -25.691143376483524 0 -25.691143376483524 112.97319414536469 0 0 0 0 42.448096470674045 47.597460143588251 0 47.597460143588251 133.97349671332631 0 0 0 0 -20.872191593402789 9.2463206830061608 0 9.2463206830061608 4.1468309444372835 0 0 0 0 -8.5019872228144777 14.55863781037624 0 14.55863781037624 32.060081477400672 0 0 0 0 -86.939637322665476 22.147681500457111 0 22.147681500457111 87.148120339752495 0 0 0 0 -2.9084991245414358 14.700705791896326 0 14.700705791896326 31.975206992792664 0 0 0 0 -97.728489878071287 -55.0324819022062 0 -55.0324819022062 87.71227483394614 0 0 0 0 0.96686745222275938 -13.536195600233938 0 -13.536195600233938 34.005175404674844 0 0 0 0 -126.16711711198332 11.157458771107486 0 11.157458771107486 69.149004059945582 0 0 0 0 -93.86255774928236 -112.78177613114531 0 -112.78177613114531 -110.93404012906831 0 0 0 0 -1.0543599256505267 0.13773282294238243 0 0.13773282294238243 10.608626776770407 0 0 0 0 -27.761592065140974 -2.3451310678465234 0 -2.3451310678465234 37.226501072989777 0 0 0 0 -17.603558109836285 14.003187239977706 0 14.003187239977706 35.312011064466788 0 0 0 0 -130.77500727151983 -20.982149822950305 0 -20.982149822950305 47.288632869014691 0 0 0 0 -113.02596398177684 -84.209093310695607 0 -84.209093310695607 16.706833744792675 0 0 0 0 -10.288574041638098 -0.61461614424231925 0 -0.61461614424231925 31.030305017069281 0 0 0 0 -1.7611695871668189 0.77801720895513427 0 0.77801720895513427 31.616604927461594 0 0 0 0 -2.2799852453728136 18.441436998742574 0 18.441436998742574 50.913360556529369 0 0 0 0 4.0374983651876732 18.288068987807492 0 18.288068987807492 35.459028676412345 0 0 0 0 1.9046758847753154 13.807328803712153 0 13.807328803712153 30.505501995852683 0 0 0 0 -7.3155520917026138 10.059217985006399 0 10.059217985006399 33.978470441041281 0 0 0 0 0.30963119448296084 17.111945204378571 0 17.111945204378571 34.679082484130049 0 0 0 0 -0.71333749006363689 -1.0644349289723323 0 -1.0644349289723323 13.310699223075062 0 0 0 0 5.4002463670036036 13.520372725150082 0 13.520372725150082 31.653046074148733 0 0 0 0 -1.9223847569001844 -1.9382270257097218 0 -1.9382270257097218 2.734496292118763 0 0 0 0 1.0864175145249995 2.6539461627381797 0 2.6539461627381797 -0.74571351742643799 0 0 0 0 -0.47879643481886092 6.1358103619768372 0 6.1358103619768372 25.926025346620008 0 0 0 0 -1.1927163220234434 4.6705677798890974 0 4.6705677798890974 28.408268756349571 0 0 0 0 -0.34846723049334205 3.9841209510355213 0 3.9841209510355213 3.8874514850743793 0 0 0 0 -1.2236688999618432 -2.4154028116547579 0 -2.4154028116547579 5.0757444126303426 0 0 0 0 -7.6689265988114812 8.5237442810976063 0 8.5237442810976063 47.587776804793975 0 0 0 0 -2.3392979781904355 5.8243166784892821 0 5.8243166784892821 5.1985311032139805 0 0 0 0 -1.0873947351711353 -1.2597634303965606 0 -1.2597634303965606 23.78645366710407 0 0 0 0 2.0660182469135293 4.2123433294655115 0 4.2123433294655115 395.34996104343736 0 0 0 0 1.3925288976881243 2.0873234022237739 0 2.0873234022237739 15.674049538007239 0 0 0 0 -1.4171319868680534 -3.7097332905977964 0 -3.7097332905977964 15.758848345645674 0 0 0 0 -3.4376917732043171 4.2079305171529597 0 4.2079305171529597 3.8372133906059958 0 0 0 0 -3.4579439238477025 -2.2880182512308238 0 -2.2880182512308238 24.59917705468979 0 0 0 0 -4.9157032486540988 3.9466443084820639 0 3.9466443084820639 17.196855696995044 0 0 0 0 -3.5231257151202566 2.9435128915938549 0 2.9435128915938549 12.911574279292836 0 0 0 0 -4.3772962255421781 2.7635228762883344 0 2.7635228762883344 9.2362474268011283 0 0 0 0 -16.573248345754017 5.9473881729281857 0 5.9473881729281857 13.367729609439266 0 0 0 0 -1.7742191012637392 2.7000661781275994 0 2.7000661781275994 13.599513503620983 0 0 0 0 -4.4152670244763286 -1.2211559406496235 0 -1.2211559406496235 8.4551765205105767 0 0 0 0 5.2036053272572076 11.900004840645124 0 11.900004840645124 37.274404640760622 0 0 0 0 8.3516103779070718 18.798670214573576 0 18.798670214573576 32.25742179856752 0 0 0 0 0.15808115002357129 0.41329727912702197 0 0.41329727912702197 0.83377854196572798 0 0 0 0 -5.3115466615503522 -3.0639148984046187 0 -3.0639148984046187 0.47397074313630583 0 0 0 0 -0.23859295962532046 0.39167678097120984 0 0.39167678097120984 0.6106062059456292 0 0 0 0 6.4015825932681381 24.300861950876424 0 24.300861950876424 18.81506223785982 0 0 0 0 -1.2332735689548286 39.977210328332148 0 39.977210328332148 26.603977319449768 0 0 0 0 -27.218592074327027 -1.4029961544292746 0 -1.4029961544292746 9.7577154266546131 0 0 0 0 2.7498548298485588 49.268448727714713 0 49.268448727714713 52.162581654418318 0 0 0 0 -3.6837455985461531 27.46145040873671 0 27.46145040873671 40.913914626267797 0 0 0 0 -3.7562205183265576 23.805493327294243 0 23.805493327294243 30.547068618856429 0 0 0 0 -2.4255681726050113 14.40611955444183 0 14.40611955444183 32.056392060316284 0 0 0 0 -20.238447301950544 26.449457309703575 0 26.449457309703575 -4.5921931959019275 0 0 0 0 -83.48365925991591 82.89860264059098 0 82.89860264059098 26.51743466789776 0 0 0 0 -17.927084184691367 17.469344543365878 0 17.469344543365878 29.767806814998039 0 0 0 0 18.28306069810418 -0.34137217585521284 0 -0.34137217585521284 37.520951008773409 0 0 0 0 -20.760076514197578 -5.2505187127735553 0 -5.2505187127735553 13.96680024235684 0 0 0 0 -9.7477801733862854 11.644724678073544 0 11.644724678073544 -5.7677263084187871 0 0 0 0 -23.42298089293871 17.201685859718054 0 17.201685859718054 3.5580690628994489 0 0 0 0 -0.043058368774457227 12.700765029570903 0 12.700765029570903 0.45330169545195531 0 0 0 0 -7.3863613537811119 17.358811913989484 0 17.358811913989484 0.09502011369477259 0 0 0 0 -8.1371783392298838 15.476006128017616 0 15.476006128017616 1.8849436063901521 0 0 0 0 0.0032100201842347482 9.034795884952473 0 9.034795884952473 6.9558646790319472 0 0 0 0 -6.3560414304845878 8.7195940899546258 0 8.7195940899546258 7.4919244643315324 0 0 0 0 -8.1710540014713686 4.797005672713567 0 4.797005672713567 14.055547806921822 0 0 0 0 -3.3526797298901663 8.3648542762166471 0 8.3648542762166471 7.1494048658641987 0 0 0 0 -1.7567668746935734 4.6156830341788009 0 4.6156830341788009 7.4115382540330756 0 0 0 0 -1.1147125699701117 0.62703905997247489 0 0.62703905997247489 1.7378030977024821 0 0 0 0 -0.006714491131611839 5.9131156638832181 0 5.9131156638832181 7.7826668559282552 0 0 0 0 1.1220769779640229 -261.71809823608851 0 -261.71809823608851 1037.5390785776544 0 0 0 0 272.25785940217668 -34.700325947138481 0 -34.700325947138481 295.16644409886794 0 0 0 0 1.1550788521345519 -1.4925081818988133 0 -1.4925081818988133 1.866264773508405 0 0 0 0 24.816289153989374 -172.50773364964698 0 -172.50773364964698 1133.3915895842329 0 0 0 0 -0.64818080794156074 1.052485780659481 0 1.052485780659481 9.3202345839235932 0 0 0 0 -5.8008908334957932 -0.59494079674550449 0 -0.59494079674550449 20.560936989000766 0 0 0 0 -10.493437478887927 -198.8624981231842 0 -198.8624981231842 745.41383197318646 0 0 0 0 -3.0108829722442483 2.4231131838319016 0 2.4231131838319016 2.894823194115105 0 0 0 0 -38.548368308098304 -138.63175048996345 0 -138.63175048996345 564.89304246346001 0 0 0 0 103.48028372719432 -113.75237388137612 0 -113.75237388137612 446.38662047879188 0 0 0 0 -56.38783400546231 -40.027047117044276 0 -40.027047117044276 479.07312953261862 0 0 0 0 69.323462060152792 -76.653159873098048 0 -76.653159873098048 359.33496037898294 0 0 0 0 -25.713067017594284 4.2349078662500688 0 4.2349078662500688 591.93275277499924 0 0 0 0 1.9799027073476143 -2.8848532735823937 0 -2.8848532735823937 1.6886405882832918 0 0 0 0 -25.522056157511969 54.482332257503003 0 54.482332257503003 181.59411646167428 0 0 0 0 0.15771082923432056 -0.1500952075138855 0 -0.1500952075138855 0.046913194102508271 0 0 0 0 14.536490826041955 47.811186707174784 0 47.811186707174784 163.51686493628949 0 0 0 0 -8.9634999527832093 31.656254564586561 0 31.656254564586561 162.24866421235492 0 0 0 0 -0.59267066302146532 2.7975428870922769 0 2.7975428870922769 5.3662968152784742 0 0 0 0 43.042309843948232 53.830939443985699 0 53.830939443985699 58.587196861932171 0 0 0 0 0.46547689083397248 0.25070149776828998 0 0.25070149776828998 0.96840762956704651 0 0 0 0 -0.013937162564863301 -0.17602272165822797 0 -0.17602272165822797 4.7107927486358676 0 0 0 0 -0.07882694135341059 0.33746786450362265 0 0.33746786450362265 1.5658073133990911 0 0 0 0 -0.48779564559768662 -12.121894563664682 0 -12.121894563664682 306.27391155614532 0 0 0 0 68.495278084736285 -41.506276885730855 0 -41.506276885730855 29.963865580517449 0 0 0 0 0.23827047797138382 0.42092139122255318 0 0.42092139122255318 1.9211815684225257 0 0 0 0 -33.15784201495326 190.19819922867464 0 190.19819922867464 250.20048856840549 0 0 0 0 166.7363064818357 124.81110667369649 0 124.81110667369649 99.317745290070889 0 0 0 0 -32.345353760233877 1.3780909564484318 0 1.3780909564484318 18.535776018732577 0 0 0 0 -17.645297827682924 49.627492963489203 0 49.627492963489203 122.82208172035462 0 0 0 0 0.2754806833505043 -61.809696425269067 0 -61.809696425269067 -15.331090505889733 0 0 0 0 -0.22212713492568534 -0.25154000686586642 0 -0.25154000686586642 0.099985267185559223 0 0 0 0 -0.15403461466252766 0.58811894654323282 0 0.58811894654323282 2.9235530845049311 0 0 0 0 0.97725765423640754 1.8267269616273438 0 1.8267269616273438 8.0509554814260582 0 0 0 0 10.493337732724441 30.735477301044739 0 30.735477301044739 32.271976998505124 0 0 0 0 -19.671981779003858 7.3746137659909436 0 7.3746137659909436 50.297832182157435 0 0 0 0 4.6897769004540333 16.786307208543704 0 16.786307208543704 33.055372223845382 0 0 0 0 -5.4976207296376742 11.918480084823386 0 11.918480084823386 55.724890555855382 0 0 0 0 0.81543470534046492 -6.0940327332482411 0 -6.0940327332482411 43.248550064832671 0 0 0 0 3.5185088347592455 3.9559387739354861 0 3.9559387739354861 54.654931069325357 0 0 0 0 2.6552930572552214 5.2430251097975997 0 5.2430251097975997 20.210295183380367 0 0 0 0 1.2980153891007888 -2.6477750482659417 0 -2.6477750482659417 17.970166210440738 0 0 0 0 -0.1753069865787622 -6.7002062107572158 0 -6.7002062107572158 27.295918757891002 0 0 0 0 8.2398427116378343 21.580390477844048 0 21.580390477844048 35.924766619078582 0 0 0 0 -25.654555773127754 -6.2436766842365614 0 -6.2436766842365614 8.7043063431701739 0 0 0 0 1.9049765847750262 0.68349978738001482 0 0.68349978738001482 25.304776325175965 0 0 0 0 1.4158143566118 1.1027641301734121 0 1.1027641301734121 4.3346615540262405 0 0 0 0 3.170952332163715 -16.553738393623462 0 -16.553738393623462 54.464262421883177 0 0 0 0 8.8048728192254089 -15.89853443417087 0 -15.89853443417087 53.485429116903106 0 0 0 0 -14.005372749599971 12.379601754718806 0 12.379601754718806 45.649524777923943 0 0 0 0 7.7153478751840794 0.44929715750913601 0 0.44929715750913601 48.60590815624164 0 0 0 0 2.0047264785086147 -6.1023381125740173 0 -6.1023381125740173 22.728939933861795 0 0 0 0 11.085316048595576 10.389819300610185 0 10.389819300610185 16.379068723351395 0 0 0 0 6.7082987925550697 123.90630681617768 0 123.90630681617768 -199.18210333926118 0 0 0 0 435.93659445404137 32.592788042129541 0 32.592788042129541 -202.22401271331182 0 0 0 0 5.6264407059411452 9.9543614611500004 0 9.9543614611500004 11.107641317734704 0 0 0 0 15.301918006937033 54.303763605850691 0 54.303763605850691 -14.063250586390495 0 0 0 0 -18.261654258454847 -9.9259712876400954 0 -9.9259712876400954 74.564595342468238 0 0 0 0 71.225951796769451 -120.77450505984598 0 -120.77450505984598 64.757220078825412 0 0 0 0 1.1296037211311063 0.9947583412658787 0 0.9947583412658787 2.2862262740005121 0 0 0 0 -5.759465055582397 52.643885423189204 0 52.643885423189204 95.231737375483135 0 0 0 0 16.4874149179021 -64.86959803514037 0 -64.86959803514037 129.10770328857689 0 0 0 0 0.79293776513111458 0.63627549384789006 0 0.63627549384789006 0.64278434652328542 0 0 0 0 79.273569102742414 165.73526813019271 0 165.73526813019271 -25.968669196183328 0 0 0 0 99.38464524243301 54.613098443523086 0 54.613098443523086 -0.9597811129206093 0 0 0 0 -0.043772031356571997 -0.3172952655494754 0 -0.3172952655494754 0.80119686658559885 0 0 0 0 0.0017082330716047909 0.97832294996398639 0 0.97832294996398639 3.4857675221282989 0 0 0 0 17.094615245183476 106.57786941712402 0 106.57786941712402 36.876717590159387 0 0 0 0 0.0023387027648943915 0.98084581881266786 0 0.98084581881266786 3.4845330351199664 0 0 0 0 2.0647767922446851 4.1392165668912639 0 4.1392165668912639 8.3203403545048786 0 0 0 0 0.00025702364762180937 2.8164053773434716 0 2.8164053773434716 9.0655086892656982 0 0 0 0 1.3663112814322222 2.6508430440077859 0 2.6508430440077859 4.800636281572281 0 0 0 0 1.5719109556039648 0.86810513982510429 0 0.86810513982510429 3.9312750371781817 0 0 0 0 24.553808985397609 98.31205915190003 0 98.31205915190003 1260.4012653062091 0 0 0 0 111.37720503486116 -149.5808378704678 0 -149.5808378704678 814.82991807247163 0 0 0 0 -111.57924285826333 -197.24701055303194 0 -197.24701055303194 1411.0790643830842 0 0 0 0 -224.14795758544705 230.82757439748093 0 230.82757439748093 1169.6131365590627 0 0 0 0 0.39051001939886226 304.01092942368984 0 304.01092942368984 447.97191744489828 0 0 0 0 -271.50875255837343 -64.106827532756142 0 -64.106827532756142 73.166170392738422 0 0 0 0 -6.6902911374925225 376.43883785474463 0 376.43883785474463 -161.63755328611296 0 0 0 0 61.890271321805358 154.78110315139929 0 154.78110315139929 296.99158619021182 0 0 0 0 -57.361367260990392 203.22850077307521 0 203.22850077307521 673.4840147025825 0 0 0 0 59.44364922668683 2.9282170425285585 0 2.9282170425285585 294.85903032726492 0 0 0 0 33.330391302472265 231.66117934574868 0 231.66117934574868 121.03973836434307 0 0 0 0 -5.3931917533254818 55.080967576956027 0 55.080967576956027 284.78111374429136 0 0 0 0 192.06047639845201 -4.0041203850341844 0 -4.0041203850341844 -448.16972389373404 0 0 0 0 -57.26251770116825 40.706728079007007 0 40.706728079007007 94.304703973088181 0 0 0 0 -42.916229785995711 -38.417105941400223 0 -38.417105941400223 -41.055006909591611 0 0 0 0 -3.4327940357229139 2.2783255647190686 0 2.2783255647190686 -1.0971587029857659 0 0 0 0 -0.15443585713681651 116.86674503033387 0 116.86674503033387 -327.25706063341931 0 0 0 0 -34.077353671689252 92.095533370285921 0 92.095533370285921 -18.536233238351997 0 0 0 0 8.3134284316474805 21.787585573496472 0 21.787585573496472 31.974724893938401 0 0 0 0 -11.69343310084653 5.7674745465134549 0 5.7674745465134549 -3.174456813211151 0 0 0 0 9.1108859762152861 150.30144566875242 0 150.30144566875242 30.434856584579393 0 0 0 0 -1.6560461433236924 26.620729813075741 0 26.620729813075741 121.12977628769295 0 0 0 0 -5.3338270209565053 173.75838230982481 0 173.75838230982481 364.51236558843812 0 0 0 0 -53.907323730215012 120.1336602336778 0 120.1336602336778 48.60370343492832 0 0 0 0 1.16338606733418 -2.7334380826246303 0 -2.7334380826246303 8.8100091780182765 0 0 0 0 -222.11803912855567 -212.1047829539857 0 -212.1047829539857 1033.6953426555556 0 0 0 0 -222.33802154098521 -397.95947645483466 0 -397.95947645483466 196.26320941325685 0 0 0 0 -142.94106725546317 -165.99164678885427 0 -165.99164678885427 474.06280806590803 0 0 0 0 -320.39961594749911 -48.141784197767265 0 -48.141784197767265 1047.0564571804898 0 0 0 0 -77.566980587721446 107.29135799223877 0 107.29135799223877 996.43412364940741 0 0 0 0 -87.498259705487044 -425.09631571534192 0 -425.09631571534192 361.15744594470016 0 0 0 0 -4.2849237386126333 323.41823224547989 0 323.41823224547989 120.88096920534736 0 0 0 0 -320.00309378225518 -34.551149315176531 0 -34.551149315176531 1181.377979391269 0 0 0 0 639.81364288718669 386.27279140395694 0 386.27279140395694 527.29764703720139 0 0 0 0 -99.651322596484306 -126.23539017104576 0 -126.23539017104576 232.84769023937406 0 0 0 0 176.52907852575254 -312.50563994642653 0 -312.50563994642653 1141.9032893989061 0 0 0 0 76.474518524791165 84.73030306182045 0 84.73030306182045 234.06593141904159 0 0 0 0 -242.09899158373719 -103.3238953830587 0 -103.3238953830587 185.04397014029382 0 0 0 0 -423.2475056824851 4.4002175277855713 0 4.4002175277855713 849.22852629772387 0 0 0 0 56.547827618369411 -107.18857785884757 0 -107.18857785884757 37.171753787668422 0 0 0 0 -239.96795382186065 -32.703936599049484 0 -32.703936599049484 42.024174467733246 0 0 0 0 22.779220194387563 -18.07067560075302 0 -18.07067560075302 -37.701499459297338 0 0 0 0 8.0713860553480163 -13.402427186339978 0 -13.402427186339978 18.67571311455842 0 0 0 0 -95.978383743216 -68.34705930781638 0 -68.34705930781638 -17.727710213337559 0 0 0 0 -0.039098809008446977 -0.56319178457675889 0 -0.56319178457675889 2.6042609174743205 0 0 0 0 -3.6415467089593712 -0.88018042433733967 0 -0.88018042433733967 6.1761278756936804 0 0 0 0 -5.1545041670833598 -1.9180372370174155 0 -1.9180372370174155 24.498690696636913 0 0 0 0 1.770173763769435 -1.4265548045586911 0 -1.4265548045586911 9.3664087880752049 0 0 0 0 2.8742707260244167 -4.5170892783187924 0 -4.5170892783187924 4.5304926233119431 0 0 0 0 -12.75414710754012 189.64617885669577 0 189.64617885669577 851.1030445546312 0 0 0 0 172.78516371578007 64.8117976996582 0 64.8117976996582 814.02385820829659 0 0 0 0 92.931224794914669 360.18113158519554 0 360.18113158519554 1107.746489209414 0 0 0 0 0.62443762579779083 -0.59701885487685047 0 -0.59701885487685047 -0.10029424977875578 0 0 0 0 -151.72712494675125 278.98255364751094 0 278.98255364751094 830.94060668098973 0 0 0 0 17.379661685665269 242.20136088937579 0 242.20136088937579 832.93248472124924 0 0 0 0 77.950199665736363 207.08891807719192 0 207.08891807719192 582.84770308589214 0 0 0 0 51.263009653144763 155.39600504134432 0 155.39600504134432 773.31243626557989 0 0 0 0 422.68655160412891 959.66378376540524 0 959.66378376540524 1191.7247904716548 0 0 0 0 96.608540278476539 233.71215090229089 0 233.71215090229089 453.12086261804507 0 0 0 0 243.67021630664931 401.20655502087175 0 401.20655502087175 638.13937680017989 0 0 0 0 -77.282283438955346 395.07073435351776 0 395.07073435351776 870.86086787859767 0 0 0 0 -268.3584176463919 2.3869780037457531 0 2.3869780037457531 58.889510091685224 0 0 0 0 47.670271962873812 96.25718310350203 0 96.25718310350203 410.58814129099119 0 0 0 0 2.5342024752161016 -8.080765003977902 0 -8.080765003977902 23.6206674775853 0 0 0 0 28.842321021812495 152.090583340374 0 152.090583340374 358.14937200272834 0 0 0 0 97.042163633651398 210.06894634697528 0 210.06894634697528 409.39651524866349 0 0 0 0 83.47685035261793 227.77227429870254 0 227.77227429870254 485.827977230947 0 0 0 0 41.308455592559767 146.98428709281143 0 146.98428709281143 566.77477545017973 0 0 0 0 77.823126611949647 151.77296035660402 0 151.77296035660402 266.90125567928771 0 0 0 0 10.744652017316184 105.14169627473166 0 105.14169627473166 374.08262234592257 0 0 0 0 91.263003831825699 32.530652826189908 0 32.530652826189908 33.268852213994251 0 0 0 0 82.324457236903982 182.92649409131991 0 182.92649409131991 168.45455662038876 0 0 0 0 -68.369147871817177 -68.946537166495546 0 -68.946537166495546 91.255734184480389 0 0 0 0 -29.107964873452147 69.970727935673494 0 69.970727935673494 279.50819456198951 0 0 0 0 17.100428364596155 61.288026573543902 0 61.288026573543902 110.95568466997065 0 0 0 0 38.583535508045657 103.19799980105017 0 103.19799980105017 328.25086584323435 0 0 0 0 31.060183283801962 164.83368241631251 0 164.83368241631251 417.70221204261179 0 0 0 0 34.049302942388749 143.06954785922426 0 143.06954785922426 411.41276656338596 0 0 0 0 48.149308445572387 121.97186502467957 0 121.97186502467957 429.11941454868065 0 0 0 0 74.143306577791463 169.15627917119855 0 169.15627917119855 444.22258050099481 0 0 0 0 19.519350936289811 65.134133352330537 0 65.134133352330537 337.00159825722221 0 0 0 0 64.987087231033001 122.65987215412315 0 122.65987215412315 332.71099298784975 0 0 0 0 24.890846353254346 51.86986868672102 0 51.86986868672102 248.25731479594833 0 0 0 0 38.900346564932988 125.79184896251536 0 125.79184896251536 300.80407716086484 0 0 0 0 2.8209995318175061 76.948237979129772 0 76.948237979129772 234.07733957088203 0 0 0 0 29.704511629852277 73.973297536620521 0 73.973297536620521 231.3924160933966 0 0 0 0 37.569231177873007 116.22837552067358 0 116.22837552067358 202.88699546102794 0 0 0 0 -31.915135120989362 44.868886292359093 0 44.868886292359093 201.82191831807722 0 0 0 0 4.4914041954980348 99.310130620266136 0 99.310130620266136 322.62624469699222 0 0 0 0 32.822395465455884 145.67631421972328 0 145.67631421972328 308.04839433039888 0 0 0 0 23.098842551342386 123.19529850746039 0 123.19529850746039 374.32931565318722 0 0 0 0 35.744753193755969 180.58906101042521 0 180.58906101042521 425.63960699422751 0 0 0 0 14.501743819548665 157.89723449586745 0 157.89723449586745 470.47111087990925 0 0 0 0 74.4198332663982 176.61231494118692 0 176.61231494118692 421.459816802555 0 0 0 0 15.292332343587987 156.01806657864654 0 156.01806657864654 428.35734990780475 0 0 0 0 50.933569110908138 182.9669125105429 0 182.9669125105429 342.62728276791677 0 0 0 0 23.147631176196228 187.71776612172835 0 187.71776612172835 532.04845592388301 0 0 0 0 30.226504565382129 239.43818407128856 0 239.43818407128856 583.81707062679925 0 0 0 0 47.798716651397626 208.87214799060894 0 208.87214799060894 483.71865036819872 0 0 0 0 12.019681792086885 201.05872210898815 0 201.05872210898815 589.21296168907429 0 0 0 0 27.493287384999348 182.79133847318735 0 182.79133847318735 609.36161499773152 0 0 0 0 37.337751148678763 203.54156470139424 0 203.54156470139424 525.24435375962639 0 0 0 0 16.270478564120367 176.69926672719885 0 176.69926672719885 524.50677432381781 0 0 0 0 41.882910086920674 146.43200984949362 0 146.43200984949362 436.34973032560083 0 0 0 0 59.502917649539086 159.99431351064413 0 159.99431351064413 530.27118813747074 0 0 0 0 40.123157502792452 188.02757155317772 0 188.02757155317772 504.57172443286981 0 0 0 0 70.878189522134562 215.22226753990981 0 215.22226753990981 562.40487640837091 0 0 0 0 55.916314322078506 211.71440178473131 0 211.71440178473131 606.88298904051771 0 0 0 0 2.4521610935305613 -6.1489984206506563 0 -6.1489984206506563 4.6631042581520887 0 0 0 0 55.473413834984967 179.4968747440289 0 179.4968747440289 665.24972686225374 0 0 0 0 -13.478026944388148 16.55208087732899 0 16.55208087732899 22.865750374974596 0 0 0 0 0.23449284135194937 -0.11519919522203281 0 -0.11519919522203281 3.2910437744754404 0 0 0 0 7.1231417354756559 -13.439452153499587 0 -13.439452153499587 29.932271026740636 0 0 0 0 15.232740891829962 211.38607439106272 0 211.38607439106272 670.03970075634425 0 0 0 0 164.36619234297814 199.72798091120785 0 199.72798091120785 602.3662568127329 0 0 0 0 18.319867866624918 221.44995216236566 0 221.44995216236566 621.31887918162101 0 0 0 0 8.579629413485236 210.41295840793464 0 210.41295840793464 658.34771670182818 0 0 0 0 60.249418395793327 200.67500494624255 0 200.67500494624255 600.66776006426517 0 0 0 0 102.03120648446884 268.86761212249257 0 268.86761212249257 677.19414084739401 0 0 0 0 29.202388132247506 229.17258019701694 0 229.17258019701694 584.48934849426223 0 0 0 0 14.642998689520027 217.92683692771243 0 217.92683692771243 658.38453906837208 0 0 0 0 25.113568845009468 247.3153580273065 0 247.3153580273065 656.72012643277412 0 0 0 0 25.404478270067557 196.11930194744491 0 196.11930194744491 693.82815334176121 0 0 0 0 1.8137997771567722 -4.1202738552542826 0 -4.1202738552542826 8.6596963801560207 0 0 0 0 56.466092817482604 -167.48041329758416 0 -167.48041329758416 501.73176043049898 0 0 0 0 31.502884297174205 213.95776922686491 0 213.95776922686491 745.66832384129521 0 0 0 0 164.81436383710934 206.07815083612604 0 206.07815083612604 680.19792955339653 0 0 0 0 1.140671996579897 -30.635052414726033 0 -30.635052414726033 -9.4924743339797715 0 0 0 0 -7.5167322666443397 7.9130083150812425 0 7.9130083150812425 28.584047215306782 0 0 0 0 3.9994031126739342 -6.2302701093890676 0 -6.2302701093890676 7.9873565614919357 0 0 0 0 -0.64484393800466933 -27.036546033654304 0 -27.036546033654304 -0.15294940417516045 0 0 0 0 2.7099362642595981 -0.95942794375019957 0 -0.95942794375019957 0.25300150201508131 0 0 0 0 -13.763536452435346 -1.7192332539962081 0 -1.7192332539962081 12.480484208848793 0 0 0 0 -8.0144806977427834 -5.5554852326913533 0 -5.5554852326913533 76.840349158490426 0 0 0 0 0.68199673099752545 -19.765835636439078 0 -19.765835636439078 53.694188647496048 0 0 0 0 -2.507699229897753 -19.039235151263711 0 -19.039235151263711 59.9467800036673 0 0 0 0 1.8014739231562089 -26.811181277284049 0 -26.811181277284049 54.830713414325146 0 0 0 0 1.2504089856839755 -23.841897531849099 0 -23.841897531849099 53.092343462863937 0 0 0 0 -5.3908839290384094 3.0408177211647853 0 3.0408177211647853 27.596385439734149 0 0 0 0 -6.3759446821786696 -7.9486002343246582 0 -7.9486002343246582 78.087710204767063 0 0 0 0 1.2953224986115455 -0.17838335330336008 0 -0.17838335330336008 -0.12930666001670943 0 0 0 0 45.821110735796083 -5.7503518945304677 0 -5.7503518945304677 -43.524344769510208 0 0 0 0 -12.095996042163279 -14.264539672178216 0 -14.264539672178216 105.28464946936583 0 0 0 0 1.8289024766982038 -51.492512151060509 0 -51.492512151060509 96.475670879532117 0 0 0 0 31.184926776986686 -66.342206013156101 0 -66.342206013156101 58.657843395456439 0 0 0 0 -16.712146034574289 -231.05441638242337 0 -231.05441638242337 -62.477460011741641 0 0 0 0 -53.699260108125941 -41.122343588416697 0 -41.122343588416697 136.78285715618404 0 0 0 0 9.7552525125629366 -10.811215686831304 0 -10.811215686831304 23.279664883014505 0 0 0 0 -6.479961326753255 -143.75620991517644 0 -143.75620991517644 -107.15041932681925 0 0 0 0 26.770774169714059 -256.06547963911726 0 -256.06547963911726 211.57179055033612 0 0 0 0 0.28537492912376194 -0.54819773324649645 0 -0.54819773324649645 4.9545429148637652 0 0 0 0 12.544438609818144 -3.3763367141000344 0 -3.3763367141000344 16.893796798118274 0 0 0 0 2.0461175542203094 -3.3318449844229576 0 -3.3318449844229576 32.174419878065834 0 0 0 0 47.328499020967683 -1.4894985269493191 0 -1.4894985269493191 31.85965115664294 0 0 0 0 2.177608832597798 18.861942257688497 0 18.861942257688497 23.729275864665397 0 0 0 0 -0.73699403375193917 1.0970206866662693 0 1.0970206866662693 4.7598345598410106 0 0 0 0 5.4158462938503362 1.2666707144962857 0 1.2666707144962857 14.625988171144854 0 0 0 0 3.3030085592649172 -3.9210094735158805 0 -3.9210094735158805 16.983385202045042 0 0 0 0 0.62726442686721384 -23.344832157134078 0 -23.344832157134078 46.76621073485876 0 0 0 0 0.87559493624212337 -25.810888350999448 0 -25.810888350999448 72.930728599516442 0 0 0 0 20.3117496814898 -27.520684523275122 0 -27.520684523275122 38.916615750204073 0 0 0 0 6.5800834677650073 -28.307904411783966 0 -28.307904411783966 36.495098944127676 0 0 0 0 6.0295840089280901 -35.87533021085261 0 -35.87533021085261 152.36185831592593 0 0 0 0 -0.053016570376996697 0.37448787623344515 0 0.37448787623344515 0.47951231475676082 0 0 0 0 6.3847883000980801 -15.974166931700893 0 -15.974166931700893 62.713164410553873 0 0 0 0 4.4770535635591386 -12.837689076732204 0 -12.837689076732204 59.978536548900593 0 0 0 0 4.4892299095896533 -13.466198123700451 0 -13.466198123700451 46.521082714760269 0 0 0 0 -0.82285933601775696 -2.5127117356678355 0 -2.5127117356678355 67.460989130311646 0 0 0 0 -10.349519003410364 7.1510144060011953 0 7.1510144060011953 60.969563092039607 0 0 0 0 -9.7891116597362497 1.4142054472467862 0 1.4142054472467862 87.37335966603132 0 0 0 0 16.53627567152887 8.9215653775609098 0 8.9215653775609098 47.836533339504967 0 0 0 0 24.478288868952006 8.3946899935363035 0 8.3946899935363035 54.348698747096932 0 0 0 0 10.12868203203584 33.115794280813134 0 33.115794280813134 109.66765875123383 0 0 0 0 -6.6572732507534056 1.8331229068389803 0 1.8331229068389803 112.16056221891631 0 0 0 0 2.9812371382520269 -3.9357362244845717 0 -3.9357362244845717 71.696781713733799 0 0 0 0 -2.9066429186273126 6.3578653414733708 0 6.3578653414733708 111.57499641733011 0 0 0 0 15.461252332339427 14.249606568540912 0 14.249606568540912 62.414474683050685 0 0 0 0 13.839478776902524 5.1560141320587718 0 5.1560141320587718 11.425988154107472 0 0 0 0 22.257937288831219 -35.751537746520967 0 -35.751537746520967 38.637828546659932 0 0 0 0 2468.5143594903348 -656.64316928709741 0 -656.64316928709741 1785.8609553780407 0 0 0 0 25.53201599822205 33.097723076360126 0 33.097723076360126 132.80057402958482 0 0 0 0 30.078567293559445 -3.4803790908299561 0 -3.4803790908299561 98.921081592096016 0 0 0 0 -1.4836331673918721 4.6343042227526894 0 4.6343042227526894 101.33710766483273 0 0 0 0 -0.75384443932098666 -21.0493013736384 0 -21.0493013736384 25.630182656955924 0 0 0 0 -5.0371736791639705 -1.2764631663121691 0 -1.2764631663121691 109.91428147857005 0 0 0 0 566.93232463801996 922.01538470861124 0 922.01538470861124 520.51882316542105 0 0 0 0 1031.7657808699432 922.770452111552 0 922.770452111552 496.65301997088682 0 0 0 0 668.59460817960189 563.70265014155302 0 563.70265014155302 427.74161125363025 0 0 0 0 1349.2492693964514 535.2399545660337 0 535.2399545660337 253.66039560665376 0 0 0 0 640.3780019941787 -889.48441909108442 0 -889.48441909108442 1012.0001264023595 0 0 0 0 845.62643595358713 -665.23853403331304 0 -665.23853403331304 522.63051985210041 0 0 0 0 1494.834730063063 1225.4231909628579 0 1225.4231909628579 2258.4578333343379 0 0 0 0 1276.8412363595626 711.44686515443027 0 711.44686515443027 390.59352001304796 0 0 0 0 2.4401621410304069 5.4726554017658557 0 5.4726554017658557 27.103501101179376 0 0 0 0 273.28087179332033 -368.70265452662716 0 -368.70265452662716 427.19864772219444 0 0 0 0 280.56080871927406 -318.20430851381388 0 -318.20430851381388 343.30174345662817 0 0 0 0 67.672050644463525 -376.81149141167407 0 -376.81149141167407 720.59404329047538 0 0 0 0 -113.35118437465553 -311.9144287727795 0 -311.9144287727795 727.43851347060991 0 0 0 0 222.19833382728757 -1060.7067950815872 0 -1060.7067950815872 1686.4726804367092 0 0 0 0 -287.87832224768226 -45.137474738141464 0 -45.137474738141464 552.80808155820705 0 0 0 0 -185.0397275579835 -129.10682807238481 0 -129.10682807238481 370.00152731152775 0 0 0 0 -141.63142746420544 -249.49861461031833 0 -249.49861461031833 688.4882007491542 0 0 0 0 -19.122367243429835 -213.42537750337215 0 -213.42537750337215 430.69929173563924 0 0 0 0 -249.30364630744771 -240.53920462992392 0 -240.53920462992392 1199.1558791767166 0 0 0 0 -828.81656759328871 214.08245765314496 0 214.08245765314496 1089.8443513598504 0 0 0 0 -320.81431446996612 -55.564310600762838 0 -55.564310600762838 723.76309835622124 0 0 0 0 -258.3448568378999 -1.5152038968371926 0 -1.5152038968371926 504.49265311547788 0 0 0 0 -292.22244724171105 -11.313832568448561 0 -11.313832568448561 708.46158609751728 0 0 0 0 -361.32733358944643 157.38344962327392 0 157.38344962327392 871.76258465678256 0 0 0 0 -327.45548935788975 172.66475095383066 0 172.66475095383066 657.3280967061728 0 0 0 0 94.025647512434261 537.62270578320749 0 537.62270578320749 421.26401839141909 0 0 0 0 -80.046430388010776 725.6417334673788 0 725.6417334673788 275.71760181584796 0 0 0 0 -404.73605334096555 440.67394308844814 0 440.67394308844814 638.09358552624326 0 0 0 0 -239.32795675355601 479.22718356769474 0 479.22718356769474 454.14572542140377 0 0 0 0 -434.07915797588794 471.66608656095741 0 471.66608656095741 1239.6313317407621 0 0 0 0 -733.87438920178101 1279.9019795987842 0 1279.9019795987842 522.13836007019563 0 0 0 0 -724.6129443214304 -813.54238599863311 0 -813.54238599863311 2867.7815407357702 0 0 0 0 -2783.7742435301298 980.90331828124181 0 980.90331828124181 3585.6938484081547 0 0 0 0 69.923197088265169 18.857041754159582 0 18.857041754159582 55.56307558529079 0 0 0 0 80.112935450110399 2.5883060449923505 0 2.5883060449923505 47.364137236014358 0 0 0 0 56.175508842726458 36.878611027017541 0 36.878611027017541 93.245274066692218 0 0 0 0 29.322028742528317 -40.263780400714552 0 -40.263780400714552 40.480480014366279 0 0 0 0 34.116912338111433 -4.991827226782334 0 -4.991827226782334 53.957688645371036 0 0 0 0 4.4625778337322117 -2.8090093033824814 0 -2.8090093033824814 53.792875795172222 0 0 0 0 33.405906297360843 -14.568517772195264 0 -14.568517772195264 105.84119477117201 0 0 0 0 26.228532971496406 8.4990609279448108 0 8.4990609279448108 51.593898299150169 0 0 0 0 11.006782738706988 -19.900085933499213 0 -19.900085933499213 74.491634898127813 0 0 0 0 6.2224731503499697 -0.53588551307620946 0 -0.53588551307620946 44.407107687686221 0 0 0 0 -10.42880318751304 -20.132790608578944 0 -20.132790608578944 35.924899209785508 0 0 0 0 11.883392242163154 -11.470880439977918 0 -11.470880439977918 7.8820092508394737 0 0 0 0 9.8771467204487635 -28.583453602426744 0 -28.583453602426744 -41.134433812909265 0 0 0 0 0.74291926166461053 -29.040938701902633 0 -29.040938701902633 -23.500665350278723 0 0 0 0 3.6131482283035439 -5.0239953218042501 0 -5.0239953218042501 -33.519838884181809 0 0 0 0 -2.3045744337596261 -11.320097316391184 0 -11.320097316391184 8.4371460375550669 0 0 0 0 -6.0477819768707377 -2.1843315241640084 0 -2.1843315241640084 -5.5015821129782125 0 0 0 0 20.477002804008407 -18.608145546495507 0 -18.608145546495507 4.6602871276554652 0 0 0 0 1.8815032143766821 -1.0643367269471469 0 -1.0643367269471469 0.24763794139107631 0 0 0 0 9.123657354102761 -13.868541518502752 0 -13.868541518502752 -59.234554228081834 0 0 0 0 -0.95527230782141714 0.12403840706360825 0 0.12403840706360825 0.51417859918335296 0 0 0 0 -65.487925606086264 55.87544088715731 0 55.87544088715731 81.683435992585146 0 0 0 0 -5.4029270141436427 -18.645078495988855 0 -18.645078495988855 4.6245369534735801 0 0 0 0 15.960316866727226 -32.758257036708528 0 -32.758257036708528 11.338708846145892 0 0 0 0 3.2288264063893219 -1.5417698198437506 0 -1.5417698198437506 0.33268366616985645 0 0 0 0 -5.0814180248969478 -21.802094066661539 0 -21.802094066661539 4.0725886152649764 0 0 0 0 0.78568161331886266 -3.6606590583664627 0 -3.6606590583664627 3.7723162290516825 0 0 0 0 -23.504941515639075 22.644938980971347 0 22.644938980971347 42.507483450594009 0 0 0 0 -1.6037077197577183 -0.066498075661286293 0 -0.066498075661286293 0.40647227651713536 0 0 0 0 68.248031363870723 258.6281544858648 0 258.6281544858648 658.92115064241807 0 0 0 0 56.531319680305387 285.59254191967193 0 285.59254191967193 738.26967600735952 0 0 0 0 139.67082081812043 290.94365030456174 0 290.94365030456174 627.45132382347947 0 0 0 0 127.76659841635956 220.84017315231904 0 220.84017315231904 576.8826530330407 0 0 0 0 38.854429609222279 150.40832552865322 0 150.40832552865322 545.48952440048379 0 0 0 0 93.567057817554087 211.89626729434531 0 211.89626729434531 550.20791555533651 0 0 0 0 46.778260068086411 209.10600449442973 0 209.10600449442973 590.13437276874902 0 0 0 0 93.336659352400147 216.79667395439174 0 216.79667395439174 561.74920617134194 0 0 0 0 51.310674776548694 193.51285986461153 0 193.51285986461153 638.22179903750657 0 0 0 0 165.53280906918678 307.8541147859263 0 307.8541147859263 685.19744925564737 0 0 0 0 55.690899939872907 209.16133874260413 0 209.16133874260413 674.45857265708037 0 0 0 0 162.86013593378084 181.46937951058499 0 181.46937951058499 678.17206794526282 0 0 0 0 82.727851087185627 200.0526117713307 0 200.0526117713307 541.65333106872276 0 0 0 0 122.03482440007429 149.64626421638241 0 149.64626421638241 586.59313687423128 0 0 0 0 78.408378492278871 230.17721716897722 0 230.17721716897722 742.34417441402911 0 0 0 0 70.050930980645035 189.78900677675665 0 189.78900677675665 552.15814251372649 0 0 0 0 114.89681510254172 96.024708232522244 0 96.024708232522244 455.86411679307639 0 0 0 0 17.761945813585953 134.46044867090677 0 134.46044867090677 441.14237569578108 0 0 0 0 30.848549364311111 70.848082612843427 0 70.848082612843427 398.45946945220931 0 0 0 0 62.111304686271978 159.37165641858883 0 159.37165641858883 425.77396108274115 0 0 0 0 31.080579417089211 107.40173276545829 0 107.40173276545829 424.36956178431865 0 0 0 0 36.074809729372646 163.81087673625734 0 163.81087673625734 600.44394981915684 0 0 0 0 72.111481970189743 138.26608765122364 0 138.26608765122364 448.21977246305323 0 0 0 0 137.35094600731099 178.49283970805118 0 178.49283970805118 351.76777190499752 0 0 0 0 88.890207276336696 47.580051486747834 0 47.580051486747834 287.90134665131336 0 0 0 0 113.14133382685804 186.86017549705866 0 186.86017549705866 476.50630337462644 0 0 0 0 169.07981339291109 191.81603864031786 0 191.81603864031786 386.20518920836912 0 0 0 0 134.03381001669368 108.07976417729515 0 108.07976417729515 445.91477754836524 0 0 0 0 122.81074591353536 135.79638460111164 0 135.79638460111164 578.13469100888324 0 0 0 0 59.270914184080539 93.877717217445024 0 93.877717217445024 850.84632900124416 0 0 0 0 208.25030702312597 53.191354542970657 0 53.191354542970657 459.86129799120863 0 0 0 0 -29.698643698256546 -135.47082145722743 0 -135.47082145722743 321.86889974138467 0 0 0 0 1.143450253039255 0.10319157112618882 0 0.10319157112618882 -0.27975220839070403 0 0 0 0 74.644413637081925 -41.345874627193552 0 -41.345874627193552 -43.966924755259242 0 0 0 0 42.025257257575049 293.26698202813714 0 293.26698202813714 912.84672401868738 0 0 0 0 0.48517660196118584 -0.83823681805591832 0 -0.83823681805591832 1.3994197188213775 0 0 0 0 88.744210440842835 -110.14667918651685 0 -110.14667918651685 132.68194601176947 0 0 0 0 81.29753127875756 -39.570956852308882 0 -39.570956852308882 371.96802641425165 0 0 0 0 115.52582564918703 119.8140996574075 0 119.8140996574075 458.05959705523856 0 0 0 0 110.27889966198745 -1.3521427743544336 0 -1.3521427743544336 331.28285964248062 0 0 0 0 98.002944354192209 -74.222435088277052 0 -74.222435088277052 106.32593388968962 0 0 0 0 108.61114370557743 8.9626209703710629 0 8.9626209703710629 -22.711866681689571 0 0 0 0 62.610327991402301 -13.90328747807871 0 -13.90328747807871 -11.048297437489964 0 0 0 0 -0.11516645291772853 0.78690378866582478 0 0.78690378866582478 -0.17764201096731824 0 0 0 0 48.632623650102687 14.097723243787186 0 14.097723243787186 -61.830114301195863 0 0 0 0 75.047893786934026 -18.509741932743509 0 -18.509741932743509 -6.9426170810766052 0 0 0 0 -11.072101018087778 16.230259466115967 0 16.230259466115967 23.635195098235272 0 0 0 0 3.5627159602572647 21.977435588225489 0 21.977435588225489 -24.884016492549563 0 0 0 0 -11.458963398396008 -5.5831145903430297 0 -5.5831145903430297 -7.0316617671633139 0 0 0 0 26.134796228458811 15.524084493314149 0 15.524084493314149 14.023169460619101 0 0 0 0 19.259338278909127 -12.481255075181252 0 -12.481255075181252 -6.4672689793733298 0 0 0 0 47.246504709528381 11.020755923571414 0 11.020755923571414 -22.891728046932258 0 0 0 0 67.397900558837591 25.628986094430729 0 25.628986094430729 6.9192203717902885 0 0 0 0 41.812345385353524 19.325446141107022 0 19.325446141107022 12.114370614508516 0 0 0 0 46.877502904677385 -7.5498673773436167 0 -7.5498673773436167 37.357588988939824 0 0 0 0 123.14660361379174 -56.955283366893127 0 -56.955283366893127 66.365529382353998 0 0 0 0 92.914714301036383 -24.101080391494179 0 -24.101080391494179 109.38265240078908 0 0 0 0 100.37855911470842 -16.332127777157439 0 -16.332127777157439 203.71180160032236 0 0 0 0 117.71950665758504 32.835631667498092 0 32.835631667498092 288.06574934767559 0 0 0 0 114.89044655514772 6.0725362439770834 0 6.0725362439770834 100.89970469459149 0 0 0 0 74.826936794798712 25.862218379301339 0 25.862218379301339 168.61099687805108 0 0 0 0 124.74292434548715 159.52580243982811 0 159.52580243982811 385.34122630779166 0 0 0 0 157.3761836748904 120.30868556157293 0 120.30868556157293 240.54841135625611 0 0 0 0 10.657411800038972 -69.612817755627475 0 -69.612817755627475 80.937876855023205 0 0 0 0 -3.3853394351399402 -11.60756122429666 0 -11.60756122429666 -10.319096350518521 0 0 0 0 22.138346247388654 92.606503967221215 0 92.606503967221215 165.40067047830962 0 0 0 0 185.45231212449198 86.528152021397545 0 86.528152021397545 7.4163654083240544 0 0 0 0 -0.19609307988235258 0.18131066588753697 0 0.18131066588753697 0.42746007249461471 0 0 0 0 28.357539686508517 -16.339515953055525 0 -16.339515953055525 88.73398365698813 0 0 0 0 30.553787527095665 -54.169750092525646 0 -54.169750092525646 184.33634357454866 0 0 0 0 -1.5072562377629559 -0.85887672783132984 0 -0.85887672783132984 -1.6274723265399125 0 0 0 0 -26.563458773327966 -26.689391020991025 0 -26.689391020991025 158.57211580762669 0 0 0 0 -28.968370823982696 -21.651839816760912 0 -21.651839816760912 93.105070112149406 0 0 0 0 57.231446681726993 -73.613753632587759 0 -73.613753632587759 1.6957334814069327 0 0 0 0 59.216988115422787 255.23765356049262 0 255.23765356049262 -127.73321387071337 0 0 0 0 14.449520233481369 -32.933121697581612 0 -32.933121697581612 36.023090909662841 0 0 0 0 169.20086908092429 -359.92235836802547 0 -359.92235836802547 -23.310434013219492 0 0 0 0 -405.68608875870723 -405.07173879749189 0 -405.07173879749189 -15.412223312596325 0 0 0 0 -201.97320526625572 -139.69062335572016 0 -139.69062335572016 267.35173427881091 0 0 0 0 120.01330078260798 164.58509845639128 0 164.58509845639128 183.00281720681232 0 0 0 0 -574.25592168686444 39.503691232659548 0 39.503691232659548 277.60806671534374 0 0 0 0 168.22361648571996 -480.56710628653673 0 -480.56710628653673 -398.42527340995002 0 0 0 0 276.53127442396772 -862.33460647172615 0 -862.33460647172615 944.51173338017907 0 0 0 0 -307.49646859478617 204.47405003652966 0 204.47405003652966 180.96520103093644 0 0 0 0 -180.22942335660809 -36.598068704628531 0 -36.598068704628531 633.27692224942439 0 0 0 0 -254.28087291046091 186.92841964452964 0 186.92841964452964 1615.301557341576 0 0 0 0 136.81169641496285 723.80010476531606 0 723.80010476531606 324.32838956128035 0 0 0 0 11.613879817373771 329.92471458277396 0 329.92471458277396 -49.974930579432112 0 0 0 0 -1.5989173562494621 3.7626124167215522 0 3.7626124167215522 -1.9048053424841385 0 0 0 0 -46.540871563375731 320.60213764017681 0 320.60213764017681 -167.17434333276469 0 0 0 0 406.13935745584519 -611.12108148740663 0 -611.12108148740663 901.60969399211899 0 0 0 0 77.077116718770412 -14.705793858905963 0 -14.705793858905963 19.899934852706792 0 0 0 0 30.524846706520009 823.28699398222307 0 823.28699398222307 1010.27500167783 0 0 0 0 311.22235229278778 280.89539742079796 0 280.89539742079796 -227.41061249256745 0 0 0 0 22.06901793133072 -37.534304545650059 0 -37.534304545650059 39.048131015804188 0 0 0 0 -43.068283755849734 190.32971409851598 0 190.32971409851598 518.83997941153939 0 0 0 0 -315.48231735576178 263.10389429226052 0 263.10389429226052 747.78092050791201 0 0 0 0 -308.53395710586057 351.54078994792144 0 351.54078994792144 466.1933471629527 0 0 0 0 264.1391435556219 -1158.6730895334372 0 -1158.6730895334372 32.624399008447654 0 0 0 0 -0.063671544192070342 -4.8554070475039577 0 -4.8554070475039577 17.299225995590888 0 0 0 0 -231.88817532886623 292.92498732831518 0 292.92498732831518 -16.342959070811048 0 0 0 0 -285.31235565208226 -91.839428927109111 0 -91.839428927109111 -244.49307745114493 0 0 0 0 124.92771154825664 346.48909555029786 0 346.48909555029786 368.29364467834239 0 0 0 0 -265.01289204192869 321.39851541041753 0 321.39851541041753 445.76709602354094 0 0 0 0 -107.18856203323367 282.07672442626063 0 282.07672442626063 147.31181282125181 0 0 0 0 -109.97695277901403 370.90478793286093 0 370.90478793286093 360.72956064731989 0 0 0 0 -166.19861885064802 322.16877486933663 0 322.16877486933663 396.94017038210222 0 0 0 0 -253.63129529263233 98.780041959857044 0 98.780041959857044 430.65071334196546 0 0 0 0 -310.53324753343713 154.2738307818654 0 154.2738307818654 379.01234082751034 0 0 0 0 -270.84556966860828 106.64826511131832 0 106.64826511131832 262.79474942786328 0 0 0 0 -280.69460373535685 -16.908843063138193 0 -16.908843063138193 103.76894937147881 0 0 0 0 -377.00338364224683 -19.71330462791957 0 -19.71330462791957 241.52387475181604 0 0 0 0 -281.91053276902824 -69.160638358055621 0 -69.160638358055621 249.38631511307904 0 0 0 0 -1.3132941074248115 -3.3848912534057169 0 -3.3848912534057169 30.581337857858529 0 0 0 0 -1141.7065700020923 -17.0140655898158 0 -17.0140655898158 875.90745368072385 0 0 0 0 -682.13889156641687 -172.99115860099846 0 -172.99115860099846 213.78141177153884 0 0 0 0 -490.58051331579031 -171.57680415856157 0 -171.57680415856157 99.599178191783722 0 0 0 0 -212.55307476657902 54.49125965780695 0 54.49125965780695 -9.2052973128156736 0 0 0 0 -478.89500149852188 -255.39139638741472 0 -255.39139638741472 -39.488557528617093 0 0 0 0 -134.39502040933513 -423.62554295212976 0 -423.62554295212976 870.46317356939107 0 0 0 0 -137.97337075293831 -583.11592803454187 0 -583.11592803454187 651.92674011178315 0 0 0 0 984.10235881369147 1552.7002446499682 0 1552.7002446499682 926.11507021283614 0 0 0 0 94.535381966610657 -422.16425475523283 0 -422.16425475523283 263.36736149148783 0 0 0 0 96.269280079187922 -313.94118818448624 0 -313.94118818448624 558.61192856700654 0 0 0 0 60.382520546272708 -238.42539936315097 0 -238.42539936315097 825.78776733078848 0 0 0 0 -38.927637812542812 167.55619380835924 0 167.55619380835924 191.49327794658166 0 0 0 0 -23.516486204026023 -131.88807505924706 0 -131.88807505924706 845.54545710555976 0 0 0 0 11.568284773946097 -10.254092907682661 0 -10.254092907682661 8.3872340092489424 0 0 0 0 897.80258246143353 -1150.943475273074 0 -1150.943475273074 -1191.7974180307938 0 0 0 0 719.77796838900827 -667.79858929033071 0 -667.79858929033071 -336.95458601112477 0 0 0 0 -23.139575585376065 609.04737057715465 0 609.04737057715465 839.4334695171201 0 0 0 0 423.46568436134481 527.04520994399354 0 527.04520994399354 453.3842616171205 0 0 0 0 35.008700324122685 657.76495537296796 0 657.76495537296796 748.64673466254408 0 0 0 0 194.76061477926868 79.429724873558371 0 79.429724873558371 764.22539564457111 0 0 0 0 125.10917399870368 -7.0354064525636204 0 -7.0354064525636204 668.56970168989619 0 0 0 0 160.80272971239117 13.91370049148918 0 13.91370049148918 526.10786768783873 0 0 0 0 120.31603902668164 -178.07060260257276 0 -178.07060260257276 -378.46356528962497 0 0 0 0 -314.17320592797682 -201.97107164884073 0 -201.97107164884073 31.427895620065101 0 0 0 0 -529.12120135742998 -61.32939145166165 0 -61.32939145166165 138.58285320238792 0 0 0 0 -344.54504031970055 -124.257910436776 0 -124.257910436776 307.55139535358467 0 0 0 0 -264.20726875826404 -186.40390628801106 0 -186.40390628801106 188.0133011018188 0 0 0 0 -355.47096213078748 -171.56544513946574 0 -171.56544513946574 184.91920377027418 0 0 0 0 -383.94628324036512 -212.79452550651331 0 -212.79452550651331 199.02073146295152 0 0 0 0 -351.29238059606632 -240.98944068332457 0 -240.98944068332457 218.94938448834 0 0 0 0 -175.26660270452584 -521.81404117739476 0 -521.81404117739476 65.797220958582329 0 0 0 0 -788.96109575810851 -285.65805155062117 0 -285.65805155062117 217.73442227171472 0 0 0 0 -0.020878479412364412 -0.852182857733359 0 -0.852182857733359 13.170537240253111 0 0 0 0 60.133236989382283 731.47670626965373 0 731.47670626965373 356.95725941712226 0 0 0 0 157.99627753542461 -295.86838712797544 0 -295.86838712797544 -49.740831360457378 0 0 0 0 -1138.1769651446377 -442.83984881600009 0 -442.83984881600009 162.42460401171411 0 0 0 0 -487.04835526909346 634.00891636948654 0 634.00891636948654 1172.9898931078278 0 0 0 0 -383.70083205745561 915.58984111338214 0 915.58984111338214 1045.0012695691112 0 0 0 0 -304.15900614984992 283.14924920653903 0 283.14924920653903 1746.9399436841486 0 0 0 0 -28.814674933757907 199.56265389137116 0 199.56265389137116 497.31968511808554 0 0 0 0 568.31381159894909 489.65407924934698 0 489.65407924934698 577.2617626125284 0 0 0 0 127.80555906878584 330.74488490348813 0 330.74488490348813 428.07395488722977 0 0 0 0 -54.354580913996585 8.3107760299462825 0 8.3107760299462825 474.82349714289603 0 0 0 0 108.88903995523796 104.64656599265436 0 104.64656599265436 1061.1313961836349 0 0 0 0 60.461931276733651 154.5523859560426 0 154.5523859560426 376.34047609785921 0 0 0 0 6.8173409477829523 -75.471153372469416 0 -75.471153372469416 115.9806452807461 0 0 0 0 64.932209777625559 -35.26045721634182 0 -35.26045721634182 30.755705534509616 0 0 0 0 22.473203059944694 1.3514058561959246 0 1.3514058561959246 5.4000162114025443 0 0 0 0 -1.2281491081400457 7.4142182512969725 0 7.4142182512969725 17.540406942911609 0 0 0 0 4.5488602478398663 10.545706320990547 0 10.545706320990547 3.7632226110973903 0 0 0 0 297.65498266757533 215.28083609665191 0 215.28083609665191 169.36170826001762 0 0 0 0 -1.0278370223059028 281.2268907696498 0 281.2268907696498 -477.03761052480695 0 0 0 0 -125.41536119430526 280.63622752393712 0 280.63622752393712 262.08009189169388 0 0 0 0 -290.26111097124397 93.336872205283726 0 93.336872205283726 376.37639513258546 0 0 0 0 -143.09899890116731 9.2163748878665501 0 9.2163748878665501 97.361377358021855 0 0 0 0 -138.81716844918037 190.61813401835752 0 190.61813401835752 3.9770231426882674 0 0 0 0 -330.78813578769791 -21.431783974054269 0 -21.431783974054269 119.08298594980442 0 0 0 0 -138.32549252497415 -94.902521847281605 0 -94.902521847281605 51.06954908768239 0 0 0 0 215.92932543410717 251.00267511353286 0 251.00267511353286 -354.27726863275166 0 0 0 0 -3.7499268853052103 -0.3091095665917436 0 -0.3091095665917436 16.634499741124412 0 0 0 0 396.95685757595959 -1294.0955691300769 0 -1294.0955691300769 1180.5995300886643 0 0 0 0 -302.7739183302059 -513.90143966173673 0 -513.90143966173673 1591.6691521527828 0 0 0 0 -178.69863229020007 -239.91032442732103 0 -239.91032442732103 54.00371583764354 0 0 0 0 -628.55210072903833 -558.7301753128886 0 -558.7301753128886 1604.1617276416291 0 0 0 0 -623.12623491805857 -658.1360252026243 0 -658.1360252026243 2175.8942196627759 0 0 0 0 1315.7442290039965 -944.42889035974986 0 -944.42889035974986 943.29753411237471 0 0 0 0 -154.09354901628592 -1661.5882824651599 0 -1661.5882824651599 3494.1756769538711 0 0 0 0 2.0522025756784856 -3.8477909841734075 0 -3.8477909841734075 18.72914478265497 0 0 0 0 -775.30727042858075 -417.99400403858817 0 -417.99400403858817 3499.8118883556672 0 0 0 0 -363.27000850459694 505.11285659279383 0 505.11285659279383 1643.0986216996534 0 0 0 0 -572.94789076920597 -198.17729900522318 0 -198.17729900522318 2177.2027958909312 0 0 0 0 -131.61748858446245 523.51076687182467 0 523.51076687182467 1650.8610662636493 0 0 0 0 -414.94811976457743 15.427276393373177 0 15.427276393373177 1163.5758698948448 0 0 0 0 -319.59984122084495 470.95133323959453 0 470.95133323959453 435.89306441401641 0 0 0 0 -43.817785156107561 156.45863401092356 0 156.45863401092356 -449.64404933140031 0 0 0 0 3.5175008714261651 4.4447610128615338 0 4.4447610128615338 2.0574125085185813 0 0 0 0 277.36323972995598 1072.1897315581919 0 1072.1897315581919 -1364.9576945759472 0 0 0 0 -37.091677726145946 491.87759416574409 0 491.87759416574409 7.8154828976475983 0 0 0 0 -130.73052960586557 671.53227757823333 0 671.53227757823333 28.278755037055817 0 0 0 0 -380.25830495489708 573.53949751668551 0 573.53949751668551 95.554330283615855 0 0 0 0 -9.5289089905951752 -11.516122009604461 0 -11.516122009604461 4.1784398875214777 0 0 0 0 330.59289326314871 472.67315361176952 0 472.67315361176952 -89.323700931854546 0 0 0 0 135.68437745096617 669.42529298669251 0 669.42529298669251 -109.45179750035095 0 0 0 0 -50.096959331961898 25.833004382284344 0 25.833004382284344 82.053650005094823 0 0 0 0 -21.200277648148418 5.1348709012807134 0 5.1348709012807134 59.06486785418241 0 0 0 0 -42.698277999057154 -2.239965227778157 0 -2.239965227778157 67.620038238877896 0 0 0 0 109.56031422028445 21.146790521903313 0 21.146790521903313 54.353890584745386 0 0 0 0 39.400909205934568 55.231962234072853 0 55.231962234072853 96.338510042056441 0 0 0 0 -97.908497755764984 -25.673477326512511 0 -25.673477326512511 79.70068723296572 0 0 0 0 358.89364744949307 856.56382363454031 0 856.56382363454031 2092.0432797972576 0 0 0 0 6.5270887580684516 3.469566570057097 0 3.469566570057097 11.193174774432599 0 0 0 0 531.36697475575511 -79.636978905022261 0 -79.636978905022261 19.754130340050324 0 0 0 0 740.69123083364775 642.28743189696979 0 642.28743189696979 -120.81432275231055 0 0 0 0 27.063884666401798 80.922084219013414 0 80.922084219013414 1612.0173791044726 0 0 0 0 406.08734273891719 681.9274778853287 0 681.9274778853287 2510.1577788098512 0 0 0 0 505.361365618381 1229.7297795688537 0 1229.7297795688537 2864.5254194752488 0 0 0 0 -1.1297782646707133 -3.5774857397632189 0 -3.5774857397632189 5.7807028616455511 0 0 0 0 90.704628326378327 570.92592142790363 0 570.92592142790363 2857.1867032298032 0 0 0 0 -467.19394346062995 177.14482992261583 0 177.14482992261583 3499.3850084871883 0 0 0 0 130.30589900835153 436.43625690158296 0 436.43625690158296 2444.978433971045 0 0 0 0 90.325724039864156 777.11878295425049 0 777.11878295425049 1475.2359562499769 0 0 0 0 223.18653962169893 1275.0260649819029 0 1275.0260649819029 2258.8319537423376 0 0 0 0 252.47848547375528 901.52896472260545 0 901.52896472260545 3500.2519025598326 0 0 0 0 -411.92483483506459 -26.527111206924019 0 -26.527111206924019 2326.2715041663696 0 0 0 0 127.5768065805978 486.72171533466462 0 486.72171533466462 1622.8414783541521 0 0 0 0 -27.617674862186085 -20.675818396907502 0 -20.675818396907502 20.371020838786222 0 0 0 0 95.552751678981835 47.866819474977092 0 47.866819474977092 241.94378302981204 0 0 0 0 5.3942248883024684 -27.549310935337715 0 -27.549310935337715 50.762633088458671 0 0 0 0 -61.509865380082374 -44.983417717859993 0 -44.983417717859993 65.190515237323439 0 0 0 0 -54.482524345799902 -21.762626929441467 0 -21.762626929441467 78.917114854397369 0 0 0 0 -56.013504754229871 -12.361537190910894 0 -12.361537190910894 98.319409736093121 0 0 0 0 -41.615061784933005 -15.667827464956645 0 -15.667827464956645 64.457981727464357 0 0 0 0 248.43042107966085 -181.56575346778845 0 -181.56575346778845 119.50343020707078 0 0 0 0 -29.782833550693411 -10.762223302534522 0 -10.762223302534522 12.120674409433672 0 0 0 0 -43.299188978037819 -28.958077176977895 0 -28.958077176977895 42.758456958501483 0 0 0 0 -305.55790476970253 -514.86155325828076 0 -514.86155325828076 -86.184478569484781 0 0 0 0 -1.6753350509685561 59.387228436899022 0 59.387228436899022 -644.37430062468047 0 0 0 0 -934.89977160977207 -933.50211201403727 0 -933.50211201403727 1120.5852557722537 0 0 0 0 -28.260536601269223 275.40611919551156 0 275.40611919551156 -203.18313093110555 0 0 0 0 -13.989918657539626 982.6151764611335 0 982.6151764611335 1705.8446060187707 0 0 0 0 1.8926786479078022 -9.8215895335827597 0 -9.8215895335827597 34.024700683893087 0 0 0 0 -445.07702116792325 236.99885906177224 0 236.99885906177224 387.75323313143599 0 0 0 0 -89.335075378741749 -58.535145199719409 0 -58.535145199719409 14.42030671523753 0 0 0 0 -100.88427257160038 -65.198487300323904 0 -65.198487300323904 20.082327679585433 0 0 0 0 6.0729047448115683 -18.472598702585195 0 -18.472598702585195 49.244428539288492 0 0 0 0 -83.347893637155721 -43.284390943463222 0 -43.284390943463222 41.419571726117283 0 0 0 0 -96.962764448149755 -59.954900559161615 0 -59.954900559161615 43.76109645231827 0 0 0 0 -3.7167502524357841 12.363793019875359 0 12.363793019875359 83.111607969517536 0 0 0 0 -157.02592542261118 -42.135332537145587 0 -42.135332537145587 69.308988608594518 0 0 0 0 -104.33735300014087 -39.085057978219993 0 -39.085057978219993 51.874301134928828 0 0 0 0 -113.56440570185327 -0.49362721585475811 0 -0.49362721585475811 108.72448820753198 0 0 0 0 -102.51036283300164 -44.2279845117082 0 -44.2279845117082 56.781588197743986 0 0 0 0 -114.51652835311552 100.31022365293211 0 100.31022365293211 155.22345090108138 0 0 0 0 -614.95671555115553 -424.94261348450163 0 -424.94261348450163 375.05702816497615 0 0 0 0 -6.2892152210301173 18.419287159962757 0 18.419287159962757 -2.2744910388991855 0 0 0 0 143.24907469211848 399.18404867876598 0 399.18404867876598 158.73811877967091 0 0 0 0 57.257796628130563 67.511838509635709 0 67.511838509635709 -32.581065789228887 0 0 0 0 -0.50838048911827372 1.0421341743986758 0 1.0421341743986758 -5.1693004204944089 0 0 0 0 -132.93409134428202 -77.416420723267947 0 -77.416420723267947 25.240154322731541 0 0 0 0 -95.42496805281553 -73.807062694948399 0 -73.807062694948399 -2.3430748181417584 0 0 0 0 -520.43521771136443 23.1168301476755 0 23.1168301476755 246.88943432008091 0 0 0 0 -331.78844810651754 170.11780579747756 0 170.11780579747756 35.405127940728562 0 0 0 0 1.8112062425252002 10.328720084851547 0 10.328720084851547 65.074385449814883 0 0 0 0 -291.49581312593273 28.006865533643577 0 28.006865533643577 79.056487153589842 0 0 0 0 -490.63749229962241 203.451968831665 0 203.451968831665 153.5982415148751 0 0 0 0 -254.6086077446962 -6.0151353948531323 0 -6.0151353948531323 89.696991569056991 0 0 0 0 -210.08566566099353 36.115395583092322 0 36.115395583092322 -14.108452827524161 0 0 0 0 -232.85638205185478 18.401770407432195 0 18.401770407432195 50.813452956077526 0 0 0 0 -185.96145049885126 -28.868459732046176 0 -28.868459732046176 76.574695061652164 0 0 0 0 -326.27904897671328 -55.388850494451617 0 -55.388850494451617 106.58030125201913 0 0 0 0 -122.6616603642924 -168.29818512964994 0 -168.29818512964994 168.49108063601307 0 0 0 0 -123.70939237787934 -60.676740756316576 0 -60.676740756316576 62.059582853136817 0 0 0 0 -50.824107368360274 -53.946717685408657 0 -53.946717685408657 32.217627781203191 0 0 0 0 27.851581655405425 -105.00890064872874 0 -105.00890064872874 110.86277921395958 0 0 0 0 63.969363122499999 -209.66089217031913 0 -209.66089217031913 162.14024208264891 0 0 0 0 6.253631280069385 -275.41624946412048 0 -275.41624946412048 433.88639645688818 0 0 0 0 -86.007802426753187 -134.35098453055252 0 -134.35098453055252 231.76027175007039 0 0 0 0 -169.30436461919635 -223.06261992070358 0 -223.06261992070358 369.93828860135721 0 0 0 0 -271.85639228010268 -113.7793249970855 0 -113.7793249970855 261.92438085551839 0 0 0 0 1330.9326921720076 -789.55876728705334 0 -789.55876728705334 -3253.4262772888251 0 0 0 0 369.75968786595058 428.54685673622225 0 428.54685673622225 389.64607119148877 0 0 0 0 -0.88921564442599355 -1.0307748412260267 0 -1.0307748412260267 13.081007649209539 0 0 0 0 99.420993184317922 268.90420148923295 0 268.90420148923295 -261.27493400272215 0 0 0 0 -95.741281906140102 87.168342537519493 0 87.168342537519493 -64.020257399330148 0 0 0 0 636.7708817869443 -56.536590824638552 0 -56.536590824638552 -202.15479795250576 0 0 0 0 449.72361875161732 109.91316702793119 0 109.91316702793119 -335.80373208966921 0 0 0 0 274.05722324487942 -97.025523085932946 0 -97.025523085932946 -77.694002624235509 0 0 0 0 269.31461032205334 42.595531306986231 0 42.595531306986231 -219.91295698232716 0 0 0 0 221.36870068372082 -206.70397236187273 0 -206.70397236187273 134.49191033493844 0 0 0 0 353.73567051956707 -400.98149250278948 0 -400.98149250278948 339.22715633444022 0 0 0 0 356.13009549364142 -379.16928291736986 0 -379.16928291736986 352.51661264762515 0 0 0 0 597.52600483810147 -225.32921669588541 0 -225.32921669588541 -2.5364417192176916 0 0 0 0 1007.4984886722905 315.03763916091702 0 315.03763916091702 367.10842044095625 0 0 0 0 35.53449628378462 604.40669948818322 0 604.40669948818322 547.30386196050677 0 0 0 0 431.76970863630231 650.3177327100384 0 650.3177327100384 380.62545371851593 0 0 0 0 64.651761938515563 385.76828762124501 0 385.76828762124501 367.08012420377781 0 0 0 0 259.97304628528855 497.09293391629035 0 497.09293391629035 404.78951487936865 0 0 0 0 251.96695621340564 526.47102310739501 0 526.47102310739501 309.27706394551205 0 0 0 0 179.77970473572805 144.54101534331858 0 144.54101534331858 114.358452371358 0 0 0 0 20.439387782726673 26.258843476609044 0 26.258843476609044 26.433420946615087 0 0 0 0 531.41354401311764 578.41495828290499 0 578.41495828290499 103.86947423202218 0 0 0 0 390.86288876184017 -100.99388885768349 0 -100.99388885768349 2.1402503878780408 0 0 0 0 7.4965270120601417 -1.716030629020679 0 -1.716030629020679 49.57034250237848 0 0 0 0 -23.125337412117261 2.5516601768350711 0 2.5516601768350711 22.8947763580573 0 0 0 0 0.29712959407930839 34.295729817906249 0 34.295729817906249 62.599536820322101 0 0 0 0 -12.945972174562485 37.660657870750583 0 37.660657870750583 43.537787476022459 0 0 0 0 3.3221094351371097 22.119844493873728 0 22.119844493873728 35.262066786981876 0 0 0 0 -5.628198897143502 -0.12797746023429113 0 -0.12797746023429113 17.638869538822746 0 0 0 0 35.715168000096597 1.6184691434182241 0 1.6184691434182241 379.74100327583437 0 0 0 0 24.042742325971176 268.50732795591466 0 268.50732795591466 566.04421969226678 0 0 0 0 47.099281731832491 282.14106773893218 0 282.14106773893218 502.82442568475381 0 0 0 0 -144.98744264131938 305.75725056916417 0 305.75725056916417 639.7409671368805 0 0 0 0 -147.74809036243784 330.97745882906474 0 330.97745882906474 1227.9750766864308 0 0 0 0 225.55747389872022 547.77257323446975 0 547.77257323446975 459.83110752001812 0 0 0 0 -24.172894947284476 -151.69582292911218 0 -151.69582292911218 672.30690354151739 0 0 0 0 20.290132994732744 86.149243848391052 0 86.149243848391052 396.85365672255284 0 0 0 0 -20.026182216030122 -256.04752899276173 0 -256.04752899276173 2058.5416124213516 0 0 0 0 1441.9961400166794 650.71186581809161 0 650.71186581809161 -51.620947658717341 0 0 0 0 1479.9677971476003 80.141094285514555 0 80.141094285514555 -42.111611047823317 0 0 0 0 12.980792162684416 8.2543388606184038 0 8.2543388606184038 6.1883061113029498 0 0 0 0 1892.4502025702618 -464.673295291861 0 -464.673295291861 155.19064511608667 0 0 0 0 386.39580031171363 985.65499571692635 0 985.65499571692635 1558.9692079293163 0 0 0 0 -125.93678202872593 14.935402983639506 0 14.935402983639506 254.53085061519232 0 0 0 0 -493.71088680939215 -1383.1930835398307 0 -1383.1930835398307 3494.9467306227925 0 0 0 0 529.53534727568058 -309.07731395628798 0 -309.07731395628798 -380.56707256896334 0 0 0 0 87.563076501912064 383.97489068666255 0 383.97489068666255 171.74022976306151 0 0 0 0 -10.700764073098526 264.13586348954414 0 264.13586348954414 343.0416255502787 0 0 0 0 18.29519345705603 -97.352355774561147 0 -97.352355774561147 -408.12500957494194 0 0 0 0 -1.911531357272346 -14.489287212025317 0 -14.489287212025317 12.199489347342604 0 0 0 0 337.59673556911957 -379.3370424327295 0 -379.3370424327295 413.09942799521593 0 0 0 0 0.64878596290029567 -18.99827779801749 0 -18.99827779801749 43.06948084302411 0 0 0 0 -24.295928551634404 -309.00140924620064 0 -309.00140924620064 928.33355311355263 0 0 0 0 1992.0527493888148 -2377.1367618592976 0 -2377.1367618592976 1589.0192711704367 0 0 0 0 961.69731700639034 2261.6117416228481 0 2261.6117416228481 3494.6409688844069 0 0 0 0 3.5905162763839358 -4.0354408499001622 0 -4.0354408499001622 19.90706605022433 0 0 0 0 -303.87722830728848 -786.33972273519976 0 -786.33972273519976 3114.4881087976501 0 0 0 0 446.03364379641891 -969.42861282412923 0 -969.42861282412923 1773.1425240256503 0 0 0 0 -142.66039399847875 -1050.0685668856313 0 -1050.0685668856313 2842.3535183575441 0 0 0 0 -60.286189169993463 -474.91323453560472 0 -474.91323453560472 2764.2390478556936 0 0 0 0 -114.86266570427529 267.62140781572816 0 267.62140781572816 538.18487556287437 0 0 0 0 3.9298859826488863 -3.6172722957671795 0 -3.6172722957671795 2.7826946425333912 0 0 0 0 257.60919875794849 204.92755921273056 0 204.92755921273056 208.32696622115327 0 0 0 0 54.050144700525891 -890.17859744150337 0 -890.17859744150337 3525.1687237142178 0 0 0 0 6.6523413681885497 -8.8725279251545146 0 -8.8725279251545146 -0.02885735264057443 0 0 0 0 -119.56928153989179 62.627994777649292 0 62.627994777649292 208.59196530170448 0 0 0 0 168.77179369947589 232.24423961891443 0 232.24423961891443 -352.8190911172635 0 0 0 0 327.40540302033219 -337.36968860779598 0 -337.36968860779598 1115.9477945533945 0 0 0 0 -89.450460306864443 339.66047361093661 0 339.66047361093661 658.9338777957455 0 0 0 0 41.255915818766709 447.87304291311739 0 447.87304291311739 405.98141723695153 0 0 0 0 -76.644494675423786 388.91580671042266 0 388.91580671042266 618.79800482593419 0 0 0 0 100.98889700984648 257.75533260051452 0 257.75533260051452 505.99029657736537 0 0 0 0 89.911322630150678 224.91074087136803 0 224.91074087136803 871.29315277904971 0 0 0 0 273.33693336426688 461.17920515809237 0 461.17920515809237 650.03155121790041 0 0 0 0 233.34385535839579 226.36439842926848 0 226.36439842926848 1054.9569589011662 0 0 0 0 225.82391329399366 70.206513588396774 0 70.206513588396774 951.67470853566556 0 0 0 0 197.79106493085993 -301.35896071226307 0 -301.35896071226307 2341.5544813735178 0 0 0 0 569.57196739729955 -143.88724949969765 0 -143.88724949969765 598.26448236538999 0 0 0 0 202.3007281906244 -374.17270460462896 0 -374.17270460462896 4303.1055421335332 0 0 0 0 -0.72437240475740117 -2.4332202186635072 0 -2.4332202186635072 5.1782257954740416 0 0 0 0 -0.96659203679649941 -4.4747227375547709 0 -4.4747227375547709 7.3191068802803514 0 0 0 0 146.69489805408818 178.53330141847255 0 178.53330141847255 2427.3582089300889 0 0 0 0 -85.136280832539939 26.730616824195749 0 26.730616824195749 2533.7750838227803 0 0 0 0 -124.04891842695341 -97.352876723236477 0 -97.352876723236477 3075.3908804940438 0 0 0 0 -162.06030847332337 -329.83088646210672 0 -329.83088646210672 1705.7649556561064 0 0 0 0 -46.967356626232451 279.78092899674084 0 279.78092899674084 3500.6463276347386 0 0 0 0 -0.34446777886768437 -1.9736495693275344 0 -1.9736495693275344 6.3633093869527002 0 0 0 0 -3.4114426428030113 -12.920654295357304 0 -12.920654295357304 3893.202667859965 0 0 0 0 -21.917525395173776 50.079572195543733 0 50.079572195543733 2218.8497413034929 0 0 0 0 0.070522452064130547 -79.708632377281901 0 -79.708632377281901 1823.5647853853698 0 0 0 0 49.554003723251682 147.35372205911699 0 147.35372205911699 2075.2543522007181 0 0 0 0 0.65858636029614936 -48.984256431654018 0 -48.984256431654018 2307.8109528536879 0 0 0 0 19.586904576597732 278.95065151843301 0 278.95065151843301 2231.3635284666639 0 0 0 0 0.42912770315351806 -58.327021625871566 0 -58.327021625871566 12.477280469945981 0 0 0 0 -52.18325572419964 322.235479831048 0 322.235479831048 2719.6850029938287 0 0 0 0 -0.15096182781415995 -2.560173956822922 0 -2.560173956822922 6.1576490876518619 0 0 0 0 99.609055561817669 124.187285503569 0 124.187285503569 120.92359503897387 0 0 0 0 -0.06156851321349318 -17.115609693275509 0 -17.115609693275509 -22.047687888712971 0 0 0 0 -0.10083156317762107 -0.11660609045148362 0 -0.11660609045148362 1.3206338760984977 0 0 0 0 14.240970970868318 33.442785587361868 0 33.442785587361868 67.888974123721709 0 0 0 0 -9.2883714568854572 -31.318082784327999 0 -31.318082784327999 39.546970392606454 0 0 0 0 -36.960052607985801 42.497159070451744 0 42.497159070451744 159.01070903189247 0 0 0 0 -0.78191614038121093 -6.2286346613821877 0 -6.2286346613821877 9.7161557209363139 0 0 0 0 172.22657702093781 343.1197593379402 0 343.1197593379402 517.98550125207112 0 0 0 0 -4.1012690042858111 -6.6315741123666498 0 -6.6315741123666498 9.1562090046068647 0 0 0 0 0.10518530134100956 19.669449582557718 0 19.669449582557718 63.851853833388304 0 0 0 0 -0.070798012226873652 35.808324798708782 0 35.808324798708782 77.23601448289628 0 0 0 0 17.433068968624553 23.725094147357595 0 23.725094147357595 33.278781863213226 0 0 0 0 1.7112281464781276 17.374589685879755 0 17.374589685879755 61.355242015953991 0 0 0 0 31.287512648364071 13.601790065011301 0 13.601790065011301 -14.246355025738012 0 0 0 0 -22.962099769008301 -34.330039642794873 0 -34.330039642794873 19.797579663161741 0 0 0 0 -0.24466744635312665 42.021607463000691 0 42.021607463000691 83.079083914970397 0 0 0 0 -19.015293455346825 -17.12876502792642 0 -17.12876502792642 54.764130507712252 0 0 0 0 -20.849023409177544 1.3853664248526911 0 1.3853664248526911 17.840709894022439 0 0 0 0 0.91897395871547261 -2.9454648656246718 0 -2.9454648656246718 -23.068318079676828 0 0 0 0 0.10156334175538215 -16.448678051011861 0 -16.448678051011861 13.384754008846357 0 0 0 0 -0.0062455432928614774 -1.376068053226021 0 -1.376068053226021 2.1604167197234005 0 0 0 0 37.532558501429484 49.886818097776995 0 49.886818097776995 65.840662459821033 0 0 0 0 -40.133553337342164 83.848891085759533 0 83.848891085759533 -1.5759285552303481 0 0 0 0 1048.2586500499056 -772.21058967882709 0 -772.21058967882709 -1115.3318118549596 0 0 0 0 14.994540930377237 41.678289206601121 0 41.678289206601121 -1.7787144192420996 0 0 0 0 -19.502658824261744 9.3985030912290313 0 9.3985030912290313 323.51261274893113 0 0 0 0 1.6096054019520665 -0.49265703641038172 0 -0.49265703641038172 -11.764782604974716 0 0 0 0 -1316.8307218251794 -1367.3724542633645 0 -1367.3724542633645 2869.248386269639 0 0 0 0 2100.7726563491306 2350.627249455807 0 2350.627249455807 -5158.6387955100145 0 0 0 0 -19.712937896423497 22.123758460024327 0 22.123758460024327 53.625330490071427 0 0 0 0 4.0617007878458935 -9.1402157059787896 0 -9.1402157059787896 69.219573484615466 0 0 0 0 -0.35577886158963778 -9.5279756061008563 0 -9.5279756061008563 43.713848873730711 0 0 0 0 36.793861503283551 9.251948904053279 0 9.251948904053279 93.193862818558046 0 0 0 0 -3.0332753262919141 -4.4993413600550412 0 -4.4993413600550412 41.982346250921182 0 0 0 0 1.706049205114148 -7.2054189141409424 0 -7.2054189141409424 23.113222385573025 0 0 0 0 62.290857167919967 68.674133866439661 0 68.674133866439661 163.66577497450635 0 0 0 0 4.3939053261565277 89.710537404062052 0 89.710537404062052 221.25963265951941 0 0 0 0 23.830938659153617 117.85021902525932 0 117.85021902525932 197.13911475767327 0 0 0 0 -13.087584946479183 45.845299837934363 0 45.845299837934363 110.63359532589129 0 0 0 0 -13.01500106084859 4.2194284894339944 0 4.2194284894339944 228.42557670765018 0 0 0 0 -13.880573597900366 82.948677140902873 0 82.948677140902873 233.37683216953155 0 0 0 0 -10.166757851357033 69.129853244069636 0 69.129853244069636 278.70376748986746 0 0 0 0 -14.304057854329585 71.934729890122981 0 71.934729890122981 285.38762338561355 0 0 0 0 -296.6480641500093 137.70126977159816 0 137.70126977159816 944.35367451806087 0 0 0 0 394.69114801098476 374.71184082106265 0 374.71184082106265 319.07675943629147 0 0 0 0 117.07883376208338 226.06506717828597 0 226.06506717828597 348.92382603288934 0 0 0 0 16.316498144858315 1.956929297291083 0 1.956929297291083 402.47865807716698 0 0 0 0 1.8972063210657737 -24.272673304301982 0 -24.272673304301982 27.752373479155089 0 0 0 0 25.126592175747646 45.635580004069197 0 45.635580004069197 129.76744994740511 0 0 0 0 496.97135526414422 -39.581404695014498 0 -39.581404695014498 -64.611463060500682 0 0 0 0 4.3519800453127147 -12.577478559235416 0 -12.577478559235416 0.50889573261255805 0 0 0 0 4.9451823254203191 64.176282656058902 0 64.176282656058902 36.786290745618771 0 0 0 0 17.447519589359615 63.138260969707972 0 63.138260969707972 92.61930940161983 0 0 0 0 15.652218732331448 10.850038932161738 0 10.850038932161738 133.36095358760213 0 0 0 0 -5.3785460230522091 -23.238504547557064 0 -23.238504547557064 22.51134360326671 0 0 0 0 106.71798034789754 115.99202037996929 0 115.99202037996929 155.68650738971883 0 0 0 0 34.732669170193503 35.443156830843733 0 35.443156830843733 -13.347457525470109 0 0 0 0 161.30577369669481 33.647702277710778 0 33.647702277710778 -23.687133266830642 0 0 0 0 -124.10260080329681 46.986122050439008 0 46.986122050439008 276.70248202521907 0 0 0 0 -794.69713992568586 -286.7592594431153 0 -286.7592594431153 2211.9348432305851 0 0 0 0 177.04404153552423 999.82103454338721 0 999.82103454338721 1879.7687134474736 0 0 0 0 1329.3788526609396 1129.5874828505112 0 1129.5874828505112 331.517031075251 0 0 0 0 -103.48238011089416 99.72197659784797 0 99.72197659784797 1115.0794338783599 0 0 0 0 -58.992430899655119 -247.74948011209381 0 -247.74948011209381 467.69147832784074 0 0 0 0 -124.83454305430269 289.95888294027645 0 289.95888294027645 958.79376366938959 0 0 0 0 -169.31957486384681 366.93772655119392 0 366.93772655119392 891.0696031361731 0 0 0 0 216.4345733583873 458.2860206523037 0 458.2860206523037 747.08685670490377 0 0 0 0 410.34033186294891 51.332307864560789 0 51.332307864560789 -207.79818708739185 0 0 0 0 1377.7517330015216 1064.3669513536261 0 1064.3669513536261 690.37233001545974 0 0 0 0 174.04346832793362 177.15601153081298 0 177.15601153081298 367.76674018742051 0 0 0 0 0.69748117002629328 -1.3265503111963071 0 -1.3265503111963071 14.844098178810313 0 0 0 0 22.829164401525059 -41.894716970895345 0 -41.894716970895345 83.362906886684343 0 0 0 0 -7.2702579881970451 -168.57196227558961 0 -168.57196227558961 20.373553502238792 0 0 0 0 241.71849822593947 233.90613907006218 0 233.90613907006218 263.8232541626785 0 0 0 0 -11.063879306951094 563.20892078981001 0 563.20892078981001 2538.6355009835183 0 0 0 0 -454.45973503279401 224.08336368436085 0 224.08336368436085 -5672.3618206865394 0 0 0 0 -2120.942896172071 -1965.0118955822149 0 -1965.0118955822149 9407.94964999066 0 0 0 0 18.146112665986841 -21.789835827520513 0 -21.789835827520513 20.605528696724519 0 0 0 0 -742.25205412745345 -1233.3394875343024 0 -1233.3394875343024 3791.623981519494 0 0 0 0 19.280885320378729 1067.7658419605414 0 1067.7658419605414 2885.0661323469103 0 0 0 0 21.29422958135644 -25.191997821345396 0 -25.191997821345396 22.118501712506415 0 0 0 0 170.76578060465181 437.21046192945687 0 437.21046192945687 2901.4798285648649 0 0 0 0 -2697.3470762236284 -2338.1743687924463 0 -2338.1743687924463 -1164.1196295035625 0 0 0 0 23.108746682469512 -54.950293445816129 0 -54.950293445816129 83.924868510437832 0 0 0 0 -76.822556570476081 -290.26860236803759 0 -290.26860236803759 -41.87255789915821 0 0 0 0 -2469.0722296245222 -3323.6835412872679 0 -3323.6835412872679 3051.8213505228632 0 0 0 0 65.150135384034911 24.576397551726643 0 24.576397551726643 -181.76149978686749 0 0 0 0 -7.2959812265869024 -20.173880329830503 0 -20.173880329830503 16.2746304388913 0 0 0 0 186.43240965195218 -113.12760871382659 0 -113.12760871382659 -142.08830472104182 0 0 0 0 15.506461056044827 -140.13857003199814 0 -140.13857003199814 541.17535871112204 0 0 0 0 -193.65306548434489 -413.69844268052174 0 -413.69844268052174 517.49977514561624 0 0 0 0 285.23546235293452 -885.56694692295105 0 -885.56694692295105 976.13452899982212 0 0 0 0 -49.821409723854458 262.67258954976199 0 262.67258954976199 488.23910783447388 0 0 0 0 -564.77719540287762 -1258.5851210613969 0 -1258.5851210613969 1263.3853785544929 0 0 0 0 -222.17010432840652 -490.85356914883937 0 -490.85356914883937 2101.5419694280845 0 0 0 0 438.38330670573032 -220.6823206558015 0 -220.6823206558015 101.67568055446895 0 0 0 0 0.079941896136361379 -7.001622530995161 0 -7.001622530995161 -1.1289974594483851 0 0 0 0 5.2858452691087905 57.851022085988745 0 57.851022085988745 204.85449372786024 0 0 0 0 -88.674309594955048 -97.075222706147088 0 -97.075222706147088 106.37372668498938 0 0 0 0 4.1624957677041658 -15.103311735273184 0 -15.103311735273184 19.944415306970178 0 0 0 0 -25.762456462865604 -18.973827873187336 0 -18.973827873187336 10.568816570945957 0 0 0 0 10.473626877645756 26.865270063302688 0 26.865270063302688 -12.79156128455088 0 0 0 0 -14.4884100033496 -7.6950005307326137 0 -7.6950005307326137 45.84302115283208 0 0 0 0 -20.168697069353129 -15.345338618184542 0 -15.345338618184542 42.352596610709043 0 0 0 0 -16.264150268667436 145.31044036770265 0 145.31044036770265 -55.071260577854503 0 0 0 0 260.96006090285482 -188.95403519361554 0 -188.95403519361554 -52.345964589087089 0 0 0 0 -16.031533340954269 -17.407574973801829 0 -17.407574973801829 -6.5749556866580381 0 0 0 0 45.10309526377614 150.67989664105789 0 150.67989664105789 363.14659863039196 0 0 0 0 169.29888038926629 107.251726091813 0 107.251726091813 328.70234094468651 0 0 0 0 -0.99035912011385108 -2.4543854862505157 0 -2.4543854862505157 8.6507265730350795 0 0 0 0 35.402272907666884 45.129431467477843 0 45.129431467477843 -89.326290386557957 0 0 0 0 68.093957640488043 143.3325679287027 0 143.3325679287027 354.38219451323039 0 0 0 0 -51.297251924497687 -42.456955983218904 0 -42.456955983218904 308.47470161064666 0 0 0 0 -6.3281757781892178 -12.585862471297499 0 -12.585862471297499 36.580224188748261 0 0 0 0 4.0635260711567698 -12.958669492415758 0 -12.958669492415758 9.1679073709569412 0 0 0 0 12.259046368816598 -96.989552863971767 0 -96.989552863971767 151.854687254694 0 0 0 0 -40.844870861906998 -50.205648578263776 0 -50.205648578263776 -6.2013171489319348 0 0 0 0 -33.837255869779142 -52.40519206461795 0 -52.40519206461795 -5.6480201592630692 0 0 0 0 -18.756407267124928 -22.588621361803689 0 -22.588621361803689 -24.992540306497176 0 0 0 0 39.604545535768466 -62.182885241407348 0 -62.182885241407348 138.37901070896714 0 0 0 0 -0.04168602001427324 -0.51780259542233864 0 -0.51780259542233864 -0.016684192319825542 0 0 0 0 -82.418646501750345 -93.65829910339653 0 -93.65829910339653 -29.368239694500062 0 0 0 0 1.2723287891697384 -16.722279541007822 0 -16.722279541007822 43.316062018388514 0 0 0 0 14.24047665453736 -2.8259373972259709 0 -2.8259373972259709 -20.347157056970445 0 0 0 0 24.068305731821965 -12.615814513380428 0 -12.615814513380428 22.128039400641683 0 0 0 0 54.392146574708477 28.670099495026079 0 28.670099495026079 40.444201057093778 0 0 0 0 -46.209675511613568 -59.877027999343227 0 -59.877027999343227 132.72092941147753 0 0 0 0 2.2583903313375231 23.295154762445236 0 23.295154762445236 107.31749232561378 0 0 0 0 -3.3206025085723923 27.151569325626497 0 27.151569325626497 274.69137907861477 0 0 0 0 -141.4669238500428 53.293445881439766 0 53.293445881439766 446.84212339420446 0 0 0 0 67.171490197183957 162.692452950438 0 162.692452950438 268.3420042897078 0 0 0 0 -17.063969518359499 -9.2125295564401313 0 -9.2125295564401313 -108.60207201302546 0 0 0 0 3.8953015519135898 -2.687413321159239 0 -2.687413321159239 3.9383464093827421 0 0 0 0 -52.938167282204631 -19.410965287303043 0 -19.410965287303043 60.509170883722618 0 0 0 0 -16.232619063338461 -36.561372483311061 0 -36.561372483311061 37.683496890716924 0 0 0 0 -1.3929219508667963 -3.0991174716404686 0 -3.0991174716404686 11.925697945401636 0 0 0 0 -20.389977321283368 -40.792818216846172 0 -40.792818216846172 81.786387083161571 0 0 0 0 -11.319667775725065 -27.460931942373463 0 -27.460931942373463 58.830585870209688 0 0 0 0 -9.7370319436654427 -22.145851679195403 0 -22.145851679195403 32.528389809733198 0 0 0 0 -12.872769621304087 -6.1305196460398292 0 -6.1305196460398292 63.411240425808501 0 0 0 0 -13.056610168784573 -8.3594057494265144 0 -8.3594057494265144 45.763520854300452 0 0 0 0 -25.59867957076176 1.364182403975974 0 1.364182403975974 47.209767385334999 0 0 0 0 8.7004208570660921 -23.081482906798101 0 -23.081482906798101 -13.472682007552976 0 0 0 0 21.76425099416457 -105.14207679699928 0 -105.14207679699928 151.48278381333876 0 0 0 0 5.4289411445915139 -11.649793937922972 0 -11.649793937922972 25.726309792983081 0 0 0 0 -60.985489242669246 -14.085897044022204 0 -14.085897044022204 67.540856223513856 0 0 0 0 77.91018484177232 119.55045010870685 0 119.55045010870685 214.80492058855816 0 0 0 0 -60.144154670093485 -27.441845211447344 0 -27.441845211447344 46.042580430416592 0 0 0 0 35.276495952733967 77.928503104101765 0 77.928503104101765 244.37171588987349 0 0 0 0 91.695969555345073 64.679779742117717 0 64.679779742117717 211.74930627443609 0 0 0 0 289.32630299747188 516.14679156970715 0 516.14679156970715 490.78398071996344 0 0 0 0 1.0027576623497723 -3.2337447525701748 0 -3.2337447525701748 9.7329469730553413 0 0 0 0 204.96152863390932 -345.29079281337499 0 -345.29079281337499 58.289737091570714 0 0 0 0 252.21578571314785 -112.40239709379193 0 -112.40239709379193 17.298356650905589 0 0 0 0 1104.4791138963146 542.52895642885233 0 542.52895642885233 -56.368070250187657 0 0 0 0 2.2922129472922776 36.473772892305718 0 36.473772892305718 27.522709954496172 0 0 0 0 -222.63671649890148 -525.34362541772998 0 -525.34362541772998 197.37469403426439 0 0 0 0 -560.52683028544288 69.79397363395401 0 69.79397363395401 709.88194828717383 0 0 0 0 -37.748099052045745 -170.15543686657475 0 -170.15543686657475 -47.63742277485926 0 0 0 0 -26.383702336714123 -235.14945852513665 0 -235.14945852513665 -68.9397777656377 0 0 0 0 -15.919371267292101 27.767261471366162 0 27.767261471366162 19.173827248703908 0 0 0 0 -112.31843211716478 -195.14722859506855 0 -195.14722859506855 356.38124819417862 0 0 0 0 -191.9347569428719 -79.935123445673526 0 -79.935123445673526 476.96885018796638 0 0 0 0 -123.46499716105791 -16.262932945051944 0 -16.262932945051944 312.42614272606079 0 0 0 0 -9.621481194151329 -22.63470686204073 0 -22.63470686204073 100.78228739265887 0 0 0 0 127.46004421971338 2.2594815286520316 0 2.2594815286520316 -41.99591729317217 0 0 0 0 -78.915385926433373 -169.81408430753891 0 -169.81408430753891 109.04877595553262 0 0 0 0 -238.39967416926675 -24.321273527141784 0 -24.321273527141784 206.2586163574224 0 0 0 0 -106.18662260143833 -85.726420922918578 0 -85.726420922918578 234.77495930990335 0 0 0 0 -114.00686388298891 -194.93192913573148 0 -194.93192913573148 112.10245934916929 0 0 0 0 -107.33398672148633 -161.31472776029568 0 -161.31472776029568 230.07192306354773 0 0 0 0 7.7204719703626097 17.342534354923373 0 17.342534354923373 -20.485862179044489 0 0 0 0 -5.2415821715408271 32.356154116919093 0 32.356154116919093 35.072410971377337 0 0 0 0 -231.08947497109284 77.636558276901269 0 77.636558276901269 71.675302139825362 0 0 0 0 -491.36484455032087 -117.12536712415658 0 -117.12536712415658 235.47869183139142 0 0 0 0 -2.9490733140663572 3.5039740895220994 0 3.5039740895220994 27.994640104202816 0 0 0 0 37.170127329128491 40.799536658009856 0 40.799536658009856 51.068675547134262 0 0 0 0 -2.9950286386257403 21.558674685579263 0 21.558674685579263 47.427260580330767 0 0 0 0 -10.602107228299019 2.8880679467993104 0 2.8880679467993104 97.853984900304567 0 0 0 0 -41.824363126735648 27.650190688757903 0 27.650190688757903 120.55134030454064 0 0 0 0 -31.088376244594485 48.18522610917762 0 48.18522610917762 128.41315218513409 0 0 0 0 174.94544155296853 163.05936067951825 0 163.05936067951825 -190.33921807350271 0 0 0 0 0.85274440309141042 34.853570319073881 0 34.853570319073881 24.437042447684995 0 0 0 0 -34.67508765601815 11.314931163466099 0 11.314931163466099 87.282537333489017 0 0 0 0 48.412450956668181 -17.95292853596402 0 -17.95292853596402 -129.22522687327864 0 0 0 0 28.787508740210797 3.0942712332007432 0 3.0942712332007432 -82.433038734088768 0 0 0 0 -78.735567188139612 4.9414638262269364 0 4.9414638262269364 171.25632655897061 0 0 0 0 -73.748733859525146 -57.574460937079493 0 -57.574460937079493 492.84176329904676 0 0 0 0 242.2051747267833 -128.31757674895016 0 -128.31757674895016 84.785123681464029 0 0 0 0 182.20559502795822 268.12190934231694 0 268.12190934231694 368.78555861527457 0 0 0 0 -71.358087550263917 11.168936300372479 0 11.168936300372479 114.32097518788214 0 0 0 0 -4.0028056948752173 4.2968539045907974 0 4.2968539045907974 113.51392026531187 0 0 0 0 -238.34509307594453 78.975388142939664 0 78.975388142939664 289.59736306513605 0 0 0 0 -33.770100717972127 165.66558540222286 0 165.66558540222286 50.464513467137294 0 0 0 0 -8.2484956498113249 26.043536127061227 0 26.043536127061227 51.545722353596545 0 0 0 0 -4.1563309689439478 4.3163888463661237 0 4.3163888463661237 99.637686763828995 0 0 0 0 -24.019381981230254 -14.335363716345455 0 -14.335363716345455 74.913285554224785 0 0 0 0 2.6131268759963859 -4.6758490607239764 0 -4.6758490607239764 21.51428872847282 0 0 0 0 -58.636618310066297 -94.466861148731368 0 -94.466861148731368 250.32101776728996 0 0 0 0 24.389924361412341 71.956713516934542 0 71.956713516934542 266.91294952629949 0 0 0 0 -68.724414486636306 -25.375930604933274 0 -25.375930604933274 112.24360384039574 0 0 0 0 0.46214612310760073 -5.5495998822694013 0 -5.5495998822694013 81.348393664630464 0 0 0 0 -20.167709604125776 15.931082080963279 0 15.931082080963279 119.46854880216051 0 0 0 0 5.8334550417212085 -26.18129335997466 0 -26.18129335997466 78.998704636687762 0 0 0 0 14.085433551598726 60.770897093061535 0 60.770897093061535 94.862345114948766 0 0 0 0 34.845784726361671 84.879137638876273 0 84.879137638876273 179.61200246521912 0 0 0 0 8.0726755922423763 92.678191508448435 0 92.678191508448435 220.96994909852026 0 0 0 0 -32.263525551384191 -1.9255577843850915 0 -1.9255577843850915 180.4434345556092 0 0 0 0 -46.776703537223511 38.130863833408512 0 38.130863833408512 77.394750297571591 0 0 0 0 0.61815512516291093 -1.4870291994242422 0 -1.4870291994242422 2.6396842903149746 0 0 0 0 -54.256294212482885 -58.547050516238414 0 -58.547050516238414 26.977721761235443 0 0 0 0 26.185665243112453 -2.4890684633428464 0 -2.4890684633428464 63.020502328608927 0 0 0 0 -2.5409869258333129 -4.1493254684260634 0 -4.1493254684260634 67.161325225631089 0 0 0 0 90.304384703478718 33.045917162125988 0 33.045917162125988 79.062411532140686 0 0 0 0 29.330318645257648 34.023376788805763 0 34.023376788805763 103.78767244865958 0 0 0 0 137.51665815214096 -4.4559934188675925 0 -4.4559934188675925 14.166140596695186 0 0 0 0 68.716994577480364 51.468944929936697 0 51.468944929936697 -24.87477607953042 0 0 0 0 -33.141141242269214 51.13663645701854 0 51.13663645701854 232.03108014518875 0 0 0 0 -28.192440961228385 69.460235245218882 0 69.460235245218882 163.33285060301932 0 0 0 0 0.44362874436206212 -0.78228991873857723 0 -0.78228991873857723 1.3304843126214791 0 0 0 0 -23.346084571068559 -137.62314978667791 0 -137.62314978667791 235.67031707857677 0 0 0 0 30.272776773022997 -104.12703740318284 0 -104.12703740318284 17.648709538366802 0 0 0 0 -15.56686464843267 -10.98373137704769 0 -10.98373137704769 119.95853703491321 0 0 0 0 -1.1195523111448367 24.247053480062434 0 24.247053480062434 42.737243588819091 0 0 0 0 166.7357011595559 -23.160886244793801 0 -23.160886244793801 168.09989697024866 0 0 0 0 -26.702232031699168 -14.586951128574583 0 -14.586951128574583 261.79728508911921 0 0 0 0 -20.909158115805894 2.4202775126466349 0 2.4202775126466349 174.89317635636689 0 0 0 0 -1.5650833689342107 -6.0050672881079663 0 -6.0050672881079663 171.07895459563952 0 0 0 0 125.82001006922292 22.440146448356245 0 22.440146448356245 132.29471636085145 0 0 0 0 11.781169947029412 39.020920302215018 0 39.020920302215018 142.67065842239208 0 0 0 0 35.644123203257095 58.422416137487289 0 58.422416137487289 231.47090411930549 0 0 0 0 48.198677910033439 31.712950960800299 0 31.712950960800299 138.10513769648969 0 0 0 0 139.80792975909571 -45.472091933796037 0 -45.472091933796037 202.27563746452324 0 0 0 0 53.573650734517287 -112.74182796670721 0 -112.74182796670721 190.1109129043798 0 0 0 0 6.5138210620825703 -49.453149616572773 0 -49.453149616572773 291.22125459690869 0 0 0 0 161.78946346948942 11.724936828984937 0 11.724936828984937 103.66824270424695 0 0 0 0 -12.41426332107641 -12.365183946737048 0 -12.365183946737048 60.581124254366614 0 0 0 0 -153.32078449099208 255.35315843808348 0 255.35315843808348 398.31129513497399 0 0 0 0 -20.714722847777097 -26.223961815350876 0 -26.223961815350876 86.618931398149556 0 0 0 0 -47.473839394535389 52.028104314209486 0 52.028104314209486 124.23992369354528 0 0 0 0 3.7558557262200409 9.0725514678616932 0 9.0725514678616932 18.380150154499233 0 0 0 0 9.5288871599530012 -99.591234430744294 0 -99.591234430744294 75.105074026811053 0 0 0 0 -65.979666736087893 -4.1369348443658964 0 -4.1369348443658964 90.263711765655898 0 0 0 0 19.16385777125106 25.724375582774883 0 25.724375582774883 68.119745790289016 0 0 0 0 -9.9666278763771388 -9.4471604268851479 0 -9.4471604268851479 45.358507257346247 0 0 0 0 43.467293507415889 36.001166944286524 0 36.001166944286524 42.508262984742942 0 0 0 0 17.207643483347056 18.33686013343322 0 18.33686013343322 110.87936666091991 0 0 0 0 129.90950885914572 19.70076103386964 0 19.70076103386964 75.388145542117854 0 0 0 0 64.427443837555984 -2.1463374699869746 0 -2.1463374699869746 107.64391020764015 0 0 0 0 84.764069809178181 83.591075042382727 0 83.591075042382727 123.22347440222256 0 0 0 0 137.69577312039155 -2.0349319427200498 0 -2.0349319427200498 48.924167775887327 0 0 0 0 0.82639716276275976 -0.16074025301033146 0 -0.16074025301033146 -0.47087409440326411 0 0 0 0 26.79163700186291 30.54489535362336 0 30.54489535362336 75.894824465976853 0 0 0 0 54.617536798357833 32.409078330521879 0 32.409078330521879 72.858019410286943 0 0 0 0 81.526358660456026 -0.37290837519685738 0 -0.37290837519685738 23.19947020125619 0 0 0 0 47.860788575484548 0.51057824477538816 0 0.51057824477538816 54.916284979950433 0 0 0 0 50.327419576882676 18.887801936172764 0 18.887801936172764 -19.08060725925111 0 0 0 0 -70.132072730904838 -38.806802426339345 0 -38.806802426339345 56.489792804171884 0 0 0 0 36.412883679016886 6.8234181552525115 0 6.8234181552525115 35.339728524257225 0 0 0 0 9.1316855469713119 13.632042810837447 0 13.632042810837447 61.292008552074549 0 0 0 0 -213.68149761287623 -68.316396424590494 0 -68.316396424590494 93.66780129718245 0 0 0 0 -130.90969134367583 -622.99543039002674 0 -622.99543039002674 350.76824144920101 0 0 0 0 22.81924088980395 182.04665449084496 0 182.04665449084496 311.68600064141356 0 0 0 0 98.169320603613414 -254.1494427313155 0 -254.1494427313155 -37.021136870574992 0 0 0 0 -0.01310945309317546 -1.3823530311421592 0 -1.3823530311421592 4.4137402264329069 0 0 0 0 -10.062715544706407 -34.093979333680181 0 -34.093979333680181 107.92593973048679 0 0 0 0 636.49082456064571 -109.4410671046935 0 -109.4410671046935 248.76651645776292 0 0 0 0 -0.68069926920024315 -27.429099714323186 0 -27.429099714323186 33.897889231392213 0 0 0 0 -7.5865893940441751 -1.4080560721794484 0 -1.4080560721794484 13.018474904932781 0 0 0 0 -39.322673515387578 1.4962071007976192 0 1.4962071007976192 6.0158410523108614 0 0 0 0 13.132176567401984 236.88532205794945 0 236.88532205794945 114.87709835190617 0 0 0 0 438.60325695074425 -181.9225031506212 0 -181.9225031506212 -64.420875330150011 0 0 0 0 -55.245125730313475 54.65351280970026 0 54.65351280970026 169.28090012294706 0 0 0 0 -16.621296489436283 -24.900636841399489 0 -24.900636841399489 36.170082104142736 0 0 0 0 53.819391369488585 21.235379863734124 0 21.235379863734124 57.70738304209226 0 0 0 0 -121.22425173111151 -146.28584586356737 0 -146.28584586356737 507.96835204456875 0 0 0 0 3.6800198574674141 22.320527768242755 0 22.320527768242755 70.57555951748509 0 0 0 0 1.1120372994476426 1.3748326908371524 0 1.3748326908371524 19.816359237721262 0 0 0 0 -4.1824519537592408 -7.5306395851765302 0 -7.5306395851765302 64.817227590033013 0 0 0 0 54.157976106664137 10.420364300647634 0 10.420364300647634 111.50353342284507 0 0 0 0 250.05974277020869 -181.2067942667054 0 -181.2067942667054 256.85902250139043 0 0 0 0 63.471847262990195 -149.77934195597481 0 -149.77934195597481 39.014763767063414 0 0 0 0 -379.31602946338171 318.69245193971437 0 318.69245193971437 178.70762549660867 0 0 0 0 3.5230067277083421 3.6044092072020177 0 3.6044092072020177 13.887672644788886 0 0 0 0 -8.5837951915673329 27.101978278975366 0 27.101978278975366 87.882246263139677 0 0 0 0 26.513609996647574 28.821757130143851 0 28.821757130143851 87.928012021540781 0 0 0 0 18.002620033548737 -21.018412627949147 0 -21.018412627949147 51.070795875213662 0 0 0 0 -8.1055867514072801 -7.7716787895797097 0 -7.7716787895797097 52.431663250934278 0 0 0 0 9.2040896859330132 1.9643631042818015 0 1.9643631042818015 62.329118328343611 0 0 0 0 -5.3078163519865669 -15.491907224353724 0 -15.491907224353724 45.477448222313285 0 0 0 0 9.4049686218714399 4.2686882042073506 0 4.2686882042073506 44.983187271034524 0 0 0 0 23.035882965090423 27.533832684188383 0 27.533832684188383 74.749920674269561 0 0 0 0 14.102563181128062 17.308095407419387 0 17.308095407419387 77.410755164313741 0 0 0 0 3.6032314951709292 2.478900284507958 0 2.478900284507958 41.515390021632328 0 0 0 0 6.2320063269140089 0.3268449073321662 0 0.3268449073321662 27.879584553729899 0 0 0 0 40.280811543597338 -5.5055009281859384 0 -5.5055009281859384 13.392389728498529 0 0 0 0 8.2884818592883676 2.5037390783581941 0 2.5037390783581941 33.566459474575822 0 0 0 0 25.893317156641899 -21.491668025586023 0 -21.491668025586023 29.891639805064187 0 0 0 0 87.006430395745156 24.778524480243505 0 24.778524480243505 19.437752133628237 0 0 0 0 31.060784139941461 12.081544493034016 0 12.081544493034016 44.454024092941836 0 0 0 0 -0.51594619958949295 -9.8960183831522013 0 -9.8960183831522013 2.5201603612882479 0 0 0 0 -172.64402070933102 -87.5586854810972 0 -87.5586854810972 46.841652044007787 0 0 0 0 15.368598756201129 -9.6271157655793331 0 -9.6271157655793331 38.620022568513008 0 0 0 0 -26.730111681979452 66.513087665938656 0 66.513087665938656 85.669504855875857 0 0 0 0 -0.95480726257859772 -13.066045927300607 0 -13.066045927300607 22.942482021212953 0 0 0 0 3.1392295186878156 -17.971601489387048 0 -17.971601489387048 33.310650650209681 0 0 0 0 10.554991392418742 -4.6809229879872873 0 -4.6809229879872873 59.378280681346951 0 0 0 0 -8.6668222417392826 -17.614375666773412 0 -17.614375666773412 19.916051536143641 0 0 0 0 -110.29416665199642 79.383987260553113 0 79.383987260553113 300.91929480212275 0 0 0 0 127.30439049066626 -181.94797093868692 0 -181.94797093868692 -17.412971188343363 0 0 0 0 13.254485689698413 -147.12995801942452 0 -147.12995801942452 208.62780171063059 0 0 0 0 -72.788753217194426 29.549066495892475 0 29.549066495892475 -5.733023512570071 0 0 0 0 84.958488637933897 -88.079279436940851 0 -88.079279436940851 -35.014169226109516 0 0 0 0 -96.082671594911517 -140.93015147081314 0 -140.93015147081314 135.83087099717523 0 0 0 0 127.84322468596838 -123.51270119186665 0 -123.51270119186665 -126.63018002805256 0 0 0 0 30.359663278278163 -32.703480865272809 0 -32.703480865272809 33.166924990248361 0 0 0 0 -19.307986496058568 4.5061846083622754 0 4.5061846083622754 8.8641552596689195 0 0 0 0 -8.849016150674224 5.3499566136539869 0 5.3499566136539869 -3.0828577108727302 0 0 0 0 -229.88986958520763 159.90923765310436 0 159.90923765310436 422.34113430611615 0 0 0 0 -41.586400325656541 229.28489633342542 0 229.28489633342542 143.3112897641422 0 0 0 0 5.2275369811635244 -28.306353577433413 0 -28.306353577433413 34.29489986909212 0 0 0 0 4.4037584071159017 -71.285641944599774 0 -71.285641944599774 33.403448419616325 0 0 0 0 -1.0111095574579849 -204.05108060308703 0 -204.05108060308703 2.6336958424617478 0 0 0 0 23.837244553913994 -25.270854091105647 0 -25.270854091105647 25.497515144605586 0 0 0 0 182.62850766835845 -109.91481670256326 0 -109.91481670256326 -64.029474211838533 0 0 0 0 -21.935183052093635 -54.585330870810139 0 -54.585330870810139 -174.26277416478842 0 0 0 0 -32.674200847966858 226.92813134533935 0 226.92813134533935 64.889359967288328 0 0 0 0 164.54228847449019 79.534169867333731 0 79.534169867333731 7.7666356432018802 0 0 0 0 -2.0310877396721105 79.535609989471538 0 79.535609989471538 -44.252744791228906 0 0 0 0 124.47862134237562 -50.954825332573819 0 -50.954825332573819 86.542139320750721 0 0 0 0 160.85563949325797 119.46874392742393 0 119.46874392742393 86.576570057412752 0 0 0 0 -10.43895023913592 -15.09656781967351 0 -15.09656781967351 143.04818946926025 0 0 0 0 5.8017765966127435 23.302713926932526 0 23.302713926932526 60.177253053142167 0 0 0 0 2.0181731252488011 -1.1641821358000897 0 -1.1641821358000897 -0.4512735871030884 0 0 0 0 -5.6378497796001739 74.010548623660725 0 74.010548623660725 69.663399925215344 0 0 0 0 119.50070453279363 114.65953411984083 0 114.65953411984083 63.851502419187455 0 0 0 0 73.80432249786827 -20.937261136234156 0 -20.937261136234156 -16.675493398259277 0 0 0 0 9.4003396301540896 6.8201425456629892 0 6.8201425456629892 9.4632983750912842 0 0 0 0 25.949371781684022 21.494262921893096 0 21.494262921893096 58.335229218668246 0 0 0 0 12.645831755371546 20.982066464059244 0 20.982066464059244 70.71561314059727 0 0 0 0 -58.099609501894975 37.079647991093225 0 37.079647991093225 112.09315044502 0 0 0 0 7.9821420170297621 26.419890155827886 0 26.419890155827886 56.954607756316705 0 0 0 0 24.360972475688868 32.140504592623074 0 32.140504592623074 62.840819027114776 0 0 0 0 13.301499138286545 21.496479314237604 0 21.496479314237604 43.650799828752497 0 0 0 0 5.8675626090053417 13.310984229690822 0 13.310984229690822 29.545602755538454 0 0 0 0 301.06696093967003 438.39864673502598 0 438.39864673502598 1471.1896445885359 0 0 0 0 396.41771048376904 748.85287152869569 0 748.85287152869569 2830.7161964167026 0 0 0 0 388.64405943889869 652.76220133072638 0 652.76220133072638 1879.1888154541957 0 0 0 0 656.6304229197558 89.102074478723807 0 89.102074478723807 1748.0527190086141 0 0 0 0 463.23453767267347 14.702300271164859 0 14.702300271164859 1654.1835887832385 0 0 0 0 384.88645353700849 155.88522642210592 0 155.88522642210592 1731.9056598849711 0 0 0 0 286.6615320450328 269.48520826626191 0 269.48520826626191 1319.6438975442434 0 0 0 0 219.19710542610846 143.00210287935624 0 143.00210287935624 1518.9626211186624 0 0 0 0 187.58356906008339 372.10792904103437 0 372.10792904103437 1218.3486680768619 0 0 0 0 202.92792642060704 260.3482330808547 0 260.3482330808547 1292.2364882344627 0 0 0 0 580.7676928326764 427.01950593831134 0 427.01950593831134 1364.8996914595627 0 0 0 0 468.17607850668355 -98.312015785006224 0 -98.312015785006224 1811.4795025861531 0 0 0 0 382.05832282271331 97.017661005447735 0 97.017661005447735 2999.427682663023 0 0 0 0 235.58579311162248 273.2851508689273 0 273.2851508689273 1255.8076786081365 0 0 0 0 -42.140329285452026 110.17614474944276 0 110.17614474944276 1384.712328510519 0 0 0 0 -6.0307855160735926 -123.81348103444907 0 -123.81348103444907 1311.0751058878923 0 0 0 0 -161.20002032585626 39.079520001585479 0 39.079520001585479 439.38849533483153 0 0 0 0 275.94841562872716 -245.74014506777894 0 -245.74014506777894 -275.31968655862875 0 0 0 0 3.8422529940843013 2.9480010387116948 0 2.9480010387116948 2.1910360275841043 0 0 0 0 168.57753608391249 887.12034205303644 0 887.12034205303644 3949.6892965822481 0 0 0 0 -147.58694780732503 76.826043283072522 0 76.826043283072522 910.41781913205341 0 0 0 0 113.64846813214581 142.22260512203502 0 142.22260512203502 266.83384973678039 0 0 0 0 68.212411050998526 -209.32930850611592 0 -209.32930850611592 702.1865406356228 0 0 0 0 -96.521226939456938 52.378322396062686 0 52.378322396062686 966.95967687551456 0 0 0 0 -68.645524693592051 194.60451344738249 0 194.60451344738249 1196.2546278256341 0 0 0 0 -83.685463299036201 239.05438074473204 0 239.05438074473204 1189.0292663934088 0 0 0 0 -129.31772240666078 209.743852109008 0 209.743852109008 763.51910310573294 0 0 0 0 38.720989212176391 24.858249265736958 0 24.858249265736958 31.47227936838317 0 0 0 0 -0.26397951609385473 8.5239723521420956 0 8.5239723521420956 12.70241658651225 0 0 0 0 91.071722539204529 -36.193730927112483 0 -36.193730927112483 74.454359187169757 0 0 0 0 140.66854420758114 -137.45693583826323 0 -137.45693583826323 84.304341485410987 0 0 0 0 235.79106410657266 167.22916424505092 0 167.22916424505092 203.04937375157897 0 0 0 0 155.01705823309297 81.04323474760622 0 81.04323474760622 157.13867581408704 0 0 0 0 287.81924154828528 -108.84005055699163 0 -108.84005055699163 444.01732693101803 0 0 0 0 -34.663671401652209 117.92742386490863 0 117.92742386490863 875.51278653392001 0 0 0 0 485.10036833971128 -116.11682145932355 0 -116.11682145932355 525.12978859361829 0 0 0 0 117.15017017487835 32.419591406829568 0 32.419591406829568 771.16326875395316 0 0 0 0 157.5459483529836 -165.58365061183576 0 -165.58365061183576 517.9332669256637 0 0 0 0 2.1711584654913167 54.375873191547726 0 54.375873191547726 121.54587123489637 0 0 0 0 40.816761468101724 35.443058853851333 0 35.443058853851333 -7.5476862489262331 0 0 0 0 -6.435117617995644 -13.29439537567567 0 -13.29439537567567 32.738459373390057 0 0 0 0 96.473775652981203 -65.563925883025149 0 -65.563925883025149 72.648148426296757 0 0 0 0 96.758362596792722 123.08675791789665 0 123.08675791789665 237.42398966102883 0 0 0 0 -30.210415823250514 33.03199343380038 0 33.03199343380038 153.22165891355326 0 0 0 0 -41.815332315225533 40.111206136112742 0 40.111206136112742 198.58176940153135 0 0 0 0 -28.587897071971383 98.613921944765025 0 98.613921944765025 331.28293235404635 0 0 0 0 0.35306264568745505 -0.67670218837994867 0 -0.67670218837994867 1.2583581024577626 0 0 0 0 2.3028449451830966 70.906645495397242 0 70.906645495397242 166.16170576591685 0 0 0 0 17.214883324284528 -83.34001591516062 0 -83.34001591516062 -9.4054233287513398 0 0 0 0 34.186512013156062 -38.782827534756507 0 -38.782827534756507 96.927037217086763 0 0 0 0 12.588337691879133 -1.8561045109927363 0 -1.8561045109927363 87.57269965001251 0 0 0 0 36.628159603664244 -31.976488508154944 0 -31.976488508154944 55.77415492363798 0 0 0 0 25.112583637237549 22.233394457674876 0 22.233394457674876 67.188798538023548 0 0 0 0 30.529438867319186 16.168273037852487 0 16.168273037852487 73.472226717480225 0 0 0 0 28.622129410463913 17.28328775180762 0 17.28328775180762 67.891517989228305 0 0 0 0 17.401940421195832 28.973422712027968 0 28.973422712027968 72.767669307647679 0 0 0 0 11.969284421902557 -15.203051704353129 0 -15.203051704353129 138.68203748431188 0 0 0 0 25.913754317891289 30.915860404105842 0 30.915860404105842 42.412940158421407 0 0 0 0 16.816341521255396 9.7606565189114747 0 9.7606565189114747 6.2148997889920423 0 0 0 0 24.789459869248958 39.518690601855269 0 39.518690601855269 92.122348709934158 0 0 0 0 16.2998928542142 10.318925870358314 0 10.318925870358314 0.27989022377576589 0 0 0 0 60.239320418956595 370.15015670914727 0 370.15015670914727 1056.403381133252 0 0 0 0 23.052935868037821 32.404245701762193 0 32.404245701762193 64.766380759301683 0 0 0 0 17.442444611470222 14.781012374415361 0 14.781012374415361 6.0191020822291144 0 0 0 0 18.599780687331076 18.7423396046579 0 18.7423396046579 42.873540240820148 0 0 0 0 161.75874583350287 542.49607788985304 0 542.49607788985304 1386.0910857332783 0 0 0 0 14.533322927033652 5.8677945344163334 0 5.8677945344163334 -6.8519566835521957 0 0 0 0 114.4784821819012 503.36726587276644 0 503.36726587276644 1556.1633227190687 0 0 0 0 195.39543301757158 277.79921573389765 0 277.79921573389765 1151.9921691503259 0 0 0 0 146.65966634222968 187.01676797971595 0 187.01676797971595 1162.7640992222987 0 0 0 0 83.901429347666181 246.32022170976234 0 246.32022170976234 909.73171176779579 0 0 0 0 215.66188386795693 432.55735831233778 0 432.55735831233778 1064.4056899157731 0 0 0 0 -1.0865512614936961 283.85626525157204 0 283.85626525157204 902.65105147046415 0 0 0 0 -39.314948430726872 260.67892008709168 0 260.67892008709168 859.84329142970455 0 0 0 0 -87.072169340812252 103.27476334654057 0 103.27476334654057 746.11177090377896 0 0 0 0 94.914978591208637 240.94214167023893 0 240.94214167023893 849.22487490034109 0 0 0 0 -30.804632360678625 154.81569647142351 0 154.81569647142351 904.34182529811369 0 0 0 0 -105.51193705698552 193.61936225576937 0 193.61936225576937 923.95301600000676 0 0 0 0 -66.478536475896362 195.13319304306788 0 195.13319304306788 707.18433203917084 0 0 0 0 -135.77338880288698 192.28124575567563 0 192.28124575567563 924.29727534367612 0 0 0 0 -23.310653174505205 254.21075571942129 0 254.21075571942129 670.19048841827862 0 0 0 0 -53.029810865671834 56.44797968876901 0 56.44797968876901 399.47201920530642 0 0 0 0 -75.261599767029111 70.719248060224345 0 70.719248060224345 392.71433661496121 0 0 0 0 -73.666019414097718 -91.916632455042418 0 -91.916632455042418 149.03460720046496 0 0 0 0 -0.33235119788364997 -1.352441920385985 0 -1.352441920385985 12.813299298428532 0 0 0 0 36.853768383148235 -85.835429623599339 0 -85.835429623599339 -18.511993391461147 0 0 0 0 7.3758907955198083 0.59478883641713765 0 0.59478883641713765 351.79958365246603 0 0 0 0 -114.5172362672447 25.884067281007447 0 25.884067281007447 349.52986863698243 0 0 0 0 -26.425750306700593 -145.49054696968778 0 -145.49054696968778 -156.30622037105059 0 0 0 0 -49.606166051635 164.75496785445557 0 164.75496785445557 573.21800440835796 0 0 0 0 -43.09976195495625 203.0903502921326 0 203.0903502921326 630.67135382215929 0 0 0 0 -82.563199599955624 -25.604626659915084 0 -25.604626659915084 383.04433443475864 0 0 0 0 -28.015647472573619 48.14535432736011 0 48.14535432736011 692.0648525004035 0 0 0 0 19.099405104998368 196.69870309735779 0 196.69870309735779 824.414312515044 0 0 0 0 53.391264543513898 -4.2204221420761314 0 -4.2204221420761314 616.57745702478132 0 0 0 0 250.92937174651161 64.39961080357898 0 64.39961080357898 1030.4290018897955 0 0 0 0 68.704053015746467 105.39297273781267 0 105.39297273781267 954.41081033433511 0 0 0 0 154.28552628226589 256.46218730755572 0 256.46218730755572 984.84870098385727 0 0 0 0 157.05446754622244 51.222440399549669 0 51.222440399549669 833.32332219880482 0 0 0 0 91.84617962318589 144.9572075354954 0 144.9572075354954 721.97326126711414 0 0 0 0 205.08136753366034 0.068427559359406587 0 0.068427559359406587 690.26296151565475 0 0 0 0 181.85945113371145 187.86641676491763 0 187.86641676491763 863.13786380477541 0 0 0 0 152.58685091625784 111.00120404831978 0 111.00120404831978 528.94983254846011 0 0 0 0 56.719335988474995 -37.011877961835125 0 -37.011877961835125 526.46925355990243 0 0 0 0 204.84130495953195 -97.340281802345999 0 -97.340281802345999 256.4533394162645 0 0 0 0 -72.807567404002839 84.970216311627155 0 84.970216311627155 208.80681801189712 0 0 0 0 -181.69504388789665 -88.999749638547655 0 -88.999749638547655 351.92057925939662 0 0 0 0 1.2724016022111755 -63.634242540083505 0 -63.634242540083505 311.48054989657976 0 0 0 0 -14.204949099772421 81.319268901221221 0 81.319268901221221 528.36885403054475 0 0 0 0 109.66264398778367 -51.808567884005242 0 -51.808567884005242 283.25427830703848 0 0 0 0 1.1610856194094339 -0.96169067901452365 0 -0.96169067901452365 0.89229012030722998 0 0 0 0 111.67292815726159 -188.43543585650878 0 -188.43543585650878 332.51384637454612 0 0 0 0 161.12746040455841 -254.59189754997351 0 -254.59189754997351 -366.8359683155868 0 0 0 0 161.12857024760615 15.685416874581279 0 15.685416874581279 216.0859394506042 0 0 0 0 198.45622354916577 -203.61782416436472 0 -203.61782416436472 278.0927548740292 0 0 0 0 32.252375322290391 24.555929502321305 0 24.555929502321305 827.40229448319042 0 0 0 0 58.570232143052181 -41.823179569084459 0 -41.823179569084459 265.6062000184138 0 0 0 0 31.970721201931156 -33.280832278862363 0 -33.280832278862363 214.83089316097903 0 0 0 0 -222.39584359785385 -169.04649136190437 0 -169.04649136190437 153.97440734362317 0 0 0 0 -114.55521239978043 10.746971361248143 0 10.746971361248143 235.72066536559214 0 0 0 0 43.780990890142675 167.84527859448463 0 167.84527859448463 315.00107774026401 0 0 0 0 26.51760172225022 132.17171426735877 0 132.17171426735877 106.14543857889657 0 0 0 0 -20.175012714388686 98.579184253721905 0 98.579184253721905 365.81708705264464 0 0 0 0 -4.218158249368571 173.9997482841427 0 173.9997482841427 523.77829106869103 0 0 0 0 0.74621678586942863 -3.644985942655353 0 -3.644985942655353 2.2989777959902042 0 0 0 0 19.871460922546248 12.196784891042626 0 12.196784891042626 445.20130330067332 0 0 0 0 0.48144895590591996 -0.90335294615453243 0 -0.90335294615453243 12.156404863554002 0 0 0 0 727.38169105514226 981.9359797538782 0 981.9359797538782 1124.411283307214 0 0 0 0 919.20231787793409 -18.679436909424112 0 -18.679436909424112 751.79988287042033 0 0 0 0 242.94144253635511 -161.00859634253175 0 -161.00859634253175 1624.2942938560736 0 0 0 0 -84.860374925913675 305.32449990115856 0 305.32449990115856 1525.2877065672346 0 0 0 0 332.18968618272424 471.61295671041444 0 471.61295671041444 1175.1945906569672 0 0 0 0 -133.24297134440485 -104.12621217640844 0 -104.12621217640844 1473.8027347210154 0 0 0 0 -39.131450980278657 -564.88436538694077 0 -564.88436538694077 562.29252810590333 0 0 0 0 -37.80597777934554 -232.63048920800793 0 -232.63048920800793 692.6348755427025 0 0 0 0 55.385193690371125 131.41393608850922 0 131.41393608850922 1070.5965064598058 0 0 0 0 -81.661533738698395 165.93812546308862 0 165.93812546308862 1090.8850797195919 0 0 0 0 -4.170303363012863 242.53239875048166 0 242.53239875048166 1157.9971332523273 0 0 0 0 -4.6343916530542799 270.72540920441384 0 270.72540920441384 1172.1281955206068 0 0 0 0 193.30688410665789 263.09942205621337 0 263.09942205621337 1000.7193298038328 0 0 0 0 47.687696366715045 96.522164451862409 0 96.522164451862409 916.64183031818538 0 0 0 0 153.1097906422965 204.59959595916007 0 204.59959595916007 1015.0126748892653 0 0 0 0 360.39238337634561 323.42095579884335 0 323.42095579884335 1082.1578834701941 0 0 0 0 265.14495117141814 218.86465413709811 0 218.86465413709811 971.22372190607712 0 0 0 0 317.32537893946392 102.90342085390876 0 102.90342085390876 1149.2304059100061 0 0 0 0 193.64168370575135 140.42250572699413 0 140.42250572699413 818.27794984051434 0 0 0 0 285.71315308942849 109.69227931830028 0 109.69227931830028 828.37093387090135 0 0 0 0 217.51344841398213 38.457759535165678 0 38.457759535165678 591.96004055316007 0 0 0 0 202.36734838167558 16.980927038937807 0 16.980927038937807 602.69690029257254 0 0 0 0 183.92037309041007 -130.11424183278723 0 -130.11424183278723 332.96567004348981 0 0 0 0 134.65738066705524 -156.03298889315511 0 -156.03298889315511 401.68096468324075 0 0 0 0 95.105266399574248 -74.028706830700685 0 -74.028706830700685 371.27549413510496 0 0 0 0 161.2580315639359 -57.871095340397005 0 -57.871095340397005 176.0684312730591 0 0 0 0 78.590122588062968 47.062646837789543 0 47.062646837789543 174.04046576783003 0 0 0 0 32.219587288866023 -13.864847977582031 0 -13.864847977582031 94.007607593972352 0 0 0 0 160.18652222579567 -28.390678239706176 0 -28.390678239706176 509.9274954219818 0 0 0 0 179.41796489545982 -195.79589619697799 0 -195.79589619697799 266.36070920400743 0 0 0 0 120.83454964406249 74.319366908177926 0 74.319366908177926 62.084445822365524 0 0 0 0 -339.44508602135278 43.953625465841469 0 43.953625465841469 153.90340485758861 0 0 0 0 -0.49368190208338092 55.618172849597613 0 55.618172849597613 18.664584349782672 0 0 0 0 88.930247635589694 215.20430589138778 0 215.20430589138778 267.28212190859085 0 0 0 0 -0.080039008492147456 -2.3763629888739715 0 -2.3763629888739715 30.904016792573543 0 0 0 0 9.4993396326484572 3.0495881681927131 0 3.0495881681927131 89.370459763900726 0 0 0 0 -2.5189075597901498 -5.8873887219610452 0 -5.8873887219610452 66.487226964037973 0 0 0 0 2.0214993324184434 -22.532658059280948 0 -22.532658059280948 21.294251578001422 0 0 0 0 -22.842028255198443 -6.8072824550436053 0 -6.8072824550436053 119.09709803618898 0 0 0 0 -1.6442587127132 -0.1038041019923952 0 -0.1038041019923952 18.443278986833256 0 0 0 0 -89.076002845726748 65.890464284184418 0 65.890464284184418 5.7592802222934552 0 0 0 0 -180.68707160616103 60.249079251410876 0 60.249079251410876 64.405283007290564 0 0 0 0 -45.822116835029647 -29.269078867328062 0 -29.269078867328062 78.19130464981572 0 0 0 0 -0.30167962543220511 -1.8864607726941927 0 -1.8864607726941927 42.706252027807579 0 0 0 0 -85.818595799593595 88.572694407655945 0 88.572694407655945 48.382947024887471 0 0 0 0 -3.9725046912462858 79.6430975001349 0 79.6430975001349 87.243522827635843 0 0 0 0 -111.01026032575101 107.88544682404245 0 107.88544682404245 48.935876163777721 0 0 0 0 -10.437375052224297 60.233896145520703 0 60.233896145520703 29.627985673629155 0 0 0 0 0.48938254063818931 49.444955338814907 0 49.444955338814907 36.225726474943258 0 0 0 0 -64.643132681733618 23.164904140550789 0 23.164904140550789 102.66121101559111 0 0 0 0 -1.6499285355154996 56.268207823980902 0 56.268207823980902 37.835263511326048 0 0 0 0 0.31809207172250353 51.540711802601436 0 51.540711802601436 31.30468032488352 0 0 0 0 -1.3487558180173949 58.241447409986222 0 58.241447409986222 28.820535884682613 0 0 0 0 64.364569682411485 37.894160203894444 0 37.894160203894444 73.455535164910543 0 0 0 0 66.709801517979486 77.120503413674669 0 77.120503413674669 25.35760309055695 0 0 0 0 91.657338764208362 72.061654368801101 0 72.061654368801101 108.53332882483483 0 0 0 0 135.54835773527361 -39.537741379223917 0 -39.537741379223917 147.66838920552982 0 0 0 0 43.857307151571149 47.69379444392689 0 47.69379444392689 102.41616392914148 0 0 0 0 87.479855839689662 6.2090124314127024 0 6.2090124314127024 36.087329794063407 0 0 0 0 27.56349981918288 -14.318635110153991 0 -14.318635110153991 -40.286527252043015 0 0 0 0 31.412756268963676 31.30318866298694 0 31.30318866298694 -1.2766405417924602 0 0 0 0 45.634332144421933 61.184718703167164 0 61.184718703167164 -24.385655201549525 0 0 0 0 85.818453854953987 66.423499570777494 0 66.423499570777494 -1.9754775155743118 0 0 0 0 11.681495315865899 -1.3509113337840688 0 -1.3509113337840688 -0.96977465359105963 0 0 0 0 6.7870099973152458 -8.8038800596999778 0 -8.8038800596999778 18.354962731737999 0 0 0 0 -8.9417626907878613 313.20227826840801 0 313.20227826840801 598.16538798381225 0 0 0 0 -578.19250899811732 -241.71718279013658 0 -241.71718279013658 3493.867258547958 0 0 0 0 -258.26819354181407 328.64284240112102 0 328.64284240112102 1262.5104376604213 0 0 0 0 -193.8143969635257 -348.87914092945812 0 -348.87914092945812 1074.1039547334949 0 0 0 0 7.944654824467813 1224.2466802557465 0 1224.2466802557465 3497.5443832366072 0 0 0 0 730.60450034919199 -971.64014882079573 0 -971.64014882079573 347.43439798711916 0 0 0 0 2.9176477604020663 -3.3742496716627883 0 -3.3742496716627883 8.1566982714293346 0 0 0 0 37.236277855183289 38.033801246676376 0 38.033801246676376 5.3583463150498574 0 0 0 0 4.8709523103083141 15.433890983176639 0 15.433890983176639 4.8944193037558996 0 0 0 0 -51.001219549009171 39.849997319897739 0 39.849997319897739 20.557850117336784 0 0 0 0 -103.04157804653585 289.26804481514046 0 289.26804481514046 534.76320295299229 0 0 0 0 372.75945012737571 -320.12168531664338 0 -320.12168531664338 68.249165441371588 0 0 0 0 -411.67031577730512 -699.20643647762699 0 -699.20643647762699 3499.4740074021829 0 0 0 0 -229.13407898077509 99.01827922704615 0 99.01827922704615 1029.2785035371489 0 0 0 0 -124.30569334729192 770.21704844998567 0 770.21704844998567 3485.3888837655959 0 0 0 0 2.0332472430718926 14.188681500070288 0 14.188681500070288 14.969833658348861 0 0 0 0 -28.040617639581001 19.373567139526131 0 19.373567139526131 84.118990996859793 0 0 0 0 128.88316761012356 -14.596395445894814 0 -14.596395445894814 -30.321250729102758 0 0 0 0 4.3054464363122218 -2.4922838485106666 0 -2.4922838485106666 -3.9099235137533981 0 0 0 0 66.455486392444072 -166.65348758465916 0 -166.65348758465916 51.158944987291761 0 0 0 0 -3.5816352858263514 -21.274918757974689 0 -21.274918757974689 137.96198785641755 0 0 0 0 9.7270090266538318 -82.199637570916821 0 -82.199637570916821 -10.398300363260205 0 0 0 0 -43.263582781745754 6.3161831771028574 0 6.3161831771028574 175.13180861985848 0 0 0 0 -166.35958030742677 -130.36838277640709 0 -130.36838277640709 159.67341627249698 0 0 0 0 51.868287080531445 -41.748979934909585 0 -41.748979934909585 86.358105417675688 0 0 0 0 -89.576875611326614 -184.28253808930822 0 -184.28253808930822 187.56836471943825 0 0 0 0 60.001218475713699 -89.211207695364465 0 -89.211207695364465 308.48513701374759 0 0 0 0 106.32105688790853 -160.97314239500702 0 -160.97314239500702 142.20965306200378 0 0 0 0 93.958076541301125 -34.242407043690037 0 -34.242407043690037 105.92113885990693 0 0 0 0 14.327026231826494 -52.139370987082657 0 -52.139370987082657 240.92689467113087 0 0 0 0 85.502598191709694 -108.94031443074346 0 -108.94031443074346 116.77737081765372 0 0 0 0 -9.0681438894098392 -3.9515570361763821 0 -3.9515570361763821 65.555633149131609 0 0 0 0 120.84342615872993 11.082648341165623 0 11.082648341165623 41.561764718630002 0 0 0 0 11.453639085230861 -6.6279346011615417 0 -6.6279346011615417 -8.6532375415845308 0 0 0 0 11.818758148205234 -6.3083539077051682 0 -6.3083539077051682 -107.52607133650417 0 0 0 0 -9.425183835088319 -17.314399188238895 0 -17.314399188238895 40.101450342399858 0 0 0 0 75.965809897605141 -24.581976563571516 0 -24.581976563571516 -105.44189912050206 0 0 0 0 4.2875033866396883 1.5698666348938985 0 1.5698666348938985 -1.988555274072084 0 0 0 0 4.7272796025972639 12.952106660952268 0 12.952106660952268 -6.759031598281581 0 0 0 0 3.0264769357726529 -1.8115068793828826 0 -1.8115068793828826 -1.6714970375806644 0 0 0 0 3.3320139232127985 -55.087621978822426 0 -55.087621978822426 87.720609746724222 0 0 0 0 27.675744502877933 17.899332184781088 0 17.899332184781088 -12.34995223504302 0 0 0 0 53.886397955207485 -99.033455517195762 0 -99.033455517195762 19.649554455449106 0 0 0 0 32.33025530953455 2.2229071609981474 0 2.2229071609981474 -5.6463953582779141 0 0 0 0 34.753951275655709 23.617186038878572 0 23.617186038878572 -33.947496868837334 0 0 0 0 36.249485798285605 -5.0778538846643642 0 -5.0778538846643642 -91.038790782389697 0 0 0 0 24.787617995771665 -5.7090609661445342 0 -5.7090609661445342 1201.3965575842449 0 0 0 0 1.1523715451990029 -25.712696809581757 0 -25.712696809581757 94.329263301595347 0 0 0 0 0.60874662560057402 -3.3813599100062532 0 -3.3813599100062532 4.9417947873920554 0 0 0 0 13.267593514143179 -24.366533591317129 0 -24.366533591317129 36.672174590634526 0 0 0 0 -9.1831990252321702 -33.182250052021118 0 -33.182250052021118 48.765414096646055 0 0 0 0 31.562530823561247 -7.0776174271450145 0 -7.0776174271450145 -14.367693488544319 0 0 0 0 6.8493559510618125 -5.6346244752710533 0 -5.6346244752710533 22.150107899984334 0 0 0 0 -346.80012686802866 -58.557471990898193 0 -58.557471990898193 273.89426460948016 0 0 0 0 7.453728506823067 0.94607081589856534 0 0.94607081589856534 1393.3114544293276 0 0 0 0 523.14661979462835 108.60121765246004 0 108.60121765246004 -54.878431574727074 0 0 0 0 47.181672147743939 30.57914692981285 0 30.57914692981285 -40.122562562028179 0 0 0 0 1.2606057460717999 -0.88063083938317277 0 -0.88063083938317277 3.3665732509526514 0 0 0 0 12.583739609078975 -20.188658361086709 0 -20.188658361086709 18.984623998952884 0 0 0 0 12.230214421161733 1.3293998031389833 0 1.3293998031389833 10.423681371111414 0 0 0 0 552.42254239758233 -652.83016048424543 0 -652.83016048424543 100.80259790706623 0 0 0 0 -243.16331126755904 243.7666291548303 0 243.7666291548303 54.460953678601072 0 0 0 0 2.5578936693974503 -3.050640880972054 0 -3.050640880972054 9.3164206845804785 0 0 0 0 415.69818474552011 -1060.1409115489805 0 -1060.1409115489805 1573.6241525072728 0 0 0 0 -73.9133202417338 1263.0975972310116 0 1263.0975972310116 3495.257909394626 0 0 0 0 6.6928462740435268 -181.42867795611528 0 -181.42867795611528 1393.3114544293237 0 0 0 0 98.596422413299678 -1074.6385466924003 0 -1074.6385466924003 3498.0311888389188 0 0 0 0 24.026735762991191 -188.08380973814837 0 -188.08380973814837 1201.3965575842667 0 0 0 0 -27.413991962801447 24.538576894892685 0 24.538576894892685 81.108093659688166 0 0 0 0 32.412080920516019 -49.126246385567356 0 -49.126246385567356 83.678629794019798 0 0 0 0 12.399254223381108 -28.520833731728246 0 -28.520833731728246 18.740845528770972 0 0 0 0 8.840096562281925 9.9626944478879054 0 9.9626944478879054 25.174982374708989 0 0 0 0 -113.02771470446487 -164.48771553651932 0 -164.48771553651932 53.381487974947959 0 0 0 0 -82.110498901677715 -201.68471755060455 0 -201.68471755060455 65.517623032239499 0 0 0 0 41.217649390777297 15.415848344433471 0 15.415848344433471 237.44191928967484 0 0 0 0 1.4609903494650531 4.2940886566630354 0 4.2940886566630354 -3.553506393903378 0 0 0 0 -10.875221971106384 13.985874664493252 0 13.985874664493252 212.92197530552721 0 0 0 0 4.3130702909911633 9.9242202493041987 0 9.9242202493041987 70.147041171505407 0 0 0 0 3.9646403962113581 -23.663733084216005 0 -23.663733084216005 35.62534829761023 0 0 0 0 -49.19352030938694 -183.72710842097058 0 -183.72710842097058 -116.19051698679687 0 0 0 0 16.828968870482054 10.780736394203934 0 10.780736394203934 28.019628945876121 0 0 0 0 46.922580904371443 13.570006693757023 0 13.570006693757023 51.577168309864646 0 0 0 0 18.801200769850944 5.206484722974082 0 5.206484722974082 59.71667627891884 0 0 0 0 4.5150014525279119 10.420602289137491 0 10.420602289137491 5.3179991416449042 0 0 0 0 -318.96972293334409 -156.80559862777045 0 -156.80559862777045 224.10895353507658 0 0 0 0 -176.45003904038913 -312.14964592595061 0 -312.14964592595061 -46.681861976638174 0 0 0 0 -444.4122583303664 -518.27330725516094 0 -518.27330725516094 -283.31155057988508 0 0 0 0 81.178603017621981 16.700571708599455 0 16.700571708599455 172.81674155353539 0 0 0 0 105.91152583258403 443.15899953796179 0 443.15899953796179 124.78334874334178 0 0 0 0 3.4264342710683229 4.8406119519690947 0 4.8406119519690947 8.447089831194738 0 0 0 0 -116.20909089925871 76.688151056287097 0 76.688151056287097 919.16689818571467 0 0 0 0 -130.88522211555835 -166.28161140591328 0 -166.28161140591328 41.801660313332832 0 0 0 0 313.37360706499987 930.22184591158111 0 930.22184591158111 1016.7084281330463 0 0 0 0 16.559025668890069 -593.65002832969913 0 -593.65002832969913 1437.9662627252637 0 0 0 0 -465.84866329734842 539.46928816600575 0 539.46928816600575 3483.2815468973276 0 0 0 0 26.570180701035007 4.2596687152488215 0 4.2596687152488215 64.975666653212102 0 0 0 0 2.1051322704827502 -2.8232103891791098 0 -2.8232103891791098 9.7302242302145672 0 0 0 0 331.64808655489844 166.11448593830846 0 166.11448593830846 -271.97680348927315 0 0 0 0 68.750454648525192 126.57546266585928 0 126.57546266585928 150.84801704296177 0 0 0 0 38.944770469572283 36.864707481020559 0 36.864707481020559 11.014113341689185 0 0 0 0 723.0112728737696 -131.22762355582472 0 -131.22762355582472 -140.69984943440068 0 0 0 0 -18.196512949876322 1108.1294736151112 0 1108.1294736151112 3379.8009525502566 0 0 0 0 -165.37125754479078 254.47217957422708 0 254.47217957422708 3141.0292611792556 0 0 0 0 186.72756177244054 705.90802266523133 0 705.90802266523133 2569.9250807921835 0 0 0 0 184.53211973262606 1049.6301028131888 0 1049.6301028131888 2541.9125882068147 0 0 0 0 696.50983951492128 1911.8597887487485 0 1911.8597887487485 3497.5438899801879 0 0 0 0 290.58282374395094 134.97287034492757 0 134.97287034492757 -0.82869066537953984 0 0 0 0 -102.01491051050016 -97.431277551165266 0 -97.431277551165266 63.76796387533534 0 0 0 0 9.7595620275694728 22.154827708712219 0 22.154827708712219 116.6247643048755 0 0 0 0 26.231786289272712 36.646067798784671 0 36.646067798784671 8.1386233659160965 0 0 0 0 7.7778353057731646 -5.3975761151751023 0 -5.3975761151751023 30.498544213253012 0 0 0 0 -187.4826151884663 365.70567994124576 0 365.70567994124576 -466.51855116208299 0 0 0 0 20.156644608955915 13.657538105885415 0 13.657538105885415 10.914962500561252 0 0 0 0 262.01890287517125 634.18108353499656 0 634.18108353499656 2230.5906233650712 0 0 0 0 -0.39126828298605076 7.6895187766536504 0 7.6895187766536504 17.911631665662227 0 0 0 0 -195.30632717704884 469.44884763876439 0 469.44884763876439 -329.44327599823191 0 0 0 0 -480.25575843380147 495.94048928985325 0 495.94048928985325 700.65440466806194 0 0 0 0 -4.9045074431393516 1.084823715594379 0 1.084823715594379 -0.087434017486414661 0 0 0 0 -400.67906717752339 618.8011570674015 0 618.8011570674015 -428.48634529463538 0 0 0 0 7.3180692237656331 613.63107369947033 0 613.63107369947033 -1180.3099192216807 0 0 0 0 -108.76810595955044 334.06553907970067 0 334.06553907970067 -300.21561466219828 0 0 0 0 -516.53471650694428 490.4381944897309 0 490.4381944897309 319.41713199377818 0 0 0 0 -438.35524597269705 682.70754065221308 0 682.70754065221308 90.691789787266771 0 0 0 0 -410.15868279570986 999.51223746465075 0 999.51223746465075 -222.15203216792861 0 0 0 0 -400.31632204616892 412.09691231422505 0 412.09691231422505 -318.73905708096027 0 0 0 0 -466.56626003076451 537.57883083916636 0 537.57883083916636 357.46721907798292 0 0 0 0 -64.406945686937433 -8.9632683672401754 0 -8.9632683672401754 217.25070967911165 0 0 0 0 -12.772815901970873 8.0227244382265397 0 8.0227244382265397 24.86363822920627 0 0 0 0 -48.605003307404331 -26.289741677556549 0 -26.289741677556549 177.5407280693089 0 0 0 0 -170.6604688292955 -3.7236572006847837 0 -3.7236572006847837 388.8210008583676 0 0 0 0 -117.62013863463108 192.2058144843154 0 192.2058144843154 61.457231467564725 0 0 0 0 -147.60235623597077 217.43584441035398 0 217.43584441035398 115.43826957938109 0 0 0 0 -11.160924110135234 4.4314137985151962 0 4.4314137985151962 -2.6139257844709496 0 0 0 0 -22.266260710044662 111.5489587981167 0 111.5489587981167 108.60212530583703 0 0 0 0 -232.40632060184589 137.12291016514985 0 137.12291016514985 133.11400743923059 0 0 0 0 -409.10558229216622 291.559409259517 0 291.559409259517 122.17479441861873 0 0 0 0 -187.97540633288372 232.55006570098294 0 232.55006570098294 124.0264649501205 0 0 0 0 -190.72788193810266 134.72118897159862 0 134.72118897159862 110.98368127592903 0 0 0 0 -191.74056359444876 -10.063175502949662 0 -10.063175502949662 136.56521656226437 0 0 0 0 -35.93855167852962 4.2010016640246022 0 4.2010016640246022 110.66743127764494 0 0 0 0 -326.83031457385732 -0.76502669389674338 0 -0.76502669389674338 165.66647467620032 0 0 0 0 -323.76934171342191 21.074121416366438 0 21.074121416366438 273.33463327993013 0 0 0 0 0.10357711333329434 -21.357310180521171 0 -21.357310180521171 148.63696036684664 0 0 0 0 -9.4542147306063189 -20.677794717241103 0 -20.677794717241103 157.46273712397283 0 0 0 0 -176.39531473165061 65.704592217491154 0 65.704592217491154 483.88865970890038 0 0 0 0 -428.91006128786375 -155.71240000253829 0 -155.71240000253829 129.73657059839798 0 0 0 0 -650.2302888548013 48.444307234030276 0 48.444307234030276 478.80096958277136 0 0 0 0 -673.00145291747776 -137.70015493801611 0 -137.70015493801611 202.5854990500261 0 0 0 0 -1244.4918478291502 -204.3090963159666 0 -204.3090963159666 438.8055112254159 0 0 0 0 -381.59560681422226 99.791016292960194 0 99.791016292960194 174.40098881686708 0 0 0 0 -459.41515308234921 365.5895532617244 0 365.5895532617244 458.56260884315088 0 0 0 0 -788.11816471004931 151.07224462834802 0 151.07224462834802 430.81135370562095 0 0 0 0 -456.44683210246558 651.3485393218532 0 651.3485393218532 615.76113576795979 0 0 0 0 -271.01220320743778 551.97438966703066 0 551.97438966703066 336.81291235546632 0 0 0 0 -298.36909605937433 337.27930228818218 0 337.27930228818218 955.2076150236835 0 0 0 0 -311.77671150186234 243.9575590585082 0 243.9575590585082 523.66620602051216 0 0 0 0 -742.44334888086269 381.94818091302841 0 381.94818091302841 861.55011245536389 0 0 0 0 -1215.7151500709085 375.14596361919735 0 375.14596361919735 655.47795390465762 0 0 0 0 -943.33319412377705 2.0393239187319523 0 2.0393239187319523 242.50629992032373 0 0 0 0 -907.41202617181352 631.75412359686379 0 631.75412359686379 -1079.0135456252738 0 0 0 0 -2060.0644747280739 -12.005005768573483 0 -12.005005768573483 316.51695640303114 0 0 0 0 -79.593211802050973 -210.3780279863031 0 -210.3780279863031 979.02080613995804 0 0 0 0 -76.064387522847028 -240.74706798132729 0 -240.74706798132729 -167.74333551160316 0 0 0 0 500.06438463076665 -263.16475965971904 0 -263.16475965971904 488.05015659081619 0 0 0 0 -126.4967163470385 -1101.616364489003 0 -1101.616364489003 863.11560160429326 0 0 0 0 578.67073742638149 -768.31882685998153 0 -768.31882685998153 291.01732607190434 0 0 0 0 -126.82740134451728 -1122.2385758994444 0 -1122.2385758994444 1034.4958881688026 0 0 0 0 60.343517914017866 -1741.4774080450175 0 -1741.4774080450175 -994.45336715318854 0 0 0 0 -1589.7184866972475 -1703.5341679637945 0 -1703.5341679637945 855.05847044160146 0 0 0 0 -2151.4779488291811 204.74162945898672 0 204.74162945898672 404.82647675587305 0 0 0 0 408.77001278280204 -2602.8884327395808 0 -2602.8884327395808 1057.962363820171 0 0 0 0 904.58555356295221 -445.21197492874012 0 -445.21197492874012 182.06121425865695 0 0 0 0 -1805.1868250333616 -1765.3276075178019 0 -1765.3276075178019 1794.6121107488088 0 0 0 0 -289.12303298492952 597.36835589289694 0 597.36835589289694 -1372.4200881782349 0 0 0 0 13.672875380780901 -26.848595986947949 0 -26.848595986947949 28.614840083899907 0 0 0 0 -883.37814191243933 1160.1115888649906 0 1160.1115888649906 -1012.2256243336788 0 0 0 0 7.8008420621132863 -40.114777852654861 0 -40.114777852654861 98.020972015515255 0 0 0 0 198.36559722851416 155.34356103209393 0 155.34356103209393 173.72796256544825 0 0 0 0 -12.748756631631295 150.43370961404435 0 150.43370961404435 455.46206927193998 0 0 0 0 -31.872379253411964 -37.481021985851839 0 -37.481021985851839 203.35997852411265 0 0 0 0 -180.83151046153489 -60.277155290648807 0 -60.277155290648807 235.06666293498711 0 0 0 0 -31.036744058118529 -36.820402874043793 0 -36.820402874043793 49.347802258605952 0 0 0 0 -4.1911335471757454 -18.598644180144198 0 -18.598644180144198 72.735004571319124 0 0 0 0 -22.16679325382313 27.038838865875306 0 27.038838865875306 77.087551821628693 0 0 0 0 22.77739825210665 100.85433084108445 0 100.85433084108445 126.1230176859608 0 0 0 0 0.91726265251778827 4.4808173203956372 0 4.4808173203956372 7.3718727782409132 0 0 0 0 -23.386869795346065 15.586271304598412 0 15.586271304598412 31.323959637414298 0 0 0 0 -598.73571128364938 -404.40204250633496 0 -404.40204250633496 -128.41981867459253 0 0 0 0 -1370.5010009102298 -857.96434682673362 0 -857.96434682673362 -363.53058679291053 0 0 0 0 27.20481399116079 21.883746554735126 0 21.883746554735126 1316.9824227615554 0 0 0 0 301.15641719817404 13.977962106811901 0 13.977962106811901 1219.4476617828759 0 0 0 0 -72.927451826981041 -67.577612199396754 0 -67.577612199396754 1180.5113419222507 0 0 0 0 108.7613793404239 161.4659262426203 0 161.4659262426203 699.00399287015807 0 0 0 0 108.45213711279575 237.46524670776398 0 237.46524670776398 449.65402350441946 0 0 0 0 31.242656606737455 193.39510044457074 0 193.39510044457074 728.64746902811203 0 0 0 0 154.74900867890256 29.064548843252851 0 29.064548843252851 250.5454581945487 0 0 0 0 311.64523198047482 440.81423472827828 0 440.81423472827828 535.91768262823734 0 0 0 0 247.83036265554529 233.18003146960837 0 233.18003146960837 325.91481767891037 0 0 0 0 39.828676247244857 309.88759015070855 0 309.88759015070855 1733.5958589018883 0 0 0 0 -65.272634882048123 -27.367982751957697 0 -27.367982751957697 313.61035402208836 0 0 0 0 4.0588600089161559 -5.192207810455395 0 -5.192207810455395 8.4008242200851058 0 0 0 0 1243.6298033918938 -950.20626887654907 0 -950.20626887654907 311.2606063286857 0 0 0 0 673.29582789505912 -1076.3329924645018 0 -1076.3329924645018 1256.4012232015939 0 0 0 0 1481.1303473940179 -449.92580479943172 0 -449.92580479943172 932.87121235453287 0 0 0 0 701.69832706094076 183.48582679803076 0 183.48582679803076 1434.4727415077086 0 0 0 0 604.52583682680415 -606.41363094554345 0 -606.41363094554345 1757.578073289254 0 0 0 0 617.22046029868352 173.86067390240214 0 173.86067390240214 1716.9734188035018 0 0 0 0 845.08135086291122 95.312777634361282 0 95.312777634361282 911.58985621800389 0 0 0 0 -410.18367357585566 374.69350382679806 0 374.69350382679806 1322.2714786747065 0 0 0 0 732.14128604435064 -73.963483062642354 0 -73.963483062642354 780.53220567122844 0 0 0 0 138.1427653065025 -573.33607158167888 0 -573.33607158167888 2190.8508718121202 0 0 0 0 90.258618860043043 -231.75890632823621 0 -231.75890632823621 1405.4403485446674 0 0 0 0 121.29907755566117 -37.613679994640677 0 -37.613679994640677 1170.7262916270665 0 0 0 0 -111.49608955349095 -311.61282346191001 0 -311.61282346191001 1456.5543186553405 0 0 0 0 99.817835102857316 -372.22638520781379 0 -372.22638520781379 1272.4480410264623 0 0 0 0 -9.6339024928051913 -231.0774691746642 0 -231.0774691746642 1171.7395004428627 0 0 0 0 -496.64490035893789 387.92884744870628 0 387.92884744870628 506.60441971062619 0 0 0 0 -287.29200920161873 943.74428522125891 0 943.74428522125891 -62.502301473260616 0 0 0 0 12.065649289642552 19.829529805047457 0 19.829529805047457 19.578876248890928 0 0 0 0 79.821834963493984 1049.7867205770788 0 1049.7867205770788 442.49529859185532 0 0 0 0 509.5644914368238 762.36436450335805 0 762.36436450335805 -578.33204899630891 0 0 0 0 7.2439449684375266 7.6829337372192477 0 7.6829337372192477 7.2969154072456792 0 0 0 0 534.78429938762383 701.92044628822464 0 701.92044628822464 -1208.465885643571 0 0 0 0 361.36603501405295 164.07885742309975 0 164.07885742309975 -894.17511333088851 0 0 0 0 269.2406404458352 317.60565850748344 0 317.60565850748344 -152.75979961687199 0 0 0 0 251.20598357324207 439.43337546200337 0 439.43337546200337 -547.28463294260882 0 0 0 0 169.15865559208214 363.25976448025403 0 363.25976448025403 -554.37389045430109 0 0 0 0 13.913636213059817 621.15624650520317 0 621.15624650520317 -772.7881994604536 0 0 0 0 -139.59973485741432 474.29642791391416 0 474.29642791391416 5003.7722673450926 0 0 0 0 7.7832877618106817 4.7980260105791501 0 4.7980260105791501 2.6914219909971129 0 0 0 0 538.92182034612142 510.73220665515055 0 510.73220665515055 -1468.660331854277 0 0 0 0 -193.88183706656673 482.05378264733213 0 482.05378264733213 -545.74557421082625 0 0 0 0 2.8663024971822324 1587.2226085265529 0 1587.2226085265529 1690.7198974243408 0 0 0 0 939.05537965162171 1181.2799724640627 0 1181.2799724640627 -406.74805402006928 0 0 0 0 319.02341462656659 1325.1722364451018 0 1325.1722364451018 3498.7233009718789 0 0 0 0 294.48381865778816 1322.6505132868663 0 1322.6505132868663 4016.1299720442785 0 0 0 0 164.54143331537992 953.60732182436732 0 953.60732182436732 3500.7708794973714 0 0 0 0 -410.58768290995454 -249.33545024039586 0 -249.33545024039586 1310.477442514233 0 0 0 0 -745.68485529768077 315.31316951627559 0 315.31316951627559 2580.9946607873726 0 0 0 0 -698.34946593296229 612.77373003812431 0 612.77373003812431 2189.091074819934 0 0 0 0 -883.89578303291262 33.912248676933928 0 33.912248676933928 3499.5271446198294 0 0 0 0 -376.68451703462489 -103.17171196788036 0 -103.17171196788036 2038.6344571208533 0 0 0 0 -422.25185130068098 141.87925590438323 0 141.87925590438323 1920.6554985214852 0 0 0 0 9.5622653776572921 19.892977746801858 0 19.892977746801858 22.233912949844289 0 0 0 0 23.353792280867108 -868.57811250475118 0 -868.57811250475118 3500.3497591263867 0 0 0 0 327.49058381624064 -86.618188965404443 0 -86.618188965404443 5085.5673896628414 0 0 0 0 -386.40944713602681 405.91590970254401 0 405.91590970254401 3712.3046626847863 0 0 0 0 687.56757076559234 366.86874322343647 0 366.86874322343647 3501.6426938252316 0 0 0 0 325.61608324652673 409.71679942193077 0 409.71679942193077 1176.8291462234083 0 0 0 0 352.87998359699372 1193.5382203220361 0 1193.5382203220361 2308.808251474049 0 0 0 0 4.2725097128028562 7.811601852782557 0 7.811601852782557 11.077938179303345 0 0 0 0 -108.54523735492103 -419.21168896981362 0 -419.21168896981362 493.45416893657102 0 0 0 0 314.48330556448224 872.31169506303468 0 872.31169506303468 6.4370872456765937 0 0 0 0 106.0749621031481 -175.90223547090932 0 -175.90223547090932 723.79652351973346 0 0 0 0 74.294575875862364 -128.63152648383857 0 -128.63152648383857 1318.2950824374129 0 0 0 0 143.92627765509314 -63.712528831933469 0 -63.712528831933469 1032.0168329667267 0 0 0 0 155.01146163995361 -386.55958151036521 0 -386.55958151036521 734.80696624912343 0 0 0 0 4.4191098007172513 -307.10445859449464 0 -307.10445859449464 999.00438192357774 0 0 0 0 3.3823859906917733 -374.65050489791611 0 -374.65050489791611 861.8657124710171 0 0 0 0 32.009633767592163 -325.66613142525421 0 -325.66613142525421 940.84691238138475 0 0 0 0 14.776475622786847 -21.649268923543787 0 -21.649268923543787 988.79937438966044 0 0 0 0 -175.78499049253651 -185.15998326558474 0 -185.15998326558474 1168.5025749636311 0 0 0 0 7.0182430447016486 -216.36094560304991 0 -216.36094560304991 1173.6566539549972 0 0 0 0 -0.70754292098217775 -349.19066328156805 0 -349.19066328156805 1103.9339217286306 0 0 0 0 -279.35393504664376 126.29601297775389 0 126.29601297775389 586.28040049445644 0 0 0 0 57.476494790929564 -140.89089406592666 0 -140.89089406592666 646.22937599969919 0 0 0 0 -87.689661308568645 -35.11065011672531 0 -35.11065011672531 1953.872599594084 0 0 0 0 -205.59942302219412 275.61423709896553 0 275.61423709896553 1878.8416141563794 0 0 0 0 -0.86074456331503091 -3.5718376821484412 0 -3.5718376821484412 7.9169853925175353 0 0 0 0 107.2363277550668 -295.35440406208181 0 -295.35440406208181 566.81852164327211 0 0 0 0 157.20258816244765 1184.3667873449485 0 1184.3667873449485 3500.3549737430203 0 0 0 0 -61.269547256327847 -341.62584645597099 0 -341.62584645597099 1829.5440559018352 0 0 0 0 -142.2390086887558 302.1659665520001 0 302.1659665520001 2216.8384145250529 0 0 0 0 77.224121757520379 315.14938568554317 0 315.14938568554317 2211.7292154311635 0 0 0 0 -38.631940090714451 -190.75207662434241 0 -190.75207662434241 2619.197203437283 0 0 0 0 -300.46663034362348 243.09824877996925 0 243.09824877996925 3493.095462352403 0 0 0 0 -256.80118058375967 226.34211475676238 0 226.34211475676238 2653.6833525713118 0 0 0 0 185.29217941635738 597.3408894041313 0 597.3408894041313 2463.4609961322003 0 0 0 0 141.12980145444675 92.745962337847232 0 92.745962337847232 1674.4956695192832 0 0 0 0 202.35340429432506 183.64530175846812 0 183.64530175846812 1596.6679944600037 0 0 0 0 265.88518081493692 -152.87215405260395 0 -152.87215405260395 1163.517355238344 0 0 0 0 93.389706530448393 -115.4854947505446 0 -115.4854947505446 1261.3006317020645 0 0 0 0 2.8913483582111414 5.0990821774145232 0 5.0990821774145232 6.6685549198143796 0 0 0 0 61.571288268185008 -109.82138984937308 0 -109.82138984937308 1154.8858738149793 0 0 0 0 -74.255784483134676 -268.99694291195829 0 -268.99694291195829 1321.0756424633455 0 0 0 0 -7.160125802810839 -122.14239341103166 0 -122.14239341103166 1827.6416348370731 0 0 0 0 1.6786094072932527 2.4698696228028112 0 2.4698696228028112 4.3143574099050817 0 0 0 0 -32.987758416674787 -66.832046085857201 0 -66.832046085857201 2727.0099302404815 0 0 0 0 81.384115386856308 -29.73090293515088 0 -29.73090293515088 528.53845774543697 0 0 0 0 -67.855083780707218 57.733800811014589 0 57.733800811014589 1413.4301968093641 0 0 0 0 -202.17482715567417 -3.2972722600934503 0 -3.2972722600934503 2256.8559026027524 0 0 0 0 -38.58839542813098 -24.38308621537908 0 -24.38308621537908 426.39292449742243 0 0 0 0 42.537293977845025 -225.19195327008856 0 -225.19195327008856 1268.2556839685258 0 0 0 0 -144.2639120912898 -243.87986861154604 0 -243.87986861154604 1490.3889162699488 0 0 0 0 -89.461395004081922 -38.636843598730195 0 -38.636843598730195 585.48876333259068 0 0 0 0 -3.0315190683553586 -14.024882473501847 0 -14.024882473501847 0.24341090550219091 0 0 0 0 33.632335275797459 49.878462014072284 0 49.878462014072284 378.36604939050426 0 0 0 0 84.646494301394597 51.266532411677872 0 51.266532411677872 858.19534383304199 0 0 0 0 -104.87683385360464 113.44091663714244 0 113.44091663714244 853.6947729559779 0 0 0 0 101.29913643845043 -160.40167025115625 0 -160.40167025115625 1350.7665637315768 0 0 0 0 61.770464534619919 -322.81309359962961 0 -322.81309359962961 1454.3456421217998 0 0 0 0 -44.063952304195197 -154.79900234027173 0 -154.79900234027173 1751.9585793832684 0 0 0 0 -0.12347675981527573 -10.497429008242179 0 -10.497429008242179 0.82912117398696106 0 0 0 0 181.13896379124162 108.53232345478864 0 108.53232345478864 633.7232535862604 0 0 0 0 168.71678704731039 -26.468970465904931 0 -26.468970465904931 739.97466713574704 0 0 0 0 284.01373896130553 275.48060265403547 0 275.48060265403547 939.60824813566433 0 0 0 0 -147.13468773232648 -89.604485616934653 0 -89.604485616934653 1229.6219933762113 0 0 0 0 -0.95271249627094434 -1.592109987140411 0 -1.592109987140411 5.3453518325479692 0 0 0 0 -183.10734673486513 -346.37004535698907 0 -346.37004535698907 -316.91457228034596 0 0 0 0 -29.873441812556621 183.46885794153877 0 183.46885794153877 1293.6664214492903 0 0 0 0 79.875780855406447 92.589586110429082 0 92.589586110429082 1332.3913286981551 0 0 0 0 -0.82079634094296305 1.7927062770660065 0 1.7927062770660065 0.87367694472023771 0 0 0 0 -286.77270025245093 -168.91921894851657 0 -168.91921894851657 -238.84530156424989 0 0 0 0 -234.55544499299003 -199.09167682586303 0 -199.09167682586303 -19.468983608137933 0 0 0 0 -285.65921379624319 -235.86191156365385 0 -235.86191156365385 37.005267478285532 0 0 0 0 -363.05109164355486 -140.31091011275839 0 -140.31091011275839 -5.4290329515079065 0 0 0 0 -1.17741654154444 -2.9116560201567672 0 -2.9116560201567672 25.716504178900969 0 0 0 0 -206.98519159433431 -140.41403973231354 0 -140.41403973231354 -4.466734084615382 0 0 0 0 -361.64173700489187 -165.57335237639654 0 -165.57335237639654 72.122680777814821 0 0 0 0 -38.71945163934646 19.584834017028243 0 19.584834017028243 34.457234568777494 0 0 0 0 -24.964901668200923 29.605565521932931 0 29.605565521932931 19.995018754496414 0 0 0 0 -5.0590541548365309 16.560358821143382 0 16.560358821143382 22.913765503647483 0 0 0 0 -34.955128543722367 20.300006199897325 0 20.300006199897325 27.242539077895344 0 0 0 0 -27.030884664767598 204.02165145723848 0 204.02165145723848 735.26907079043576 0 0 0 0 -7.3155087857383183 7.1337167412327354 0 7.1337167412327354 -0.24835955524381959 0 0 0 0 166.2209629508165 449.80026052140806 0 449.80026052140806 859.20491690807467 0 0 0 0 94.324772359435087 193.79375596965019 0 193.79375596965019 586.38587694754096 0 0 0 0 -28.421246891976807 124.4616101878546 0 124.4616101878546 584.15820890304349 0 0 0 0 -5.6006347018391267 5.2912647763363623 0 5.2912647763363623 -2.3462255701783121 0 0 0 0 -12.588262287334828 50.738742864108644 0 50.738742864108644 -24.362204991606632 0 0 0 0 5.7593405882280422 52.860597995571879 0 52.860597995571879 -33.008795269732218 0 0 0 0 68.829558646122223 122.25580819586048 0 122.25580819586048 394.48551175436478 0 0 0 0 -0.26609533739528146 -2.9846514741666965 0 -2.9846514741666965 1.5178111351812222 0 0 0 0 -241.97263256322162 -208.21058967215959 0 -208.21058967215959 2127.9430821915448 0 0 0 0 52.413420086033057 -162.051275746182 0 -162.051275746182 220.2536467428929 0 0 0 0 -106.52380601508321 -27.516374820162127 0 -27.516374820162127 1389.2738806189363 0 0 0 0 -88.137001487346311 -381.52478674873942 0 -381.52478674873942 1635.298793941678 0 0 0 0 -107.11208187065017 -33.9723324638544 0 -33.9723324638544 1762.0584681936543 0 0 0 0 78.567888885941102 -290.54278574518867 0 -290.54278574518867 1791.3319206479894 0 0 0 0 128.72822977050623 -44.328869871606003 0 -44.328869871606003 529.12175937747452 0 0 0 0 1.5215644590842499 1.9459392797174075 0 1.9459392797174075 3.8541887320679891 0 0 0 0 -3.647639752381906 -430.92885851984829 0 -430.92885851984829 2323.7475186699694 0 0 0 0 -160.23517686355308 -135.96041989127116 0 -135.96041989127116 661.54087190474365 0 0 0 0 0.29634714021519759 -7.1755342147806793 0 -7.1755342147806793 1.6297048466487087 0 0 0 0 -114.32739585387162 -180.95541790991319 0 -180.95541790991319 569.06395259153942 0 0 0 0 78.318189965431202 -85.614995683933557 0 -85.614995683933557 421.83677547957996 0 0 0 0 199.69262078462839 -127.01040236322569 0 -127.01040236322569 1938.0278325832442 0 0 0 0 -37.174458405606629 -214.05225674781468 0 -214.05225674781468 373.056829791778 0 0 0 0 -36.178498841478131 -249.45769603454119 0 -249.45769603454119 231.22840982357229 0 0 0 0 -33.384560704697378 -116.55900704240776 0 -116.55900704240776 198.56259661892364 0 0 0 0 -13.203488100970617 -157.20909780742568 0 -157.20909780742568 276.58231815688487 0 0 0 0 20.574660908806891 -129.16453472592457 0 -129.16453472592457 299.71766616647437 0 0 0 0 -215.5404722186272 -385.30197384138955 0 -385.30197384138955 -224.15784822497153 0 0 0 0 -261.01289928077279 -416.18881421228616 0 -416.18881421228616 112.84052817722113 0 0 0 0 -176.88778045695017 -220.08531478249279 0 -220.08531478249279 566.82609891241043 0 0 0 0 -221.16819241469329 -106.0963966150448 0 -106.0963966150448 104.03707713907096 0 0 0 0 -72.781835574977322 -178.70410214534968 0 -178.70410214534968 105.08343699519901 0 0 0 0 -17.962253330948556 -87.445000596463387 0 -87.445000596463387 110.30898084530963 0 0 0 0 -159.9275559758205 -28.067522671282859 0 -28.067522671282859 138.46676526055307 0 0 0 0 51.687596228154234 -62.472188603507675 0 -62.472188603507675 189.64196508131681 0 0 0 0 15.016641204704683 -0.93883875325263944 0 -0.93883875325263944 258.49249657001383 0 0 0 0 117.01300290415611 70.659312248406422 0 70.659312248406422 320.75108474465264 0 0 0 0 52.916606836957271 3.4011584808706061 0 3.4011584808706061 505.91346403325588 0 0 0 0 48.272782048255976 -60.111477270622345 0 -60.111477270622345 326.58071832223322 0 0 0 0 42.630955137840601 -56.172345113039 0 -56.172345113039 338.04151537666257 0 0 0 0 4.9767982346334065 -255.16086023191292 0 -255.16086023191292 339.98682909032868 0 0 0 0 18.615090591733406 -142.66002753010071 0 -142.66002753010071 373.45022610430806 0 0 0 0 36.122121385443734 -110.17165989072328 0 -110.17165989072328 432.09473809379051 0 0 0 0 -48.912624379609724 -199.92914619630164 0 -199.92914619630164 584.46744351276902 0 0 0 0 9.5515935037074087 41.680395922472599 0 41.680395922472599 755.84422541615277 0 0 0 0 -40.578896521392835 -90.304530802954105 0 -90.304530802954105 428.39093935317669 0 0 0 0 108.10475452784476 216.92266953276885 0 216.92266953276885 597.52809907997926 0 0 0 0 127.28240620953238 89.603340878142262 0 89.603340878142262 421.23955959759314 0 0 0 0 135.2304120049298 153.35232585384801 0 153.35232585384801 456.3946090132813 0 0 0 0 183.95060177755931 325.28017504656236 0 325.28017504656236 585.33154370976126 0 0 0 0 166.66202797780375 113.81178190758692 0 113.81178190758692 487.88138454383079 0 0 0 0 175.90576086352439 156.70963347207453 0 156.70963347207453 414.0527152641771 0 0 0 0 132.187715670736 167.07212068240824 0 167.07212068240824 605.69914711220918 0 0 0 0 105.3858452196323 66.545766594988891 0 66.545766594988891 356.16846286159853 0 0 0 0 124.23797734669597 118.33449577489409 0 118.33449577489409 453.6198268493572 0 0 0 0 135.22605831705641 159.28186880108296 0 159.28186880108296 453.68003282975042 0 0 0 0 107.7648939032415 156.25213675670693 0 156.25213675670693 387.07394475272849 0 0 0 0 144.06193771742346 168.3585309144637 0 168.3585309144637 370.36483974530938 0 0 0 0 179.96811405724088 268.27674310884959 0 268.27674310884959 374.93834419082123 0 0 0 0 180.62545441057432 208.87938282866889 0 208.87938282866889 331.93866537617214 0 0 0 0 12.459088265273749 11.042134712896768 0 11.042134712896768 18.978131433550516 0 0 0 0 2.1095812880120732 -1.5993266765069905 0 -1.5993266765069905 4.7429867234739405 0 0 0 0 223.23642772642143 272.72898307727519 0 272.72898307727519 423.19437410959517 0 0 0 0 -2.2959350822466149 8.2107160678278888 0 8.2107160678278888 20.137653015755859 0 0 0 0 -0.29479532583288837 -0.92225628198743337 0 -0.92225628198743337 2.1535610750765812 0 0 0 0 -6.9706301601936502 -27.116686539864986 0 -27.116686539864986 34.175786333680662 0 0 0 0 -8.33342691582925 -2.0866016509037308 0 -2.0866016509037308 17.589483679839759 0 0 0 0 0.61331354012085981 0.67279691588938917 0 0.67279691588938917 2.4238714258608205 0 0 0 0 0.99713459032818719 -24.317030768034783 0 -24.317030768034783 0.44500218495886656 0 0 0 0 -11.337433252763049 4.8382633042410816 0 4.8382633042410816 45.481507219546074 0 0 0 0 -13.588125263358847 -2.389476862322681 0 -2.389476862322681 57.66683042742261 0 0 0 0 -2.0661752450784592 -16.494672337469272 0 -16.494672337469272 60.186757919753106 0 0 0 0 -134.22234762191238 -254.14847200830877 0 -254.14847200830877 296.74619679640637 0 0 0 0 -7.9345924265294343 3.3296367035309231 0 3.3296367035309231 54.209295509146159 0 0 0 0 -26.362903559188453 9.9583487018571759 0 9.9583487018571759 61.633076171763605 0 0 0 0 -19.928098808002915 27.912018549839559 0 27.912018549839559 79.559854334675038 0 0 0 0 -91.464092127485458 -205.27745864992539 0 -205.27745864992539 116.10924646849162 0 0 0 0 -0.5605439271716266 0.7531514822669152 0 0.7531514822669152 3.4640592435834598 0 0 0 0 -13.638122215772565 15.588293549467323 0 15.588293549467323 12.411960331297989 0 0 0 0 -9.3958848598085751 -8.4700104518051376 0 -8.4700104518051376 41.531868535747435 0 0 0 0 10.625139318107626 0.29256147429768475 0 0.29256147429768475 2.7855050503248187 0 0 0 0 -9.4488406303242733 -4.7298444918323916 0 -4.7298444918323916 15.210760675576246 0 0 0 0 199.01713844388814 398.92518723517969 0 398.92518723517969 521.31948973829367 0 0 0 0 11.971027759218487 90.452708528577205 0 90.452708528577205 20.249910858921794 0 0 0 0 369.48001533151603 -15.018605159248636 0 -15.018605159248636 422.32312364842801 0 0 0 0 72.723748875520187 231.7019602779219 0 231.7019602779219 326.96896517361347 0 0 0 0 129.98527339633281 81.755408711935615 0 81.755408711935615 23.234113485239504 0 0 0 0 183.03432121477454 183.44022896440583 0 183.44022896440583 292.14312408267324 0 0 0 0 114.76928873944507 171.50328035169878 0 171.50328035169878 390.25506420558577 0 0 0 0 152.0251207417532 234.00974813522771 0 234.00974813522771 245.65393776575002 0 0 0 0 51.706493615955537 55.127715448712479 0 55.127715448712479 193.80738614342226 0 0 0 0 133.13557746883794 143.20446655477917 0 143.20446655477917 267.89861749433476 0 0 0 0 58.494882709950843 -7.0868444377010746 0 -7.0868444377010746 226.30263467286568 0 0 0 0 -102.89574359561084 81.751599586767043 0 81.751599586767043 121.86755605009239 0 0 0 0 -83.413799150880621 -80.106433908466897 0 -80.106433908466897 19.672038233144121 0 0 0 0 26.548548351508998 89.198413197058471 0 89.198413197058471 148.22151446035059 0 0 0 0 -623.74853529768473 -153.52120290329185 0 -153.52120290329185 125.57187980049821 0 0 0 0 -356.54822139228753 0.55999444476947247 0 0.55999444476947247 58.720904318363864 0 0 0 0 -115.79466889389784 38.8739915184849 0 38.8739915184849 22.664752757435053 0 0 0 0 -0.46165565615282356 -2.4823424153080005 0 -2.4823424153080005 27.199606034263688 0 0 0 0 -303.05858173070101 12.915777040783723 0 12.915777040783723 60.324557810539773 0 0 0 0 -70.021869598835565 56.171886601465303 0 56.171886601465303 19.954552593619155 0 0 0 0 -283.96057271935348 -184.85278007327088 0 -184.85278007327088 -93.019476673507597 0 0 0 0 -127.24252816375784 127.88975094199304 0 127.88975094199304 -44.340630848756064 0 0 0 0 -126.59002523353635 48.081332666261005 0 48.081332666261005 261.53242912147653 0 0 0 0 24.77812623269574 85.01134683917553 0 85.01134683917553 -38.051081605819036 0 0 0 0 -54.368594806763326 101.18374518138808 0 101.18374518138808 44.062849116238795 0 0 0 0 -2.8456914725879869 90.37557732424284 0 90.37557732424284 24.425124402370784 0 0 0 0 62.690457209439501 141.46285729937881 0 141.46285729937881 31.764454113057582 0 0 0 0 -7.0445569641232737 66.160846013319997 0 66.160846013319997 117.14795086448066 0 0 0 0 -11.11140245823708 -11.202310378217589 0 -11.202310378217589 234.68247473372685 0 0 0 0 63.068007156108024 -90.162924488138287 0 -90.162924488138287 228.51098756874126 0 0 0 0 41.190216561831221 50.907662851775967 0 50.907662851775967 92.048445326361616 0 0 0 0 30.894893436657185 83.426773090239294 0 83.426773090239294 352.79165608016774 0 0 0 0 5.6082340371372084 37.700071356457556 0 37.700071356457556 63.920134543641325 0 0 0 0 -107.31619212067062 24.453045321439276 0 24.453045321439276 107.5445769655089 0 0 0 0 -82.377204392568331 -72.902699051190439 0 -72.902699051190439 223.85061420351121 0 0 0 0 -84.413594256090562 -51.05707006142984 0 -51.05707006142984 48.997046565564233 0 0 0 0 -154.05897887819356 -92.46393279943004 0 -92.46393279943004 347.79808343294462 0 0 0 0 -151.24738601493436 -83.017366979122016 0 -83.017366979122016 374.49864020383757 0 0 0 0 -34.144534856488463 -66.002979083492392 0 -66.002979083492392 215.70978717024627 0 0 0 0 90.954157481342008 -24.244109469755131 0 -24.244109469755131 165.64475829794173 0 0 0 0 -32.703056365994371 -49.969019861111519 0 -49.969019861111519 393.6282017251142 0 0 0 0 -722.46188575544386 -67.077930861601999 0 -67.077930861601999 345.24890961078381 0 0 0 0 -96.236219366700197 -119.01338069580379 0 -119.01338069580379 61.129300200045691 0 0 0 0 -43.307509759441245 -33.971849395293248 0 -33.971849395293248 830.60782000298786 0 0 0 0 -219.81219974177424 135.49253624935591 0 135.49253624935591 701.86269739136696 0 0 0 0 203.5377032242105 175.89616433428455 0 175.89616433428455 207.84671270208855 0 0 0 0 -119.64031158038165 111.41484675998277 0 111.41484675998277 -24.876210625618114 0 0 0 0 -1.127819680186456 -0.39281854557218221 0 -0.39281854557218221 24.752046190629393 0 0 0 0 -83.372265163789962 -104.26969773795281 0 -104.26969773795281 -104.8779750826925 0 0 0 0 -338.45272248462243 -185.49945372796356 0 -185.49945372796356 356.02314836530422 0 0 0 0 212.13332429678121 258.27308700935282 0 258.27308700935282 561.71369584427157 0 0 0 0 284.04497262233735 941.74821903164775 0 941.74821903164775 38.819631715608978 0 0 0 0 -0.66106825598434216 1.407282260215597 0 1.407282260215597 11.222294062548642 0 0 0 0 -197.04892638582987 -170.38701016894629 0 -170.38701016894629 288.90083508712269 0 0 0 0 -202.14912858209664 -211.68017631100156 0 -211.68017631100156 38.948746043835854 0 0 0 0 83.508909491157738 547.96889070570796 0 547.96889070570796 253.9857001828932 0 0 0 0 36.801672264690524 123.19638192482307 0 123.19638192482307 91.262958419029019 0 0 0 0 11.505291734607908 315.43195099779768 0 315.43195099779768 -296.07628242528517 0 0 0 0 203.25820314995872 -40.226121539453743 0 -40.226121539453743 -113.70166727340256 0 0 0 0 -226.69042080837653 672.3566791809335 0 672.3566791809335 1093.7253663013453 0 0 0 0 1.4543639478572936 -1.3405159083494738 0 -1.3405159083494738 1.4175306129991725 0 0 0 0 71.954728345074841 34.979102311785027 0 34.979102311785027 20.696452430151112 0 0 0 0 -14.877269789777191 8.904394173400874 0 8.904394173400874 3.984804659113351 0 0 0 0 -21.092133753802841 7.3711785803625389 0 7.3711785803625389 62.258158849166648 0 0 0 0 9.528247587126657 56.866536174741668 0 56.866536174741668 32.389840207310044 0 0 0 0 -78.201473246423802 137.22969645363628 0 137.22969645363628 100.6416018611344 0 0 0 0 -4.8953762763378572 2.4017497030956605 0 2.4017497030956605 -0.57299798362400622 0 0 0 0 -378.04785501599281 -133.51033378821739 0 -133.51033378821739 8.2768890210481914 0 0 0 0 -648.56966676389447 -48.746593619700434 0 -48.746593619700434 1304.0837805512419 0 0 0 0 630.50044750938287 464.87069324819458 0 464.87069324819458 -348.96440403364977 0 0 0 0 -302.26500978990543 -58.942189211877121 0 -58.942189211877121 736.31931860864279 0 0 0 0 81.172568569601026 555.48345277521184 0 555.48345277521184 823.7662748792718 0 0 0 0 289.17700743894738 173.09157215044434 0 173.09157215044434 52.948933022780693 0 0 0 0 -39.799844150789795 163.81660260512217 0 163.81660260512217 220.69674777752516 0 0 0 0 -469.68036432535746 -37.661165486882965 0 -37.661165486882965 71.252902551234001 0 0 0 0 41.948120959531479 -234.27758800951051 0 -234.27758800951051 -452.79318002761647 0 0 0 0 -102.94885634112961 7.3149405388248852 0 7.3149405388248852 55.441517754246888 0 0 0 0 -92.211563761613434 11.479655391107372 0 11.479655391107372 54.11245610932383 0 0 0 0 17.515567612318591 -34.58640603789172 0 -34.58640603789172 -43.289164633570181 0 0 0 0 -92.917735887083296 -22.063634644469175 0 -22.063634644469175 54.93231113353977 0 0 0 0 -13.210531094440285 4.1164606071779417 0 4.1164606071779417 57.443136112306092 0 0 0 0 -35.871730856469185 -20.634643763791246 0 -20.634643763791246 52.728068137559603 0 0 0 0 -17.002350344446313 -9.701560671783227 0 -9.701560671783227 61.521289831989634 0 0 0 0 -84.089403194109764 0.26433074770102394 0 0.26433074770102394 63.09673797164578 0 0 0 0 -84.439912305220787 16.015689022347942 0 16.015689022347942 67.986953364920737 0 0 0 0 -100.78302194727598 31.803043373501168 0 31.803043373501168 70.232796531912754 0 0 0 0 -69.636107083267234 14.301545835103752 0 14.301545835103752 67.110933719974128 0 0 0 0 -45.513703293645449 2.0560841518235975 0 2.0560841518235975 67.162855847357946 0 0 0 0 -95.982014308276121 33.074508197332761 0 33.074508197332761 66.430541666464705 0 0 0 0 -94.396928771896228 34.378747290695173 0 34.378747290695173 46.550081660654541 0 0 0 0 -40.778597877453421 36.411104078677454 0 36.411104078677454 37.148326234433625 0 0 0 0 -98.346164847285763 69.35661528293349 0 69.35661528293349 33.820017103786995 0 0 0 0 -163.90507524562918 38.084797987994534 0 38.084797987994534 67.458358636016783 0 0 0 0 -33.246876553957009 11.882791696301865 0 11.882791696301865 180.77891902046031 0 0 0 0 121.85209923956539 75.738331364111687 0 75.738331364111687 207.04256692907802 0 0 0 0 121.58766765591599 -115.96477318732104 0 -115.96477318732104 276.24830738969285 0 0 0 0 19.910395104827785 4.8119079144980788 0 4.8119079144980788 196.42011520982214 0 0 0 0 -31.76304729334197 -23.769449906496448 0 -23.769449906496448 402.21870977302751 0 0 0 0 -20.306820832444828 -4.7838692114019068 0 -4.7838692114019068 194.13058070781699 0 0 0 0 -48.285799573270197 101.48308913761866 0 101.48308913761866 211.80162759391533 0 0 0 0 26.073390014136749 37.548750765465229 0 37.548750765465229 174.65451320703505 0 0 0 0 66.936601430343899 48.23102997874048 0 48.23102997874048 42.007973159714311 0 0 0 0 31.907267949161451 7.9305312350370514 0 7.9305312350370514 51.82275891831523 0 0 0 0 4.8909524461259934 -14.083876004769991 0 -14.083876004769991 44.090223169421733 0 0 0 0 24.148824956909721 29.818984073510364 0 29.818984073510364 78.545634801464985 0 0 0 0 35.868374158856113 29.406582001544848 0 29.406582001544848 78.560134173916595 0 0 0 0 7.8194126096567516 19.285063905356765 0 19.285063905356765 75.225837484795193 0 0 0 0 -18.812301913169449 82.602380164491933 0 82.602380164491933 65.151886041894613 0 0 0 0 -42.115193453577376 2.3886221209759242 0 2.3886221209759242 217.91668443276649 0 0 0 0 44.362177974550377 28.408657089736607 0 28.408657089736607 55.714726477828663 0 0 0 0 -13.493556781603107 31.020334447312415 0 31.020334447312415 107.34553056046778 0 0 0 0 10.437032785147316 -19.908871478106676 0 -19.908871478106676 15.369697114364328 0 0 0 0 7.6297365616687784 -13.697399095422952 0 -13.697399095422952 80.574307631570264 0 0 0 0 -3.7466647493819796 12.956783941447519 0 12.956783941447519 32.538010610613796 0 0 0 0 0.52851549486831573 -12.92208122701777 0 -12.92208122701777 56.326941521656408 0 0 0 0 -3.6598410097347767 3.3036317130627069 0 3.3036317130627069 42.469452613302309 0 0 0 0 6.5115855329449914 11.343157934597912 0 11.343157934597912 81.001208322741149 0 0 0 0 -6.5523125153931687 2.6746834765981475 0 2.6746834765981475 78.214973178790387 0 0 0 0 -0.71763772747726762 -1.8201779467563028 0 -1.8201779467563028 72.925531070686702 0 0 0 0 17.961176204172261 57.813473119462287 0 57.813473119462287 79.368238046510669 0 0 0 0 0.81041177813612997 -10.612750024167177 0 -10.612750024167177 41.878842835292104 0 0 0 0 -42.440841981133417 44.181823547176464 0 44.181823547176464 92.623407617154953 0 0 0 0 19.517076287725104 -18.726680769503218 0 -18.726680769503218 65.478566281577514 0 0 0 0 9.4438870526273604 -5.5490872547270556 0 -5.5490872547270556 67.337662642385112 0 0 0 0 -101.83291218592285 -0.21745388988347258 0 -0.21745388988347258 18.401450707289769 0 0 0 0 -109.1270262704702 -19.970486691272527 0 -19.970486691272527 47.734986406310782 0 0 0 0 -106.58720862057544 15.076865330651344 0 15.076865330651344 52.838037156754581 0 0 0 0 -96.015644226561562 25.533319318010399 0 25.533319318010399 62.644172547363269 0 0 0 0 -75.924551051507024 28.053209534924463 0 28.053209534924463 80.153885552368592 0 0 0 0 -40.673682362101317 19.934676905177184 0 19.934676905177184 70.545800082014466 0 0 0 0 -0.6255803202962511 -0.95420635401069376 0 -0.95420635401069376 62.670885204875958 0 0 0 0 -8.358085410496642 6.3012370373035083 0 6.3012370373035083 68.130976926644507 0 0 0 0 -38.27947925024182 10.484173671240569 0 10.484173671240569 69.473698957823217 0 0 0 0 -43.644565784351471 13.02182583531976 0 13.02182583531976 88.729825348520535 0 0 0 0 -15.558309115384873 -1.5591248195560183 0 -1.5591248195560183 74.86960216985608 0 0 0 0 13.237063424519874 -3.2242062715522479 0 -3.2242062715522479 74.00489782785553 0 0 0 0 -8.0619494669572305 7.4680254463746678 0 7.4680254463746678 135.22860012830643 0 0 0 0 -2.5816791589905783 1.6117602464132013 0 1.6117602464132013 5.0936523307649111 0 0 0 0 -8.3565689474094142 29.16377237557208 0 29.16377237557208 95.167284578055842 0 0 0 0 -24.856445904866632 -8.2284250079646881 0 -8.2284250079646881 116.604191468934 0 0 0 0 -0.63151622082207304 0.66897061555528126 0 0.66897061555528126 6.2303471686852845 0 0 0 0 20.566544238086863 -17.564551786686934 0 -17.564551786686934 54.44678929472866 0 0 0 0 -98.291283194783318 15.339252348963782 0 15.339252348963782 107.77202738435881 0 0 0 0 -50.792102221605091 30.479855248275271 0 30.479855248275271 100.56813100500403 0 0 0 0 -71.691347022991977 -70.814522510223469 0 -70.814522510223469 88.800141706468821 0 0 0 0 -109.65730152761444 -45.505667918019753 0 -45.505667918019753 73.837517940475664 0 0 0 0 -2.7640487887520067 -14.091062858999067 0 -14.091062858999067 151.6288496176312 0 0 0 0 -11.859978974541491 18.997678321176863 0 18.997678321176863 79.973382391035557 0 0 0 0 -118.26566461680068 -42.130998819720844 0 -42.130998819720844 74.503301459295017 0 0 0 0 -77.366259219033509 -82.285648118962854 0 -82.285648118962854 -20.280277428879344 0 0 0 0 -178.94842687310211 -215.83566620358761 0 -215.83566620358761 -63.7851310037031 0 0 0 0 -90.370143868612899 -96.781535682895083 0 -96.781535682895083 -104.40187847744892 0 0 0 0 184.11423330777598 98.514791006413361 0 98.514791006413361 100.79251217996716 0 0 0 0 96.907772222168205 162.17832964321587 0 162.17832964321587 194.9725722970652 0 0 0 0 -114.58349687110925 -44.51506997605884 0 -44.51506997605884 5.3735474615932617 0 0 0 0 -54.503719611451288 -11.688348543910251 0 -11.688348543910251 -0.54357881702208033 0 0 0 0 -3.6806236485909913 0.62540878684148993 0 0.62540878684148993 2.2261450432254648 0 0 0 0 107.15606969781993 118.44371412390683 0 118.44371412390683 178.21207689909761 0 0 0 0 128.10671995438179 100.94069093106327 0 100.94069093106327 55.19068291367148 0 0 0 0 -276.46119781858351 -130.80266842412675 0 -130.80266842412675 -3.4721822895116929 0 0 0 0 -147.57284019845974 -98.649483194705681 0 -98.649483194705681 -61.714734035382207 0 0 0 0 0.38520153264107204 -2.9078791132762234 0 -2.9078791132762234 12.687242640805664 0 0 0 0 -94.13103456916906 -11.958426337196215 0 -11.958426337196215 -39.119012333849241 0 0 0 0 90.556327295008032 102.38888621410479 0 102.38888621410479 94.93409203862393 0 0 0 0 -60.138117500703174 18.694254710755558 0 18.694254710755558 58.553816026366803 0 0 0 0 -219.49827007633985 -24.523431900330252 0 -24.523431900330252 47.101777778549149 0 0 0 0 106.60956991423944 153.65043892074868 0 153.65043892074868 173.04353363886912 0 0 0 0 -1.1904044174668478 0.92653501751985345 0 0.92653501751985345 0.5460537245156587 0 0 0 0 -0.067008939405241108 177.0001055899811 0 177.0001055899811 171.80208724552608 0 0 0 0 98.148853548482293 158.16342597167386 0 158.16342597167386 102.31511815889826 0 0 0 0 -81.52231504491283 62.528086234595321 0 62.528086234595321 148.34415717485535 0 0 0 0 95.065481225747135 54.021335705856472 0 54.021335705856472 109.56876143254703 0 0 0 0 -0.45323791078794784 40.216228672348734 0 40.216228672348734 145.72715780839644 0 0 0 0 3.298463236751104 9.0304842157165695 0 9.0304842157165695 14.082222547836864 0 0 0 0 -75.799703420571177 0.71872631607493531 0 0.71872631607493531 97.581617832154734 0 0 0 0 -52.212185013057024 -5.9826731481771276 0 -5.9826731481771276 103.89028257412429 0 0 0 0 -13.969689061178542 68.941224494243215 0 68.941224494243215 122.41532067034495 0 0 0 0 -3.614975855773082 53.289601377175131 0 53.289601377175131 95.810864323852002 0 0 0 0 176.84687440621985 194.87261256118779 0 194.87261256118779 -31.596996732734624 0 0 0 0 -36.531873428315976 30.168650348090523 0 30.168650348090523 59.815962807346295 0 0 0 0 -20.000850697542859 43.510137900278366 0 43.510137900278366 41.804723982519128 0 0 0 0 -19.580573039736009 3.1642140720687166 0 3.1642140720687166 93.724242449708981 0 0 0 0 -15.185857513286919 -4.5574439820702537 0 -4.5574439820702537 53.95476706800946 0 0 0 0 -12.636136413140193 12.84357273965994 0 12.84357273965994 24.82309491961276 0 0 0 0 -11.072726551886717 -8.2047600152327504 0 -8.2047600152327504 59.578453331443598 0 0 0 0 -15.207166778507599 13.436548415207653 0 13.436548415207653 60.381942100975721 0 0 0 0 -0.42011546449248272 30.716410491877468 0 30.716410491877468 35.829503673172439 0 0 0 0 -13.363591866722345 64.829396671528229 0 64.829396671528229 136.56958800340362 0 0 0 0 -11.638228025785558 12.324960144559814 0 12.324960144559814 23.104810523856855 0 0 0 0 -2.0162232346742712 27.236715719871427 0 27.236715719871427 60.434153878362849 0 0 0 0 -20.100461022104355 13.261460039944723 0 13.261460039944723 57.619771009101896 0 0 0 0 -6.8334119414765837 -1.4335675620359325 0 -1.4335675620359325 43.147621247691859 0 0 0 0 -33.24852787269856 23.922633553545893 0 23.922633553545893 45.300229444517754 0 0 0 0 -25.860799498871813 0.20377311750553417 0 0.20377311750553417 37.121625029787538 0 0 0 0 -44.556450597416188 -0.90421521743337507 0 -0.90421521743337507 37.089889880637202 0 0 0 0 -27.924339193225478 11.31258948595314 0 11.31258948595314 18.213124819147197 0 0 0 0 -60.784945012570915 20.689265521043126 0 20.689265521043126 44.989194320953175 0 0 0 0 -27.359005076658605 2.0115066640682926 0 2.0115066640682926 30.695427804130304 0 0 0 0 -4.0134230590889608 1.0604207670241692 0 1.0604207670241692 2.1846772691840357 0 0 0 0 80.844672221011933 157.48150289581463 0 157.48150289581463 169.1722984041121 0 0 0 0 -15.635018505808603 -5.1919304336552159 0 -5.1919304336552159 18.860491457504395 0 0 0 0 -13.139389842310038 9.2300350294344753 0 9.2300350294344753 33.507832740775484 0 0 0 0 -9.7483877222830415 0.44034472393468604 0 0.44034472393468604 37.319614994397853 0 0 0 0 40.522784636049153 14.135456857268764 0 14.135456857268764 133.68622155112098 0 0 0 0 37.578625120218021 -25.487896333863318 0 -25.487896333863318 171.13051364282182 0 0 0 0 19.261132752311255 -1.509935106399098 0 -1.509935106399098 246.54792315464874 0 0 0 0 13.453218734941373 -45.93618898252771 0 -45.93618898252771 286.26947684206243 0 0 0 0 17.450088476461588 15.760558356741967 0 15.760558356741967 164.74299872437405 0 0 0 0 -2.4972857936450055 -45.145949801350071 0 -45.145949801350071 292.12642241362482 0 0 0 0 44.258404218694068 -102.55662255992866 0 -102.55662255992866 360.09099689552386 0 0 0 0 31.639796895431573 69.069929141234752 0 69.069929141234752 494.96504484237812 0 0 0 0 109.49909015165576 -48.116921196080511 0 -48.116921196080511 260.90456228893891 0 0 0 0 -23.323220339929321 -49.816123974509537 0 -49.816123974509537 249.22225547243943 0 0 0 0 -34.826607264061749 -135.56690172167873 0 -135.56690172167873 559.96605074917898 0 0 0 0 -23.09336867647653 -133.36761496458348 0 -133.36761496458348 132.20452665035555 0 0 0 0 -38.494774706481621 -91.344267088221386 0 -91.344267088221386 186.6309026152594 0 0 0 0 -33.090648136652817 -35.055811573713072 0 -35.055811573713072 -41.481733487409656 0 0 0 0 -47.726197873545516 -20.334022720396206 0 -20.334022720396206 83.179711438322556 0 0 0 0 -40.750708361050783 6.8610457820977899 0 6.8610457820977899 134.19768269043561 0 0 0 0 8.1070058684781543 -9.8204693922998558 0 -9.8204693922998558 100.31993028862053 0 0 0 0 0.95703341079388338 -25.899298533513502 0 -25.899298533513502 261.60057639540901 0 0 0 0 -0.92185922055614355 33.796861773633282 0 33.796861773633282 98.588133796220063 0 0 0 0 14.566914053441451 17.828013800393819 0 17.828013800393819 81.286312049298431 0 0 0 0 -20.206117578484736 13.326493543738252 0 13.326493543738252 89.204381425559404 0 0 0 0 -19.336649917793693 13.88783463915388 0 13.88783463915388 79.941602062055608 0 0 0 0 -1.6399821799750498 11.187471357585309 0 11.187471357585309 55.068735615695914 0 0 0 0 1.9582547150202885 1.7270365027320338 0 1.7270365027320338 -0.54789865163446905 0 0 0 0 -3.3236632597745484 23.423463571287357 0 23.423463571287357 79.995274954300839 0 0 0 0 -2.2996290897972358 24.994436531436804 0 24.994436531436804 73.269238700981077 0 0 0 0 23.666620007442361 18.765269828276359 0 18.765269828276359 34.591325697307184 0 0 0 0 -14.48954054270871 20.962333525705617 0 20.962333525705617 111.42892721283351 0 0 0 0 4.3707304309658284 0.96481999034703847 0 0.96481999034703847 -1.3767395592319716 0 0 0 0 6.9496044375209749 19.082471264184278 0 19.082471264184278 139.72410850225424 0 0 0 0 2.0658935964493139 44.287838737873244 0 44.287838737873244 76.280956486738432 0 0 0 0 25.580351424591299 12.103896527638426 0 12.103896527638426 91.993218674499076 0 0 0 0 4.5843068539743399 22.45857848005835 0 22.45857848005835 159.42472316661588 0 0 0 0 45.291798199755135 -13.157196644529904 0 -13.157196644529904 19.949405152670806 0 0 0 0 8.2408831213419944 -10.941194957351399 0 -10.941194957351399 146.70815928888624 0 0 0 0 39.028761239111645 8.3423915471030341 0 8.3423915471030341 100.49346244691696 0 0 0 0 -17.300677868358434 -5.1636557992678718 0 -5.1636557992678718 98.093769574144972 0 0 0 0 -3.6964397693048863 -15.655035028004136 0 -15.655035028004136 20.53612440741388 0 0 0 0 0.63714595972987809 21.666019752072316 0 21.666019752072316 94.776083476754138 0 0 0 0 6.8238384361489217 1.0102209502371835 0 1.0102209502371835 6.6001111866459752 0 0 0 0 30.148537946777651 -4.015945137856761 0 -4.015945137856761 59.20849178469507 0 0 0 0 2.4875032436220863 -11.199589025352907 0 -11.199589025352907 41.133101730752969 0 0 0 0 2.3172911109686538 -5.3681439843567205 0 -5.3681439843567205 39.699692748725283 0 0 0 0 -3.340547375666751 -15.807054736528627 0 -15.807054736528627 17.509846856774246 0 0 0 0 3.9952675718878936 -9.0416997972024546 0 -9.0416997972024546 36.271322784363292 0 0 0 0 3.2217544291245304 -7.597803187527461 0 -7.597803187527461 43.840189542897861 0 0 0 0 1.8471838792159474 -8.7495949737858609 0 -8.7495949737858609 46.816360593671561 0 0 0 0 3.4571852637061227 -9.6733756246358098 0 -9.6733756246358098 46.296674683122546 0 0 0 0 2.6675861495173194 -10.159133593697334 0 -10.159133593697334 51.162726185684733 0 0 0 0 5.3084102611733215 -15.404978635968291 0 -15.404978635968291 52.777884230556083 0 0 0 0 5.8275059147558181 -13.66772303909238 0 -13.66772303909238 49.020644662734412 0 0 0 0 3.078186495959585 -13.089471837927704 0 -13.089471837927704 58.379893717894447 0 0 0 0 1.0242760141081817 -9.1839553693280322 0 -9.1839553693280322 58.745361094168402 0 0 0 0 6.4211410609004815 -11.132328772771871 0 -11.132328772771871 58.729663808655459 0 0 0 0 49.078318355450619 27.616853173640266 0 27.616853173640266 62.755742284196458 0 0 0 0 2.8839546104005969 -17.407095958731858 0 -17.407095958731858 23.846796530435881 0 0 0 0 -18.114629951702682 -42.149205757101299 0 -42.149205757101299 37.792821443061257 0 0 0 0 1.3839005398895097 -8.8833902956248494 0 -8.8833902956248494 55.670163649047026 0 0 0 0 52.498280308260746 58.256960100581637 0 58.256960100581637 72.400384234912053 0 0 0 0 -0.19809380543775479 0.49084174486176835 0 0.49084174486176835 8.518512749151931 0 0 0 0 2.0570518463036933 -9.3748506658448605 0 -9.3748506658448605 59.891926941976635 0 0 0 0 2.3906157870630977 -8.5294133777315437 0 -8.5294133777315437 47.426972846515127 0 0 0 0 0.99451825521828141 -9.288593587691139 0 -9.288593587691139 52.572101510228094 0 0 0 0 4.0300881674270386 -18.691028048393491 0 -18.691028048393491 42.405546089034033 0 0 0 0 1.154646018496237 -10.267408490438811 0 -10.267408490438811 53.035029998987739 0 0 0 0 3.9913705123140062 -17.342770348896011 0 -17.342770348896011 60.297066897568584 0 0 0 0 2.9974637473439745 -20.023176920166506 0 -20.023176920166506 16.522915785569595 0 0 0 0 4.872211653573375 -16.965010365484261 0 -16.965010365484261 -1.451729457483971 0 0 0 0 8.2283392062317944 -16.850819635939843 0 -16.850819635939843 54.498118644927672 0 0 0 0 -38.232746452869833 -63.672660173600889 0 -63.672660173600889 409.30496779816167 0 0 0 0 16.588610942267223 -110.10900947725167 0 -110.10900947725167 203.94943810120458 0 0 0 0 -32.858015145970057 -95.185147012380185 0 -95.185147012380185 364.7437799210602 0 0 0 0 21.662911925195658 -38.664571564702783 0 -38.664571564702783 236.27602164319251 0 0 0 0 42.501398307384079 35.345467741834 0 35.345467741834 82.024207681803091 0 0 0 0 -6.0816194822191392 50.536715324997203 0 50.536715324997203 219.38941218125547 0 0 0 0 35.125660347648591 -48.769450979827525 0 -48.769450979827525 264.51321804236795 0 0 0 0 113.35434401895873 -44.727112707325432 0 -44.727112707325432 255.93732057970192 0 0 0 0 -25.797456115656132 28.375332060895744 0 28.375332060895744 267.95395607367391 0 0 0 0 8.0194649328950618 -19.893961770532769 0 -19.893961770532769 326.7810760209104 0 0 0 0 124.20542521494554 -33.600113897322444 0 -33.600113897322444 267.34724839235423 0 0 0 0 81.723574699928577 16.281038702320075 0 16.281038702320075 341.57814537551894 0 0 0 0 29.350793744980592 -43.758133883935443 0 -43.758133883935443 216.41140257231018 0 0 0 0 -20.847648943244963 62.825231041912048 0 62.825231041912048 221.74136358576652 0 0 0 0 13.48219745422648 62.577229575021192 0 62.577229575021192 40.985109854125767 0 0 0 0 -68.452362760041069 -1.768041611139779 0 -1.768041611139779 175.5354745228251 0 0 0 0 -8.8182114319422276 37.725377234296445 0 37.725377234296445 118.65773033152428 0 0 0 0 -49.248246499775178 161.21713099539011 0 161.21713099539011 130.67069689340133 0 0 0 0 -83.675595061448803 143.29392706671933 0 143.29392706671933 141.38444062439521 0 0 0 0 -5.6641936430812621 38.046808159848297 0 38.046808159848297 391.65572688299289 0 0 0 0 64.123393310929487 -81.280409089340537 0 -81.280409089340537 275.46391003781901 0 0 0 0 -45.169387169332822 32.96000034964527 0 32.96000034964527 452.75351474044146 0 0 0 0 -0.1583481618948781 -7.8802991601332906 0 -7.8802991601332906 45.455682517476816 0 0 0 0 -15.926653678416869 -132.73897458318788 0 -132.73897458318788 485.66393847997824 0 0 0 0 0.83558923250815198 2.0876203391374304 0 2.0876203391374304 7.0101961027593163 0 0 0 0 91.323689113853106 73.761538488761289 0 73.761538488761289 259.21870580543327 0 0 0 0 32.702284995155196 65.224896713843918 0 65.224896713843918 116.11326305023977 0 0 0 0 -28.072431005522958 12.159496325912187 0 12.159496325912187 238.59135574507309 0 0 0 0 4.4906984993258448 -30.351294900119683 0 -30.351294900119683 232.85201612630044 0 0 0 0 -22.902084248810283 -45.830753017719189 0 -45.830753017719189 224.31853462055733 0 0 0 0 -27.878588948434754 98.346194403100526 0 98.346194403100526 138.67478292688611 0 0 0 0 -115.22254515092686 81.91813748137065 0 81.91813748137065 81.804750966992287 0 0 0 0 -42.468575865933872 -33.530646141254692 0 -33.530646141254692 -86.561499884875957 0 0 0 0 -16.66693769189952 71.593532769631111 0 71.593532769631111 137.8683087140671 0 0 0 0 -27.715577257112386 34.477213440273772 0 34.477213440273772 104.77717371344625 0 0 0 0 -12.589083034297346 100.67631813275511 0 100.67631813275511 63.237386300228536 0 0 0 0 -18.678273699370493 103.74028531636941 0 103.74028531636941 4.3450632716267137 0 0 0 0 3.3410480850730062 2.65028027107806 0 2.65028027107806 41.89203886628313 0 0 0 0 -40.003811818515715 78.317717367404839 0 78.317717367404839 120.23045179084875 0 0 0 0 -7.3826490491655932 66.339704865415115 0 66.339704865415115 24.094716542218521 0 0 0 0 108.29231707784857 73.881879243654112 0 73.881879243654112 -60.339848171033736 0 0 0 0 277.88850544267052 -55.325110564590432 0 -55.325110564590432 443.74251446053677 0 0 0 0 -35.988183580991063 -0.83188351684657391 0 -0.83188351684657391 449.38879081363848 0 0 0 0 0.91931493015049615 78.322918192561559 0 78.322918192561559 26.518642707891143 0 0 0 0 -4.8960367813716861 62.471367633464467 0 62.471367633464467 103.38962285341373 0 0 0 0 110.86531488527908 -175.22386059818382 0 -175.22386059818382 292.87054361025366 0 0 0 0 4.6631173785913083 8.6889528553483153 0 8.6889528553483153 -11.983494368011989 0 0 0 0 -346.03259400775232 -105.48545580543578 0 -105.48545580543578 1013.0415475509362 0 0 0 0 -4.2720839431572131 36.880376332144806 0 36.880376332144806 70.707638586260146 0 0 0 0 0.55218185326549829 3.6069136911573878 0 3.6069136911573878 -0.52122216744433558 0 0 0 0 128.86802028583134 197.61366815039946 0 197.61366815039946 -267.72123856871622 0 0 0 0 -7.7040833819391992 34.600431807062705 0 34.600431807062705 80.462259319450823 0 0 0 0 -11.214716404410865 39.477451572936843 0 39.477451572936843 77.55978852523549 0 0 0 0 -11.584374869558815 41.216276790801203 0 41.216276790801203 73.675838361727074 0 0 0 0 162.32816126924263 -166.20675194594151 0 -166.20675194594151 -20.892297749767749 0 0 0 0 1.9424792550652548 -0.35659528522765527 0 -0.35659528522765527 -1.1653129042490953 0 0 0 0 -22.690787532074864 -14.084242849701695 0 -14.084242849701695 470.31390291103526 0 0 0 0 36.354013836567447 -56.796698973883395 0 -56.796698973883395 143.90907586720778 0 0 0 0 -68.920474381968461 32.945964257487503 0 32.945964257487503 276.66213534100098 0 0 0 0 2.6742359942855334 -0.98723330815496979 0 -0.98723330815496979 43.007873081230699 0 0 0 0 166.61530983371267 225.75233947799279 0 225.75233947799279 12.94282345994543 0 0 0 0 -4.4104964578254631 44.058482861807825 0 44.058482861807825 125.19463128748318 0 0 0 0 -43.875253356580288 127.88205716775701 0 127.88205716775701 77.121259700033988 0 0 0 0 -32.957226217659809 59.157154027365323 0 59.157154027365323 70.144301867796457 0 0 0 0 -384.7136086933574 -88.651691990708059 0 -88.651691990708059 885.71894410558707 0 0 0 0 6.5233019209279455 1.2953949325449159 0 1.2953949325449159 -0.66754041430146316 0 0 0 0 -1.8351729160491779 3.4605050836550362 0 3.4605050836550362 21.270722737402622 0 0 0 0 -70.077006041632558 4.5327445779912523 0 4.5327445779912523 134.43885638414213 0 0 0 0 91.5752536878299 -169.74391669646502 0 -169.74391669646502 446.02110462951794 0 0 0 0 -210.53189494573417 70.049059993780247 0 70.049059993780247 154.39308549715497 0 0 0 0 -113.07655472195256 44.554696013618013 0 44.554696013618013 228.29238250460185 0 0 0 0 721.36013732215815 -121.88920658313145 0 -121.88920658313145 261.30631744758284 0 0 0 0 283.4204309609413 467.97752898141334 0 467.97752898141334 459.24473449325887 0 0 0 0 179.58764280813557 226.78673615814114 0 226.78673615814114 438.12652188453285 0 0 0 0 48.96882120549617 -100.2598978648748 0 -100.2598978648748 716.78047164023155 0 0 0 0 45.736995740897328 -59.254645618559152 0 -59.254645618559152 207.6664853456532 0 0 0 0 108.16784208694935 48.226426555080252 0 48.226426555080252 122.19219958539179 0 0 0 0 245.75068568347365 91.648151535172474 0 91.648151535172474 127.22576536559791 0 0 0 0 153.21280838378061 137.57984235122967 0 137.57984235122967 60.796455847068501 0 0 0 0 46.256272386900946 11.663489813199703 0 11.663489813199703 105.8297251160111 0 0 0 0 86.980127176570022 -19.595212050247937 0 -19.595212050247937 152.24214580840271 0 0 0 0 83.786796335809413 -8.7392553075733304 0 -8.7392553075733304 15.965567501130863 0 0 0 0 -16.257620146150657 12.646734645106335 0 12.646734645106335 142.20981058124744 0 0 0 0 101.89419419903288 -43.891928791961618 0 -43.891928791961618 -423.81830134260235 0 0 0 0 -11.192950472472148 -70.345750878364925 0 -70.345750878364925 -150.11725008178655 0 0 0 0 -13.151113429886834 -42.665030012410625 0 -42.665030012410625 8.4271279009262798 0 0 0 0 -6.5451386913427996 59.4156456710989 0 59.4156456710989 -14.67337258993939 0 0 0 0 19.326458589483536 84.089526903551814 0 84.089526903551814 -78.584946283157478 0 0 0 0 59.382017242608342 33.304119852355143 0 33.304119852355143 -28.589471099301591 0 0 0 0 -3.8481475341621949 12.807581996772138 0 12.807581996772138 88.578111499167321 0 0 0 0 -298.76603542411806 93.956678022500455 0 93.956678022500455 547.32486885824619 0 0 0 0 -3.9449707156654767 36.991329396943911 0 36.991329396943911 67.552554136251274 0 0 0 0 -4.5766446367670142 39.214259782769659 0 39.214259782769659 62.680463433396653 0 0 0 0 -11.805290770033025 41.667827510740608 0 41.667827510740608 73.560685709948302 0 0 0 0 18.263747790574143 0.77264880388975143 0 0.77264880388975143 44.238058597205963 0 0 0 0 251.56492902873742 200.9861136823456 0 200.9861136823456 439.7360998091317 0 0 0 0 -34.089083776456391 -43.476675351213999 0 -43.476675351213999 194.9014395062859 0 0 0 0 12.587766707134174 8.0799970601816895 0 8.0799970601816895 25.698936590123331 0 0 0 0 126.67138670407985 56.890320012495067 0 56.890320012495067 13.01726579368551 0 0 0 0 3.3244908552132983 156.80694982763634 0 156.80694982763634 -155.32152259259419 0 0 0 0 -41.121176312546822 -63.47515764626246 0 -63.47515764626246 8.6255326140744728 0 0 0 0 -53.196197613655841 -36.176602759493107 0 -36.176602759493107 163.80829818044003 0 0 0 0 -1.1060113096414761 10.932761568418449 0 10.932761568418449 113.9198135440638 0 0 0 0 21.825557871650744 -11.398919982239022 0 -11.398919982239022 155.59424622491861 0 0 0 0 -40.773358895099591 -25.949951364265871 0 -25.949951364265871 167.13436511294276 0 0 0 0 -1.2907918403638448 2.7596720162878512 0 2.7596720162878512 -0.37476198781997994 0 0 0 0 -8.1399238665180746 -73.983775261011033 0 -73.983775261011033 275.05572382697574 0 0 0 0 -17.600304119088833 50.370463579529314 0 50.370463579529314 -44.501747418878949 0 0 0 0 -27.406328896784544 25.744741605438321 0 25.744741605438321 51.74491780547396 0 0 0 0 -23.400253810694267 46.5632444084913 0 46.5632444084913 62.412533656453888 0 0 0 0 -27.92263023653868 39.289705769711873 0 39.289705769711873 31.794461175551987 0 0 0 0 -12.02293015259238 43.065583555078774 0 43.065583555078774 60.716975151895895 0 0 0 0 -3.9402826507706159 3.7267200831668958 0 3.7267200831668958 24.417261410733296 0 0 0 0 -22.626027057276588 39.421746167774472 0 39.421746167774472 65.986107584001729 0 0 0 0 -10.380843403723702 40.21069244518003 0 40.21069244518003 64.528916734670929 0 0 0 0 -16.875363272036338 42.34911599469342 0 42.34911599469342 86.91682123526698 0 0 0 0 -12.38384593585215 48.048164466890739 0 48.048164466890739 69.149360937117308 0 0 0 0 402.93546968478768 583.94406434806297 0 583.94406434806297 828.65816279881983 0 0 0 0 -14.361027554641623 41.458297120618226 0 41.458297120618226 81.019609413313447 0 0 0 0 -15.776907103886288 45.775650182609837 0 45.775650182609837 18.620225640368975 0 0 0 0 -17.234352732808475 48.469112721650163 0 48.469112721650163 83.298015502339695 0 0 0 0 103.18822603558147 369.97623430950625 0 369.97623430950625 43.917886921903118 0 0 0 0 116.41460822844874 407.30341616233272 0 407.30341616233272 146.9649021346122 0 0 0 0 -80.237964442914745 429.31697459668067 0 429.31697459668067 799.93124283801808 0 0 0 0 -242.87088995026352 28.652961092448095 0 28.652961092448095 141.72521115723066 0 0 0 0 -13.595553503451811 51.303742129923194 0 51.303742129923194 77.77504462026991 0 0 0 0 -7.5630511969084182 40.561792924669135 0 40.561792924669135 64.666666694771266 0 0 0 0 -22.748700421825749 40.164853085103118 0 40.164853085103118 8.9518843963388814 0 0 0 0 30.454586514503717 -12.88013831392891 0 -12.88013831392891 -98.566586003616976 0 0 0 0 -43.566916997751832 41.143093608508934 0 41.143093608508934 74.332806612510467 0 0 0 0 -43.199869405561913 42.651237927377224 0 42.651237927377224 92.284266311144165 0 0 0 0 -21.913391633217543 33.171663616332808 0 33.171663616332808 77.254767907972564 0 0 0 0 -39.957375832414982 56.210888184519717 0 56.210888184519717 76.311851516507886 0 0 0 0 -43.630956084121863 30.599763260222971 0 30.599763260222971 62.03529425423767 0 0 0 0 -160.65916990297683 -2.4295039814533084 0 -2.4295039814533084 527.56606741817086 0 0 0 0 57.468450018592762 293.80401361043187 0 293.80401361043187 300.68014626813238 0 0 0 0 -2.6191068919600724 6.0805216649151674 0 6.0805216649151674 -3.2817567231221005 0 0 0 0 32.491359425692849 76.405051247595566 0 76.405051247595566 -24.464718510469538 0 0 0 0 -35.352666111119106 191.66458755532221 0 191.66458755532221 523.87339480791707 0 0 0 0 28.334909315154391 130.88590993905382 0 130.88590993905382 268.89911756050424 0 0 0 0 19.817234854574963 80.361858367949026 0 80.361858367949026 3.2218229997670278 0 0 0 0 12.109966936614512 -363.06660747607509 0 -363.06660747607509 -204.63579170923185 0 0 0 0 -134.48451427599048 172.85389848137493 0 172.85389848137493 1404.1645223861779 0 0 0 0 5.2922077790125641 -2.3762109437506211 0 -2.3762109437506211 1.8019203086591631 0 0 0 0 12.930789949261452 -388.06196402315982 0 -388.06196402315982 555.0378084713011 0 0 0 0 -149.90758047621057 30.246386954349873 0 30.246386954349873 587.691914388648 0 0 0 0 -314.98348868238463 -74.717458279410494 0 -74.717458279410494 548.06368797968753 0 0 0 0 -399.21006425024825 195.65437965884485 0 195.65437965884485 816.67504969350557 0 0 0 0 -253.68945973873724 -272.01595698103847 0 -272.01595698103847 1080.9185480822343 0 0 0 0 -22.650615002615368 23.70748271389327 0 23.70748271389327 50.55652906526592 0 0 0 0 -260.76124933852225 156.65088048705366 0 156.65088048705366 -29.753169257633772 0 0 0 0 -35.351722299546964 41.890001994441263 0 41.890001994441263 39.171486216000631 0 0 0 0 -241.17897614310914 350.74684241216164 0 350.74684241216164 -425.52531318107503 0 0 0 0 -1.366370550535855 -0.46232011485859914 0 -0.46232011485859914 10.566781902816672 0 0 0 0 -31.743224950329022 51.354217593758221 0 51.354217593758221 54.74099518058938 0 0 0 0 322.331292860129 -342.21985585116818 0 -342.21985585116818 150.5889572767046 0 0 0 0 -237.97718833008184 236.28729543184454 0 236.28729543184454 178.00113038780455 0 0 0 0 -26.124029168708919 11.309540215400588 0 11.309540215400588 49.649576739835794 0 0 0 0 -70.91753591149245 276.55642654121039 0 276.55642654121039 -127.12234691299955 0 0 0 0 201.49445834671496 40.967111807698529 0 40.967111807698529 -113.62759964013821 0 0 0 0 -44.187060289576038 54.396635103752487 0 54.396635103752487 29.277272977297343 0 0 0 0 -46.508047774170336 43.634712804185256 0 43.634712804185256 40.772612885248236 0 0 0 0 -79.666279063796537 -12.855064163071802 0 -12.855064163071802 119.86013312694558 0 0 0 0 -55.154708813663092 40.009890604747852 0 40.009890604747852 95.483822789166879 0 0 0 0 -84.102772574808569 2.0962867902521793 0 2.0962867902521793 70.280062921912759 0 0 0 0 -92.904138617581339 -207.75612783171528 0 -207.75612783171528 -53.57984977765409 0 0 0 0 -21.359028105976904 -22.523551909769594 0 -22.523551909769594 77.744859788272151 0 0 0 0 -39.838550298133896 25.609787164255067 0 25.609787164255067 211.84523146208085 0 0 0 0 11.41367822608845 -6.3529612454003654 0 -6.3529612454003654 114.77932564016373 0 0 0 0 4.030654801568744 21.25681103199895 0 21.25681103199895 148.85111644137578 0 0 0 0 -18.517379894334226 -12.380159851316421 0 -12.380159851316421 171.87285999871528 0 0 0 0 -18.193889253443558 -32.082548559501447 0 -32.082548559501447 194.05327505672903 0 0 0 0 -24.959688783376805 11.662720917356637 0 11.662720917356637 153.4869509243872 0 0 0 0 -23.038172111793756 -53.990925648809935 0 -53.990925648809935 114.52767404044457 0 0 0 0 -112.5496444294804 1.5138894828869525 0 1.5138894828869525 418.0854958360942 0 0 0 0 -93.345276718469904 -110.94630130410587 0 -110.94630130410587 281.18850989723433 0 0 0 0 -45.861430087108602 9.6681089788507961 0 9.6681089788507961 261.17040559935413 0 0 0 0 -92.955259546039542 32.187015738078117 0 32.187015738078117 255.3561648232353 0 0 0 0 21.757521574789749 80.756498277666111 0 80.756498277666111 8.4142870260966056 0 0 0 0 443.54875693948998 753.28047904463892 0 753.28047904463892 72.174674151523504 0 0 0 0 405.56493970807833 161.98448674722385 0 161.98448674722385 46.03360372478528 0 0 0 0 -795.64990272911382 -714.76173273443419 0 -714.76173273443419 1458.1167284507537 0 0 0 0 372.1364128228488 115.83068429751074 0 115.83068429751074 -102.76519979040313 0 0 0 0 -245.97787334858322 -13.542476664271817 0 -13.542476664271817 269.05854314159296 0 0 0 0 9.3327503167676085 72.808272252475405 0 72.808272252475405 18.023565715667253 0 0 0 0 252.84209872814154 856.28984216437675 0 856.28984216437675 1102.9986706719355 0 0 0 0 577.69950155187234 354.21155345491752 0 354.21155345491752 308.60664422853733 0 0 0 0 8.5752881351708297 -6.5289736043457509 0 -6.5289736043457509 7.0252678670989042 0 0 0 0 -3.5786296730486011 2.7506008485670534 0 2.7506008485670534 -0.97098305029728493 0 0 0 0 -0.15180294637320912 133.74158875902231 0 133.74158875902231 479.01909662524304 0 0 0 0 48.964609537108572 8.3629837998873882 0 8.3629837998873882 -188.49386152940133 0 0 0 0 -26.51814987634134 188.6866110688843 0 188.6866110688843 443.68182336063819 0 0 0 0 61.381738628079347 57.656959731643383 0 57.656959731643383 314.47898913961217 0 0 0 0 -1.6158685367218482 0.14675688680413401 0 0.14675688680413401 0.18782672258724631 0 0 0 0 -28.861459738300255 72.616699688713197 0 72.616699688713197 322.01230137113726 0 0 0 0 8.9831399837762547 45.765445242472197 0 45.765445242472197 103.68553119433454 0 0 0 0 -4.2723263538136207 5.8161585590074338 0 5.8161585590074338 142.54147421914303 0 0 0 0 -47.889237294859413 75.037949676565404 0 75.037949676565404 304.34572830184334 0 0 0 0 -2.5383783103393398 127.71843741166686 0 127.71843741166686 164.80762422091357 0 0 0 0 -74.588252377476238 19.406562974574626 0 19.406562974574626 157.09445656070602 0 0 0 0 -19.454116720942352 -21.056484401404305 0 -21.056484401404305 114.10478098496969 0 0 0 0 -25.723560604761104 -7.1761944129036692 0 -7.1761944129036692 166.2725829692863 0 0 0 0 -36.44666069395862 28.200483533684746 0 28.200483533684746 167.00936920802769 0 0 0 0 -13.117220179550714 65.349109011280234 0 65.349109011280234 221.22545648783125 0 0 0 0 325.11864724405956 -351.4002397791046 0 -351.4002397791046 420.73781368653727 0 0 0 0 16.809617346479079 77.612397152331397 0 77.612397152331397 25.688286862193188 0 0 0 0 332.36846539813314 61.662638419827999 0 61.662638419827999 120.93097040183784 0 0 0 0 -57.209186841964311 50.30524385316312 0 50.30524385316312 259.61019731784472 0 0 0 0 -478.65225367128687 -55.314710651189671 0 -55.314710651189671 552.79433586451341 0 0 0 0 -0.37762627446283892 21.420468677671465 0 21.420468677671465 5.239044123692679 0 0 0 0 41.464953820464416 58.811688336696534 0 58.811688336696534 566.42828074075078 0 0 0 0 -305.71219981893455 -151.53125484940392 0 -151.53125484940392 1220.4133709984308 0 0 0 0 -40.306790434406992 -98.921569207479479 0 -98.921569207479479 739.2566915946154 0 0 0 0 -136.41357213969013 -459.56519231453785 0 -459.56519231453785 1165.9002813433217 0 0 0 0 -98.856081489715166 -44.423321142915484 0 -44.423321142915484 220.58051475180037 0 0 0 0 -8.9577927368000143 7.000713801193422 0 7.000713801193422 171.99293141346448 0 0 0 0 -1.3258982581705823 -51.247960400945885 0 -51.247960400945885 233.83585109576325 0 0 0 0 -25.830074384353566 -9.7788857948871737 0 -9.7788857948871737 175.57762452696807 0 0 0 0 224.68234364679813 -204.50852244979433 0 -204.50852244979433 714.62159787977726 0 0 0 0 -13.800637438193544 -16.329004768859967 0 -16.329004768859967 21.911874618650604 0 0 0 0 -150.13963249657968 -109.07796675834925 0 -109.07796675834925 1345.0175080902518 0 0 0 0 129.57522812190473 -216.56041756550076 0 -216.56041756550076 1103.6267345651058 0 0 0 0 -6.5420558137729641 -18.156173311151427 0 -18.156173311151427 -3.9566973172269786 0 0 0 0 38.264938077147235 28.410517303196684 0 28.410517303196684 259.60094307170402 0 0 0 0 -193.85630104619156 -172.85845686927496 0 -172.85845686927496 2151.413908066017 0 0 0 0 -148.95698463355728 -125.68441873713346 0 -125.68441873713346 1947.0563534907633 0 0 0 0 161.40601045131939 -443.49529940470893 0 -443.49529940470893 1442.3536305026555 0 0 0 0 -90.420128573074976 -241.68988998334953 0 -241.68988998334953 1794.4098017380165 0 0 0 0 259.31244748905931 -446.7247063438017 0 -446.7247063438017 1870.679424275404 0 0 0 0 -180.93623147800736 -477.71128087693069 0 -477.71128087693069 2703.696596634778 0 0 0 0 -176.19423888224264 -595.09189434822019 0 -595.09189434822019 3553.7235092102746 0 0 0 0 130.83968052007276 -435.11241999570848 0 -435.11241999570848 1166.1051359534722 0 0 0 0 190.61036606537209 -103.79905229291762 0 -103.79905229291762 1223.5644169151392 0 0 0 0 -161.89879021059954 -101.88140116940122 0 -101.88140116940122 1890.7103368927164 0 0 0 0 65.411119363117848 -395.76200959287053 0 -395.76200959287053 1415.8671447269699 0 0 0 0 61.029849639715167 -500.03283790917158 0 -500.03283790917158 1902.6237249810879 0 0 0 0 -120.72149389286869 -543.29346420573984 0 -543.29346420573984 2858.5355118435618 0 0 0 0 -400.51137316585539 -281.97678778748457 0 -281.97678778748457 3131.4963807044223 0 0 0 0 182.67546474383948 -523.62001435058482 0 -523.62001435058482 2802.4556918931266 0 0 0 0 -926.58674468104266 -261.70582902024034 0 -261.70582902024034 3502.5940458022669 0 0 0 0 -452.50009419834123 -858.73204604098146 0 -858.73204604098146 1999.3124381039233 0 0 0 0 -2.9544361850157088 -765.6516643064424 0 -765.6516643064424 614.26099147306013 0 0 0 0 -1.8148764991137352 -4.00008735494837 0 -4.00008735494837 7.6434559962654873 0 0 0 0 -307.00172463429703 741.37318754268927 0 741.37318754268927 4641.5178713927708 0 0 0 0 155.47857102357716 432.43183459468855 0 432.43183459468855 2684.0512966126698 0 0 0 0 -392.52099779355444 413.7266315093683 0 413.7266315093683 2979.5074887296105 0 0 0 0 -406.60950330502072 241.6494510016073 0 241.6494510016073 2004.8768095795713 0 0 0 0 157.16172457557261 1183.8685818680133 0 1183.8685818680133 3497.5662730065706 0 0 0 0 -2.8190973860915021 -8.322269961686338 0 -8.322269961686338 12.697314252431653 0 0 0 0 -205.01693552511671 122.78047700289426 0 122.78047700289426 2135.4801407563973 0 0 0 0 -112.54903999728583 11.480374409571596 0 11.480374409571596 2079.3887838984847 0 0 0 0 13.772357439786932 -19.032400522672205 0 -19.032400522672205 24.858843239091385 0 0 0 0 511.77353736033001 2009.8593916129394 0 2009.8593916129394 5061.855240817531 0 0 0 0 761.75927398049362 1438.5961685984767 0 1438.5961685984767 5771.9193938364915 0 0 0 0 990.8091683591548 1934.44564708494 0 1934.44564708494 2265.2825309790678 0 0 0 0 -467.23696052828041 282.08764365394745 0 282.08764365394745 3715.1452606671664 0 0 0 0 -408.83446686076991 72.216073395764397 0 72.216073395764397 4390.4713464953529 0 0 0 0 559.83337406359908 517.80822335502307 0 517.80822335502307 912.53504185227939 0 0 0 0 177.43846377228695 91.080898424326733 0 91.080898424326733 1014.1732180178406 0 0 0 0 38.216526822198148 -40.621432565637946 0 -40.621432565637946 70.032680288659179 0 0 0 0 -86.301829026796668 250.6991526570323 0 250.6991526570323 393.27755765063557 0 0 0 0 -164.97370585262684 -120.88888648327884 0 -120.88888648327884 1033.6248965607519 0 0 0 0 581.1605525625057 -521.59218301465808 0 -521.59218301465808 1034.5011345833675 0 0 0 0 240.24125691112522 -1192.4051182238854 0 -1192.4051182238854 2984.6493973581928 0 0 0 0 424.0784219361276 -761.16931977418062 0 -761.16931977418062 147.71505787099386 0 0 0 0 -672.58317195872587 -285.75987348624585 0 -285.75987348624585 5951.9139800901539 0 0 0 0 1513.8884789399963 1914.4964894282748 0 1914.4964894282748 1975.2456292703846 0 0 0 0 115.92075200309796 247.61994463803057 0 247.61994463803057 4180.2172668023122 0 0 0 0 1763.3604675457871 -221.30020334691335 0 -221.30020334691335 592.73730554546637 0 0 0 0 1101.0349800712368 -1222.3324764215613 0 -1222.3324764215613 3491.5107501130187 0 0 0 0 210.87987100139358 1306.8365807413611 0 1306.8365807413611 3498.0235283551956 0 0 0 0 7.5559182775321831 -5.3177388862673922 0 -5.3177388862673922 8.849240201999848 0 0 0 0 66.838934714969525 819.52545530527823 0 819.52545530527823 1852.9194636256434 0 0 0 0 -453.51948205986753 133.43951398066565 0 133.43951398066565 3499.1008434233372 0 0 0 0 162.74961139055068 -136.0457606379714 0 -136.0457606379714 1602.9146168671741 0 0 0 0 550.69845056350573 322.16842161570457 0 322.16842161570457 222.5719095216773 0 0 0 0 3.2558023657259341 -9.3805419021507106 0 -9.3805419021507106 17.359530873747829 0 0 0 0 3.8587698625123461 4.238295465819121 0 4.238295465819121 10.000948389493658 0 0 0 0 96.127758828394008 -122.16971313458998 0 -122.16971313458998 3025.8573706328607 0 0 0 0 14.620961453996671 -1106.7191542171713 0 -1106.7191542171713 8414.0455190050634 0 0 0 0 210.38668286094341 -441.26078637936007 0 -441.26078637936007 3656.0954734878251 0 0 0 0 1247.963298137206 -2872.8015381280275 0 -2872.8015381280275 6651.0885084834154 0 0 0 0 -1.0864292648423739 -0.91646850593149054 0 -0.91646850593149054 5.9172259197161594 0 0 0 0 -281.69411526105785 -673.97555778147944 0 -673.97555778147944 3214.3089084595485 0 0 0 0 1073.0717526549881 -1004.0573123089816 0 -1004.0573123089816 972.716017489347 0 0 0 0 0.28124685034678437 3.4662749912199473 0 3.4662749912199473 15.547576636918862 0 0 0 0 -48.66570446676738 117.98375481526273 0 117.98375481526273 1511.121027406858 0 0 0 0 -120.61913366066909 113.71339185410034 0 113.71339185410034 2064.5803187292186 0 0 0 0 -140.94356828614738 -559.52811051448953 0 -559.52811051448953 2258.5292472926667 0 0 0 0 -87.594298157518836 -549.21642471272753 0 -549.21642471272753 1567.4883282039809 0 0 0 0 -10.958182573231937 289.65206028839748 0 289.65206028839748 638.76967213750322 0 0 0 0 222.08578264782437 -1450.1863337138439 0 -1450.1863337138439 3497.1251146134236 0 0 0 0 0.38106227014977662 2.2014814811741559 0 2.2014814811741559 8.6884931965070109 0 0 0 0 -44.017459470241633 326.09207759625951 0 326.09207759625951 2208.7297783544345 0 0 0 0 -430.01092882865402 -179.03000953884839 0 -179.03000953884839 2308.9725770393998 0 0 0 0 -440.68630173990579 -91.419584172606847 0 -91.419584172606847 2955.8589742177355 0 0 0 0 -270.63282088779488 -675.08881606287105 0 -675.08881606287105 2035.2131716440344 0 0 0 0 -418.27256779453262 142.87721145877731 0 142.87721145877731 2497.2997241342455 0 0 0 0 -17.049405192638972 735.44091478085465 0 735.44091478085465 2698.0243261346623 0 0 0 0 -187.3077729410881 267.59120999450533 0 267.59120999450533 1920.5540733288872 0 0 0 0 -179.38790318873021 -63.351977623588027 0 -63.351977623588027 2302.1681281405799 0 0 0 0 -83.787745927144783 -72.378330007148179 0 -72.378330007148179 1295.7519060483537 0 0 0 0 125.56010061824114 555.24847965739173 0 555.24847965739173 1398.8543522400796 0 0 0 0 -164.89127639824056 205.36911824835352 0 205.36911824835352 1615.1669981881569 0 0 0 0 177.05731411553251 -221.57428022347813 0 -221.57428022347813 1825.1210131836742 0 0 0 0 74.006580345213365 46.715220003381546 0 46.715220003381546 1304.847676506557 0 0 0 0 -138.1666234980496 -15.076537723576621 0 -15.076537723576621 1898.2431414889897 0 0 0 0 -132.73937303104844 79.314033450249553 0 79.314033450249553 1927.270402594284 0 0 0 0 -185.40161036467975 -22.084053920952101 0 -22.084053920952101 2104.1654447019318 0 0 0 0 -251.73734131496539 -205.25953465867406 0 -205.25953465867406 2317.2828846146585 0 0 0 0 -418.68608578634502 141.2307015544593 0 141.2307015544593 3494.9036535106352 0 0 0 0 -188.58794553395708 -9.3459643994392536 0 -9.3459643994392536 2377.5095467452629 0 0 0 0 -255.74586895734143 -218.7431714782324 0 -218.7431714782324 2463.7412331607484 0 0 0 0 1286.1795294723843 -7.469426898220263 0 -7.469426898220263 3500.9429064415381 0 0 0 0 -716.54097177125345 -939.84611393000523 0 -939.84611393000523 4339.8862031823264 0 0 0 0 -264.80615735647757 -289.45796139205413 0 -289.45796139205413 2772.9584729185517 0 0 0 0 287.99821919097565 -2007.4497889865888 0 -2007.4497889865888 1363.8093445754275 0 0 0 0 685.97103833303743 892.24706249975861 0 892.24706249975861 3351.3387112946002 0 0 0 0 761.0839089355818 1441.0807840072266 0 1441.0807840072266 3398.5793605523286 0 0 0 0 1008.5140690969322 -33.291121691168883 0 -33.291121691168883 5390.3131298021981 0 0 0 0 0.89208347019290102 -4.2865642184235568 0 -4.2865642184235568 22.99578671927901 0 0 0 0 1010.8319356449809 1847.0368416450001 0 1847.0368416450001 2058.1434852170642 0 0 0 0 900.71865190032645 2471.9427965288123 0 2471.9427965288123 3985.8477864452252 0 0 0 0 3.4263101363175497 1.7177765586567801 0 1.7177765586567801 14.270838695314353 0 0 0 0 986.35816972184637 951.15364480707103 0 951.15364480707103 524.59266755275894 0 0 0 0 -1375.8733051814993 -687.36014053480176 0 -687.36014053480176 120.48168955638539 0 0 0 0 86.042403612901126 -299.14402919450004 0 -299.14402919450004 939.74863262948566 0 0 0 0 0.82911082395862623 -2.1657222087345858 0 -2.1657222087345858 52.183514353606284 0 0 0 0 -47.537116225470527 92.568365699793503 0 92.568365699793503 -418.78867078929034 0 0 0 0 -828.76794253613934 -381.38215051410953 0 -381.38215051410953 118.38176286400994 0 0 0 0 169.95779964498161 79.430038234801032 0 79.430038234801032 -139.16949264929281 0 0 0 0 219.56981781706509 -57.75020409055287 0 -57.75020409055287 971.05816676806717 0 0 0 0 434.33380444961131 -847.81415714957984 0 -847.81415714957984 1971.2447197022302 0 0 0 0 -970.83449574846418 69.425066898962541 0 69.425066898962541 847.76743815101509 0 0 0 0 275.43774411367616 -180.00494724187229 0 -180.00494724187229 -111.45280239986096 0 0 0 0 174.31640050014346 680.7781928781551 0 680.7781928781551 -22.065024146730138 0 0 0 0 -2.2268012809905713 363.62897264940693 0 363.62897264940693 1998.0489161448713 0 0 0 0 -67.697043562180625 75.460883541189105 0 75.460883541189105 -678.67619833686695 0 0 0 0 13.020720279619622 3.6495625082970236 0 3.6495625082970236 1.3601100299680891 0 0 0 0 202.49286316147641 309.51230886798658 0 309.51230886798658 -1101.6620100946384 0 0 0 0 -264.24429210972215 252.41023505714111 0 252.41023505714111 -839.09548012226878 0 0 0 0 -268.7015259374092 453.15204472107871 0 453.15204472107871 -817.64397952874424 0 0 0 0 10.720328684509457 19.212047125122446 0 19.212047125122446 27.496866249695017 0 0 0 0 -98.704280861079042 110.50791376686175 0 110.50791376686175 -138.8530333111994 0 0 0 0 364.16301956202187 677.93948901650037 0 677.93948901650037 -226.58620377832267 0 0 0 0 -234.28800472824855 350.29050756174183 0 350.29050756174183 208.19165419734782 0 0 0 0 -239.90850722333346 -173.26836659143737 0 -173.26836659143737 -304.96281774670933 0 0 0 0 -1334.011561696143 1119.0552181719031 0 1119.0552181719031 1320.348720463553 0 0 0 0 0.80044208044182774 0.59323139016284898 0 0.59323139016284898 36.70998303550806 0 0 0 0 7.233831667785152 14.568652617779804 0 14.568652617779804 42.415113548048254 0 0 0 0 13.936514066984728 6.0023493991793657 0 6.0023493991793657 -44.723797023281804 0 0 0 0 -107.88295524354817 252.88797818608145 0 252.88797818608145 -124.4315954426711 0 0 0 0 126.9807460202137 -17.776394851083751 0 -17.776394851083751 -43.268257635778355 0 0 0 0 402.522973950292 298.77553986418934 0 298.77553986418934 -161.95537317207345 0 0 0 0 -0.29860255268986147 -7.2749534285123616 0 -7.2749534285123616 30.416493989321907 0 0 0 0 -119.55336325387611 -192.0343488034996 0 -192.0343488034996 -77.822652690883842 0 0 0 0 -1179.2761828292453 -423.25822784590127 0 -423.25822784590127 305.29561097477563 0 0 0 0 -621.03836435365952 139.81947330172989 0 139.81947330172989 126.23034336633282 0 0 0 0 -0.12369374447398673 -2.6839699815877509 0 -2.6839699815877509 14.392643690033822 0 0 0 0 236.98076526068962 258.34984896107926 0 258.34984896107926 282.81549423976685 0 0 0 0 -249.53059287886026 417.37495615904118 0 417.37495615904118 1846.6682754463254 0 0 0 0 362.13828452223879 -311.82928649978567 0 -311.82928649978567 -63.898481102762162 0 0 0 0 -68.816805127873522 -337.88977862642423 0 -337.88977862642423 2250.0558357924165 0 0 0 0 -291.55877209204573 392.56335821106768 0 392.56335821106768 2679.0218535289605 0 0 0 0 692.87074005569957 899.91555477561633 0 899.91555477561633 2097.1487896640538 0 0 0 0 766.46753832701381 -354.43659066138935 0 -354.43659066138935 1768.8072459377217 0 0 0 0 -41.84287801141457 -116.7802975252016 0 -116.7802975252016 2209.9362809331506 0 0 0 0 1122.711653200332 738.7524559019439 0 738.7524559019439 78.644591367949033 0 0 0 0 300.24263535000046 1238.4662699707333 0 1238.4662699707333 1776.5069166696921 0 0 0 0 484.92326814889566 -503.24747992763878 0 -503.24747992763878 447.54941317721023 0 0 0 0 5.099688282789236 7.8228020321425831 0 7.8228020321425831 11.194562150533301 0 0 0 0 -273.16900786930546 335.7425052466715 0 335.7425052466715 2348.5398688099522 0 0 0 0 -0.70537021787731646 262.60187594421586 0 262.60187594421586 2351.7815433812102 0 0 0 0 817.26577602945508 -608.97187778454099 0 -608.97187778454099 544.72740092274034 0 0 0 0 -442.97117411645922 254.34987672106217 0 254.34987672106217 2361.8176966118335 0 0 0 0 -470.18954719367775 111.89031238193638 0 111.89031238193638 677.07302586586593 0 0 0 0 -509.57977336879139 29.090522104852425 0 29.090522104852425 1610.2381026301664 0 0 0 0 -196.50524173811209 539.63197349474649 0 539.63197349474649 641.34142132604393 0 0 0 0 -192.93844884110695 454.13119256832215 0 454.13119256832215 342.20674715386485 0 0 0 0 181.3624690368797 868.9197423709229 0 868.9197423709229 639.77045416856708 0 0 0 0 -338.10426779118279 -5.7374600306429784 0 -5.7374600306429784 721.73498066623142 0 0 0 0 -580.96242354467358 175.33438010552345 0 175.33438010552345 866.33527375282938 0 0 0 0 -588.70855853467447 129.18949200116185 0 129.18949200116185 933.30543559699436 0 0 0 0 -515.70317034701111 -230.84682204174896 0 -230.84682204174896 178.95465061328377 0 0 0 0 -111.38483442350116 434.52083465602482 0 434.52083465602482 313.93546030405196 0 0 0 0 1.9818661100842405 -3.4548664998218328 0 -3.4548664998218328 10.30404151581331 0 0 0 0 -105.14709095602439 -79.449688894279461 0 -79.449688894279461 65.749455739671248 0 0 0 0 -31.495938743748411 -41.691726492044836 0 -41.691726492044836 61.653981731722524 0 0 0 0 94.986821010959829 140.61901184721501 0 140.61901184721501 611.81845933479326 0 0 0 0 16.585846563065871 -24.40253799168724 0 -24.40253799168724 29.003819517885688 0 0 0 0 20.32852024114618 364.64324680611753 0 364.64324680611753 637.11641116691317 0 0 0 0 -123.11034397496405 522.15248594531295 0 522.15248594531295 411.92871706734149 0 0 0 0 69.454320064244257 116.01458955226281 0 116.01458955226281 983.6442519173288 0 0 0 0 -211.56644290112308 74.334835879410093 0 74.334835879410093 121.75834489532281 0 0 0 0 -16.891491989808856 105.91904285638157 0 105.91904285638157 115.89123761945302 0 0 0 0 -2.7184995650835333 1.4726063856235783 0 1.4726063856235783 -0.3302457389021356 0 0 0 0 26.280384401331958 287.24502953694991 0 287.24502953694991 381.38209681342414 0 0 0 0 -65.994802170560433 -150.07904320165107 0 -150.07904320165107 45.067861346997233 0 0 0 0 -50.555156465574328 276.42299460776121 0 276.42299460776121 447.9963880963187 0 0 0 0 -1.3999724164275946 18.318296659740668 0 18.318296659740668 20.894175297892559 0 0 0 0 55.580325147061778 14.945141152214205 0 14.945141152214205 13.916026826713107 0 0 0 0 22.231866820303367 105.56500438096191 0 105.56500438096191 0.8579580583536881 0 0 0 0 223.82824319744452 265.6363862436483 0 265.6363862436483 644.2161556973806 0 0 0 0 36.510110951535452 12.938658468350326 0 12.938658468350326 0.8766510051590668 0 0 0 0 146.19058265716376 350.90978741702202 0 350.90978741702202 -456.94128813488078 0 0 0 0 -194.71103154606681 300.81121693087334 0 300.81121693087334 11.868584107112838 0 0 0 0 -161.21350892266662 289.6602372476641 0 289.6602372476641 2.847806434649101 0 0 0 0 -372.38729306220404 622.1060778866522 0 622.1060778866522 3497.9060802682416 0 0 0 0 -283.93451536847431 624.61966086123357 0 624.61966086123357 2419.6098675356989 0 0 0 0 -150.26337880447812 27.969069689883327 0 27.969069689883327 2016.6198154598424 0 0 0 0 9.6959253544040962 -116.64167850984086 0 -116.64167850984086 930.60413573036931 0 0 0 0 -3.2434305053643109 -0.98786250110424589 0 -0.98786250110424589 7.1195515090365689 0 0 0 0 0.27595419580631103 120.24022813320626 0 120.24022813320626 2693.8683829962392 0 0 0 0 72.281224909049612 474.011430308218 0 474.011430308218 2058.9389008004218 0 0 0 0 87.075687790978577 646.69583979476374 0 646.69583979476374 1676.5806317549286 0 0 0 0 262.01606027951721 912.86228310623846 0 912.86228310623846 2352.9603079065273 0 0 0 0 -8.5884718320069329 -3.5069229199699805 0 -3.5069229199699805 13.172373918985784 0 0 0 0 -16.997708826787047 826.41947654508112 0 826.41947654508112 3501.6375390152789 0 0 0 0 210.69625046433629 1087.0303443874727 0 1087.0303443874727 2846.0305356044046 0 0 0 0 224.88759018870087 536.70938087678223 0 536.70938087678223 1597.0025806657577 0 0 0 0 397.35645528863688 778.46355994495752 0 778.46355994495752 1826.1832462633902 0 0 0 0 232.33284774311824 585.0297454880274 0 585.0297454880274 1342.4678862728979 0 0 0 0 135.46212889954256 619.17827544412285 0 619.17827544412285 1495.4834808210799 0 0 0 0 175.30530557017488 759.45532772020852 0 759.45532772020852 1443.7661469389714 0 0 0 0 158.86729659733942 773.18446409356693 0 773.18446409356693 1790.8956167765864 0 0 0 0 -9.1452490914051197 -2.9616742808744903 0 -2.9616742808744903 13.385223647864251 0 0 0 0 410.88134588731685 1017.3752985525389 0 1017.3752985525389 2833.813832138454 0 0 0 0 327.86909421936065 1319.4307348972611 0 1319.4307348972611 4121.5798982127599 0 0 0 0 -4.4671033460804566 -0.81481450345363271 0 -0.81481450345363271 8.0677152234218852 0 0 0 0 -485.28982485639602 218.6457036712236 0 218.6457036712236 1473.3739814984365 0 0 0 0 -332.97822030874124 694.34109392719984 0 694.34109392719984 2945.8054524804902 0 0 0 0 414.28107218725131 1729.5497118893691 0 1729.5497118893691 2142.3787479695457 0 0 0 0 8.8270745839176925 905.59357315051602 0 905.59357315051602 1206.153398390481 0 0 0 0 36.019244971826311 761.1058458424086 0 761.1058458424086 1675.2188409219889 0 0 0 0 36.12124103736403 980.60643016165704 0 980.60643016165704 1332.4350885934618 0 0 0 0 126.33136764430105 527.51071724115172 0 527.51071724115172 1035.6189652915891 0 0 0 0 254.03746604041373 695.09766719174695 0 695.09766719174695 658.03011216627056 0 0 0 0 -80.901440672066883 235.98659768689686 0 235.98659768689686 249.81088446216017 0 0 0 0 703.2105162929721 1083.1369637956814 0 1083.1369637956814 752.85301486145181 0 0 0 0 68.923756564465066 41.689947339058563 0 41.689947339058563 605.48262829860869 0 0 0 0 -112.40721754145565 281.08124229688656 0 281.08124229688656 300.13939756865148 0 0 0 0 282.42471399243902 49.488878474645389 0 49.488878474645389 890.25375346280634 0 0 0 0 298.44377564289056 132.71177580600761 0 132.71177580600761 549.31224587380711 0 0 0 0 317.93378990435622 -251.77031708623872 0 -251.77031708623872 577.27485560113564 0 0 0 0 270.0588633746608 -281.38713631392966 0 -281.38713631392966 1096.1608436420211 0 0 0 0 94.176920777035434 -151.54460991060478 0 -151.54460991060478 638.87006036650564 0 0 0 0 -12.781503852766718 -361.446679987479 0 -361.446679987479 227.62229968653992 0 0 0 0 196.02015274981079 -1014.9454908447588 0 -1014.9454908447588 273.84964268062322 0 0 0 0 173.99137070689949 -474.89699156056304 0 -474.89699156056304 -327.07575825717504 0 0 0 0 341.43269533805415 -1078.8307935413177 0 -1078.8307935413177 864.51637559745723 0 0 0 0 742.52906586307927 465.57224350757315 0 465.57224350757315 487.84466684932704 0 0 0 0 -422.8771843788179 -943.70483146626793 0 -943.70483146626793 2329.7326179291413 0 0 0 0 -76.871353646603211 -850.43207425283072 0 -850.43207425283072 -819.59925412981829 0 0 0 0 -410.13031299205795 -44.830070656807948 0 -44.830070656807948 566.76148700738122 0 0 0 0 -139.8364617358975 -289.61265324883061 0 -289.61265324883061 2197.9024416634202 0 0 0 0 -2.2824707575093575 -4.1784387989520724 0 -4.1784387989520724 3.7535869365395484 0 0 0 0 -35.244799675250761 -134.03677126475668 0 -134.03677126475668 1253.0776950650616 0 0 0 0 93.347387970677801 -11.507258493096742 0 -11.507258493096742 801.90030963394747 0 0 0 0 -322.05839231826576 -190.83365495379985 0 -190.83365495379985 -16.047011884063977 0 0 0 0 -7.6118297848509648 -7.5010657094900068 0 -7.5010657094900068 5.9592124834354649 0 0 0 0 14.251512259148512 136.16571606935395 0 136.16571606935395 401.07184520625742 0 0 0 0 -44.440247918973 -234.82509270508308 0 -234.82509270508308 646.04640953024136 0 0 0 0 169.00181884070832 161.22070170944789 0 161.22070170944789 1367.3684190776839 0 0 0 0 -148.13326930605444 -207.63705115065386 0 -207.63705115065386 1342.511708338192 0 0 0 0 64.683585151265788 59.884781863627722 0 59.884781863627722 1334.8017462465868 0 0 0 0 -7.8898126071039769 76.995750022440916 0 76.995750022440916 1914.7533032835199 0 0 0 0 758.39799211689638 1173.710093998794 0 1173.710093998794 2424.3883008560515 0 0 0 0 -154.31881660049157 263.98737790096493 0 263.98737790096493 2679.6582326065145 0 0 0 0 279.14858718497715 1547.2642650453199 0 1547.2642650453199 3685.1827644001169 0 0 0 0 -264.15175482676239 -202.17558608062973 0 -202.17558608062973 2992.0224508956599 0 0 0 0 364.21197767332131 828.5509731277707 0 828.5509731277707 2918.6946860346798 0 0 0 0 198.94729738740671 -100.59220973214906 0 -100.59220973214906 1195.9217236328404 0 0 0 0 -71.133718405909349 -270.09880804977729 0 -270.09880804977729 1770.6233457579056 0 0 0 0 130.32202653179093 380.70642523771676 0 380.70642523771676 1918.5836201283673 0 0 0 0 187.39855526126621 -14.629993050410121 0 -14.629993050410121 1014.155841509797 0 0 0 0 -43.075737422807833 -300.18734948223573 0 -300.18734948223573 891.4399667503676 0 0 0 0 259.93987400261722 -184.08217014807451 0 -184.08217014807451 327.28872577394941 0 0 0 0 219.49633406335033 -103.64664495304169 0 -103.64664495304169 -60.177080825873418 0 0 0 0 107.9968931755011 -138.65251728740986 0 -138.65251728740986 -67.509444105846342 0 0 0 0 -14.490428672327809 -2.2071562059330461 0 -2.2071562059330461 9.7734593804162131 0 0 0 0 -9.3275290996818967 -22.519189924554667 0 -22.519189924554667 359.48856447108847 0 0 0 0 -211.60378111787605 285.45636131572246 0 285.45636131572246 199.27272616719711 0 0 0 0 3.8710193109901891 10.761472814853306 0 10.761472814853306 21.832599087391088 0 0 0 0 -97.227332213467889 184.72738189094525 0 184.72738189094525 -198.90044697551639 0 0 0 0 -3.4469546339948094 7.2035811112898216 0 7.2035811112898216 18.890993697156603 0 0 0 0 93.577617468584322 -119.8055475276924 0 -119.8055475276924 -18.302368073447724 0 0 0 0 71.536065865101818 -237.75614085079724 0 -237.75614085079724 1163.422082245248 0 0 0 0 513.9222720888207 -132.66381248217658 0 -132.66381248217658 -157.35188863368239 0 0 0 0 246.83976638797097 -992.21594244780863 0 -992.21594244780863 1835.0729046772685 0 0 0 0 207.45827611558087 72.494495984225068 0 72.494495984225068 -15.255177820159588 0 0 0 0 -51.992955469110598 -18.932386370855966 0 -18.932386370855966 101.72155641690188 0 0 0 0 -3.4406933156439514 6.1129475017951336 0 6.1129475017951336 17.421821258802083 0 0 0 0 -1.9330514511344281 -0.30054440096296275 0 -0.30054440096296275 5.5689285783624314 0 0 0 0 -4.0171062178334633 -1.53660432966808 0 -1.53660432966808 12.620540634990903 0 0 0 0 195.40662149496816 796.39667402602208 0 796.39667402602208 2217.7776011662936 0 0 0 0 0.33238138833425662 0.77369906849278891 0 0.77369906849278891 1.6001978292752597 0 0 0 0 3.2242649187933913e-05 5.6112880614527967 0 5.6112880614527967 2.1872694566627615 0 0 0 0 302.46310961077029 -73.717996775500069 0 -73.717996775500069 2906.5429596916147 0 0 0 0 -0.44497587868442273 291.67661323637935 0 291.67661323637935 2466.3671213431662 0 0 0 0 0.87896686043053274 2.6812278273265804 0 2.6812278273265804 11.27868523039109 0 0 0 0 244.63098695637836 614.79002497869806 0 614.79002497869806 3382.7336825734819 0 0 0 0 -0.014535681912960681 51.516449280425149 0 51.516449280425149 248.33670234533929 0 0 0 0 -35.669542308968737 16.1375376684191 0 16.1375376684191 281.58567882020725 0 0 0 0 -0.067024122500977557 39.128576708193577 0 39.128576708193577 158.47388912019233 0 0 0 0 -19.892924464017657 6.7447820520683308 0 6.7447820520683308 186.47713244264014 0 0 0 0 -0.1519360558024288 -0.049858878672637275 0 -0.049858878672637275 -0.29408893752585641 0 0 0 0 3.8541389993630162 -17.770754141318321 0 -17.770754141318321 67.299174189152836 0 0 0 0 -0.0036474323668866096 6.5703705104939578 0 6.5703705104939578 21.912322588061215 0 0 0 0 1.4153573004913582 2.4393942160095321 0 2.4393942160095321 13.510428525354655 0 0 0 0 2.8638684189852945 9.9128567403968191 0 9.9128567403968191 17.533229857152946 0 0 0 0 2.8959709178510344 23.654322976759659 0 23.654322976759659 74.374861065254663 0 0 0 0 -8.0416970060488211 29.614054339665017 0 29.614054339665017 44.908116378021077 0 0 0 0 61.765050063912327 -11.833099674840923 0 -11.833099674840923 14.911872052798572 0 0 0 0 -2.1003260274648596 6.9498449767270358 0 6.9498449767270358 27.675374398910208 0 0 0 0 27.448626001897424 -15.335375620605191 0 -15.335375620605191 -0.28457996915676631 0 0 0 0 0.072674907797180888 1.9432330026772604 0 1.9432330026772604 4.4603986270051053 0 0 0 0 -4.7005205112300246 7.8723892346752109 0 7.8723892346752109 12.014054686180316 0 0 0 0 -1.5384900499436196 6.3415351064052601 0 6.3415351064052601 13.802873144621401 0 0 0 0 3.89335039655227 14.771977893953419 0 14.771977893953419 27.671159512670243 0 0 0 0 15.164853578540644 15.741596693919249 0 15.741596693919249 14.50490952487803 0 0 0 0 7.3563908161099789 1.9233060624173959 0 1.9233060624173959 -29.030172129219864 0 0 0 0 -99.605455011994763 42.317176733551605 0 42.317176733551605 44.099051962217345 0 0 0 0 9.0032168672619264 22.666320851960336 0 22.666320851960336 37.422702842319268 0 0 0 0 2.7045967492163223 5.9255833832657601 0 5.9255833832657601 9.9905000552777778 0 0 0 0 11.460682317482707 -12.347605348188154 0 -12.347605348188154 -38.963424069763278 0 0 0 0 11.826346798490704 -9.5137748462657328 0 -9.5137748462657328 -20.107449589268072 0 0 0 0 1.1952108345002217 1.7675320554545237 0 1.7675320554545237 4.0639425356911829 0 0 0 0 2.7155711623677803 151.89200811567571 0 151.89200811567571 465.3924731279385 0 0 0 0 76.249762195181347 -180.17083880212886 0 -180.17083880212886 296.95687049223488 0 0 0 0 -51.296899179688154 -35.897164459685882 0 -35.897164459685882 497.55414313507208 0 0 0 0 -18.629828572377619 6.1970866191768437 0 6.1970866191768437 210.6352576993977 0 0 0 0 2.1334925599017822 -46.916600020085752 0 -46.916600020085752 192.21650410226721 0 0 0 0 -54.131383042448576 31.677803376238444 0 31.677803376238444 591.01966777820053 0 0 0 0 -64.324401410148596 84.477940640339511 0 84.477940640339511 499.73854955127172 0 0 0 0 207.31846492110344 81.269524168346834 0 81.269524168346834 77.653731783211697 0 0 0 0 160.9974319912875 205.60820316978061 0 205.60820316978061 145.02804121597728 0 0 0 0 15.806766075949099 -43.542797734262422 0 -43.542797734262422 5.8531278276932426 0 0 0 0 67.133158883219835 140.09835567123082 0 140.09835567123082 149.65267906546569 0 0 0 0 -90.876646040826671 -8.831793535601264 0 -8.831793535601264 127.16596671528532 0 0 0 0 -256.40331290459972 214.58774053948582 0 214.58774053948582 -51.404106375921401 0 0 0 0 12.94891071042704 11.575206899014404 0 11.575206899014404 9.7434678855260017 0 0 0 0 191.51560587413661 184.17051517621439 0 184.17051517621439 -247.22161826606316 0 0 0 0 -258.17204236180658 137.08136230998889 0 137.08136230998889 217.3092206488509 0 0 0 0 -20.106981803747033 193.84574585245718 0 193.84574585245718 217.15021663560037 0 0 0 0 -46.493512054851976 319.12593626695707 0 319.12593626695707 613.42177780441125 0 0 0 0 567.48077702082355 473.59082496770134 0 473.59082496770134 135.29350228939438 0 0 0 0 270.61332275405232 386.29693163777847 0 386.29693163777847 109.64590798450809 0 0 0 0 503.26818068327179 366.68208851967211 0 366.68208851967211 -88.400684822394396 0 0 0 0 329.70087995599863 497.56590005045655 0 497.56590005045655 28.441064308732166 0 0 0 0 5.9401045109129837 4.5372556956079393 0 4.5372556956079393 3.4519725054375954 0 0 0 0 331.95610878692798 498.42940761154023 0 498.42940761154023 -288.45393915339537 0 0 0 0 -93.167043775701984 235.97562474181541 0 235.97562474181541 1360.4491645771341 0 0 0 0 359.35301243892229 638.60646362155239 0 638.60646362155239 232.79024846464745 0 0 0 0 -195.73694115743274 -368.79321184560104 0 -368.79321184560104 33.029986104753334 0 0 0 0 6.6800637003651318 -22.475510170664386 0 -22.475510170664386 56.424971488867442 0 0 0 0 -12.793640894575674 -113.03556390519952 0 -113.03556390519952 993.46673668202129 0 0 0 0 -242.92153636780279 28.757981294491401 0 28.757981294491401 210.33840474126919 0 0 0 0 -173.59295654018115 -79.477661547884054 0 -79.477661547884054 -52.357566361211866 0 0 0 0 67.051507913412891 166.46205589968304 0 166.46205589968304 469.54450355509471 0 0 0 0 9.4924824981040139 -27.039494751190304 0 -27.039494751190304 64.128195447729752 0 0 0 0 94.442141435133408 -89.436444663879229 0 -89.436444663879229 -192.65082558131689 0 0 0 0 -277.55643427441919 -137.5251720720662 0 -137.5251720720662 62.736041229596594 0 0 0 0 -115.67557051710992 18.866425928768876 0 18.866425928768876 88.192391752716503 0 0 0 0 -109.56585680472767 49.646751635731562 0 49.646751635731562 114.60901472858677 0 0 0 0 -62.155163435116265 77.434421957143059 0 77.434421957143059 96.679986664043099 0 0 0 0 -98.520727890071157 11.260284634992786 0 11.260284634992786 99.660171688112314 0 0 0 0 -76.367623985489217 21.768687117997615 0 21.768687117997615 132.61598626896739 0 0 0 0 -73.176495888684599 51.285228907334385 0 51.285228907334385 114.68137560147443 0 0 0 0 -68.104888255841615 28.996494749248086 0 28.996494749248086 150.3486832144481 0 0 0 0 -26.484884884655202 10.889968428476777 0 10.889968428476777 7.4318118978635468 0 0 0 0 -56.203710887501984 26.184845518953807 0 26.184845518953807 143.94739416733501 0 0 0 0 14.895241608551657 108.51234995771301 0 108.51234995771301 92.938440128404181 0 0 0 0 -32.053199642763559 30.502631757104609 0 30.502631757104609 123.57992089372419 0 0 0 0 -22.769815398827589 -47.026962939870884 0 -47.026962939870884 118.51713367746561 0 0 0 0 -27.150818978512355 20.510547070588501 0 20.510547070588501 17.722943726748575 0 0 0 0 -1.0826072582931374 -51.552320416551083 0 -51.552320416551083 219.57519535010215 0 0 0 0 -25.394610980145444 53.48153882061888 0 53.48153882061888 144.41795050776273 0 0 0 0 -4.7625239104194472 9.1567801670838698 0 9.1567801670838698 2.1441714262110736 0 0 0 0 -62.070299299995156 -46.709937689094431 0 -46.709937689094431 121.31667623022804 0 0 0 0 -112.16573698994125 -28.11167165349616 0 -28.11167165349616 119.00455431191222 0 0 0 0 -66.810927009293664 9.98633261185023 0 9.98633261185023 76.249911851171419 0 0 0 0 -55.368180531728285 35.844998869433766 0 35.844998869433766 106.55310491172713 0 0 0 0 5.7768669698812962 -25.728432797193548 0 -25.728432797193548 67.200992740424738 0 0 0 0 4.6924407183137262 -50.206129421982041 0 -50.206129421982041 78.514624109840952 0 0 0 0 -18.11159714745645 9.9805707996565616 0 9.9805707996565616 26.579231446456106 0 0 0 0 -6.7631453614952903 -0.04653506685157538 0 -0.04653506685157538 27.387205125571938 0 0 0 0 -12.254169316552634 16.485312337215873 0 16.485312337215873 29.570482287221239 0 0 0 0 -0.12473169428256681 -1.1332050804244602 0 -1.1332050804244602 15.978710211645229 0 0 0 0 14.450979689599876 19.495715436849423 0 19.495715436849423 51.621904920757515 0 0 0 0 -5.3960985549905729 -1.0773784730699845 0 -1.0773784730699845 60.180451097956393 0 0 0 0 49.783838851441544 24.486727003259148 0 24.486727003259148 48.119522785709705 0 0 0 0 13.856245974661931 31.934298663363734 0 31.934298663363734 119.80804114580678 0 0 0 0 84.405728348623597 47.010494326954358 0 47.010494326954358 109.25593592370569 0 0 0 0 143.47585143544697 141.50631956268626 0 141.50631956268626 204.84441261769098 0 0 0 0 90.700814961814388 -3.7075477817415958 0 -3.7075477817415958 50.546468774602545 0 0 0 0 89.689926342710493 131.27477104669379 0 131.27477104669379 209.46912804304156 0 0 0 0 207.57060909090103 75.298841305289898 0 75.298841305289898 248.18968170206062 0 0 0 0 123.08998584852259 -20.442948075833556 0 -20.442948075833556 495.48482576093375 0 0 0 0 125.32590220903097 189.3057154590424 0 189.3057154590424 329.77672604786494 0 0 0 0 -37.995044527353343 70.848997719698673 0 70.848997719698673 309.90396292685182 0 0 0 0 16.29409978477419 132.10636878884907 0 132.10636878884907 276.4400190567103 0 0 0 0 77.535071609741408 138.49431207150337 0 138.49431207150337 198.39337537190295 0 0 0 0 38.134198907809306 96.863456127692189 0 96.863456127692189 242.44975573035481 0 0 0 0 63.856117673289816 50.168724513525376 0 50.168724513525376 78.76039301106357 0 0 0 0 27.497980990427095 82.555623963267863 0 82.555623963267863 139.29059881939611 0 0 0 0 6.4362977637909751 19.678702011333371 0 19.678702011333371 84.502783328018268 0 0 0 0 6.9214616162795721 6.5062940355783212 0 6.5062940355783212 60.114656743215164 0 0 0 0 12.220728641420322 47.9311970783383 0 47.9311970783383 96.249874196932069 0 0 0 0 14.381916292320341 40.590598256785597 0 40.590598256785597 107.27985019359039 0 0 0 0 39.139357989702546 73.374462405336089 0 73.374462405336089 144.80620239915152 0 0 0 0 28.655293504774026 112.11032368497308 0 112.11032368497308 181.07440546038561 0 0 0 0 2.3828873099032961 61.570517252919672 0 61.570517252919672 155.44042164921848 0 0 0 0 24.597369138187211 69.816384924503836 0 69.816384924503836 122.70061997883022 0 0 0 0 -0.78694352855504235 83.353719554324925 0 83.353719554324925 176.13017214106367 0 0 0 0 -0.016034373642556263 72.785506752770743 0 72.785506752770743 191.81267338385078 0 0 0 0 -0.032647597354256278 69.877658931953192 0 69.877658931953192 254.28847587509517 0 0 0 0 -4.4690276648662319 95.878435295340751 0 95.878435295340751 219.06431548730325 0 0 0 0 -2.9437834393695255 88.005675634980435 0 88.005675634980435 222.48048541477328 0 0 0 0 -26.024759393453309 69.829371749648999 0 69.829371749648999 281.36961463936768 0 0 0 0 -28.551222372995678 61.241350383268582 0 61.241350383268582 252.22685572736373 0 0 0 0 32.785262234228867 129.89728858314629 0 129.89728858314629 235.76572756640962 0 0 0 0 -92.594565605123535 23.585556583584548 0 23.585556583584548 367.87643417803338 0 0 0 0 157.34988481874643 25.660031022460316 0 25.660031022460316 353.9485637524449 0 0 0 0 103.88833373719717 216.17592722467089 0 216.17592722467089 611.34961776250566 0 0 0 0 -1.3045307090741289 158.85246887551739 0 158.85246887551739 520.67498379381141 0 0 0 0 16.658244572317926 35.729236126506294 0 35.729236126506294 369.98332116410893 0 0 0 0 -24.595992573369585 191.1140134774032 0 191.1140134774032 879.72586481785402 0 0 0 0 84.649797777505228 84.261988783968263 0 84.261988783968263 575.80518207461137 0 0 0 0 150.56321370089063 -27.110486937861424 0 -27.110486937861424 525.61462858878804 0 0 0 0 32.811506898256994 -136.12832045039249 0 -136.12832045039249 188.43647998336382 0 0 0 0 22.086217836234937 104.63405126826547 0 104.63405126826547 438.26295970170031 0 0 0 0 81.619757113257947 -84.736172983844881 0 -84.736172983844881 285.63327316865616 0 0 0 0 60.081398678520088 -54.866463248395121 0 -54.866463248395121 -78.152204416073801 0 0 0 0 74.35564911102847 103.69630274509836 0 103.69630274509836 47.226452136314037 0 0 0 0 -32.053575946278215 -11.3636353179254 0 -11.3636353179254 -70.362586823161109 0 0 0 0 -32.461744992500826 67.312116373315803 0 67.312116373315803 -98.428624102169124 0 0 0 0 -30.580270719562556 -0.9686488865870615 0 -0.9686488865870615 44.136333777453672 0 0 0 0 -14.204069610630995 -45.410376006858314 0 -45.410376006858314 -78.037091653284733 0 0 0 0 -11.046834658576095 -3.6756672969143835 0 -3.6756672969143835 18.654850425402998 0 0 0 0 -520.86253842552776 55.192207109817957 0 55.192207109817957 742.9637491813628 0 0 0 0 11.763665486426362 54.184979818692227 0 54.184979818692227 142.7046020251546 0 0 0 0 1.4399549312152295 -10.835724262232802 0 -10.835724262232802 15.218166744454948 0 0 0 0 9.5804519159548462 -126.09661370498273 0 -126.09661370498273 -28.845453890702629 0 0 0 0 -141.53597660094601 -744.77047380948352 0 -744.77047380948352 -361.5683637793918 0 0 0 0 -244.93643620333984 -67.705339152657416 0 -67.705339152657416 276.67808456886996 0 0 0 0 280.45391461100519 44.577966571810975 0 44.577966571810975 -416.06636266870191 0 0 0 0 180.15432457808129 -351.06961543721263 0 -351.06961543721263 -570.58127596508712 0 0 0 0 632.85459900202477 566.25430456655158 0 566.25430456655158 476.56128322460427 0 0 0 0 618.10470794708431 159.77385121815814 0 159.77385121815814 166.4027799921605 0 0 0 0 0.80610207505608678 -4.2019197820592069 0 -4.2019197820592069 16.75244165770124 0 0 0 0 -100.44891963942337 -288.47423766301472 0 -288.47423766301472 213.07534241828398 0 0 0 0 -56.034964884185683 130.07478913446175 0 130.07478913446175 94.794652302080067 0 0 0 0 3.8841961616598448 -14.35268375773655 0 -14.35268375773655 40.001523207702121 0 0 0 0 -118.28389207741839 -7.6186919116371428 0 -7.6186919116371428 -180.29909950084402 0 0 0 0 436.2865745368008 282.16588519203651 0 282.16588519203651 95.823904581382521 0 0 0 0 -55.781613161842643 -115.10754048494891 0 -115.10754048494891 -397.56807303960522 0 0 0 0 -55.04840148853782 -167.05887435188924 0 -167.05887435188924 -122.44809275048101 0 0 0 0 -62.654362914711783 -402.10693775940308 0 -402.10693775940308 -366.46139923036117 0 0 0 0 1.8418686228703613 -3.8932365824791333 0 -3.8932365824791333 5.3153229349543096 0 0 0 0 -160.75378624623863 -215.230321896448 0 -215.230321896448 -136.74114344357804 0 0 0 0 -72.112749251849891 -459.74717606007471 0 -459.74717606007471 201.67306046595331 0 0 0 0 -52.878978111040851 -96.925826562383008 0 -96.925826562383008 233.04701337695587 0 0 0 0 3.7173889919797816 -10.169214829110942 0 -10.169214829110942 13.395404065761085 0 0 0 0 -184.04952409830639 -586.81728210605797 0 -586.81728210605797 -577.75421043773167 0 0 0 0 -268.77323120007713 -144.25459727973066 0 -144.25459727973066 -289.98759822222564 0 0 0 0 30.045699284734155 309.17436116803037 0 309.17436116803037 719.3696475202014 0 0 0 0 -42.571858932201394 -2.1576801705668913 0 -2.1576801705668913 596.38591171707958 0 0 0 0 -70.664279942364374 110.04626791892952 0 110.04626791892952 327.95313987883492 0 0 0 0 -22.329982655729509 52.105108973466486 0 52.105108973466486 397.26032091689558 0 0 0 0 -26.418499041787072 -108.66203283483628 0 -108.66203283483628 767.80302989264965 0 0 0 0 -98.704081677190516 204.19357720398693 0 204.19357720398693 397.38059068890288 0 0 0 0 -1.427137320503661 0.57173235296653502 0 0.57173235296653502 -0.69891764604182072 0 0 0 0 227.58203142272123 -136.71652887854725 0 -136.71652887854725 150.89770937412686 0 0 0 0 -22.143157721159696 3.0400426701417018 0 3.0400426701417018 62.284683108002355 0 0 0 0 -7.6810612336656661 0.87060944088531755 0 0.87060944088531755 4.7795064653292627 0 0 0 0 -204.4710340441693 -32.03814618512024 0 -32.03814618512024 607.90761933608155 0 0 0 0 52.325667428738598 198.0372634101077 0 198.0372634101077 273.38367605493113 0 0 0 0 308.56573134172731 -113.92349439113241 0 -113.92349439113241 250.20130498620711 0 0 0 0 -73.283030830818461 40.203715231917158 0 40.203715231917158 190.61685092713742 0 0 0 0 38.554516288841114 99.602175565796642 0 99.602175565796642 -4.8955942028842401 0 0 0 0 5.5663732411067031 132.04061475639173 0 132.04061475639173 107.44173255335772 0 0 0 0 -114.77709963734014 85.162491179376957 0 85.162491179376957 197.78069972422963 0 0 0 0 -22.238057284355818 38.949385822270415 0 38.949385822270415 99.772232983465074 0 0 0 0 -60.758832967950639 78.06757903219841 0 78.06757903219841 65.829194252379239 0 0 0 0 -21.118440827617178 34.859708940617566 0 34.859708940617566 34.778633519395953 0 0 0 0 32.472770616514026 15.168154033017345 0 15.168154033017345 95.712488719342218 0 0 0 0 -6.9618429880283657 -0.79124408280767966 0 -0.79124408280767966 113.91476767322456 0 0 0 0 -24.445363710071394 12.336844234867129 0 12.336844234867129 5.8831272742469451 0 0 0 0 -2.0742527012025676 51.829621009226685 0 51.829621009226685 28.575645478820661 0 0 0 0 -34.708513855372075 39.391830477536132 0 39.391830477536132 101.18240958209208 0 0 0 0 -33.209914181664317 35.067196854222857 0 35.067196854222857 100.22763417875467 0 0 0 0 -15.313963454427039 0.060990114834567066 0 0.060990114834567066 57.398336456841207 0 0 0 0 -9.340439028685978 20.743494354941504 0 20.743494354941504 117.35987962818763 0 0 0 0 -5.3311229431969691 3.7304511655202361 0 3.7304511655202361 -1.6029094090010858 0 0 0 0 -8.3189039765729831 -36.428753882937599 0 -36.428753882937599 98.331926857490544 0 0 0 0 -12.025473119774688 -13.616355591066167 0 -13.616355591066167 43.231613860363723 0 0 0 0 -23.096855291241809 -21.659196296823211 0 -21.659196296823211 69.866739379604041 0 0 0 0 -22.300456093691992 -21.979013226880852 0 -21.979013226880852 69.456448257114971 0 0 0 0 -11.677051467364436 -12.074924663502316 0 -12.074924663502316 59.50962416209768 0 0 0 0 -16.392174418165169 -6.0183775943929163 0 -6.0183775943929163 49.320068725207477 0 0 0 0 -35.194429216446224 -6.6547101907781325 0 -6.6547101907781325 60.980790208957842 0 0 0 0 -8.3504942943254719 -40.798251771268042 0 -40.798251771268042 61.704783865570789 0 0 0 0 -22.821918112274034 -11.775137559347058 0 -11.775137559347058 47.896613168879412 0 0 0 0 -23.570137674941179 -7.1575391112346551 0 -7.1575391112346551 75.989676682518621 0 0 0 0 -27.897783373485254 12.709145504290063 0 12.709145504290063 47.501899462918459 0 0 0 0 34.328361483577282 -48.491491927343304 0 -48.491491927343304 23.458475101986551 0 0 0 0 11.044348213999001 -22.079683478405059 0 -22.079683478405059 59.676371071960602 0 0 0 0 -14.711531693252287 -11.697032175149957 0 -11.697032175149957 39.431111152762469 0 0 0 0 13.705937887458276 -46.848586945263378 0 -46.848586945263378 27.515134845434659 0 0 0 0 25.014048280340603 -17.722262399921263 0 -17.722262399921263 11.086849488047093 0 0 0 0 -17.841787372746694 72.77086925407275 0 72.77086925407275 599.87919256745954 0 0 0 0 -4.5759624740840081 -19.966895979676337 0 -19.966895979676337 869.96346088462451 0 0 0 0 58.776884879229328 339.66995556732581 0 339.66995556732581 607.96084645380552 0 0 0 0 2.2373292739609081 -3.2389183683893634 0 -3.2389183683893634 4.2344875076023243 0 0 0 0 -115.400270765811 -42.748093123827857 0 -42.748093123827857 53.369963935358101 0 0 0 0 -45.424030479520297 -94.260232665874355 0 -94.260232665874355 -63.319737820034788 0 0 0 0 -10.661630831908042 -26.295974277265486 0 -26.295974277265486 24.873036388256878 0 0 0 0 15.669436563593869 -8.5914694762563073 0 -8.5914694762563073 4.8411191436562007 0 0 0 0 -22.503504947908368 -54.070162374599022 0 -54.070162374599022 29.197533092574304 0 0 0 0 -67.120485415394796 -25.244209110675001 0 -25.244209110675001 75.068461410010059 0 0 0 0 -36.488981896296536 -15.014415005556657 0 -15.014415005556657 50.346830380802203 0 0 0 0 -37.346009417980895 -5.4420440622998285 0 -5.4420440622998285 75.33041504699213 0 0 0 0 -20.398580014987601 -19.28870816478593 0 -19.28870816478593 74.888451472092129 0 0 0 0 -26.609334123824738 -23.802399072450498 0 -23.802399072450498 73.854065394360077 0 0 0 0 -25.082073798945203 -15.393310384642973 0 -15.393310384642973 68.406637602205592 0 0 0 0 -16.227941620955185 1.142412671107536 0 1.142412671107536 57.38561244819698 0 0 0 0 -49.753459492425463 6.369043355982285 0 6.369043355982285 92.562405300886894 0 0 0 0 14.88421991179348 -8.6373974031157559 0 -8.6373974031157559 76.072186345503724 0 0 0 0 2.0759591425667168 -4.4524176105624065 0 -4.4524176105624065 75.208478468157409 0 0 0 0 -24.819462103883779 -19.560993849972874 0 -19.560993849972874 91.431915222085081 0 0 0 0 2.481140464074997 -30.424008365473128 0 -30.424008365473128 95.313826216901361 0 0 0 0 -6.475102126259813 1.5269208825057916 0 1.5269208825057916 18.276637751639484 0 0 0 0 -2.461440468832734 -2.8467593873428996 0 -2.8467593873428996 81.391736663717893 0 0 0 0 -39.223882521215273 -9.9514222813231754 0 -9.9514222813231754 116.64459074604747 0 0 0 0 43.515978530744178 44.249361359601608 0 44.249361359601608 56.594676333610551 0 0 0 0 -12.178854789085563 0.059629756142385304 0 0.059629756142385304 100.05016364187759 0 0 0 0 -11.614360532508272 2.4271980084195093 0 2.4271980084195093 74.396663097169949 0 0 0 0 -7.9445750653026721 4.414430670220689 0 4.414430670220689 68.58393612996781 0 0 0 0 -3.8347583737286186 -3.3511986841003818 0 -3.3511986841003818 81.371673396337428 0 0 0 0 -2.4144033534876144 -5.94918788618088 0 -5.94918788618088 79.156533742308966 0 0 0 0 -6.3215516228954307 -21.424046869280723 0 -21.424046869280723 63.293032123466133 0 0 0 0 1.7387344361577561 -4.6737339717619761 0 -4.6737339717619761 79.529178240409237 0 0 0 0 82.031425584009412 -37.571432530501625 0 -37.571432530501625 125.73627133394621 0 0 0 0 -5.835975755012246 20.937325662053603 0 20.937325662053603 151.68498983663227 0 0 0 0 -61.175273484790523 93.845033109162614 0 93.845033109162614 310.19824824589887 0 0 0 0 -13.963690359609007 26.657234024864305 0 26.657234024864305 32.25176248376053 0 0 0 0 -28.653890706915263 38.281044363022374 0 38.281044363022374 170.83824662794359 0 0 0 0 -58.494529776400668 87.081775203128927 0 87.081775203128927 230.43710945380735 0 0 0 0 -59.518775130279209 7.7826638929545879 0 7.7826638929545879 112.35983337747894 0 0 0 0 -28.841974735659278 53.503410684770643 0 53.503410684770643 137.71193802094785 0 0 0 0 -10.554870697759085 2.5696116911325504 0 2.5696116911325504 38.102164474476638 0 0 0 0 -85.48302150600216 119.08276408566553 0 119.08276408566553 151.88695769164769 0 0 0 0 -103.7022245660562 24.35351420581901 0 24.35351420581901 184.79353956464911 0 0 0 0 20.631795672057706 16.483064977590402 0 16.483064977590402 176.72286515598535 0 0 0 0 -9.5342134538157026 -31.383446309534477 0 -31.383446309534477 165.44456181232891 0 0 0 0 -54.668186247186895 16.364074304306996 0 16.364074304306996 105.53691406353028 0 0 0 0 -92.502416030462882 30.482906661192828 0 30.482906661192828 170.58269613762968 0 0 0 0 79.355220216723865 191.65191268853232 0 191.65191268853232 24.910739194234338 0 0 0 0 26.667025668731071 -173.88967679488997 0 -173.88967679488997 549.01248428146937 0 0 0 0 2.4204295751633724 2.9995121186870932 0 2.9995121186870932 3.2907455496600164 0 0 0 0 -101.50954410370923 128.95969645925652 0 128.95969645925652 165.23032682041958 0 0 0 0 -38.600116340485329 263.6955646463939 0 263.6955646463939 442.48928044871718 0 0 0 0 14.884263706539059 81.481840073007334 0 81.481840073007334 110.55517625734501 0 0 0 0 -20.880066596641882 90.19456854937016 0 90.19456854937016 163.80369959336531 0 0 0 0 7.5847744093000529 50.981157102458383 0 50.981157102458383 52.707511587053887 0 0 0 0 7.8789694108136246 29.240888730200822 0 29.240888730200822 -41.546385903286136 0 0 0 0 -77.064247663217998 3.5246864224909586 0 3.5246864224909586 54.262872721374151 0 0 0 0 -19.902082100287316 18.837215248124267 0 18.837215248124267 43.90673246604274 0 0 0 0 -5.6071577857273951 1.6814240841413266 0 1.6814240841413266 58.653394901189131 0 0 0 0 1.1607732011034386 -14.018636059721757 0 -14.018636059721757 48.565242948567175 0 0 0 0 -20.063823216728451 -10.819967937030015 0 -10.819967937030015 94.940065564122051 0 0 0 0 -12.91378665444654 -16.914536291220429 0 -16.914536291220429 74.998654772352893 0 0 0 0 -10.961829256494017 -3.460895094508146 0 -3.460895094508146 15.638984208663587 0 0 0 0 -51.797485682263527 -10.240389387039613 0 -10.240389387039613 97.262470838839363 0 0 0 0 -21.4289911254535 -0.029306807094172882 0 -0.029306807094172882 -0.76354348278287887 0 0 0 0 -30.68204552135553 -0.62715511893736675 0 -0.62715511893736675 4.031976834394321 0 0 0 0 -77.736245880198339 39.840792398470512 0 39.840792398470512 49.228584463966399 0 0 0 0 -30.05227940829036 -10.675785822553735 0 -10.675785822553735 30.234255854258663 0 0 0 0 -19.184776459422139 5.1721862569829682 0 5.1721862569829682 39.092572109162575 0 0 0 0 0.13948632880439399 14.0205092688565 0 14.0205092688565 17.154050789743224 0 0 0 0 -11.923415233017067 -2.2566653569883783 0 -2.2566653569883783 33.319409275380167 0 0 0 0 -102.7393203624427 83.45112245832388 0 83.45112245832388 -4.9182985342049506 0 0 0 0 -35.032978976035622 10.027643315448586 0 10.027643315448586 63.839342212231713 0 0 0 0 -17.962769309410618 1.8174668468745949 0 1.8174668468745949 47.788246244046604 0 0 0 0 -13.247819722501731 10.222338777763071 0 10.222338777763071 33.87831146476492 0 0 0 0 -11.242831288933303 -23.375671686000715 0 -23.375671686000715 72.923887625489442 0 0 0 0 -9.6232028975107369 -6.220468372994219 0 -6.220468372994219 39.887760051682562 0 0 0 0 0.58265529530965088 1.1095797016246252 0 1.1095797016246252 1.3170289869717067 0 0 0 0 -59.779484037467569 37.076976818065305 0 37.076976818065305 -0.12445226310228463 0 0 0 0 -32.29172475136167 94.996760538742819 0 94.996760538742819 -68.034654928982491 0 0 0 0 -34.242122574927976 4.3302041371935047 0 4.3302041371935047 8.7927067522687139 0 0 0 0 -57.69674140984862 69.055151779149128 0 69.055151779149128 131.20648865755356 0 0 0 0 19.321239082102238 94.60724826878868 0 94.60724826878868 136.51708576102101 0 0 0 0 -48.119300572048132 43.639137022662908 0 43.639137022662908 130.14976152060262 0 0 0 0 5.0114587423597374 6.8283271384771496 0 6.8283271384771496 11.813280257454608 0 0 0 0 10.482367213483359 -35.900916834325471 0 -35.900916834325471 28.669368047303578 0 0 0 0 0.34069628204327973 1.2193092082815298 0 1.2193092082815298 1.8556218158857121 0 0 0 0 -22.006806524951031 15.096768751267518 0 15.096768751267518 23.335750659131008 0 0 0 0 -10.04376984232853 -88.067573418056782 0 -88.067573418056782 358.63564492315345 0 0 0 0 -75.707718670125701 30.188139683523332 0 30.188139683523332 146.2774764198839 0 0 0 0 0.46138352938386851 0.35917246713067641 0 0.35917246713067641 0.76696685938270548 0 0 0 0 -1.3879230221569969 70.33625088899862 0 70.33625088899862 -9.9531887431367068 0 0 0 0 -66.251703855614736 -190.46972975107929 0 -190.46972975107929 579.38181294132664 0 0 0 0 -89.018324769721062 77.938171372108627 0 77.938171372108627 540.34821803640807 0 0 0 0 60.870914096695287 54.367663316785183 0 54.367663316785183 256.08814593026182 0 0 0 0 -49.07637634208578 -1.7871483913477277 0 -1.7871483913477277 282.30090118333464 0 0 0 0 -180.80024478344569 66.740653510671109 0 66.740653510671109 370.52313362162477 0 0 0 0 -194.76433024801531 19.330788229119207 0 19.330788229119207 275.62919490147033 0 0 0 0 -185.01930652483009 39.175198973149236 0 39.175198973149236 289.87227730480117 0 0 0 0 -337.42210481252334 5.3198232840368291 0 5.3198232840368291 118.60091616242426 0 0 0 0 -141.37769312793893 102.46519446179082 0 102.46519446179082 165.67175558384042 0 0 0 0 43.513469454726419 41.451818441917567 0 41.451818441917567 19.414439801854314 0 0 0 0 -22.146760477584394 53.524012459340156 0 53.524012459340156 225.83302660698246 0 0 0 0 -8.761901801983413 166.97503059475275 0 166.97503059475275 358.7791558583267 0 0 0 0 -253.95405004640293 138.82901821018459 0 138.82901821018459 341.40784419617557 0 0 0 0 -51.47107589775112 124.21553544208291 0 124.21553544208291 310.90483809616126 0 0 0 0 -227.7784978140902 178.00781066941272 0 178.00781066941272 7.8650746336425073 0 0 0 0 -233.48350345544418 7.7156237489907653 0 7.7156237489907653 163.57036727134982 0 0 0 0 90.953308002707672 127.8816875112534 0 127.8816875112534 82.61927874655521 0 0 0 0 207.7814903486601 256.62457231146618 0 256.62457231146618 223.76878576699528 0 0 0 0 -0.24022739178799074 0.72353504658484269 0 0.72353504658484269 1.4810908479590807 0 0 0 0 -9.1027113647509452 32.609831064360151 0 32.609831064360151 100.79760215668648 0 0 0 0 -1.5053279779433524 1.4960524822411401 0 1.4960524822411401 3.8170137663323089 0 0 0 0 -35.613100534371554 69.724196731469419 0 69.724196731469419 -134.44999922494753 0 0 0 0 -160.19787871736582 -53.141870353552804 0 -53.141870353552804 2.590176482728566 0 0 0 0 -3.015554545275573 0.67656177864688516 0 0.67656177864688516 1.473955764266762 0 0 0 0 -3.0717371500911668 6.039221848375746 0 6.039221848375746 8.5564504990579735 0 0 0 0 9.8387019010469885 15.044636270991759 0 15.044636270991759 -8.0988159246771829 0 0 0 0 -1.9983193621955866 4.5216591862854969 0 4.5216591862854969 6.9944585936469821 0 0 0 0 -19.610699914156612 78.302382150461199 0 78.302382150461199 -71.403555520962982 0 0 0 0 -76.572193020564328 46.660598713966465 0 46.660598713966465 22.979682538178167 0 0 0 0 -163.14761740762117 156.79354200188391 0 156.79354200188391 -79.504161211712926 0 0 0 0 -46.486159473652265 41.560245382595895 0 41.560245382595895 -189.22494594976888 0 0 0 0 -257.66122912922441 50.091832361362322 0 50.091832361362322 47.778082273216569 0 0 0 0 -104.12086842415704 50.673118968878043 0 50.673118968878043 -80.350544504923164 0 0 0 0 -101.12112988252485 72.53662672804785 0 72.53662672804785 34.080366880079964 0 0 0 0 -116.22459546120535 16.173041224908957 0 16.173041224908957 -3.7465969283439335 0 0 0 0 -104.09086744986311 -42.178564490056488 0 -42.178564490056488 -76.739615068334388 0 0 0 0 -30.796638254965728 -108.54471611466579 0 -108.54471611466579 -100.06559252734587 0 0 0 0 -252.71328262850488 -107.64746325742453 0 -107.64746325742453 -63.486600676922535 0 0 0 0 202.5728294255041 128.68286392081063 0 128.68286392081063 258.49670270559727 0 0 0 0 -0.51177829413248332 -6.5660363400439792 0 -6.5660363400439792 27.327019935985675 0 0 0 0 117.13711943226917 67.302747351925063 0 67.302747351925063 103.92848349171982 0 0 0 0 186.62964293620144 184.06299471907187 0 184.06299471907187 270.74203034468519 0 0 0 0 81.850684752105735 100.72107508411136 0 100.72107508411136 122.24790439986464 0 0 0 0 29.147357314108376 87.386069610769482 0 87.386069610769482 143.92989839982329 0 0 0 0 109.72444073758652 91.560251361097471 0 91.560251361097471 124.71803682674363 0 0 0 0 -342.43677613536784 -261.44491673002631 0 -261.44491673002631 101.40596140648995 0 0 0 0 1.9686091393359568 -14.551166684943183 0 -14.551166684943183 39.582696643094579 0 0 0 0 57.661505504066895 39.411415954738459 0 39.411415954738459 107.11939017783152 0 0 0 0 97.224482909258313 51.014418741768168 0 51.014418741768168 94.475302416161867 0 0 0 0 58.263121431339641 49.368401614590766 0 49.368401614590766 67.336695044723456 0 0 0 0 61.713113660609451 60.706407370960733 0 60.706407370960733 95.544810436200351 0 0 0 0 6.0695490704289199 -7.4863454738419932 0 -7.4863454738419932 63.038114200778494 0 0 0 0 -64.654989398041835 -93.41237679580081 0 -93.41237679580081 -33.390043455336126 0 0 0 0 -290.05645816216929 -67.565997826735838 0 -67.565997826735838 182.18305229402176 0 0 0 0 -257.14245561685971 82.862155291431009 0 82.862155291431009 300.45496715960326 0 0 0 0 -35.685785004296577 -217.72608509101701 0 -217.72608509101701 423.24701768326463 0 0 0 0 304.79424111777666 104.91812880151701 0 104.91812880151701 156.81625474580505 0 0 0 0 39.237692651978705 120.63449508341728 0 120.63449508341728 597.59342248147914 0 0 0 0 91.147936826521175 -102.98124435931004 0 -102.98124435931004 26.270800786907785 0 0 0 0 24.64846857242469 122.71460434564506 0 122.71460434564506 259.957687881526 0 0 0 0 -45.717482420287524 -6.0969637008747668 0 -6.0969637008747668 -35.35735390818445 0 0 0 0 28.923251524128737 37.892260665081267 0 37.892260665081267 -18.95065511768189 0 0 0 0 -0.012256249662108063 30.463490545178502 0 30.463490545178502 62.381237291570869 0 0 0 0 1.7324518050392754 70.17126581053526 0 70.17126581053526 57.494459346402436 0 0 0 0 -10.008450754385507 43.513726586461416 0 43.513726586461416 -2.5854517852567369 0 0 0 0 -31.521766471546883 44.002425805960229 0 44.002425805960229 -0.13687887543346733 0 0 0 0 -5.1449579846878777 15.549173924002389 0 15.549173924002389 -30.140581310177367 0 0 0 0 0.13415293462566324 0.7145785766084316 0 0.7145785766084316 0.8078929519074336 0 0 0 0 -0.32415535385669414 57.248880151138678 0 57.248880151138678 -87.052524843267747 0 0 0 0 -87.408072066550631 -50.903592026574188 0 -50.903592026574188 225.22919920730419 0 0 0 0 -67.605643052318101 49.599031609446683 0 49.599031609446683 252.79121476594446 0 0 0 0 0.68818785822307016 67.0950623410844 0 67.0950623410844 159.13258680673607 0 0 0 0 -5.2111479546042432 22.839198150133598 0 22.839198150133598 105.68867727764882 0 0 0 0 -0.39304542272470888 0.23304947109176055 0 0.23304947109176055 0.15100225841434423 0 0 0 0 -7.4350401973413796 33.243222304954543 0 33.243222304954543 126.93094384339929 0 0 0 0 38.050487681146365 -55.49766705899674 0 -55.49766705899674 171.00722651979231 0 0 0 0 -2.5097536314606259 12.80855946709562 0 12.80855946709562 70.947752342341118 0 0 0 0 5.4123221708595111 -19.669425745814806 0 -19.669425745814806 87.735979585453606 0 0 0 0 -1.6281623842465822 0.34681473370432059 0 0.34681473370432059 -0.39568953959925324 0 0 0 0 9.3806685239563876 4.27803092465183 0 4.27803092465183 56.567038171255263 0 0 0 0 22.574896808357096 29.567452715316904 0 29.567452715316904 62.638110787971527 0 0 0 0 -8.3333841807763065 8.7709336885236553 0 8.7709336885236553 48.760056621496915 0 0 0 0 12.250819778986738 -10.371059012475598 0 -10.371059012475598 41.787187910333159 0 0 0 0 -3.8857904165560058 7.1059297077263182 0 7.1059297077263182 37.747339059365913 0 0 0 0 1.4711219835928659 13.937445444375044 0 13.937445444375044 46.045971323706908 0 0 0 0 -3.0493253800209459 2.6805876153084682 0 2.6805876153084682 53.889135664285277 0 0 0 0 1.0429938115387984 1.728893396677563 0 1.728893396677563 7.3477551099475988 0 0 0 0 1.1140100035454452 0.58315356737875845 0 0.58315356737875845 32.06060904894548 0 0 0 0 -20.589963764625622 56.73434777084185 0 56.73434777084185 -45.959350985198398 0 0 0 0 0.96339475453753953 1.7102533257829577 0 1.7102533257829577 0.64961321449487741 0 0 0 0 -28.525019400793042 31.512959912637598 0 31.512959912637598 6.7915567984455265 0 0 0 0 -29.631997572466645 27.049877275643667 0 27.049877275643667 17.958568920847028 0 0 0 0 -27.840566380453737 28.927804157359787 0 28.927804157359787 15.505001686047763 0 0 0 0 -29.481103181669255 28.015980683383532 0 28.015980683383532 16.398603309149621 0 0 0 0 -33.525639208646453 7.1812565290019847 0 7.1812565290019847 33.460006671179144 0 0 0 0 -126.60593474283633 -95.206348695719498 0 -95.206348695719498 -46.0069001850934 0 0 0 0 -2.6857068923037746 -1.3248941289065783 0 -1.3248941289065783 7.5151655686210859 0 0 0 0 -54.278815880667025 -14.464337706878723 0 -14.464337706878723 31.568216859501263 0 0 0 0 -22.167052920829974 -9.2090910601837095 0 -9.2090910601837095 32.12611310891225 0 0 0 0 -28.27659817095639 4.8040769095186988 0 4.8040769095186988 22.620804290039814 0 0 0 0 0.28628285736140013 2.2470169438866172 0 2.2470169438866172 26.844517707750526 0 0 0 0 20.181886730752012 0.25016621420945739 0 0.25016621420945739 17.296677983817062 0 0 0 0 -10.081589311819926 -13.006086636494729 0 -13.006086636494729 42.530245919027948 0 0 0 0 -0.48876918924435764 0.41939875243605407 0 0.41939875243605407 27.322165215938185 0 0 0 0 18.45917309494294 -1.7205559756816911 0 -1.7205559756816911 22.191571500297869 0 0 0 0 -29.394915095110491 4.8517867278133053 0 4.8517867278133053 33.414911138010211 0 0 0 0 -19.459349798675248 10.170650227664737 0 10.170650227664737 38.59794597196742 0 0 0 0 -28.021658138521161 8.9232435318845091 0 8.9232435318845091 44.653713183739455 0 0 0 0 -19.976801990128479 1.415683021346922 0 1.415683021346922 43.06906790821813 0 0 0 0 -3.7555982894064073 11.014064946502913 0 11.014064946502913 48.631962066052438 0 0 0 0 19.052110534021438 8.2246231720055221 0 8.2246231720055221 38.730051159247523 0 0 0 0 -13.466267611161129 16.732601499577868 0 16.732601499577868 40.031468039083848 0 0 0 0 -3.1299431727551177 1.8800278103664994 0 1.8800278103664994 5.4039484762530563 0 0 0 0 -2.4144772629193278 3.4426335409727642 0 3.4426335409727642 4.7952646480320027 0 0 0 0 0.59894084591633145 0.26790962112136185 0 0.26790962112136185 18.14862156403251 0 0 0 0 9.3216982084943538 13.549374670714315 0 13.549374670714315 34.699042467123945 0 0 0 0 -0.9544148683116771 -4.4434952864389317 0 -4.4434952864389317 24.902188274924015 0 0 0 0 5.1090113255634151 3.1370961346856348 0 3.1370961346856348 55.619726668228395 0 0 0 0 -0.44195047396048687 -4.5489136032524291 0 -4.5489136032524291 0.48823420900106385 0 0 0 0 -17.126717442549761 18.414250893089047 0 18.414250893089047 12.494502304951311 0 0 0 0 0.41318648826233861 1.6779970621483642 0 1.6779970621483642 9.0168164233590034 0 0 0 0 -13.984073585637816 4.5270005466591101 0 4.5270005466591101 52.678978212636139 0 0 0 0 -3.8283880293524817 12.425992324540857 0 12.425992324540857 25.913460866417154 0 0 0 0 -28.643899957702615 -20.095736846727959 0 -20.095736846727959 13.426099693766446 0 0 0 0 28.587314818358891 -5.5993996656798117 0 -5.5993996656798117 -27.469250787544297 0 0 0 0 -74.695434172402202 -9.8810209473303985 0 -9.8810209473303985 36.326941484876443 0 0 0 0 0.50320444459802438 -1.0829442718518827 0 -1.0829442718518827 11.852128253783178 0 0 0 0 -93.360967269400135 41.051225747032731 0 41.051225747032731 160.81728380132699 0 0 0 0 -6.2616679282309828 2.5784520432470757 0 2.5784520432470757 18.755928399611776 0 0 0 0 -101.51787585232842 84.336279780920449 0 84.336279780920449 -29.441957462287974 0 0 0 0 -61.401470041001176 8.3873860701351077 0 8.3873860701351077 50.952581761033798 0 0 0 0 26.988410401574129 -89.306132592791982 0 -89.306132592791982 111.19920179513383 0 0 0 0 0.72076411932552897 0.33596294874264743 0 0.33596294874264743 -0.0013643726165071257 0 0 0 0 -66.931918780736396 117.81224844488315 0 117.81224844488315 -91.767743110714946 0 0 0 0 -18.605213649707594 11.343912892021763 0 11.343912892021763 -66.989072468604718 0 0 0 0 -21.814298954668402 11.090784196287132 0 11.090784196287132 5.6775275241525378 0 0 0 0 -32.782633488222928 68.876345977638266 0 68.876345977638266 -111.09200237319601 0 0 0 0 -59.763265457969283 27.485631825824385 0 27.485631825824385 3.1467566511346377 0 0 0 0 18.038422902687216 42.206452926162456 0 42.206452926162456 -2.0860838764056098 0 0 0 0 -7.8228574812449096 9.4457525376055855 0 9.4457525376055855 58.588545304228319 0 0 0 0 31.170232042954922 9.954203247812984 0 9.954203247812984 3.5672516339764115 0 0 0 0 -0.15063819415939772 0.4179767312298921 0 0.4179767312298921 6.1505611123952804 0 0 0 0 27.922323141466677 -141.08673951687524 0 -141.08673951687524 -173.68755100941053 0 0 0 0 6.5756421954333746 -13.811575158775668 0 -13.811575158775668 43.966163939621765 0 0 0 0 41.255393366221142 -27.507398825793643 0 -27.507398825793643 7.4789934942964464 0 0 0 0 97.155778762740738 14.776188579940936 0 14.776188579940936 -21.545269035501406 0 0 0 0 41.100307100243249 30.390886469700234 0 30.390886469700234 51.590143769280985 0 0 0 0 96.957349213987982 88.825020576041425 0 88.825020576041425 80.883850889964378 0 0 0 0 -11.713715588732839 42.699501945206066 0 42.699501945206066 150.50253798360063 0 0 0 0 72.875656756328681 57.651397548848763 0 57.651397548848763 61.765160018822826 0 0 0 0 32.929552227950353 127.91050264111254 0 127.91050264111254 193.71626116575499 0 0 0 0 40.613568342413146 151.94264847874001 0 151.94264847874001 233.5046808193074 0 0 0 0 -16.855371416134631 117.61157214379364 0 117.61157214379364 256.68806858945754 0 0 0 0 44.709219715689642 151.26894760067444 0 151.26894760067444 232.40181879419833 0 0 0 0 154.19698215254084 126.32118350622477 0 126.32118350622477 48.99887097266037 0 0 0 0 296.82908309359118 219.84815988220726 0 219.84815988220726 148.17081075503665 0 0 0 0 0.066512755522881939 0.88484088027947649 0 0.88484088027947649 1.6872929657928921 0 0 0 0 143.55789889764674 67.920047729712678 0 67.920047729712678 9.3009725895099109 0 0 0 0 -19.931104429837838 -0.28113302216729608 0 -0.28113302216729608 245.99848185101291 0 0 0 0 90.674324130674677 256.39581735795582 0 256.39581735795582 370.95704581774771 0 0 0 0 -12.778423441574432 110.80299280711915 0 110.80299280711915 407.07344903131889 0 0 0 0 16.751944777362041 67.882787878610543 0 67.882787878610543 174.01864939747611 0 0 0 0 -0.10970503425164679 142.0953961608102 0 142.0953961608102 276.37638102078927 0 0 0 0 -4.0306481406655621 133.38574003313988 0 133.38574003313988 264.53368475855677 0 0 0 0 -0.19131418177187953 3.9729036956490233 0 3.9729036956490233 2.740766489279693 0 0 0 0 -8.8324700592550016 32.303801936712262 0 32.303801936712262 185.45816689188359 0 0 0 0 39.832193876013207 11.099839200061979 0 11.099839200061979 22.401060755379149 0 0 0 0 -48.804331348841743 109.49445859806474 0 109.49445859806474 -44.242793558136327 0 0 0 0 -2.9567387514488122 6.6058713859311524 0 6.6058713859311524 8.2885032927109989 0 0 0 0 -50.541537607026157 105.33230381896283 0 105.33230381896283 -47.844176112252171 0 0 0 0 -9.0138877956775474 44.158123506364063 0 44.158123506364063 2.3279929108102806 0 0 0 0 -37.143187973021554 251.47884730601436 0 251.47884730601436 4.8855900079652201 0 0 0 0 8.9491972918322062 143.36533659769339 0 143.36533659769339 -373.15405429634848 0 0 0 0 -9.8874027921202927 5.9404179268576911 0 5.9404179268576911 2.197800838862392 0 0 0 0 10.697736871399604 8.0362706783870976 0 8.0362706783870976 2.2487264256569119 0 0 0 0 22.387317516716394 72.172783732021344 0 72.172783732021344 127.32410656988941 0 0 0 0 248.6689132417041 -176.50194362881302 0 -176.50194362881302 -47.911058851615962 0 0 0 0 314.53387899769405 -52.43991520331474 0 -52.43991520331474 -93.854894560863613 0 0 0 0 5.2437316491096455 1.8993376028402906 0 1.8993376028402906 1.2473689475076526 0 0 0 0 296.54312271224308 180.716037566046 0 180.716037566046 137.36406368884491 0 0 0 0 570.60625747192989 35.070277965271089 0 35.070277965271089 -79.540289385360666 0 0 0 0 744.34160788664872 255.58415322574001 0 255.58415322574001 -977.2440556595684 0 0 0 0 -5.153603676746684 66.306294488545973 0 66.306294488545973 108.60558147463598 0 0 0 0 -3.4561615221216324 0.75220076891750409 0 0.75220076891750409 -0.45424492992052024 0 0 0 0 200.47972896872307 103.62399673243635 0 103.62399673243635 -1128.7154221137098 0 0 0 0 -313.36771518510636 67.130144973038114 0 67.130144973038114 170.49848289419606 0 0 0 0 0.55354276783949652 2.7927914903153246 0 2.7927914903153246 8.3224121932024673 0 0 0 0 -96.861071782458112 25.974640449101571 0 25.974640449101571 151.07339590224728 0 0 0 0 -92.540617449341028 -12.341216072274619 0 -12.341216072274619 -51.302850985899568 0 0 0 0 -59.496621959401864 68.897318320217892 0 68.897318320217892 -65.561017305231871 0 0 0 0 -88.613505813018151 32.411531964033202 0 32.411531964033202 21.372469715948682 0 0 0 0 224.13877316079379 180.64667505754005 0 180.64667505754005 1272.1276550104376 0 0 0 0 0.65914903763349542 5.6040321664196036 0 5.6040321664196036 23.478019456552317 0 0 0 0 -123.60883634815559 69.206349265477911 0 69.206349265477911 3.5822609413298778 0 0 0 0 -18.691092991435418 89.15158138370191 0 89.15158138370191 1032.3989390094357 0 0 0 0 54.058699253143459 711.400035769635 0 711.400035769635 591.54437655329821 0 0 0 0 102.12983658808025 232.86622926431301 0 232.86622926431301 283.15978629369056 0 0 0 0 377.83265984507716 648.31171998339414 0 648.31171998339414 -44.542897029488813 0 0 0 0 69.37378780074323 110.28538074303651 0 110.28538074303651 -25.648832786304411 0 0 0 0 -58.345745361515583 -210.95353102206718 0 -210.95353102206718 -305.42619196724263 0 0 0 0 52.902045339269534 67.963156177967903 0 67.963156177967903 -87.355266284866957 0 0 0 0 265.95998087995781 61.20168517118509 0 61.20168517118509 -634.52726143956534 0 0 0 0 -44.452190762201099 -77.655420788447373 0 -77.655420788447373 -73.404001674498431 0 0 0 0 -203.02586216851842 8.2019238564316765 0 8.2019238564316765 347.09232919332862 0 0 0 0 54.8955614603301 21.608619914972223 0 21.608619914972223 4.5020945539581589 0 0 0 0 -0.037988275381044878 5.264786479686121 0 5.264786479686121 31.534145121062977 0 0 0 0 -21.081823154057531 19.139982082164352 0 19.139982082164352 15.549863446882227 0 0 0 0 -195.59887883236206 -154.59450047763312 0 -154.59450047763312 -67.632622625067597 0 0 0 0 -43.791031249287926 18.692311862505449 0 18.692311862505449 25.109787375375163 0 0 0 0 -54.058098345160374 37.36262429105409 0 37.36262429105409 18.277317798929289 0 0 0 0 -32.540850775298964 28.03652407489426 0 28.03652407489426 21.829425446747337 0 0 0 0 -36.716760402277828 34.238679588717787 0 34.238679588717787 14.96675244832295 0 0 0 0 -29.720180268436707 29.791444870075793 0 29.791444870075793 23.785720385072636 0 0 0 0 -33.075628084336927 36.357897900408716 0 36.357897900408716 15.610539644607343 0 0 0 0 -31.237735928043719 35.788801562710432 0 35.788801562710432 9.8409895543882158 0 0 0 0 -18.343458333960484 27.514551204119925 0 27.514551204119925 -6.7916366856661625 0 0 0 0 -14.167081630116286 19.247263146971818 0 19.247263146971818 8.660894614928111 0 0 0 0 3.5820750915513599 20.98474826059828 0 20.98474826059828 -5.2994987947931804 0 0 0 0 -24.343993891775426 38.359041988856916 0 38.359041988856916 -1.6995500153243484 0 0 0 0 -12.317295988284286 43.16297276194382 0 43.16297276194382 -21.415203699754784 0 0 0 0 -31.559851526134423 43.78712379380886 0 43.78712379380886 -3.5595078385958914 0 0 0 0 -22.358197018786427 29.426075878262054 0 29.426075878262054 12.831346248756745 0 0 0 0 -42.15708715413848 64.703299416993104 0 64.703299416993104 -24.338924453099025 0 0 0 0 -53.678349233507049 45.801773895134829 0 45.801773895134829 -10.013728040532442 0 0 0 0 23.442815545791404 29.665775401692372 0 29.665775401692372 -24.36203002979164 0 0 0 0 -3.9579542144884243 31.600341975503397 0 31.600341975503397 4.3376945386989973 0 0 0 0 -0.023904595287149277 47.673328700548154 0 47.673328700548154 -43.490142831637058 0 0 0 0 -77.665086765990452 31.529058439129585 0 31.529058439129585 37.255222349602263 0 0 0 0 35.305748630551761 35.135687118534406 0 35.135687118534406 1.109552067835466 0 0 0 0 -7.6460718611880338 19.465324398421217 0 19.465324398421217 68.441225375048816 0 0 0 0 6.0995033334284017 63.676400308700977 0 63.676400308700977 47.502896828620578 0 0 0 0 44.208239400583579 23.985348262620391 0 23.985348262620391 51.56647279364006 0 0 0 0 21.81068279714998 18.511035126095521 0 18.511035126095521 51.176850263012966 0 0 0 0 48.415003103882256 29.664486894729635 0 29.664486894729635 0.58539462910266593 0 0 0 0 8.6170367429144932 18.540351944526265 0 18.540351944526265 -16.714363566541579 0 0 0 0 16.323778794686064 10.49047308533045 0 10.49047308533045 -9.1317299560250831 0 0 0 0 12.119707836041023 3.1721261894126656 0 3.1721261894126656 -14.354692423774395 0 0 0 0 -38.794375699272045 -3.2173770385961689 0 -3.2173770385961689 13.626049097743817 0 0 0 0 -7.5658576018321533 6.9630564710369072 0 6.9630564710369072 -9.5251917714776937 0 0 0 0 -4.614045431647753 -5.0180324030370684 0 -5.0180324030370684 -7.3915324693080038 0 0 0 0 43.07931048732997 -6.1884066532511497 0 -6.1884066532511497 -10.065114005235955 0 0 0 0 -1.7578007505085935 -31.199503358198854 0 -31.199503358198854 7.3899677405424882 0 0 0 0 0.072310288790927005 45.721077436392079 0 45.721077436392079 -2.7730937017477117 0 0 0 0 -41.03598416377821 18.676601193634269 0 18.676601193634269 -0.91068730942788534 0 0 0 0 -0.048897888075962459 0.15215247785605435 0 0.15215247785605435 1.8931968322238504 0 0 0 0 0.012163819660480302 9.5333759793138597 0 9.5333759793138597 -0.40773201029514894 0 0 0 0 -0.017545339705978453 0.0064622823785320804 0 0.0064622823785320804 0.72250839762523356 0 0 0 0 -5.9632192618008446 -2.2916910036219633 0 -2.2916910036219633 -13.010836023520824 0 0 0 0 -16.431699661188681 10.309049257839433 0 10.309049257839433 15.7465316572343 0 0 0 0 -4.6977770586639451 3.8172346648789244 0 3.8172346648789244 -4.5257972223771503 0 0 0 0 -17.874457399090961 -7.0270072847633855 0 -7.0270072847633855 21.84059132366383 0 0 0 0 -33.33684982570793 32.524438694083074 0 32.524438694083074 54.13640285274596 0 0 0 0 -27.657947799915206 12.905674211622681 0 12.905674211622681 18.840015639114426 0 0 0 0 -27.792125322231978 11.772080652260684 0 11.772080652260684 70.559093156916788 0 0 0 0 20.165358377164328 40.643110166900442 0 40.643110166900442 47.555435863789171 0 0 0 0 32.848651200670275 -50.844165353104472 0 -50.844165353104472 601.55508059087151 0 0 0 0 88.398678586741966 -22.933970484951715 0 -22.933970484951715 477.76050331405713 0 0 0 0 58.742608930961282 0.22288352641135134 0 0.22288352641135134 481.01286387175787 0 0 0 0 0.094318877781376945 10.819427234444447 0 10.819427234444447 516.48543412762956 0 0 0 0 -0.092511688033944536 49.700191317901584 0 49.700191317901584 397.70812108447717 0 0 0 0 63.159863996058704 -8.3181956298431032 0 -8.3181956298431032 428.78456838427519 0 0 0 0 -5.5826436919376903 -84.377234537536424 0 -84.377234537536424 92.706530288320209 0 0 0 0 56.148993016408639 138.32711830729568 0 138.32711830729568 223.12589203326206 0 0 0 0 0.025754068932558653 0.084230921077349308 0 0.084230921077349308 1.1810251114034145 0 0 0 0 65.798255949818355 18.964995092028403 0 18.964995092028403 5.3105459054931998 0 0 0 0 96.536683165131166 -7.364576909923926 0 -7.364576909923926 398.32165903805071 0 0 0 0 -1.1522502313539462 7.1131887181836646 0 7.1131887181836646 411.41246362450693 0 0 0 0 51.686993944662845 97.53136399035975 0 97.53136399035975 328.44987694143492 0 0 0 0 76.776829640235519 119.85184549779797 0 119.85184549779797 192.81548405872309 0 0 0 0 14.289017570631927 22.354880426173622 0 22.354880426173622 260.2277165592277 0 0 0 0 -16.532876229874319 44.921187435829779 0 44.921187435829779 224.99093789332255 0 0 0 0 22.127821662847623 120.68848998131216 0 120.68848998131216 221.91510065257899 0 0 0 0 49.886847465569986 83.871239981104736 0 83.871239981104736 119.37262346138596 0 0 0 0 79.03610576384051 92.096191298005579 0 92.096191298005579 243.0814860638493 0 0 0 0 97.467036291439399 34.020708178999485 0 34.020708178999485 362.68235327884759 0 0 0 0 22.180328298863515 140.18621427188918 0 140.18621427188918 331.76698849667446 0 0 0 0 67.696003850617274 65.232898136811855 0 65.232898136811855 391.46230994141661 0 0 0 0 90.571042920577895 3.1630662688767188 0 3.1630662688767188 466.2718984264211 0 0 0 0 164.80075552741016 45.22911000624299 0 45.22911000624299 385.98749532700822 0 0 0 0 59.610997111586499 55.844241235980007 0 55.844241235980007 423.91737122475752 0 0 0 0 81.630424831071252 -52.838195704316604 0 -52.838195704316604 592.67130711095524 0 0 0 0 165.70712929243285 4.8599733030205243 0 4.8599733030205243 460.2513335175754 0 0 0 0 141.42150514764239 -33.448464907090965 0 -33.448464907090965 556.19125782270567 0 0 0 0 121.73135826231533 54.13169946000562 0 54.13169946000562 432.92064696608577 0 0 0 0 229.01812825327806 50.901715195366705 0 50.901715195366705 420.51344737212639 0 0 0 0 139.73290929156929 67.002142486642697 0 67.002142486642697 366.2622708841518 0 0 0 0 27.716576242117526 89.369853430216608 0 89.369853430216608 441.31548884529911 0 0 0 0 117.96452246929994 97.011403663855162 0 97.011403663855162 363.25783460282855 0 0 0 0 16.379765207420405 47.839343443054531 0 47.839343443054531 351.95434050053882 0 0 0 0 132.86433525331654 68.731238555294112 0 68.731238555294112 368.27422378453048 0 0 0 0 132.12795019628271 93.998899693437124 0 93.998899693437124 395.09663814280066 0 0 0 0 176.20879414277215 114.95897974034597 0 114.95897974034597 326.3512476232936 0 0 0 0 120.32204159328069 110.33547396731956 0 110.33547396731956 330.22643467804301 0 0 0 0 141.85205336655974 64.079971549836046 0 64.079971549836046 280.91431769401242 0 0 0 0 17.095686612000463 85.941427850731998 0 85.941427850731998 277.81169724096253 0 0 0 0 168.6646170543504 260.31624181516236 0 260.31624181516236 232.08690953877522 0 0 0 0 -98.03311642153767 223.50204688915983 0 223.50204688915983 227.44174643224687 0 0 0 0 -165.49570049503802 177.16785909867031 0 177.16785909867031 311.65148509024584 0 0 0 0 323.78541821268971 1001.7920624682483 0 1001.7920624682483 333.20751440589083 0 0 0 0 32.847315955763406 -131.37296416233585 0 -131.37296416233585 690.20621877430676 0 0 0 0 552.37839112094457 15.159099016949767 0 15.159099016949767 264.03427849449508 0 0 0 0 130.28437926135825 46.189580255319015 0 46.189580255319015 351.15579619060736 0 0 0 0 3.1450154343126542 -42.082857323621283 0 -42.082857323621283 340.53321356717788 0 0 0 0 -146.6470926833083 27.049373792990082 0 27.049373792990082 432.27079496186343 0 0 0 0 -75.154947445094564 184.90366123675494 0 184.90366123675494 30.810592599445954 0 0 0 0 -67.428372829165255 109.0826291418125 0 109.0826291418125 90.015601038569002 0 0 0 0 -95.618169500940439 40.347888308293477 0 40.347888308293477 223.15755708757206 0 0 0 0 -88.387241304965045 105.20297488615506 0 105.20297488615506 31.581854944146471 0 0 0 0 -128.72438603977162 7.7148973679577466 0 7.7148973679577466 201.23225328616536 0 0 0 0 -215.86890966320652 -61.039729532742058 0 -61.039729532742058 629.44919098888931 0 0 0 0 -168.72435859545192 193.26756207480503 0 193.26756207480503 716.56501907690836 0 0 0 0 -176.49691263289333 145.47862251878541 0 145.47862251878541 429.52755609781889 0 0 0 0 1.3759567153676358 81.008616233670182 0 81.008616233670182 451.78393561016128 0 0 0 0 39.611085694286089 128.0663167935636 0 128.0663167935636 331.10628785837616 0 0 0 0 -465.81604568160856 36.528425668700947 0 36.528425668700947 333.64537038009212 0 0 0 0 92.130219193565608 230.66694226835534 0 230.66694226835534 324.68091092161194 0 0 0 0 -92.939293460834961 149.33519023724693 0 149.33519023724693 -27.595742857272853 0 0 0 0 1.6382267340291037 96.353365637598472 0 96.353365637598472 550.45089617546182 0 0 0 0 -53.252332832033517 13.355680080210732 0 13.355680080210732 428.33613882149075 0 0 0 0 -193.35931372459004 -186.72558174849837 0 -186.72558174849837 951.18995163970976 0 0 0 0 -203.38055110909227 -249.6594631903281 0 -249.6594631903281 604.76078396185039 0 0 0 0 -367.1059422891326 -573.61587528987002 0 -573.61587528987002 224.0364282575465 0 0 0 0 -490.92047557164506 -244.86994335350391 0 -244.86994335350391 979.72030495785293 0 0 0 0 -224.14375367476396 -158.77844222597196 0 -158.77844222597196 861.172401423064 0 0 0 0 -220.77257004557669 -115.08308568577922 0 -115.08308568577922 993.25002749775012 0 0 0 0 -213.08360169821475 -194.60475774885072 0 -194.60475774885072 708.70512119338673 0 0 0 0 -49.216996881886416 -353.96808325091115 0 -353.96808325091115 858.91962898563725 0 0 0 0 90.304766935515119 -255.05798561912525 0 -255.05798561912525 591.87501864005753 0 0 0 0 -106.62259338157571 484.65376501272476 0 484.65376501272476 134.28286354984448 0 0 0 0 0.05117155507189633 2.2925530003739283 0 2.2925530003739283 7.6314212579910645 0 0 0 0 227.13779721155873 143.026750221361 0 143.026750221361 1112.58146945302 0 0 0 0 251.5880063298487 -655.72792683959415 0 -655.72792683959415 1516.5375604447036 0 0 0 0 207.65785485965534 -75.506677731144009 0 -75.506677731144009 721.05513235583203 0 0 0 0 85.929409296817994 -77.845083623426035 0 -77.845083623426035 818.22679305188649 0 0 0 0 84.487769128386844 -53.611570550703618 0 -53.611570550703618 484.10147699723893 0 0 0 0 137.68586204125609 54.047024399900693 0 54.047024399900693 408.00449949476388 0 0 0 0 117.50902318662747 46.156354218830529 0 46.156354218830529 535.6752782863332 0 0 0 0 303.06145974966864 33.002213029365521 0 33.002213029365521 508.71939532378747 0 0 0 0 265.96289854817417 -35.747678986430401 0 -35.747678986430401 546.02404739122721 0 0 0 0 140.62737831216913 -114.89000391738227 0 -114.89000391738227 744.55384938343195 0 0 0 0 126.80212159810836 -62.204793520722887 0 -62.204793520722887 588.88358352931027 0 0 0 0 134.23197544755169 -64.378717114996107 0 -64.378717114996107 756.62433748111289 0 0 0 0 76.594950742205427 -113.16101473801427 0 -113.16101473801427 851.11574890963675 0 0 0 0 494.85143342475612 -33.569745531924127 0 -33.569745531924127 726.87872989533935 0 0 0 0 260.16710077035373 -252.84813255356494 0 -252.84813255356494 1038.6262831401837 0 0 0 0 -83.118394589900674 196.08176801434456 0 196.08176801434456 1281.437497324092 0 0 0 0 97.923345592405468 178.30839950524387 0 178.30839950524387 658.2673197857639 0 0 0 0 132.98382014184909 -114.60426680650562 0 -114.60426680650562 555.79886085944599 0 0 0 0 199.24524659871426 29.994429094072984 0 29.994429094072984 870.01831247906375 0 0 0 0 77.034543260213525 234.68132188853633 0 234.68132188853633 780.44681596246664 0 0 0 0 5.3368871303333876 -82.922378541719809 0 -82.922378541719809 910.16427837114315 0 0 0 0 -0.20472351964904351 -36.002973488080897 0 -36.002973488080897 633.83312596874021 0 0 0 0 -27.599350598125337 32.581331390532796 0 32.581331390532796 722.13021785939054 0 0 0 0 -0.023311963968907966 -53.652823127486045 0 -53.652823127486045 826.54276100989227 0 0 0 0 30.677973975896535 -86.378433146819589 0 -86.378433146819589 760.7763670765853 0 0 0 0 42.948742691408576 -48.146262161542836 0 -48.146262161542836 754.51224516265211 0 0 0 0 52.340770520924551 -85.234849579301226 0 -85.234849579301226 733.74958636186784 0 0 0 0 52.172614726195391 -48.647486487214337 0 -48.647486487214337 601.63518322706659 0 0 0 0 0.016676206591172547 -34.992477812364086 0 -34.992477812364086 718.72765771108971 0 0 0 0 -13.608210350027548 18.79822219566995 0 18.79822219566995 92.1332419674618 0 0 0 0 -0.14339937893100796 27.9831189836259 0 27.9831189836259 77.898811209950509 0 0 0 0 -7.3552770649607737 37.751598700604518 0 37.751598700604518 108.02540604882233 0 0 0 0 -21.106115969452159 -9.1814923956607117 0 -9.1814923956607117 39.059175910481827 0 0 0 0 -157.91435942755237 -74.280567635782063 0 -74.280567635782063 28.979475637199357 0 0 0 0 5.8317737383167696 40.45092238250254 0 40.45092238250254 73.193358014876139 0 0 0 0 47.286548339208593 -160.68496195839543 0 -160.68496195839543 -607.20815600364585 0 0 0 0 1.118625743266529 4.5550635523857466 0 4.5550635523857466 13.695673091414108 0 0 0 0 4.0885862603436181 2.9879240357986419 0 2.9879240357986419 48.825312139528251 0 0 0 0 -18.6853905768244 -1.9585903198091899 0 -1.9585903198091899 6.5274928607926199 0 0 0 0 -5.2778380163841234 9.5057981891168311 0 9.5057981891168311 69.959598678295151 0 0 0 0 -3.8778267679153942 119.53219845095737 0 119.53219845095737 89.638381464139457 0 0 0 0 9.7753167206856233 200.2327082708216 0 200.2327082708216 67.927519985270919 0 0 0 0 -29.963394547494318 151.86994254420097 0 151.86994254420097 -0.14013113900728058 0 0 0 0 -19.309433912491841 193.90275359704538 0 193.90275359704538 99.56682004375034 0 0 0 0 -30.62623316679219 273.70657419459167 0 273.70657419459167 47.917315794053138 0 0 0 0 -23.059568809370461 5.2670544087568913 0 5.2670544087568913 29.573357755761947 0 0 0 0 -37.648947059434249 244.82464241568232 0 244.82464241568232 153.66847853049694 0 0 0 0 114.46590728538831 -374.44698613128276 0 -374.44698613128276 417.60409768730824 0 0 0 0 -5.1099888382263998 21.078726579762588 0 21.078726579762588 92.908690241980366 0 0 0 0 -17.861359435844587 -4.9234658848579045 0 -4.9234658848579045 20.298890685716827 0 0 0 0 -14.171109141097986 27.280362673644049 0 27.280362673644049 103.09218810364837 0 0 0 0 -5.5986751917134825 21.114505156525411 0 21.114505156525411 92.906338094053353 0 0 0 0 -14.263061564749478 9.7352307848341297 0 9.7352307848341297 97.534789397777786 0 0 0 0 -12.784779667432758 22.488187247891801 0 22.488187247891801 118.1102330875583 0 0 0 0 -5.1915458273411579 21.207030913567479 0 21.207030913567479 52.15738563714811 0 0 0 0 -23.700785363814241 -23.069218978544811 0 -23.069218978544811 40.396039368478569 0 0 0 0 -12.755311246956106 -16.757221493632727 0 -16.757221493632727 28.637440389322862 0 0 0 0 -8.4974293683462747 4.9071369377743395 0 4.9071369377743395 80.35559427201224 0 0 0 0 -6.1437721587662963 5.034673611909966 0 5.034673611909966 74.447758520182106 0 0 0 0 -25.857917544844895 -38.545681153642363 0 -38.545681153642363 179.35327672373387 0 0 0 0 -34.12810970817327 -29.613838056749955 0 -29.613838056749955 2.2510918955231318 0 0 0 0 -5.391529233421517 -1.4429075281797736 0 -1.4429075281797736 6.2823560359940416 0 0 0 0 -16.586557095995104 -27.361504692823729 0 -27.361504692823729 12.175298311329584 0 0 0 0 -1.3086656513434303 11.986564272621109 0 11.986564272621109 40.261620294144649 0 0 0 0 -4.0751095074280581 -2.4958744509257969 0 -2.4958744509257969 -0.7236569466274716 0 0 0 0 -24.485061616991516 -20.272173913239385 0 -20.272173913239385 -18.965826973260846 0 0 0 0 34.49301353534247 111.41655395376438 0 111.41655395376438 342.4691705936857 0 0 0 0 367.46503978698911 251.04869051414425 0 251.04869051414425 54.624237731099129 0 0 0 0 -1.1901793663661699 -0.55470100630790853 0 -0.55470100630790853 4.7196730982190616 0 0 0 0 384.75953715410196 161.02061455858347 0 161.02061455858347 235.88366994979151 0 0 0 0 -16.018697320521255 -9.162345738683527 0 -9.162345738683527 27.815428948312274 0 0 0 0 115.11942722098411 62.097229918130324 0 62.097229918130324 163.24935647722305 0 0 0 0 -12.245378705628855 -3.496381488404694 0 -3.496381488404694 18.497393017034653 0 0 0 0 -16.405491359168082 15.843752097629476 0 15.843752097629476 67.163581823871937 0 0 0 0 -34.590496928666994 -35.411891970637953 0 -35.411891970637953 38.318912811868358 0 0 0 0 4.0198389861666328 -6.9999000715761213 0 -6.9999000715761213 23.81591857237072 0 0 0 0 86.597524831951361 619.52480159862534 0 619.52480159862534 393.88428986698273 0 0 0 0 -306.04337219083783 -8.3872603058298409 0 -8.3872603058298409 624.84616094485682 0 0 0 0 -27.848730823521649 431.1092460166401 0 431.1092460166401 302.63689005115884 0 0 0 0 294.60139957009892 245.04716979259683 0 245.04716979259683 -182.86474253442429 0 0 0 0 -102.56740650785946 -399.6721180188033 0 -399.6721180188033 647.43803747599304 0 0 0 0 -14.471774082054909 -9.4281181773171738 0 -9.4281181773171738 28.103672665624146 0 0 0 0 -372.54851838697431 -196.75734255706629 0 -196.75734255706629 111.33089803288749 0 0 0 0 -144.25593870992191 -92.189306951724575 0 -92.189306951724575 -80.686316983686993 0 0 0 0 559.6481448874456 572.94054200033133 0 572.94054200033133 181.13843135240313 0 0 0 0 -1.2890286889526106 -1.1679953151457312 0 -1.1679953151457312 10.363647111262537 0 0 0 0 -179.67813539130776 23.341944912946929 0 23.341944912946929 196.69581342852325 0 0 0 0 -171.67468489675542 54.561313330319535 0 54.561313330319535 30.553875386996879 0 0 0 0 -186.5693412882772 -44.197422378871124 0 -44.197422378871124 -12.808480018658884 0 0 0 0 -97.154370238477668 68.159647274980671 0 68.159647274980671 49.292360592040495 0 0 0 0 -161.17870312691019 109.51638744055163 0 109.51638744055163 225.2464235422085 0 0 0 0 -220.11839958667019 14.384635964903282 0 14.384635964903282 262.9104131170825 0 0 0 0 -158.91557792594864 63.076258135744865 0 63.076258135744865 237.62455818211311 0 0 0 0 -262.96482500230803 -6.5415609007395688 0 -6.5415609007395688 214.10117835567144 0 0 0 0 -234.96183213796974 34.997858721540979 0 34.997858721540979 275.35567605656979 0 0 0 0 -119.73046286188281 136.39324032571312 0 136.39324032571312 86.262768100510584 0 0 0 0 -1.1003795710184958 0.88450913575001167 0 0.88450913575001167 13.951286613601781 0 0 0 0 -184.5291708597365 61.068777980668528 0 61.068777980668528 21.811408305053192 0 0 0 0 0.74727137679088607 -0.24715470119991778 0 -0.24715470119991778 1.7191417793028165 0 0 0 0 -114.55883643711604 34.14455949457988 0 34.14455949457988 -1.2920464630296919 0 0 0 0 -2.2627423522803838 12.956056817849458 0 12.956056817849458 180.5610388990026 0 0 0 0 110.88289749598334 169.93866379458632 0 169.93866379458632 137.50725498043175 0 0 0 0 -212.51094272641558 92.792648673312215 0 92.792648673312215 461.6189023454499 0 0 0 0 0.019183687594549248 -0.097339360456764723 0 -0.097339360456764723 5.2494601389569198 0 0 0 0 314.7981188880176 405.63831199552806 0 405.63831199552806 409.92127541654918 0 0 0 0 -185.10296261970689 -199.17422837742924 0 -199.17422837742924 192.83304371203849 0 0 0 0 -45.176642790671849 297.98408523608668 0 297.98408523608668 711.6775474108872 0 0 0 0 -76.276569115370421 -284.88941932812304 0 -284.88941932812304 514.15862819545873 0 0 0 0 -179.78557826752979 -66.751350953673409 0 -66.751350953673409 244.55802281254728 0 0 0 0 -164.58949840580158 -245.02595024283983 0 -245.02595024283983 108.18785672860395 0 0 0 0 -165.68398079032573 -37.776510101488384 0 -37.776510101488384 14.879046428148285 0 0 0 0 -181.97230667198215 -55.104851809097454 0 -55.104851809097454 37.803293156979635 0 0 0 0 -161.72512503740785 72.139224820035452 0 72.139224820035452 -10.588465469685616 0 0 0 0 -204.7440051631072 69.432356943707418 0 69.432356943707418 243.11623277611216 0 0 0 0 -242.84579551990669 -12.801087973108224 0 -12.801087973108224 329.47045510414318 0 0 0 0 -221.51275417575175 -56.951526554992597 0 -56.951526554992597 78.103819864816614 0 0 0 0 -198.79677712907778 -226.67303739513591 0 -226.67303739513591 -17.11699526805387 0 0 0 0 -184.20088505239642 -115.88054144807393 0 -115.88054144807393 -81.761123650838272 0 0 0 0 -22.258332894362209 -5.1598124631721305 0 -5.1598124631721305 36.154984723312737 0 0 0 0 13.630728879819003 55.218089760880503 0 55.218089760880503 64.193989226056146 0 0 0 0 -23.078591296065852 -1.320477350822344 0 -1.320477350822344 30.827374616880292 0 0 0 0 25.712842306746097 11.781334136292571 0 11.781334136292571 34.930653974006418 0 0 0 0 9.3051778590615868 39.69296718501937 0 39.69296718501937 49.488122715818463 0 0 0 0 -14.617921567380368 0.032827988702337052 0 0.032827988702337052 14.342859561206325 0 0 0 0 6.8132164839735196 -69.13038653145486 0 -69.13038653145486 1787.9807289512246 0 0 0 0 21.821630761689395 15.107097393347004 0 15.107097393347004 10.031482358368635 0 0 0 0 37.765807498815775 -103.03611794310564 0 -103.03611794310564 1360.7861810668546 0 0 0 0 -10.312617297253382 66.003504467185849 0 66.003504467185849 31.603987393813441 0 0 0 0 -309.54090431716986 -459.20419879691326 0 -459.20419879691326 -63.409031639479508 0 0 0 0 -59.225183050077931 -193.98121819298103 0 -193.98121819298103 -547.14526505878166 0 0 0 0 -71.891767749778637 -211.91403839905979 0 -211.91403839905979 -135.72136589110596 0 0 0 0 7.6841249841362611 19.893012075021545 0 19.893012075021545 19.51144928198778 0 0 0 0 15.624763670100947 199.86090667385724 0 199.86090667385724 1.3271927892201347 0 0 0 0 7.8143626138287683 3.3026576828843304 0 3.3026576828843304 9.8164053031701144 0 0 0 0 210.00286829425386 -61.467881662247237 0 -61.467881662247237 67.330406031025632 0 0 0 0 525.32558301403333 -588.08502735476941 0 -588.08502735476941 396.71683546949862 0 0 0 0 -107.36131522753021 -259.36224803140067 0 -259.36224803140067 1856.1631718291756 0 0 0 0 41.978271428124401 -304.00319602111995 0 -304.00319602111995 430.53956016953452 0 0 0 0 -559.57946851185716 -55.764882551178744 0 -55.764882551178744 796.61748144305602 0 0 0 0 105.15629690317473 -156.04665618481522 0 -156.04665618481522 271.50164044456324 0 0 0 0 -728.98893196197423 -451.10176288603543 0 -451.10176288603543 834.07379015539482 0 0 0 0 -9.581330014393787 -1.7511642931281983 0 -1.7511642931281983 6.5395709776267097 0 0 0 0 -95.19796904922805 -226.23538386569999 0 -226.23538386569999 855.52751669204736 0 0 0 0 -69.392591427872503 54.50323305711936 0 54.50323305711936 1048.0788408434673 0 0 0 0 -379.68752692785256 -169.36946497842291 0 -169.36946497842291 895.33609215203069 0 0 0 0 -454.14635917224587 -85.563445764069911 0 -85.563445764069911 1278.4498210754537 0 0 0 0 -83.714190159784266 33.021801990493259 0 33.021801990493259 1216.6717008864507 0 0 0 0 400.27319440237443 52.551728400867432 0 52.551728400867432 1114.1347527373291 0 0 0 0 268.71337398591641 -342.76936902631132 0 -342.76936902631132 1437.1052474667667 0 0 0 0 71.464346790571653 -91.662656730790331 0 -91.662656730790331 1263.192757344339 0 0 0 0 170.97149990845719 -86.796332149489899 0 -86.796332149489899 1041.1199078455975 0 0 0 0 9.0150277875347093 131.41341942722704 0 131.41341942722704 994.02497417802806 0 0 0 0 33.56639988900497 55.064438039004017 0 55.064438039004017 727.64840328185528 0 0 0 0 -274.57678089052979 -33.883739730274101 0 -33.883739730274101 870.7822092606948 0 0 0 0 -258.03464231769522 29.345225755540014 0 29.345225755540014 1069.6520338720147 0 0 0 0 66.688608658864723 -150.81010958511615 0 -150.81010958511615 1392.3899920405529 0 0 0 0 5.378618106428803 -146.53988770859723 0 -146.53988770859723 1440.9920308841683 0 0 0 0 6.7454878524313244 -94.487188913299178 0 -94.487188913299178 1434.4300886722631 0 0 0 0 101.56117118502425 -108.09670381739488 0 -108.09670381739488 1163.1399287627428 0 0 0 0 -1.0308415815779881 -134.29918506895046 0 -134.29918506895046 1428.8023529716065 0 0 0 0 73.13716557735188 -2.5603852528984135 0 -2.5603852528984135 1077.4255192654091 0 0 0 0 9.7984539248633382 4.556691692557564 0 4.556691692557564 1182.3635884784017 0 0 0 0 -39.211144753029657 -37.936811638726795 0 -37.936811638726795 1701.4470271761238 0 0 0 0 -54.845093614367215 91.803576217374939 0 91.803576217374939 1300.0235678120589 0 0 0 0 133.31392562263682 251.5215868380983 0 251.5215868380983 1277.5077587298401 0 0 0 0 444.12388605195338 200.16417870289297 0 200.16417870289297 1756.0923366897623 0 0 0 0 111.48046249448458 -87.434596845850137 0 -87.434596845850137 1603.5934122590406 0 0 0 0 152.23900115021024 -287.60909384952538 0 -287.60909384952538 1546.9096862275874 0 0 0 0 7.6716207695156626 4.4618536516566962 0 4.4618536516566962 3.8167534639456591 0 0 0 0 -72.95793129516278 -263.03501924633019 0 -263.03501924633019 2481.7769266484975 0 0 0 0 -29.766065446614448 25.627829540913808 0 25.627829540913808 94.188722051650984 0 0 0 0 172.92849036360894 15.687100259168801 0 15.687100259168801 -79.578191117892857 0 0 0 0 318.57190819483139 179.23877842524598 0 179.23877842524598 37.943248070987465 0 0 0 0 39.557658839149781 61.799949814706451 0 61.799949814706451 103.34945419497672 0 0 0 0 -18.444539337128557 -2.9570343911823045 0 -2.9570343911823045 10.024947534221099 0 0 0 0 53.682383815206776 18.701329699331836 0 18.701329699331836 74.070366909822042 0 0 0 0 -41.03832929963778 164.62113499603947 0 164.62113499603947 120.19773769931635 0 0 0 0 131.23208130657076 101.013268261333 0 101.013268261333 82.124878438473388 0 0 0 0 26.964951788246253 194.21554068302066 0 194.21554068302066 90.11460692750552 0 0 0 0 -29.743132627181694 135.34687912330992 0 135.34687912330992 148.04632648402549 0 0 0 0 169.34074069207054 405.9911880150521 0 405.9911880150521 489.08488395005406 0 0 0 0 -199.42866125311502 159.67797766079457 0 159.67797766079457 251.34448498577058 0 0 0 0 -216.57083760763317 -808.23004919009327 0 -808.23004919009327 -444.59634908950829 0 0 0 0 -445.10411263839705 -959.85036051999487 0 -959.85036051999487 987.27986111212522 0 0 0 0 -323.94644406922862 -74.078696072534512 0 -74.078696072534512 273.86729964984988 0 0 0 0 -194.78491353850904 76.832876967673656 0 76.832876967673656 256.1967363012518 0 0 0 0 -115.57439377236551 -253.12027326383395 0 -253.12027326383395 1263.018695590079 0 0 0 0 210.26998500033028 -479.91839862738379 0 -479.91839862738379 1090.3463984012342 0 0 0 0 165.34922410926265 444.56767973401293 0 444.56767973401293 1940.7953712158196 0 0 0 0 -295.72370495897758 -573.90924468473531 0 -573.90924468473531 1967.5543043408106 0 0 0 0 -63.474044932985635 451.53728233708534 0 451.53728233708534 3918.3606710905078 0 0 0 0 -0.81952412642000283 -6.9439430096988985 0 -6.9439430096988985 10.040264748613026 0 0 0 0 -313.67198511854986 127.27007312572823 0 127.27007312572823 3767.6942310261365 0 0 0 0 -189.91133167678618 865.25985372422292 0 865.25985372422292 2760.8022428516342 0 0 0 0 -221.33727911141887 658.69473046778148 0 658.69473046778148 2902.5595858496235 0 0 0 0 55.790122447458089 848.87111121106864 0 848.87111121106864 2005.863707163473 0 0 0 0 -208.80329888118285 471.4744875865872 0 471.4744875865872 3183.2282622857019 0 0 0 0 -303.59955948895595 796.51155875591212 0 796.51155875591212 2802.987620830565 0 0 0 0 224.25400615710942 -23.552833401030512 0 -23.552833401030512 2913.1354076714197 0 0 0 0 147.22818767377976 234.44538428356464 0 234.44538428356464 2445.2547753399922 0 0 0 0 161.4329748991704 -539.2426159389106 0 -539.2426159389106 1217.5687098422968 0 0 0 0 -2.3277189905789868 -13.64952402228171 0 -13.64952402228171 15.88308805611338 0 0 0 0 -204.38695508963428 -117.79012136756501 0 -117.79012136756501 8.8880416327010607 0 0 0 0 -267.90768991775167 48.616518558512325 0 48.616518558512325 -41.249789551809954 0 0 0 0 -315.79179353930363 -50.984272767909715 0 -50.984272767909715 124.43083331082016 0 0 0 0 350.92397980572565 -4.016342924493074 0 -4.016342924493074 2220.4556325729063 0 0 0 0 -144.12650507011449 -442.55422522473236 0 -442.55422522473236 -89.665717275052884 0 0 0 0 -166.74062810407213 265.02323887981038 0 265.02323887981038 4889.1126782268366 0 0 0 0 3.5585768351562805 -5.6549748840061511 0 -5.6549748840061511 5.8775731336032777 0 0 0 0 3.0371877265194014 -7.341191101328306 0 -7.341191101328306 5.9517642655876202 0 0 0 0 156.36544766647762 261.57154455544332 0 261.57154455544332 4634.1563435594508 0 0 0 0 699.33837510802095 208.25091180970776 0 208.25091180970776 -662.3174361125275 0 0 0 0 40.640318341490456 220.17646060437255 0 220.17646060437255 176.89164017140865 0 0 0 0 -52.410250541808637 154.27089490548678 0 154.27089490548678 407.31974943247042 0 0 0 0 133.37594286025796 109.81062749591365 0 109.81062749591365 -122.27647266605345 0 0 0 0 63.049845155681396 -9.4863893987203483 0 -9.4863893987203483 186.24694257610099 0 0 0 0 99.425030994578719 79.258318199437781 0 79.258318199437781 81.258729997702176 0 0 0 0 40.365776644694961 121.48625794404506 0 121.48625794404506 139.0680924221524 0 0 0 0 -10.860831752328522 90.467181048486964 0 90.467181048486964 124.14775496112998 0 0 0 0 -51.921240871449072 25.4098635413784 0 25.4098635413784 103.21515979600372 0 0 0 0 20.812981873457602 84.979462320661696 0 84.979462320661696 114.39875753349042 0 0 0 0 2.9621469537535177 20.386494644579216 0 20.386494644579216 47.145223157131113 0 0 0 0 -57.98583520745359 -23.964978768951369 0 -23.964978768951369 72.665136557130609 0 0 0 0 -6.9220814915048585 -8.8335083751041452 0 -8.8335083751041452 15.006075209002503 0 0 0 0 61.0970301933055 -92.481404970862059 0 -92.481404970862059 -127.56100241199601 0 0 0 0 -3.2557001626605597 39.578585648938315 0 39.578585648938315 46.634477796731517 0 0 0 0 5.3139876094135161 37.797176136882626 0 37.797176136882626 15.67028079694137 0 0 0 0 -5.7578802613579683 14.924826384434709 0 14.924826384434709 44.428069965117174 0 0 0 0 11.377176096483502 12.470164457900893 0 12.470164457900893 13.115683167618556 0 0 0 0 -8.2309964729923877 3.6715779053502047 0 3.6715779053502047 13.913200180439162 0 0 0 0 -11.782285518417622 50.571776760443612 0 50.571776760443612 80.326236413301615 0 0 0 0 112.94330705250104 -193.64285496536468 0 -193.64285496536468 227.41161867670598 0 0 0 0 198.90690912793252 -44.512840656039771 0 -44.512840656039771 329.71762107471295 0 0 0 0 46.74659817265092 -200.21739077221719 0 -200.21739077221719 294.26187110636965 0 0 0 0 1.0990113798377372 1.6703441244964523 0 1.6703441244964523 2.8218614755326001 0 0 0 0 -183.17504434203693 4.3885217427232419 0 4.3885217427232419 113.99037181594394 0 0 0 0 -240.50724512947272 33.648245044787473 0 33.648245044787473 124.51707494774018 0 0 0 0 -54.925453982303225 -51.871238571657159 0 -51.871238571657159 34.412843942223844 0 0 0 0 -184.48398645475947 -3.5700346639841882 0 -3.5700346639841882 72.217447145099868 0 0 0 0 -116.95862956187284 13.814670367559302 0 13.814670367559302 76.537781418144732 0 0 0 0 -65.991487362017324 49.583559557300759 0 49.583559557300759 -9.4724291156308027 0 0 0 0 -150.09097083240249 56.110585774164065 0 56.110585774164065 23.607185102664516 0 0 0 0 -142.08669362562068 88.175115890830057 0 88.175115890830057 71.732305487756093 0 0 0 0 -147.26155841986429 78.298984987279255 0 78.298984987279255 114.91630153659207 0 0 0 0 -29.698062049254872 252.96811589586468 0 252.96811589586468 -142.29552687116666 0 0 0 0 -65.094911020285508 156.58675300126924 0 156.58675300126924 46.252579651954875 0 0 0 0 -99.23748705236585 65.747874461223546 0 65.747874461223546 -101.21382534810982 0 0 0 0 -14.033014859673077 51.638067254057361 0 51.638067254057361 88.949563867027848 0 0 0 0 2.8815548714106267 2.1511176442388233 0 2.1511176442388233 2.1425999791445918 0 0 0 0 342.0038855140574 -395.09760254817957 0 -395.09760254817957 495.88544115718105 0 0 0 0 -242.78073007830608 210.75457895032014 0 210.75457895032014 897.88101986336551 0 0 0 0 20.322587278432948 207.92773480708476 0 207.92773480708476 271.95814856408469 0 0 0 0 22.429177760811275 -195.46300615369108 0 -195.46300615369108 200.32062377035618 0 0 0 0 7.4201063425601124 7.3093864481959656 0 7.3093864481959656 7.1913157562487697 0 0 0 0 -30.39498405742961 -281.79848392429267 0 -281.79848392429267 550.16126386984251 0 0 0 0 -112.88716380462211 79.460913916569552 0 79.460913916569552 -12.723845933821394 0 0 0 0 -132.26022506853678 54.839827120536938 0 54.839827120536938 21.298517413797526 0 0 0 0 -10.262818165021383 52.407278793771965 0 52.407278793771965 80.207507880065265 0 0 0 0 7.5304548621562617 18.508685621447512 0 18.508685621447512 49.638293841373525 0 0 0 0 99.372805874295409 -234.24190361531873 0 -234.24190361531873 390.07000202777272 0 0 0 0 -15.456185749559438 -4.4061409393307258 0 -4.4061409393307258 164.79752161869692 0 0 0 0 -42.152645233579278 10.742518117705913 0 10.742518117705913 166.51951646975476 0 0 0 0 -52.116201334016864 4.9035787148550298 0 4.9035787148550298 172.54772518861137 0 0 0 0 -46.852077277153086 6.2950276412257153 0 6.2950276412257153 178.28812765911425 0 0 0 0 -32.89551864371947 59.972157321793929 0 59.972157321793929 384.51294606448209 0 0 0 0 -33.458290098413784 14.965098305723586 0 14.965098305723586 163.95118767789972 0 0 0 0 -41.842238128433735 24.83427077383385 0 24.83427077383385 188.7828048930096 0 0 0 0 -6.1115236124135777 17.501289273068323 0 17.501289273068323 90.804141521282872 0 0 0 0 12.651392963702847 61.857994113004679 0 61.857994113004679 133.32781857744703 0 0 0 0 -13.160313784147739 -12.480027630109753 0 -12.480027630109753 25.547603078612148 0 0 0 0 36.25393028646431 22.531649479870794 0 22.531649479870794 64.124594597007672 0 0 0 0 -13.452956234205885 -17.296261799994681 0 -17.296261799994681 37.806099834182533 0 0 0 0 -8.9479325831080132 -5.28574628248316 0 -5.28574628248316 81.936181662233139 0 0 0 0 -25.071859285104154 -15.854730511175831 0 -15.854730511175831 65.432274257633253 0 0 0 0 -7.0601379649572689 -14.888133922070253 0 -14.888133922070253 42.435196420046935 0 0 0 0 -4.7092208425738136 9.8253790219678194 0 9.8253790219678194 73.092523545688891 0 0 0 0 -12.852863704370698 -13.811060879712798 0 -13.811060879712798 25.934282334289776 0 0 0 0 -15.585332626260426 -27.177273775977199 0 -27.177273775977199 64.634382069613906 0 0 0 0 -10.302718390388691 -3.4280225771544792 0 -3.4280225771544792 83.160693969635759 0 0 0 0 -5.9738743685444007 -8.8684047896533222 0 -8.8684047896533222 3.5254945585869706 0 0 0 0 17.863556616622645 -117.39771204750286 0 -117.39771204750286 133.29738673052543 0 0 0 0 119.45385509669495 133.55060167910415 0 133.55060167910415 176.25255719644338 0 0 0 0 -49.314489798883415 46.157878607355087 0 46.157878607355087 126.94916802420994 0 0 0 0 7.7564705985146247 -15.09959167240595 0 -15.09959167240595 192.68091167561579 0 0 0 0 22.890028162258318 48.900459256887189 0 48.900459256887189 110.02780843596338 0 0 0 0 51.53589194931439 51.783563030313417 0 51.783563030313417 110.1426464392971 0 0 0 0 43.272132737441154 97.233596297590339 0 97.233596297590339 25.403292560415139 0 0 0 0 -26.163018522473521 82.703614673744596 0 82.703614673744596 86.737562165952113 0 0 0 0 -153.75561265055669 122.7066653444426 0 122.7066653444426 37.548611124297167 0 0 0 0 -13.200203404911463 28.419232739795916 0 28.419232739795916 100.43109264352825 0 0 0 0 -61.741843801631774 0.50542747912550112 0 0.50542747912550112 132.97507815899132 0 0 0 0 -34.764466714627005 -21.840616888695877 0 -21.840616888695877 68.578693403054785 0 0 0 0 -5.5154787136974051 13.54117621070327 0 13.54117621070327 111.37902508478146 0 0 0 0 -60.059478136025547 -5.2881617222410569 0 -5.2881617222410569 167.74734304034064 0 0 0 0 -40.688312224599713 -4.6459819770352624 0 -4.6459819770352624 117.75142519249403 0 0 0 0 -90.313765809332139 -4.6116433686811433 0 -4.6116433686811433 195.25201551390273 0 0 0 0 -60.426357001834091 -9.8962609980189882 0 -9.8962609980189882 133.20685586707867 0 0 0 0 -67.996246616945427 20.426370808963838 0 20.426370808963838 176.0399884080889 0 0 0 0 -56.002077720310503 10.45384854355143 0 10.45384854355143 182.71736260869511 0 0 0 0 -35.230236182327687 18.242006786565071 0 18.242006786565071 144.05129782196673 0 0 0 0 -68.475660064312478 20.947138279972478 0 20.947138279972478 231.00246347190114 0 0 0 0 -35.493067324827607 86.957580663287445 0 86.957580663287445 191.10375969712914 0 0 0 0 -38.105997962734136 8.3633039556552831 0 8.3633039556552831 189.55289630682819 0 0 0 0 -34.527123147426728 39.417115345628417 0 39.417115345628417 229.54977378327749 0 0 0 0 -11.113365733071703 -6.6033455068882176 0 -6.6033455068882176 307.7110415143361 0 0 0 0 78.069091675644813 108.02836064505573 0 108.02836064505573 265.88583500666209 0 0 0 0 22.129817626326201 148.81767966175357 0 148.81767966175357 335.37383288291312 0 0 0 0 0.26567117671634888 0.35341816896012546 0 0.35341816896012546 0.079739060484747881 0 0 0 0 51.507763873311205 103.70601520787568 0 103.70601520787568 403.75483529852499 0 0 0 0 -4.90931326566949 71.356236969982092 0 71.356236969982092 114.41680359341262 0 0 0 0 -34.353107448928789 88.158622091455982 0 88.158622091455982 123.67316452815612 0 0 0 0 30.201427429273053 29.178806180922948 0 29.178806180922948 -197.92458584198903 0 0 0 0 36.804464404705591 95.610240286771841 0 95.610240286771841 -38.940876170945558 0 0 0 0 -47.729617929259234 65.176233649757705 0 65.176233649757705 124.38133912405556 0 0 0 0 -37.26321265423482 48.563702484345413 0 48.563702484345413 104.36380415562962 0 0 0 0 -23.791361105838817 114.86417897168394 0 114.86417897168394 47.624955203089485 0 0 0 0 195.68960609427995 38.180360570779158 0 38.180360570779158 126.14925489218149 0 0 0 0 -11.357932772822679 50.79851100768002 0 50.79851100768002 72.373491631405599 0 0 0 0 -36.033841376347482 53.166511075920425 0 53.166511075920425 150.71088784256426 0 0 0 0 54.643057681576465 -77.136115907480416 0 -77.136115907480416 229.3171821463493 0 0 0 0 0.32144740978502817 0.42824939550821739 0 0.42824939550821739 3.9641164300107903 0 0 0 0 156.40150648576218 -251.55119641754573 0 -251.55119641754573 182.58267348411027 0 0 0 0 -84.479330596902741 167.03047700849129 0 167.03047700849129 2462.5386668797364 0 0 0 0 -7.3077679787356828 122.04502715931449 0 122.04502715931449 164.7985112604365 0 0 0 0 10.463824636164215 -13.247910066328686 0 -13.247910066328686 6.8535946497215292 0 0 0 0 -51.149195031732233 104.62686194428534 0 104.62686194428534 157.90344047579129 0 0 0 0 -12.492750817453157 101.37199683402105 0 101.37199683402105 156.98928904937929 0 0 0 0 -75.245939084000383 89.227758819819428 0 89.227758819819428 170.03183993145649 0 0 0 0 -50.287973045814397 90.078971387745696 0 90.078971387745696 168.03358729837055 0 0 0 0 72.357926316700059 -100.65922133588901 0 -100.65922133588901 1386.8898320475782 0 0 0 0 214.11950355376575 -116.99405301731895 0 -116.99405301731895 61.035398717387579 0 0 0 0 72.306118703740424 -194.70806965675365 0 -194.70806965675365 1652.5451291773352 0 0 0 0 14.500664838480255 -17.724206728038567 0 -17.724206728038567 23.501806416234267 0 0 0 0 -110.93371024522946 -129.91342846308362 0 -129.91342846308362 1905.9275833259744 0 0 0 0 -103.82495663983016 -114.96158724966699 0 -114.96158724966699 1716.5780318194302 0 0 0 0 -18.380073559699667 156.95486921427801 0 156.95486921427801 1732.69320783086 0 0 0 0 -162.56087554580256 -412.01212918177043 0 -412.01212918177043 1558.6645390705198 0 0 0 0 -284.5155165742193 -200.89151519576626 0 -200.89151519576626 2353.5863103666925 0 0 0 0 -7.6010147645155017 217.53852116479459 0 217.53852116479459 1285.4145267178246 0 0 0 0 420.4397454246037 478.02863079022063 0 478.02863079022063 501.06153835112127 0 0 0 0 -1.1498683545211699 41.862940649788811 0 41.862940649788811 -1.3634953388073185 0 0 0 0 177.28680216003397 183.70262132713833 0 183.70262132713833 1883.3122969085307 0 0 0 0 4.905058451491664 0.88679826815797469 0 0.88679826815797469 -4.4440798836775173 0 0 0 0 436.0924083528497 -226.36514248522144 0 -226.36514248522144 1626.6851148839251 0 0 0 0 679.01788815548343 266.42654797273553 0 266.42654797273553 1423.2846570532274 0 0 0 0 392.82227980299257 320.93212885305911 0 320.93212885305911 1481.9483584554109 0 0 0 0 -218.98658936181062 -187.75808603838414 0 -187.75808603838414 1394.2836666864387 0 0 0 0 16.128672456298204 215.62635214410693 0 215.62635214410693 1357.375979780998 0 0 0 0 208.11226176971536 102.74673983077082 0 102.74673983077082 1266.0985556085434 0 0 0 0 73.167630432222893 132.77460609765149 0 132.77460609765149 665.12486722224276 0 0 0 0 21.406199104880443 158.23521130301015 0 158.23521130301015 1209.038814315245 0 0 0 0 -15.576169847500523 451.22831021488309 0 451.22831021488309 1174.6724866657023 0 0 0 0 -10.336684610290982 379.25907385938598 0 379.25907385938598 1055.9923130342358 0 0 0 0 140.58884291478671 476.18427846182021 0 476.18427846182021 919.2124109381075 0 0 0 0 13.084111369686411 -207.91683704784009 0 -207.91683704784009 998.13367583330546 0 0 0 0 51.183008803336577 -284.17644297334073 0 -284.17644297334073 -296.9336890286213 0 0 0 0 -184.48527994877782 184.19594240655715 0 184.19594240655715 884.80087133339839 0 0 0 0 -81.707311062840517 -280.83119264517518 0 -280.83119264517518 52.949152330133074 0 0 0 0 1.0441331757759915 -8.2204436966621586 0 -8.2204436966621586 13.38386603226698 0 0 0 0 46.980071754996061 252.09701250147918 0 252.09701250147918 678.79137015063588 0 0 0 0 -161.55616576486318 402.16917478306641 0 402.16917478306641 791.52603729040857 0 0 0 0 85.138925034466638 134.90998536560801 0 134.90998536560801 868.23927586990976 0 0 0 0 0.015078415068233042 33.99886111825063 0 33.99886111825063 -12.325042901350209 0 0 0 0 -108.47673701384599 514.96826890155717 0 514.96826890155717 1456.9697553502629 0 0 0 0 40.801562670954013 3.555193365435116 0 3.555193365435116 -119.21798504380786 0 0 0 0 254.35668960976273 134.73112049340853 0 134.73112049340853 936.75251942875911 0 0 0 0 3.046663352170965 2.6924253815920309 0 2.6924253815920309 -0.43780582206150243 0 0 0 0 -46.009364268120407 28.478453702013212 0 28.478453702013212 24.909752014897094 0 0 0 0 1.0990330896991107 1.6297247014410914 0 1.6297247014410914 -0.22904619109464619 0 0 0 0 11.418714430947375 44.763440239225019 0 44.763440239225019 426.52797054290659 0 0 0 0 -21.316710491330923 27.949080044691073 0 27.949080044691073 -61.894431778150647 0 0 0 0 25.245349521566595 55.790536418797274 0 55.790536418797274 352.58424430986452 0 0 0 0 6.0345574654356824 18.667758482808495 0 18.667758482808495 -119.3345570800011 0 0 0 0 -0.35748650476593191 39.172032788764582 0 39.172032788764582 -16.950019842948812 0 0 0 0 17.424915455636437 82.338966377090401 0 82.338966377090401 542.62391363098641 0 0 0 0 32.552012878843925 112.15631430963549 0 112.15631430963549 410.47166700930393 0 0 0 0 25.009914679458234 107.49892747053309 0 107.49892747053309 546.36824325653197 0 0 0 0 -62.496404325753545 90.062305082846493 0 90.062305082846493 343.33411239216366 0 0 0 0 -125.08385308630568 27.797405783428985 0 27.797405783428985 429.02337055030512 0 0 0 0 -62.403965750734642 107.49014112891018 0 107.49014112891018 498.82291057259863 0 0 0 0 -4.3472960847357172 -26.380771591175289 0 -26.380771591175289 463.65015752365798 0 0 0 0 -49.42010066963303 44.91305758189992 0 44.91305758189992 355.46041019375843 0 0 0 0 -74.129383588913697 83.100520499167033 0 83.100520499167033 -24.052773496994632 0 0 0 0 -150.09343529751641 74.318009387836355 0 74.318009387836355 532.96286139944823 0 0 0 0 -144.46797948158382 141.2432745967817 0 141.2432745967817 421.58685030706692 0 0 0 0 -6.6803118242933124 114.55865560925486 0 114.55865560925486 326.2722806436359 0 0 0 0 -4.1623564365447692 -79.810595213391025 0 -79.810595213391025 786.69525559320755 0 0 0 0 -188.19157705734688 43.957024203486071 0 43.957024203486071 328.51010604951455 0 0 0 0 -0.23762512015491311 -8.5912357295105153 0 -8.5912357295105153 15.119042597539902 0 0 0 0 -185.11839995343007 369.37424282207212 0 369.37424282207212 1700.8239731843714 0 0 0 0 5.8607627594643574 27.278030281176427 0 27.278030281176427 -9.8687292954271726 0 0 0 0 163.90360274120394 535.67956283566309 0 535.67956283566309 849.49202833220625 0 0 0 0 -44.517072034706416 30.698917252382671 0 30.698917252382671 69.31563009117599 0 0 0 0 56.18619696514088 -6.5609805474232417 0 -6.5609805474232417 -86.530629584514827 0 0 0 0 60.721908269074447 -7.1097612511075567 0 -7.1097612511075567 -43.37756900605018 0 0 0 0 14.430289978807259 20.334427243152966 0 20.334427243152966 -7.2637725619671123 0 0 0 0 -1.455960794681566 -3.75251901941445 0 -3.75251901941445 8.6625907014635857 0 0 0 0 -136.33682084497013 -511.76425361989459 0 -511.76425361989459 20.329490016405998 0 0 0 0 188.10085278099245 702.85604665254459 0 702.85604665254459 1986.1986471358832 0 0 0 0 -211.24910370154612 -489.51862085231551 0 -489.51862085231551 651.25867796887906 0 0 0 0 -281.19929261237849 -271.45377446868224 0 -271.45377446868224 1451.2204102257892 0 0 0 0 353.69738015665644 -96.566960969837965 0 -96.566960969837965 1843.6219451058605 0 0 0 0 -257.38805878765379 472.42465823473322 0 472.42465823473322 1458.8700502331703 0 0 0 0 -117.83966643046006 81.056230442525703 0 81.056230442525703 645.62616682153384 0 0 0 0 -121.54662862323312 -80.635790917458507 0 -80.635790917458507 877.91996105317958 0 0 0 0 63.521232779943603 -3.7007183888927102 0 -3.7007183888927102 -4.0106156244564772 0 0 0 0 19.9179662722849 16.078894647058064 0 16.078894647058064 -7.7717400097582541 0 0 0 0 -25.226991272556916 72.207850084098027 0 72.207850084098027 821.93493172024318 0 0 0 0 -272.71029457957866 -142.06746986724829 0 -142.06746986724829 898.91558324205835 0 0 0 0 -322.21706106259489 -445.28116263789707 0 -445.28116263789707 666.57903179836285 0 0 0 0 -94.983352982577117 -206.77145846256826 0 -206.77145846256826 -14.367357214498043 0 0 0 0 -111.31999756182176 -185.98820262023946 0 -185.98820262023946 377.60013810437886 0 0 0 0 -224.51319524125893 -85.643856689119275 0 -85.643856689119275 476.55706888852001 0 0 0 0 -425.89614230715108 -285.90281480075828 0 -285.90281480075828 853.50898743619473 0 0 0 0 -428.41589197633357 -289.82028205036113 0 -289.82028205036113 1356.3418451499019 0 0 0 0 -553.04173576335506 107.50996734460932 0 107.50996734460932 1701.3482200444487 0 0 0 0 -552.82001985851298 126.55534118975629 0 126.55534118975629 1004.8014252901121 0 0 0 0 -154.94094153517244 272.40280573643577 0 272.40280573643577 769.01966730079948 0 0 0 0 -32.515328504393892 34.611898099225073 0 34.611898099225073 90.630887555136724 0 0 0 0 -387.8268486095501 188.87366058457337 0 188.87366058457337 978.48742830927949 0 0 0 0 13.236028982704381 5.0743963202063753 0 5.0743963202063753 -0.9750674351701889 0 0 0 0 -225.67128079350823 -44.221470624535868 0 -44.221470624535868 470.23480541238314 0 0 0 0 -17.031063150606315 34.073941487378761 0 34.073941487378761 327.79368536330367 0 0 0 0 21.601841659219872 -19.002090219928505 0 -19.002090219928505 -166.06687781173969 0 0 0 0 0.34959963600149102 -1.0308714625488484 0 -1.0308714625488484 3.4060835278963566 0 0 0 0 13.314904901920123 181.40552231023003 0 181.40552231023003 680.08228318380134 0 0 0 0 57.453331624929433 -143.84421767327694 0 -143.84421767327694 173.31214822860784 0 0 0 0 9.1476516233728944 315.11087423657227 0 315.11087423657227 401.46746200513371 0 0 0 0 55.671020460104501 131.14052406281553 0 131.14052406281553 586.4159696958086 0 0 0 0 8.894888362717154 45.139427748201797 0 45.139427748201797 899.05037212774187 0 0 0 0 27.856439136573499 -226.72358673818962 0 -226.72358673818962 636.66070483452495 0 0 0 0 6.6560131959985913 3.7935146683544545 0 3.7935146683544545 -0.63656921251142151 0 0 0 0 304.66243068999938 84.11194152632379 0 84.11194152632379 897.84055600643478 0 0 0 0 -99.565782320968083 33.201630261060927 0 33.201630261060927 1018.4592990747988 0 0 0 0 12.525431287204242 -57.674029917386179 0 -57.674029917386179 214.44356651655835 0 0 0 0 91.268483871944227 -3.8966534440041869 0 -3.8966534440041869 -40.7145165286056 0 0 0 0 73.10495820670485 -76.678282631124603 0 -76.678282631124603 206.06382135948661 0 0 0 0 3.8933781263295701 -1.6549355052803705 0 -1.6549355052803705 0.55776746474863614 0 0 0 0 83.063037545513794 -45.910007983494324 0 -45.910007983494324 -81.363302792226023 0 0 0 0 29.798433672171086 50.361699032007891 0 50.361699032007891 55.610250721387274 0 0 0 0 2.1745137092956082 -1.0289702673263363 0 -1.0289702673263363 1.2149159829818572 0 0 0 0 -4.9594281859065177 -5.0406048463737534 0 -5.0406048463737534 48.48707471263333 0 0 0 0 30.392743542885967 -23.38685673386226 0 -23.38685673386226 -19.597427281365526 0 0 0 0 3.6178620832756678 44.061324472459091 0 44.061324472459091 -39.093316556869581 0 0 0 0 -38.380246187767284 22.811882075884569 0 22.811882075884569 -6.8738272246810084 0 0 0 0 1.2104816066796937 -2.6462113604164585 0 -2.6462113604164585 5.26778555497593 0 0 0 0 -58.564041439626635 -91.273559729645058 0 -91.273559729645058 -90.613298169068003 0 0 0 0 -57.75168576122519 -160.39560850836642 0 -160.39560850836642 -55.220458676394628 0 0 0 0 -57.003441591637284 -114.61935323544458 0 -114.61935323544458 -32.045424123178236 0 0 0 0 -43.484679513380797 -114.94565367831092 0 -114.94565367831092 -32.076697578690073 0 0 0 0 18.592070382361953 24.470133716185956 0 24.470133716185956 17.982691527078714 0 0 0 0 -33.586800431261281 -82.913411380010075 0 -82.913411380010075 -141.08450369493221 0 0 0 0 -76.92348221493512 -13.4236478777093 0 -13.4236478777093 -90.999015025576227 0 0 0 0 1.0200623225637235 -2.155279376781543 0 -2.155279376781543 2.0711770580963105 0 0 0 0 -51.82176197971512 -67.823815734342134 0 -67.823815734342134 -182.22922959336211 0 0 0 0 -31.922423573026208 -111.59279529717605 0 -111.59279529717605 -104.64795285248692 0 0 0 0 -136.44704889026207 -209.79762786367155 0 -209.79762786367155 -8.5272998416476185 0 0 0 0 1.3021543404353511 -0.75998326326973853 0 -0.75998326326973853 0.81461889384329567 0 0 0 0 8.3064049000931846 -17.796003632534848 0 -17.796003632534848 353.42893126098534 0 0 0 0 148.91508970727523 -22.498564480603818 0 -22.498564480603818 165.4625960052108 0 0 0 0 110.12636662769296 104.46898640502877 0 104.46898640502877 123.25819560911441 0 0 0 0 137.17382933278577 23.832607984750211 0 23.832607984750211 361.70352374415597 0 0 0 0 -50.361270418561844 58.597904927023592 0 58.597904927023592 398.02126080412199 0 0 0 0 68.406848976191668 49.08539390804799 0 49.08539390804799 398.34167023592818 0 0 0 0 -86.472723655213258 28.472330379392133 0 28.472330379392133 502.69386704880162 0 0 0 0 -33.914735442556321 -116.61090203514368 0 -116.61090203514368 539.10184084734647 0 0 0 0 -118.01257902866291 82.103023182928155 0 82.103023182928155 569.76096479549415 0 0 0 0 -25.071315878765745 20.457425329153921 0 20.457425329153921 274.81925488512934 0 0 0 0 93.217021991976708 17.506148942045911 0 17.506148942045911 -41.190192571484658 0 0 0 0 -0.3110395128142045 -54.197409492449879 0 -54.197409492449879 146.41413592061144 0 0 0 0 3.4725267713989378 -1.7601071253621967 0 -1.7601071253621967 1.0916029557143645 0 0 0 0 44.583289365156361 44.734820227899036 0 44.734820227899036 55.18645327088052 0 0 0 0 32.527902358396297 51.360280544423176 0 51.360280544423176 69.330484085163334 0 0 0 0 41.560331063767308 13.506778098504583 0 13.506778098504583 6.3736435803239146 0 0 0 0 63.547515019962191 71.260957954607875 0 71.260957954607875 68.847122986080649 0 0 0 0 61.606572242644916 74.913521118761309 0 74.913521118761309 62.380039804116677 0 0 0 0 51.208853696904526 67.338349608544377 0 67.338349608544377 99.873693186698802 0 0 0 0 79.792762334481949 94.833173739754784 0 94.833173739754784 84.197072334771292 0 0 0 0 86.808491369903834 66.212263106852333 0 66.212263106852333 47.490079500264983 0 0 0 0 61.436793033299637 48.787900531625382 0 48.787900531625382 12.111104060822981 0 0 0 0 70.837970441099799 67.672581613225702 0 67.672581613225702 50.024180065549444 0 0 0 0 61.512679223862136 40.299540251449798 0 40.299540251449798 19.81934989731235 0 0 0 0 71.462449333750698 23.579958602851548 0 23.579958602851548 47.514215766728739 0 0 0 0 46.378198108905849 18.095542377910533 0 18.095542377910533 164.59740860221791 0 0 0 0 60.343491641668209 2.9684230204402411 0 2.9684230204402411 102.65640414563677 0 0 0 0 65.480364844647966 35.506383023159287 0 35.506383023159287 114.95558174143662 0 0 0 0 72.021395452658993 58.617541467675437 0 58.617541467675437 68.82245743155363 0 0 0 0 77.500804492047962 57.53724661393062 0 57.53724661393062 64.1177985378622 0 0 0 0 66.732411929543659 53.618889557194962 0 53.618889557194962 113.93801577229897 0 0 0 0 76.63420447680727 62.484351810009684 0 62.484351810009684 71.297693142343633 0 0 0 0 55.508434205462592 29.515661447929688 0 29.515661447929688 68.778490409647929 0 0 0 0 46.059508849405859 61.220930473125918 0 61.220930473125918 111.96020651136496 0 0 0 0 81.166698295421298 24.890177131530436 0 24.890177131530436 199.67957759271667 0 0 0 0 60.15614595221632 34.904816535926329 0 34.904816535926329 139.50051603653992 0 0 0 0 75.291725948902126 66.577418136694178 0 66.577418136694178 112.65860511955407 0 0 0 0 70.720556683788402 53.356314552915137 0 53.356314552915137 166.35390265064598 0 0 0 0 46.128024463691816 19.907260758003758 0 19.907260758003758 174.31129429241446 0 0 0 0 68.339975471130344 63.03996834062491 0 63.03996834062491 124.31878533105919 0 0 0 0 63.384786724121568 47.665182764834753 0 47.665182764834753 164.35825176299113 0 0 0 0 42.029993018429906 48.821952008396693 0 48.821952008396693 240.36277988942311 0 0 0 0 34.418027222540758 21.699057492067368 0 21.699057492067368 239.72275723838902 0 0 0 0 54.366254270751512 44.21030280638297 0 44.21030280638297 231.71591422476195 0 0 0 0 81.528938995474959 66.087987517392321 0 66.087987517392321 244.79770566779189 0 0 0 0 64.733578064595193 23.56299830286207 0 23.56299830286207 290.16193344533531 0 0 0 0 124.14376536559087 53.47797645755054 0 53.47797645755054 304.55096641467389 0 0 0 0 44.714463982163053 59.362904072176207 0 59.362904072176207 331.3158466601235 0 0 0 0 40.681961866296547 43.834550963714719 0 43.834550963714719 422.59552320338844 0 0 0 0 -0.70432702318629481 10.331181831294089 0 10.331181831294089 314.96510991640389 0 0 0 0 -3.2939814017285727 20.9259698098831 0 20.9259698098831 377.74710336222051 0 0 0 0 32.25080220724081 13.730090752196702 0 13.730090752196702 316.90025249097471 0 0 0 0 -17.435114129679505 -10.069641798145312 0 -10.069641798145312 310.11440045253494 0 0 0 0 -20.038608350317588 -11.685151025325467 0 -11.685151025325467 326.20542354135978 0 0 0 0 -2.1530989685635973 -3.314762748839712 0 -3.314762748839712 283.65559686346387 0 0 0 0 -35.150537029002805 -29.214563813853601 0 -29.214563813853601 305.89864989843772 0 0 0 0 -14.69620224672002 -54.375288582538815 0 -54.375288582538815 275.94068959461583 0 0 0 0 -35.316435305259574 -30.451915562873182 0 -30.451915562873182 323.4098403622047 0 0 0 0 -36.634151411424114 -77.756447154049965 0 -77.756447154049965 314.85002555726896 0 0 0 0 -13.778614804350752 -50.132090763676388 0 -50.132090763676388 292.98684516652793 0 0 0 0 35.992557704499198 -24.436430157204427 0 -24.436430157204427 169.27601295019849 0 0 0 0 35.978068176667797 -22.628689489250903 0 -22.628689489250903 126.5500453062341 0 0 0 0 13.152334360157795 -107.46737280166781 0 -107.46737280166781 199.6665881709414 0 0 0 0 2.3343801339758556 -31.542642188536774 0 -31.542642188536774 220.12230273450041 0 0 0 0 19.603257804185375 -7.8275265097599913 0 -7.8275265097599913 223.95888750458107 0 0 0 0 70.74467374939627 -97.097045474261904 0 -97.097045474261904 92.832147346744023 0 0 0 0 -0.30305425595856983 0.054151666909657337 0 0.054151666909657337 1.0153187474564334 0 0 0 0 4.3518671899964829 -5.2996550820935227 0 -5.2996550820935227 5.2584274540386104 0 0 0 0 -1.3008229183883486 10.45987958042474 0 10.45987958042474 14.513975854704768 0 0 0 0 42.578996266018976 9.5061271139493329 0 9.5061271139493329 39.10427495906697 0 0 0 0 -34.600694756897724 -18.716968618842657 0 -18.716968618842657 46.125761466755648 0 0 0 0 0.62170981347956111 -0.64448865927568733 0 -0.64448865927568733 0.99338322579289695 0 0 0 0 54.559556223888649 -8.2830339393767645 0 -8.2830339393767645 210.68188950353965 0 0 0 0 -16.827208136908666 55.579866795611451 0 55.579866795611451 206.84885427735207 0 0 0 0 52.356201755192387 30.574235841839254 0 30.574235841839254 186.78303898637205 0 0 0 0 40.621620697794242 12.054353947503841 0 12.054353947503841 178.21609208498921 0 0 0 0 31.089521399688948 61.361001648066576 0 61.361001648066576 110.51820139427582 0 0 0 0 21.661143009392049 -2.6767603330699785 0 -2.6767603330699785 58.44797248593386 0 0 0 0 46.610592603076611 44.840621855297286 0 44.840621855297286 71.621943567733979 0 0 0 0 43.536957655285619 21.748513101465505 0 21.748513101465505 110.29740965676319 0 0 0 0 60.114425344585356 63.093294868107478 0 63.093294868107478 105.06666077636328 0 0 0 0 52.426392967469667 65.900422298316698 0 65.900422298316698 173.41991504726684 0 0 0 0 33.612279768599677 59.959087432037677 0 59.959087432037677 141.88793931620603 0 0 0 0 76.746056884175346 10.300533954330604 0 10.300533954330604 184.9499136706836 0 0 0 0 62.680051361289287 25.434676416301954 0 25.434676416301954 289.75456604771171 0 0 0 0 99.315204098785728 42.326807525034383 0 42.326807525034383 210.65651094591885 0 0 0 0 94.839163296519558 11.8888004951732 0 11.8888004951732 386.86749917347333 0 0 0 0 75.541500154100362 -41.819575165544848 0 -41.819575165544848 405.7148043537527 0 0 0 0 133.48059325439664 21.356161128223903 0 21.356161128223903 288.98397059026956 0 0 0 0 30.909401827368015 20.131956016872209 0 20.131956016872209 319.87690789888438 0 0 0 0 22.409536682899898 -8.9878120541352473 0 -8.9878120541352473 363.46257110377337 0 0 0 0 62.397983861128296 -11.90112154522285 0 -11.90112154522285 406.07109104580854 0 0 0 0 36.912970980578052 50.147392142924218 0 50.147392142924218 221.37006868758726 0 0 0 0 83.963785696973162 -7.505913074689488 0 -7.505913074689488 269.04981514375686 0 0 0 0 4.7789708092462888 16.815598533910816 0 16.815598533910816 283.14868401682179 0 0 0 0 32.219448751488471 21.146491974079254 0 21.146491974079254 283.58411837672429 0 0 0 0 -5.284394203805391 32.089889549119107 0 32.089889549119107 417.70593606445254 0 0 0 0 -4.7505986614945641 36.894747365775402 0 36.894747365775402 366.85842836472239 0 0 0 0 26.738351544051739 40.725065813130641 0 40.725065813130641 365.9977034607291 0 0 0 0 46.763793521610296 89.201528817688086 0 89.201528817688086 352.79000571184406 0 0 0 0 64.144672244368621 43.536192916362779 0 43.536192916362779 372.70054788897323 0 0 0 0 8.421794949558091 76.013618775419673 0 76.013618775419673 444.95115443420218 0 0 0 0 61.855870337653187 41.182478627960336 0 41.182478627960336 242.3704139850197 0 0 0 0 69.230393239576415 16.314273906355083 0 16.314273906355083 247.35566410477259 0 0 0 0 20.958705880023501 9.0938226131211195 0 9.0938226131211195 443.18508340490735 0 0 0 0 -20.086062142783021 33.250326891642544 0 33.250326891642544 432.65616460936872 0 0 0 0 -39.130247504025533 11.729563976197824 0 11.729563976197824 418.68556781520601 0 0 0 0 15.763294301227109 8.6397893961444296 0 8.6397893961444296 2.3113625952370356 0 0 0 0 230.51273906290362 183.08816141099305 0 183.08816141099305 -349.514387852038 0 0 0 0 -88.470544635464876 167.0477192196804 0 167.0477192196804 103.88258148482055 0 0 0 0 132.44195326249849 116.4086210189198 0 116.4086210189198 144.61792750188761 0 0 0 0 -74.05940600040276 111.82173082744703 0 111.82173082744703 -74.460743837531481 0 0 0 0 18.655528226801138 10.979733552844564 0 10.979733552844564 0.74356721419094995 0 0 0 0 -7.5336006319800219 -15.446433371895182 0 -15.446433371895182 280.07095315480547 0 0 0 0 -36.801127290149452 29.055127045292465 0 29.055127045292465 429.18489661920103 0 0 0 0 -11.150884124005813 -24.690715834571165 0 -24.690715834571165 491.95761303965264 0 0 0 0 1.8960303536219953 97.463048010431521 0 97.463048010431521 400.37740657388349 0 0 0 0 -6.3259775356664605 63.873759887355391 0 63.873759887355391 688.43977851775708 0 0 0 0 120.71437251925894 283.8911810638092 0 283.8911810638092 305.93404273052147 0 0 0 0 161.20222145313585 -127.0963587942897 0 -127.0963587942897 537.11656650315854 0 0 0 0 276.00788109853823 42.090053667525353 0 42.090053667525353 391.89610764899135 0 0 0 0 39.727489050084188 -20.980217031779375 0 -20.980217031779375 -14.847322004839953 0 0 0 0 16.638950393074879 9.9326559548280784 0 9.9326559548280784 23.436913669014757 0 0 0 0 -0.13537608214246077 5.3093234732852537 0 5.3093234732852537 5.5576421718685367 0 0 0 0 -52.661315083619947 -47.324337796126201 0 -47.324337796126201 11.058156422528555 0 0 0 0 15.291741974278011 17.315411554980528 0 17.315411554980528 -55.252211828708823 0 0 0 0 -122.21558952091891 41.552939574406992 0 41.552939574406992 4.2967695455081412 0 0 0 0 -1.5123862072840808 7.2615278062002879 0 7.2615278062002879 -1.4339432317139966 0 0 0 0 -1.2978268806327833 -4.3199313809213891 0 -4.3199313809213891 10.83156530829001 0 0 0 0 39.738189522563403 -0.28574482102658294 0 -0.28574482102658294 -7.8041875825438183 0 0 0 0 15.393131391431552 55.259508641086541 0 55.259508641086541 73.524300036093337 0 0 0 0 29.336316894122319 94.223685396626024 0 94.223685396626024 128.63487455597351 0 0 0 0 71.532099872205436 90.683296067033552 0 90.683296067033552 24.905590481957915 0 0 0 0 -202.67397165370994 -74.745947243536648 0 -74.745947243536648 52.164633831245737 0 0 0 0 25.350182992245209 25.049795180713772 0 25.049795180713772 113.91015995494672 0 0 0 0 -2.9244412688159773 2.1148755309081864 0 2.1148755309081864 -0.80236544048776182 0 0 0 0 -130.3325318591726 44.919263221104302 0 44.919263221104302 164.78300265893631 0 0 0 0 -150.09748626779947 -99.005426196043118 0 -99.005426196043118 62.965930446471248 0 0 0 0 -94.359454324485569 -52.609133076069156 0 -52.609133076069156 8.8478932297111896 0 0 0 0 -153.54274461972659 -21.142727998686496 0 -21.142727998686496 -7.8818067952270212 0 0 0 0 -0.89242955434896798 0.89017844877488628 0 0.89017844877488628 5.2671365862178163 0 0 0 0 -84.595650232254457 5.9036856831044133 0 5.9036856831044133 210.87355320432107 0 0 0 0 249.66194132209057 235.35674800369816 0 235.35674800369816 104.69853337279028 0 0 0 0 -6.2567140405918735 5.531150457170952 0 5.531150457170952 222.06237555808184 0 0 0 0 -22.59719945371495 -42.42383947750568 0 -42.42383947750568 300.77333891691887 0 0 0 0 13.43923374731645 -0.38563753869128448 0 -0.38563753869128448 0.4110154239480508 0 0 0 0 -7.2328666612932011 18.003090888098086 0 18.003090888098086 318.02411010599462 0 0 0 0 -50.101342298056466 -31.058002187003694 0 -31.058002187003694 389.93022294561524 0 0 0 0 -49.43858329927005 -27.815305750053085 0 -27.815305750053085 324.24086446786532 0 0 0 0 -46.143479053640988 14.046227464965341 0 14.046227464965341 317.72824664335621 0 0 0 0 -35.605132925794436 -23.788795473656137 0 -23.788795473656137 304.66556722843961 0 0 0 0 -30.291948547709438 -37.456356736167436 0 -37.456356736167436 337.05150581121416 0 0 0 0 -21.689887290059858 -55.579930722276913 0 -55.579930722276913 372.34077647054278 0 0 0 0 -18.843370251516006 -39.602590108823279 0 -39.602590108823279 308.11728676663915 0 0 0 0 83.290550603685773 -181.30034797141343 0 -181.30034797141343 483.71186778705669 0 0 0 0 95.912050883307785 74.562594408296718 0 74.562594408296718 578.89745490822679 0 0 0 0 89.212403137410689 40.022900752257556 0 40.022900752257556 407.07490622773184 0 0 0 0 29.842432427147799 -81.609702081499563 0 -81.609702081499563 486.35593558939945 0 0 0 0 10.341160979630132 -29.661613116018998 0 -29.661613116018998 364.85798854823952 0 0 0 0 38.027330976266171 -43.981934045710659 0 -43.981934045710659 616.05521302147463 0 0 0 0 4.3625598399575001 1.8240727140877269 0 1.8240727140877269 1.0595135242584206 0 0 0 0 83.068770013573157 -175.12491708307482 0 -175.12491708307482 314.02395021594566 0 0 0 0 8.6503610067955492 13.490229951591239 0 13.490229951591239 12.598197173085001 0 0 0 0 -23.865919320810463 -40.25049388239313 0 -40.25049388239313 308.54440164384141 0 0 0 0 13.56114177908924 -0.36956883690925224 0 -0.36956883690925224 4.096515273740458 0 0 0 0 52.420882430397057 -54.115086712707125 0 -54.115086712707125 158.9317380933353 0 0 0 0 -0.93367788814045927 10.605652483721457 0 10.605652483721457 27.309331887763349 0 0 0 0 9.507760340456116 -1.8947266109025804 0 -1.8947266109025804 41.736243373190518 0 0 0 0 13.225025199828906 -5.3947539877462987 0 -5.3947539877462987 37.772441330400397 0 0 0 0 0.036827221807698152 93.671371882997846 0 93.671371882997846 94.102556624922727 0 0 0 0 -22.728335635391886 47.203554816189353 0 47.203554816189353 66.845621868502349 0 0 0 0 -9.0621772813433381 -0.96682534878709703 0 -0.96682534878709703 13.275046783866856 0 0 0 0 94.591373476940589 235.42217403013365 0 235.42217403013365 199.19911696336567 0 0 0 0 -1.1575918911594885 0.22791812943548706 0 0.22791812943548706 0.67441569136617829 0 0 0 0 61.924383182876227 51.137787562554877 0 51.137787562554877 59.501505862277554 0 0 0 0 4.5060780745625379 127.22370101307388 0 127.22370101307388 240.84425491344882 0 0 0 0 62.116730487526638 126.67826549428901 0 126.67826549428901 115.54168809645853 0 0 0 0 -84.538497718615531 74.716555622047963 0 74.716555622047963 -62.858757870155387 0 0 0 0 -99.794028840554802 -44.880005478409657 0 -44.880005478409657 36.006372741829182 0 0 0 0 -41.038875836142324 5.4202996603125939 0 5.4202996603125939 47.079075748501054 0 0 0 0 -235.88844198128527 -124.23205180703553 0 -124.23205180703553 44.757919065697934 0 0 0 0 -1.5404946262090595 4.4637645036424978 0 4.4637645036424978 35.66437571861271 0 0 0 0 9.1152668030322275 -3.1220270803369203 0 -3.1220270803369203 36.193606152264692 0 0 0 0 9.9960365256067405 -13.486081991393121 0 -13.486081991393121 26.924261026622844 0 0 0 0 14.089881471488297 0.58865036525094183 0 0.58865036525094183 36.658732373489329 0 0 0 0 29.86746545175447 -12.763326351829164 0 -12.763326351829164 32.826163209821971 0 0 0 0 16.37467334849589 4.0744573917745583 0 4.0744573917745583 41.906300622533308 0 0 0 0 10.817431835935395 0.81340857914801745 0 0.81340857914801745 46.551554932368163 0 0 0 0 9.0355486946729116 -3.8355648432861926 0 -3.8355648432861926 31.161866871043458 0 0 0 0 7.2949514615133921 -15.917547655225462 0 -15.917547655225462 40.30136873479205 0 0 0 0 8.2050083983740478 -6.4156898052533506 0 -6.4156898052533506 67.285601339968707 0 0 0 0 1.5637938701565677 2.89058816740976 0 2.89058816740976 -0.063595286390391692 0 0 0 0 30.178884004778411 -13.404453337874656 0 -13.404453337874656 40.996472046404961 0 0 0 0 6.788566415346228 -15.075806475825175 0 -15.075806475825175 34.720971963244466 0 0 0 0 12.655620477154116 -0.88376546648942167 0 -0.88376546648942167 32.269052471245232 0 0 0 0 3.8718747132197677 -10.939320043216867 0 -10.939320043216867 40.24671833425873 0 0 0 0 12.736266962424793 -4.8275753278585398 0 -4.8275753278585398 41.8591509566686 0 0 0 0 -0.16949826005350133 -9.1237730143693625 0 -9.1237730143693625 44.11113133058825 0 0 0 0 2.9544217744463594 -10.221316854418546 0 -10.221316854418546 44.450878556344833 0 0 0 0 0.15117457310973759 -4.5384610147786475 0 -4.5384610147786475 4.0599550262251007 0 0 0 0 6.5947536744025115 -8.2076154540936841 0 -8.2076154540936841 33.262799131582142 0 0 0 0 -2.6012386306157396 -8.3368571548617183 0 -8.3368571548617183 25.539764903453033 0 0 0 0 4.876445283893581 1.0637554500448516 0 1.0637554500448516 8.3219831743897572 0 0 0 0 5.1620321421817108 -13.512939012554654 0 -13.512939012554654 22.144946238329538 0 0 0 0 83.005202648583406 161.65903611672547 0 161.65903611672547 324.5539751869328 0 0 0 0 6.3007828771396817 -3.0792274437699234 0 -3.0792274437699234 8.1764391169836017 0 0 0 0 8.677605892296441 -3.9376413147469904 0 -3.9376413147469904 4.3371953124424536 0 0 0 0 52.835513546041852 31.525437228588999 0 31.525437228588999 152.26565032500002 0 0 0 0 7.7371092283052914 -4.4823538215737386 0 -4.4823538215737386 3.8557549223885133 0 0 0 0 4.654217758690808 -1.2579012348657841 0 -1.2579012348657841 2.770783353812277 0 0 0 0 116.90345351001463 -37.986000350141694 0 -37.986000350141694 20.217787067645986 0 0 0 0 4.0492495371626154 -2.9896162362924343 0 -2.9896162362924343 2.8878445884097346 0 0 0 0 2.4325689492824267 -25.362753614768735 0 -25.362753614768735 -0.68226732593757333 0 0 0 0 73.990444542544765 229.81882154801269 0 229.81882154801269 703.45592759926512 0 0 0 0 -0.91871833711650197 -99.626461027957703 0 -99.626461027957703 815.72692053888022 0 0 0 0 -4.362767092529964 -13.119217860301433 0 -13.119217860301433 592.84554961771937 0 0 0 0 -24.487784778316041 -77.130161380573554 0 -77.130161380573554 428.79790983132261 0 0 0 0 -45.690480852565429 24.371579958413349 0 24.371579958413349 523.01661221462564 0 0 0 0 -28.745679103332805 -198.38030672002424 0 -198.38030672002424 702.58266960902256 0 0 0 0 14.101165578710152 -213.61675527814077 0 -213.61675527814077 682.52557089689799 0 0 0 0 -46.133431381615537 -22.650484363308351 0 -22.650484363308351 494.47806319210213 0 0 0 0 -36.12737909561929 -86.895237295182596 0 -86.895237295182596 852.8193692123732 0 0 0 0 137.28937210378285 169.32026969005892 0 169.32026969005892 566.5688238856892 0 0 0 0 -36.38651846589778 -224.57504699093988 0 -224.57504699093988 776.44959926372758 0 0 0 0 -25.175017821289771 13.967672640945239 0 13.967672640945239 18.800568579863466 0 0 0 0 2.8244159300902432 0.50828038031527711 0 0.50828038031527711 -0.31760035716981605 0 0 0 0 55.190297631195335 -49.500776984474214 0 -49.500776984474214 -60.372460968188534 0 0 0 0 128.88927472610658 -147.29796554756649 0 -147.29796554756649 69.124797126140038 0 0 0 0 -10.466990487065459 -22.235536710792985 0 -22.235536710792985 88.260173908194702 0 0 0 0 8.8659955801849719 -5.1796915150625864 0 -5.1796915150625864 29.570018131129473 0 0 0 0 0.91262899475987069 -5.4838402333552949 0 -5.4838402333552949 39.205812482447982 0 0 0 0 0.1082801384169565 -3.7170764570039836 0 -3.7170764570039836 -1.302145202932337 0 0 0 0 2.1751935246272183 -8.2936284500283364 0 -8.2936284500283364 41.73170802538516 0 0 0 0 0.11390508122227061 -7.5779865563090425 0 -7.5779865563090425 45.579713612372871 0 0 0 0 0.098823572578794483 -7.1193385081605811 0 -7.1193385081605811 43.785625721735414 0 0 0 0 0.071537775435217554 -7.0923381252036961 0 -7.0923381252036961 47.003933010142646 0 0 0 0 1.297613652918244 -4.2074307252769358 0 -4.2074307252769358 47.615033312766172 0 0 0 0 1.2448096916937175 -3.7837326869375829 0 -3.7837326869375829 44.235847719872254 0 0 0 0 1.0857703635074358 -5.2139751174036064 0 -5.2139751174036064 47.129429715754668 0 0 0 0 -3.1978431699397909 -15.210767612240303 0 -15.210767612240303 20.89494382978657 0 0 0 0 3.1301538628777053 1.0061234107361088 0 1.0061234107361088 65.278292889182921 0 0 0 0 -3.4302664702936454 -11.462250315529673 0 -11.462250315529673 109.73009982570511 0 0 0 0 -30.89576351354026 -36.778618849730265 0 -36.778618849730265 150.27688001213028 0 0 0 0 -0.94829949822502613 -3.7244701798908011 0 -3.7244701798908011 12.407140416210964 0 0 0 0 54.072144512716477 -38.200817182711035 0 -38.200817182711035 57.914062267604095 0 0 0 0 -32.369956533035293 -46.532181595432121 0 -46.532181595432121 218.12124604793644 0 0 0 0 0.15923885742709309 -4.1757894668635487 0 -4.1757894668635487 -2.1589418837605763 0 0 0 0 0.079519292462009616 -5.892384036029398 0 -5.892384036029398 49.392282370885368 0 0 0 0 1.1639607057940324 8.4807632760466163 0 8.4807632760466163 12.939448296198911 0 0 0 0 -38.811558242567116 18.846639825416787 0 18.846639825416787 188.46107918351845 0 0 0 0 25.931130091346859 3.2178665773681132 0 3.2178665773681132 32.251080574933439 0 0 0 0 -43.451366525027879 -65.746683613573623 0 -65.746683613573623 135.80202019865101 0 0 0 0 14.054912490625611 -23.699020059793838 0 -23.699020059793838 55.990242230684089 0 0 0 0 15.776954069927342 41.810218565165997 0 41.810218565165997 100.80438329223398 0 0 0 0 -0.17307451293618215 -12.36331408712249 0 -12.36331408712249 103.57006589565572 0 0 0 0 -8.220309475547765 -1.9772351828505634 0 -1.9772351828505634 152.52833202742931 0 0 0 0 -6.4977306774102956 -25.150629949901216 0 -25.150629949901216 31.77702876587459 0 0 0 0 6.2545889136836195 5.7616062637098366 0 5.7616062637098366 103.50925599534094 0 0 0 0 -8.6681686596430154 54.397591328437557 0 54.397591328437557 252.68014906955796 0 0 0 0 15.111962846533061 -55.002424560465442 0 -55.002424560465442 284.89126232842864 0 0 0 0 -0.1576745102120185 37.787144941365113 0 37.787144941365113 131.79912981119378 0 0 0 0 -12.372171770684872 -3.7109707044837705 0 -3.7109707044837705 222.84425763046875 0 0 0 0 -24.582372269112966 23.230822565928975 0 23.230822565928975 222.96252911104239 0 0 0 0 -24.626073806799468 3.6877304986883246 0 3.6877304986883246 151.40836451075393 0 0 0 0 -0.11808339262461232 40.407557724251092 0 40.407557724251092 240.39202638150891 0 0 0 0 -39.98902640426968 16.078005784167544 0 16.078005784167544 236.48466860354529 0 0 0 0 10.312308912833032 93.012089142175682 0 93.012089142175682 241.77384658603842 0 0 0 0 -67.142567504679391 60.189291070808395 0 60.189291070808395 245.68875002436107 0 0 0 0 -10.581364538016715 17.537358497571404 0 17.537358497571404 198.68200113408966 0 0 0 0 87.209758009263169 39.089905009081122 0 39.089905009081122 197.37242060480321 0 0 0 0 14.404482599061339 -9.0425017176294205 0 -9.0425017176294205 214.96519480129064 0 0 0 0 -15.240047972576576 -8.4526968267855409 0 -8.4526968267855409 215.0117054827424 0 0 0 0 34.161845964870736 -6.3218888095980219 0 -6.3218888095980219 160.8730034075561 0 0 0 0 12.60765351351256 -24.654155296808312 0 -24.654155296808312 194.77276405017619 0 0 0 0 18.527561344498736 41.477677288200496 0 41.477677288200496 77.754445477695356 0 0 0 0 19.933346887275547 6.6187540758037358 0 6.6187540758037358 181.44184937557293 0 0 0 0 89.821044535853616 -29.428594220280502 0 -29.428594220280502 159.33556077475077 0 0 0 0 -46.011796244749803 -133.4912987064472 0 -133.4912987064472 473.94830919129527 0 0 0 0 -74.513633614073115 -42.58951019430242 0 -42.58951019430242 217.93728938096592 0 0 0 0 -33.934308146236617 -2.9899361211955693 0 -2.9899361211955693 219.27283910836559 0 0 0 0 -54.641175236392883 -1.2857098431632039 0 -1.2857098431632039 219.34908881390766 0 0 0 0 -109.15105193656291 59.203822073395713 0 59.203822073395713 316.35290934931982 0 0 0 0 -67.251751332505592 -12.375535827426575 0 -12.375535827426575 305.93042675816105 0 0 0 0 -66.051435760215099 57.025278449571488 0 57.025278449571488 253.57325971766841 0 0 0 0 -109.41909698736163 86.293453793077788 0 86.293453793077788 277.42621226093615 0 0 0 0 56.131077955061073 20.168521941255676 0 20.168521941255676 373.21927903593314 0 0 0 0 -91.226225877489014 37.118420335515111 0 37.118420335515111 289.10473804271896 0 0 0 0 -142.93873858801908 46.963484595711634 0 46.963484595711634 412.54216763062504 0 0 0 0 -134.01549886660928 65.805861933234155 0 65.805861933234155 284.61321462370688 0 0 0 0 -111.26318854741112 127.32341552824892 0 127.32341552824892 182.12169660191284 0 0 0 0 -174.98941082759393 206.23129362516556 0 206.23129362516556 73.821620030877966 0 0 0 0 -224.44111199449799 64.496695540143264 0 64.496695540143264 149.78057018799518 0 0 0 0 -168.11087507809043 83.431671629852644 0 83.431671629852644 306.52324460899399 0 0 0 0 -110.88026428161447 123.55121274515295 0 123.55121274515295 195.63895715532999 0 0 0 0 -91.203286296437 67.205388755028252 0 67.205388755028252 253.11055684435996 0 0 0 0 -27.292889609624126 84.272951994556024 0 84.272951994556024 80.884473225734837 0 0 0 0 -42.212250665236752 113.39778483107966 0 113.39778483107966 94.686996089472814 0 0 0 0 -93.628492014871881 91.749306923004042 0 91.749306923004042 236.01559000354609 0 0 0 0 -67.748416100152099 88.640283762048057 0 88.640283762048057 166.28057076297773 0 0 0 0 4.1608780533989531 33.941289928279943 0 33.941289928279943 45.674567300378882 0 0 0 0 13.673605022281663 82.040646473375091 0 82.040646473375091 -158.81741061701905 0 0 0 0 -3.9368045987983251 20.935070487611902 0 20.935070487611902 30.48686972636348 0 0 0 0 -113.54882710234324 186.18110784936289 0 186.18110784936289 -64.71319829132517 0 0 0 0 -82.692907130692504 117.29777268609405 0 117.29777268609405 -110.92007899042801 0 0 0 0 -84.237621845613205 105.21813612286496 0 105.21813612286496 93.533988742099609 0 0 0 0 -273.95248554710997 180.4327671660576 0 180.4327671660576 -59.097484860903933 0 0 0 0 -5.9332421119109249 3.6344811061283764 0 3.6344811061283764 19.503524472305187 0 0 0 0 26.593416024812541 49.821056476095691 0 49.821056476095691 103.07021760306088 0 0 0 0 28.336965479658829 59.885922866655164 0 59.885922866655164 109.7522790082221 0 0 0 0 26.230445910412875 61.651565144579635 0 61.651565144579635 69.751236212424089 0 0 0 0 -16.32295496644474 26.933771526666533 0 26.933771526666533 129.84850145626115 0 0 0 0 33.56693348704357 130.00958748853736 0 130.00958748853736 176.11032396256633 0 0 0 0 7.7605786056643087 31.760348750508456 0 31.760348750508456 -2.2386904498549001 0 0 0 0 -43.199805967396969 -31.28052806355845 0 -31.28052806355845 281.90282782612485 0 0 0 0 32.131717065194266 62.308724129728034 0 62.308724129728034 104.29936857978464 0 0 0 0 -2.6079127418761345 36.271882252458454 0 36.271882252458454 69.596085319628855 0 0 0 0 8.0521069827945322 41.583234421779899 0 41.583234421779899 67.637606961075306 0 0 0 0 -14.970003548611203 30.660432961460174 0 30.660432961460174 70.04446772562369 0 0 0 0 30.815758836295572 41.196804811064794 0 41.196804811064794 80.570981174249027 0 0 0 0 55.954012006400717 56.097830620816239 0 56.097830620816239 100.54126332893793 0 0 0 0 32.049732939718524 54.546351175042219 0 54.546351175042219 126.64706254411431 0 0 0 0 21.175784443588327 41.829850685727251 0 41.829850685727251 119.16917325314716 0 0 0 0 16.157817161960338 43.976124774515483 0 43.976124774515483 134.51264882076066 0 0 0 0 0.60262595275344211 27.009578897326719 0 27.009578897326719 120.77773506037192 0 0 0 0 -7.3140609031777171 15.218041633773584 0 15.218041633773584 80.602057505781119 0 0 0 0 -6.2418115343208092 7.1435610508620098 0 7.1435610508620098 69.082915737698073 0 0 0 0 -12.288047655625292 -1.9594203063229543 0 -1.9594203063229543 73.258322381137987 0 0 0 0 -11.44269834871011 5.5569339814246632 0 5.5569339814246632 56.578890040182159 0 0 0 0 -10.691031389518685 4.7552700539781654 0 4.7552700539781654 70.686746956700517 0 0 0 0 -25.638607817374446 -9.1140161710823833 0 -9.1140161710823833 51.734416913532499 0 0 0 0 -7.1817973831247599 17.024559745985016 0 17.024559745985016 57.472152178597753 0 0 0 0 2.1739222588689699 5.2656875525608484 0 5.2656875525608484 65.275629421703343 0 0 0 0 -7.1011940409625822 18.473879607401614 0 18.473879607401614 83.002493653795682 0 0 0 0 -11.217225090603772 2.9873988363034982 0 2.9873988363034982 36.037191912151258 0 0 0 0 -17.434775340663691 2.8802537007140927 0 2.8802537007140927 83.396226561704566 0 0 0 0 -8.1175881999665762 -1.0391295414738124 0 -1.0391295414738124 52.941130053412053 0 0 0 0 -9.1522833514544573 0.66902032490452257 0 0.66902032490452257 68.30613711582555 0 0 0 0 -9.7922083327810618 -16.114652948136978 0 -16.114652948136978 22.83665353588021 0 0 0 0 -4.8158057838468267 3.3911804698564083 0 3.3911804698564083 69.181657703597011 0 0 0 0 -7.3090507219858161 -1.1611073307212791 0 -1.1611073307212791 74.747213616949011 0 0 0 0 -6.7362759320430605 -17.390871746344921 0 -17.390871746344921 28.299302181243419 0 0 0 0 -1.6062955852846077 21.615919332702106 0 21.615919332702106 30.120040261692608 0 0 0 0 -31.611233390347024 179.72350602442384 0 179.72350602442384 -208.6935404753458 0 0 0 0 1.8348905246592295 7.1614835409670832 0 7.1614835409670832 74.176996216447151 0 0 0 0 -124.74272806706108 -50.041456352020759 0 -50.041456352020759 -159.82686229267711 0 0 0 0 -33.927370272610688 153.3767944157953 0 153.3767944157953 -469.16671320554087 0 0 0 0 -296.92407650414498 196.4769628823633 0 196.4769628823633 -83.395413793929038 0 0 0 0 -3.0842850248124938 1.900089055631426 0 1.900089055631426 10.203192083152537 0 0 0 0 -93.666895251789356 64.892386851759511 0 64.892386851759511 -316.20807428189437 0 0 0 0 -314.2665787333687 236.63346009716042 0 236.63346009716042 -189.9505371915584 0 0 0 0 -376.22343648807475 210.49561685951267 0 210.49561685951267 -83.403425106778741 0 0 0 0 -151.12909823568435 -64.507447145862898 0 -64.507447145862898 96.586887037825363 0 0 0 0 -2.6016725544237032 -2.0291031803109618 0 -2.0291031803109618 8.7715636917289856 0 0 0 0 -16.925024764958842 -46.235140197663441 0 -46.235140197663441 56.85067028755293 0 0 0 0 -37.937199965981904 25.511896432055437 0 25.511896432055437 -63.839969070351799 0 0 0 0 -245.70576368525769 63.988503650074563 0 63.988503650074563 -46.570395561317127 0 0 0 0 35.016309231004414 41.075789656493725 0 41.075789656493725 35.615039533935487 0 0 0 0 24.621755948219743 78.268851586804885 0 78.268851586804885 -90.367119916576485 0 0 0 0 35.125098265598012 -11.712201037807972 0 -11.712201037807972 7.4968919188286236 0 0 0 0 49.034628780464288 -58.649488689570717 0 -58.649488689570717 68.032137441879968 0 0 0 0 -7.7147976185265179 -4.3587732367413992 0 -4.3587732367413992 -165.40812940274191 0 0 0 0 -21.857235240660316 -31.928767472523759 0 -31.928767472523759 8.3383732659895031 0 0 0 0 -122.88757340091377 61.322678444790654 0 61.322678444790654 -84.263357426025323 0 0 0 0 -162.03640995137243 -63.1642837288382 0 -63.1642837288382 3.7347269293859426 0 0 0 0 30.200570024080093 -48.720698054685272 0 -48.720698054685272 -12.44051857409795 0 0 0 0 -29.530279447031091 -57.530418786317568 0 -57.530418786317568 167.86991158244928 0 0 0 0 23.615437974187415 -143.07182135836956 0 -143.07182135836956 83.373433927976293 0 0 0 0 5.4836286549823399 -71.282187783326663 0 -71.282187783326663 206.17562713793086 0 0 0 0 -36.043766331886317 -66.830051943706962 0 -66.830051943706962 420.10165894231613 0 0 0 0 32.653679164191999 -155.74907447345322 0 -155.74907447345322 259.91299325719228 0 0 0 0 65.36015889174223 -169.05618110693467 0 -169.05618110693467 190.01942837734714 0 0 0 0 -0.42147898778770809 -88.156884857615296 0 -88.156884857615296 357.71214344058535 0 0 0 0 147.38814699250156 -155.97549628683919 0 -155.97549628683919 381.02365960787574 0 0 0 0 151.7063133928948 -234.66678781885639 0 -234.66678781885639 620.65817637126383 0 0 0 0 341.20054098305604 5.3071440720159444 0 5.3071440720159444 342.06607553936919 0 0 0 0 103.33783613347842 39.007328791639793 0 39.007328791639793 174.92534816305124 0 0 0 0 90.448543461910276 -63.05440367121264 0 -63.05440367121264 324.33716175606969 0 0 0 0 20.344006456926309 152.38019703926329 0 152.38019703926329 250.22235545543299 0 0 0 0 10.738675012312342 -10.962257918657997 0 -10.962257918657997 417.36362428019493 0 0 0 0 -9.1407560807347181 101.99163663245054 0 101.99163663245054 287.22581132604682 0 0 0 0 -12.119040414362644 103.56597067153416 0 103.56597067153416 294.45863056574308 0 0 0 0 -3.3022856391980895 -45.579894993752532 0 -45.579894993752532 458.55057051710173 0 0 0 0 -42.259010245546961 142.38270831578848 0 142.38270831578848 116.79285564606835 0 0 0 0 -33.226273483823491 48.600592650931958 0 48.600592650931958 233.81630864104955 0 0 0 0 -6.6020636322930386 142.4346948586699 0 142.4346948586699 -196.58671470337868 0 0 0 0 -85.032813418361229 191.53440524519465 0 191.53440524519465 35.260989760739903 0 0 0 0 11.069389245750244 54.156356089210021 0 54.156356089210021 128.72685434587765 0 0 0 0 -71.165231104925624 168.93473473351332 0 168.93473473351332 127.0082849702776 0 0 0 0 -9.9610853763301748 143.54867421500967 0 143.54867421500967 -38.835181757014652 0 0 0 0 -120.13072657337887 179.35544464753821 0 179.35544464753821 -39.157498992681212 0 0 0 0 8.0667775553208685 45.828135046838725 0 45.828135046838725 -20.019990018408862 0 0 0 0 -127.92857666584712 23.254673598366935 0 23.254673598366935 175.59862031448574 0 0 0 0 
</DataArray>
<DataArray type="Float64" Name="cross_section_updated" format="ascii">
1 1 1 0.010541923836037737 1 1 0.010423822320260115 1 1 1 1 1 1 1 1 0.0098997700488706094 0.010013156269565882 1 1 1 1 0.013071108952261512 1 1 0.010954018103498447 0.0099470227761645613 1 0.01124272921815862 1 0.010105306686746848 1 1 1 0.0099088601860274558 1 1 1 1 1 1 1 1 1 1 1 1 1 0.011551370033358512 0.01072199318778275 1 1 1 1 1 1 1 1 1 1 1 1 1 1 1 1 1 1 1 1 1 0.016410568288808325 1 1 0.009993921635712423 1 1 1 1 1 1 1 1 1 1 1 1 1 1 1 0.012644845847076097 1 1 1 1 1 0.010525979334180854 1 1 1 1 0.0099975936833866658 0.015051782904597201 1 1 1 1 1 1 1 1 0.010094677633624568 0.010504973641266745 1 1 0.02296852358067953 1 1 0.011579515829300739 1 0.0094272534571741336 1 0.01422988023847563 1 0.009986889935235662 1 1 1 0.011149896419949351 1 0.011481860505752898 1 0.015042442573681543 1 1 0.01323954096396467 1 1 1 1 1 0.014699144927558208 1 1 1 1 0.0141355064828262 0.0072788482761308258 1 0.018980528695298003 1 0.010970752233612838 0.015787652911256701 0.011498382823119539 1 1 1 1 1 1 1 1 1 1 1 1 1 1 1 1 1 0.016214448780482713 1 1 1 1 1 1 1 1 1 1 1 1 1 1 1 1 1 1 1 1 1 1 1 1 1 0.0099774161532232269 1 1 1 1 1 1 0.0099367730266482993 1 1 1 1 1 1 1 0.010096597428269398 1 1 1 1 0.0099814591452310301 1 0.010223405457646127 1 1 1 1 1 1 1 1 1 1 1 1 1 1 1 1 1 1 1 1 1 1 1 0.011923299726731592 1 1 1 1 1 1 1 1 1 1 1 1 1 1 1 0.009716452021528375 0.0099724641347657302 0.014473986271970957 1 1 1 1 1 1 0.015007948662637716 1 1 1 1 0.010823193692659133 0.010154160792523521 1 1 1 1 0.01065130842561433 0.010401303652483601 1 1 0.016564952597391061 0.016871190150786902 1 1 0.013895924848671155 1 1 1 1 0.0099019611538711302 0.011219056087698584 1 1 1 1 1 1 1 0.0091661124337933456 1 0.012561002328006686 1 1 1 1 1 1 0.009433670519603414 1 1 1 1 1 0.010624390813443598 1 1 1 1 1 1 1 1 1 1 1 1 0.010092750726332728 1 1 0.010120286591567001 1 1 1 1 1 1 1 1 1 1 1 1 1 1 1 1 1 1 1 1 1 1 1 1 1 1 1 1 1 1 1 1 1 1 1 1 1 0.010375915107710697 1 1 1 1 1 1 1 1 1 1 0.010989467283662411 1 1 1 0.011237942989395304 1 0.0093980317700839474 1 1 1 1 1 0.0088317022896873629 1 1 1 1 0.0096278025933679481 1 1 1 1 1 1 1 1 1 0.010344695123116329 1 1 1 0.010003569366142375 1 1 1 0.010695894035110729 1 1 1 0.010351198911994392 1 1 1 1 1 1 1 1 1 1 0.010401661424685094 1 1 1 1 1 1 1 1 1 1 1 0.010398092058542717 1 1 1 1 1 1 1 0.010106166340142487 1 1 1 1 1 1 0.011125445975076219 0.011206850387089825 1 1 1 0.011334534318862262 1 1 1 1 1 1 1 1 1 1 1 1 1 1 1 1 1 1 1 1 1 1 1 1 1 1 1 1 1 1 1 0.0099592857423717995 1 1 1 1 1 1 1 1 1 1 1 1 1 1 1 1 1 1 1 1 1 1 0.010470381956583636 1 0.025778955169755709 1 1 1 1 1 0.008725443696580043 1 1 1 1 0.027478760824374511 1 1 1 0.011308940690706577 1 1 1 1 1 1 1 1 1 1 1 1 0.013879996549136469 1 1 1 1 1 1 1 1 1 1 1 1 1 1 1 1 1 0.022485513039884591 1 1 1 1 1 1 1 1 1 1 1 1 1 1 1 1 1 1 0.016590900778708048 0.01877472920890659 1 1 1 1 1 1 1 1 1 1 1 1 1 1 1 1 1 1 1 1 1 1 1 1 1 1 1 1 1 1 1 1 1 1 1 1 1 1 1 1 1 1 1 1 1 1 1 1 1 0.0090907774294900802 1 0.013425389033257247 1 1 1 1 1 1 1 1 0.0097769938442250053 1 0.012898864842032639 0.015368425683182186 1 1 1 1 1 1 1 0.016754534656060464 1 1 0.01182362586249085 1 0.010660519598694771 1 1 1 0.013215276214169562 1 0.00901667485500471 0.019639362030839144 1 1 1 0.010729633136476416 1 0.0099670425869701693 1 1 1 1 1 1 1 1 1 1 1 1 1 1 1 1 1 1 1 1 1 1 1 1 1 1 1 1 1 1 1 1 1 1 1 1 1 1 1 1 1 1 1 1 1 1 1 1 1 1 1 1 1 1 1 1 1 1 1 1 1 1 1 1 1 1 1 1 1 1 1 1 1 1 1 1 1 1 1 1 0.011124699111937364 1 1 1 1 0.013273772679058056 1 1 1 1 1 1 1 0.015073539612892074 1 1 1 1 1 1 1 1 1 1 1 1 1 1 1 1 0.0094529018214671127 1 1 0.0094880217817552345 1 0.010019102749647284 1 0.016300789917108843 1 1 1 1 1 1 1 1 0.012321707152936068 1 1 1 0.012574544721883759 1 0.012055563250041998 1 1 0.01103461425974506 1 1 1 0.010474953310205308 0.011436642286853109 1 1 1 1 1 1 1 1 1 1 1 1 1 1 1 1 1 1 1 1 1 1 1 1 1 1 0.01540887487313942 1 1 1 1 1 1 0.0099725561936512309 1 1 1 0.010265609072133253 1 1 1 1 1 1 0.011158674665412031 1 1 1 1 1 1 1 1 1 1 0.012833186962932695 1 1 0.010123933364864807 1 1 0.018972159865226532 1 1 1 1 1 1 1 1 0.013649757429510419 1 1 1 1 1 1 1 1 1 1 1 0.017577403642540866 1 1 1 1 0.0095289313618164648 1 1 1 0.0098969275787791286 1 1 1 1 1 1 1 1 1 1 1 1 1 1 1 1 1 1 1 1 1 1 1 1 1 1 0.010907552751724009 0.012058144694585918 1 1 1 1 0.0099734490925932756 1 0.01141769853632295 0.010943235285348686 1 1 1 1 1 0.0096710634697473666 0.010827270081283558 1 0.0093476992292262154 1 0.010008158503176857 1 1 1 1 1 1 1 0.010315944774896398 1 1 1 1 1 1 1 1 1 1 1 1 1 1 1 1 1 0.0089840214902855361 1 1 1 1 1 1 1 1 1 1 0.0096640845309558417 1 1 1 0.0097279655954194445 1 1 0.009874302328954615 1 1 1 1 1 1 1 1 1 1 1 1 1 1 1 1 1 1 1 1 1 1 1 1 0.011230707230170426 0.010815209053348693 1 1 1 0.0094129048270885675 1 1 1 1 0.010780817332028235 1 1 1 1 0.012176894131352613 1 1 1 1 1 1 1 1 1 0.011993868719924573 1 1 1 1 1 1 1 1 1 1 1 1 0.010398896368850618 1 1 1 1 1 1 0.0099330901678340109 1 1 1 0.010614011156837012 0.012006512587865628 1 1 1 1 0.010276706213803726 1 1 0.012554624432303726 1 1 1 1 1 1 1 1 1 1 1 1 1 1 1 1 1 1 1 1 1 1 1 1 0.010095217636062781 1 1 1 1 1 1 1 1 1 0.011561380433844347 1 0.010190146462600335 1 1 1 1 1 1 1 0.011360031161569813 1 1 0.010832787561312878 1 1 1 1 1 1 1 1 1 0.012979831261171937 1 1 1 0.01103227701665653 1 1 1 1 1 1 1 1 1 1 1 1 1 1 1 1 1 1 1 1 0.014759850228111517 1 0.010114062735214556 1 1 1 0.0099182803050818745 1 1 1 0.011790711798844857 1 1 1 1 1 1 0.0095333910261864684 0.013392607076014878 1 0.010345247538655266 0.010326584927788146 1 1 1 1 1 1 1 1 1 1 1 1 1 1 0.010215418059762803 1 0.010977743375270735 1 1 1 1 0.010478288290884458 1 1 1 1 1 0.0099215272762440149 1 1 1 1 0.012328074428941056 1 1 1 0.0093999513106774735 0.010907731293736426 1 1 0.010411193974763398 1 1 1 1 1 1 1 0.010299636828969103 1 1 1 1 1 1 1 1 0.011809073423141914 1 1 1 1 1 1 1 1 0.01037664431213732 1 0.010807989157725642 0.0099671627622605757 1 1 1 1 0.010180479199772163 1 0.010183215827026405 1 1 1 1 1 1 1 1 1 1 1 1 1 1 1 1 1 0.010193631490795586 1 1 1 1 1 1 1 1 1 1 1 0.009954238130244427 1 1 1 1 0.01338469883314029 1 1 0.010478649308811483 1 1 1 0.012063312350933733 1 1 0.013042853176654004 1 1 1 1 1 1 1 1 1 1 1 1 1 1 1 1 1 1 1 1 1 1 1 1 1 1 1 1 1 1 1 1 1 0.011388473645972112 1 1 1 1 1 1 1 1 1 1 1 1 1 1 1 1 1 1 1 1 1 1 1 1 1 1 1 1 1 1 1 1 1 1 1 1 1 1 1 1 1 1 1 1 1 1 1 0.016654151296861541 1 1 1 1 1 1 1 1 1 1 1 0.017378373764110548 1 1 1 1 1 1 1 1 1 1 1 0.023089806918596363 1 1 0.018179888438444099 1 1 0.018157743211018127 1 0.0099996586570147983 1 0.0099779722215874132 1 1 0.019188348017288012 1 0.01517422059310519 1 0.014475745894536336 0.025184520052662571 0.0098135181991904109 1 1 1 0.021645564783742674 1 1 1 1 0.010588485467284352 1 1 1 1 0.02039350338729267 1 1 1 1 1 1 1 1 1 1 1 1 1 1 1 1 0.0098130028873798566 1 1 1 1 1 1 1 1 1 1 1 1 1 1 1 1 1 1 1 1 1 1 1 1 1 1 1 1 1 1 1 1 1 1 1 0.010593108771655252 1 1 1 1 1 1 1 1 1 1 1 1 1 1 1 1 1 1 1 1 0.011247895403197714 1 1 1 1 1 1 1 1 0.012083446921131202 1 1 1 1 1 0.011149529810667589 1 1 1 1 1 0.012528889136761919 1 1 1 1 1 1 1 1 1 1 1 1 1 0.010935775152657477 1 1 1 1 1 1 1 1 1 1 1 1 0.010933917110463622 1 1 1 1 1 1 1 1 1 1 1 1 1 1 1 1 1 1 1 1 1 1 1 1 1 1 1 1 1 1 1 1 1 1 1 1 1 1 0.0097128770949639811 1 1 1 1 1 1 1 1 1 0.0099120170342177003 0.01116589425085404 1 1 1 0.013050838629805403 1 1 0.011003334425195186 1 1 0.011700518168249026 1 1 0.01072150474707274 1 1 0.01013446821315756 1 1 1 1 1 1 0.0085547452945936332 1 1 1 0.014368477268416974 1 0.0098996624101469911 1 1 0.010522642666923297 1 0.013208147173388593 1 0.0093283632636196618 1 0.0099968860187725564 1 1 0.011034816721156164 1 0.011280993733564205 1 1 1 1 1 0.010454667329160594 1 1 1 1 1 1 1 1 1 0.0096990224208780319 1 1 0.0091116069255942466 1 1 1 1 1 1 1 1 1 1 0.010883557207789196 1 1 1 1 1 1 1 1 1 0.0056958661309424053 1 1 1 1 0.010989994094141885 0.0099987844760652794 1 0.009757993491676312 1 0.0095051719769988063 1 0.0083634809905652058 1 1 1 1 1 1 1 1 1 1 1 0.010023711234462752 1 1 1 1 1 1 1 1 1 1 1 1 1 1 1 1 0.01017021951065657 1 1 0.005804709611990826 1 1 1 1 0.010026370026887922 1 1 1 1 1 1 1 0.0096969094742187997 1 1 1 1 1 1 1 1 1 1 1 1 1 0.0083637448088151479 0.0097091782610423134 1 0.0097316754771962256 1 1 1 1 1 1 1 0.0086140732027093336 1 1 1 0.0083261373570639573 1 0.0099340864532682094 1 1 1 1 1 1 1 1 1 1 1 1 1 0.013090002981261759 1 1 1 1 0.012876539120276823 1 1 1 0.010548996764421207 1 1 1 1 1 1 0.0099880840675594853 1 1 1 1 0.011024901006782946 1 0.011824784600007666 1 1 1 1 1 0.012148680450777001 0.011162093639009279 1 1 1 0.011167853063747433 1 1 1 1 1 1 1 1 1 1 1 0.012283861595715154 1 1 1 0.010207437282802769 1 1 1 0.010116498360528022 1 1 1 1 1 1 1 1 1 1 1 1 1 1 1 0.017167470913778245 0.014093595784128068 1 1 1 0.010819686347844132 1 1 1 1 1 1 0.010715276118235268 1 1 1 1 1 1 1 0.018547032165152265 1 0.015850120898625267 1 1 1 1 0.019308603200773832 0.0097776317848874972 1 1 0.010707669802336771 1 0.012642943755533714 1 0.0096854473391711528 1 1 0.010468173912027388 0.011273186138205995 1 1 1 1 1 0.0096327383141181291 1 0.019192836516463307 1 1 0.0096162085504550698 1 0.015933992606806502 0.015258944269842244 1 0.015683521671478701 1 1 1 1 0.012812425743292638 1 1 1 0.016236270717256945 1 1 1 0.010896486711053428 1 0.020264156611517002 1 1 0.0088473565755311893 1 1 0.01000697353000142 1 0.016255586233346952 1 0.010010071664879121 1 1 1 1 1 0.013210003466941884 0.010180090544762337 1 1 1 1 1 1 0.010303407815793615 1 1 1 1 0.012225074434032769 1 1 0.014740548422502104 1 0.012310111554655766 1 1 1 0.010077558979432646 1 1 1 0.010051426885886838 1 1 1 1 1 0.024058547721322897 1 1 0.0094454710641523835 1 1 1 1 0.010006356893775072 1 1 1 1 1 0.014946292464970149 0.016163152347947841 1 1 0.015779011776314356 1 1 1 0.014809343978210527 0.017166490700244858 1 1 0.010930435177181 0.010403626653923477 0.015425564616267713 1 1 0.0092427456482963178 0.016328981522058927 1 1 1 0.013639136399920575 1 0.010578864236555014 1 1 0.013062397693220859 1 1 0.010938270853791635 1 1 1 1 1 1 1 1 0.013196287844994704 1 1 0.010389570963764734 1 1 1 1 1 1 1 1 0.010874545269301393 1 1 1 0.011781417765827751 1 1 1 1 0.013331907595309504 1 1 1 0.013278342774180829 1 0.015909282175607241 1 0.014897820463727042 1 1 1 1 1 1 0.013166224956729115 1 1 1 1 1 1 1 1 1 1 1 1 1 0.01668569379748934 0.010111664758615538 1 1 1 0.011742711072997901 1 1 1 1 1 0.010999685541208403 1 1 1 0.01421386214332291 1 1 1 1 1 0.010553442880633349 1 1 0.011955264678769166 1 1 1 1 1 1 1 1 1 0.010903601307319575 1 1 1 1 1 1 1 1 1 1 1 1 1 1 1 1 1 1 1 1 1 1 1 1 1 1 1 0.010130421488147856 1 1 1 1 1 1 0.015659599844007579 1 1 1 1 1 1 1 1 1 0.02011385284291661 1 1 0.012298728958708812 1 1 1 1 0.019211766299149401 1 1 1 1 1 1 1 1 1 1 1 1 1 1 1 1 1 1 1 1 1 1 1 1 1 1 1 1 1 1 1 0.011832031735396421 1 1 1 1 1 1 1 1 0.018438724793954527 1 1 1 1 1 1 0.016027083259960089 1 1 1 1 1 1 1 1 1 1 1 1 1 1 1 1 0.010227841885950679 1 1 1 1 1 0.015121152456961481 1 1 1 1 1 0.015161773261234152 1 1 1 1 1 1 1 1 1 1 1 1 1 1 1 1 1 1 1 1 1 1 1 0.019903589078835441 1 1 1 1 1 1 1 1 0.017149216964386864 1 1 1 1 1 1 1 1 1 1 1 1 1 1 1 1 1 1 1 1 1 1 1 1 1 0.018725501024889887 1 1 1 1 0.017576267066388963 1 1 1 1 0.015626710946807551 1 1 1 1 1 1 1 1 1 1 1 1 1 1 0.011706002771779262 1 1 1 1 1 1 1 1 1 1 1 1 1 1 1 1 1 1 1 1 1 1 1 1 1 1 0.010098043417103408 1 0.011735220652839608 1 1 1 1 1 0.010068508842359703 1 1 1 1 1 1 1 1 1 1 1 1 1 1 1 1 1 1 1 0.0097403563226336823 1 1 1 0.0099890753327954128 1 1 1 1 1 1 1 0.01025635815919999 1 1 1 1 0.010224861478521936 1 0.0092460809181993571 1 0.014876132879725742 1 0.011691668947141352 1 1 1 1 1 1 1 1 1 1 1 1 1 1 1 1 1 1 1 1 1 1 1 1 1 1 1 1 1 1 1 1 1 1 1 1 1 1 1 1 1 1 1 1 1 1 1 1 1 1 1 1 1 1 1 1 1 1 1 1 1 1 1 1 1 1 1 1 1 1 0.011056895837893516 1 0.012947010500224848 1 1 1 1 1 1 1 1 1 1 1 1 1 0.010301454864790659 1 1 1 1 0.010338001300161295 1 1 1 1 1 1 1 1 1 1 1 1 1 1 1 1 1 1 1 1 1 1 1 1 1 1 1 1 1 1 1 1 1 1 1 1 1 0.017255892990596877 1 1 1 1 1 1 1 1 0.017244498895342152 1 1 1 1 1 1 1 1 1 1 1 1 1 0.009365423600844287 1 1 0.014391852639383472 1 1 1 1 1 0.016337128809015701 1 1 1 1 1 0.012721738556112361 1 1 1 1 1 0.0064522398616470343 1 1 1 1 1 1 1 1 1 1 1 1 1 1 1 1 0.01469240660823143 1 1 0.016211421648825174 1 1 1 1 1 1 1 1 1 1 1 1 1 1 1 1 1 1 1 1 1 1 1 1 1 1 1 1 1 1 1 1 1 1 1 1 0.010786674738740946 1 1 1 1 1 1 1 1 1 1 1 0.011938939870923457 1 1 0.006919089859385232 1 0.015759282869826672 1 1 0.010616584452110112 1 1 1 1 1 1 1 1 1 1 1 1 1 1 1 1 1 0.0097988802056615774 0.010385199065981914 1 1 1 1 0.0099417679643028587 1 0.0086508817013146288 1 0.014224845651095629 1 1 0.011603160189737598 1 1 1 1 0.010444771892453478 1 1 0.014124532206466811 1 0.0098972897806296929 1 1 1 1 1 1 1 1 1 1 1 1 1 1 1 1 1 1 1 1 1 1 1 1 1 1 1 1 1 1 1 1 1 1 1 1 1 1 1 1 1 1 1 1 1 1 1 0.0084077782230401049 1 1 1 0.0054564184615906964 1 1 1 0.011658612059547459 1 0.0064646861129824731 1 1 0.014411577955843148 1 1 0.0087822276682089431 1 1 1 1 1 1 1 0.016811799377922751 1 1 1 1 0.012450476604740244 0.010255186452686449 1 1 1 1 1 1 1 1 1 1 1 1 1 1 1 1 1 1 1 1 1 0.011215564357850314 1 1 1 1 1 1 1 1 1 1 1 1 1 1 1 1 1 1 1 1 1 1 1 1 1 1 1 1 1 1 1 1 1 1 1 1 1 1 1 0.009941330361935348 1 1 0.0099416073591983532 1 1 1 1 1 1 1 1 1 1 1 1 1 1 1 0.010147168719255362 1 1 1 1 1 1 1 1 1 1 1 1 1 1 1 1 1 1 1 1 1 1 1 1 1 1 1 1 1 1 1 1 1 1 1 1 1 1 1 1 1 1 1 1 1 1 1 1 1 1 1 1 1 1 1 1 1 1 1 1 0.0097756332754068073 1 1 1 1 1 1 1 1 1 0.00997649786384683 1 1 1 1 1 1 1 1 1 1 1 0.010522461583219591 1 1 1 1 1 1 1 1 1 1 1 1 1 0.010072781293112176 0.014695684555005268 0.010923548958981712 1 1 1 1 1 1 1 0.014246953613337799 1 1 1 1 1 0.013342080921949453 1 1 1 1 1 1 1 1 1 1 1 1 1 1 1 1 1 1 1 1 1 1 1 1 1 1 1 1 1 1 1 1 1 1 1 1 1 0.012585687734031419 1 1 1 0.015493766926532137 1 1 1 1 1 1 1 1 1 1 1 1 1 1 1 1 0.010939814618075156 0.011255497890848336 1 1 1 0.0099192283777679371 0.010218121219224253 1 1 1 1 1 1 1 1 1 1 1 1 0.010778511994434201 1 1 1 1 1 1 1 1 1 1 1 1 1 1 1 1 1 1 1 1 1 1 1 1 1 1 1 1 1 1 1 1 1 1 1 1 1 0.011325745448060616 1 1 1 1 1 1 1 1 0.01144484583501292 1 1 1 1 1 1 1 0.011224047049291971 1 1 1 1 1 1 1 1 1 1 1 1 1 1 0.010344751569177281 1 1 1 0.010677113092748934 1 0.010182979300145795 1 1 1 1 1 1 1 1 1 0.010439099934569755 1 1 1 1 1 0.010653430015599187 1 1 1 1 1 1 1 1 1 1 1 1 1 1 1 1 1 1 1 1 0.012787138279414304 1 1 1 1 1 0.011361846599641004 1 1 1 1 1 1 1 0.011571573921563993 1 1 0.010685092562508249 1 1 1 1 1 1 0.012672201888706288 1 1 1 1 1 1 0.015952703022049312 1 1 1 1 1 1 1 1 1 1 1 1 1 1 1 1 1 1 1 1 1 1 1 1 1 1 1 1 1 0.012103171607159536 1 1 1 1 0.015413698861842391 1 1 0.0095369469802853019 1 1 1 0.017424739026327733 1 1 0.008904451060868554 1 1 1 1 1 1 1 1 1 1 1 1 1 1 1 1 1 1 0.010621254547428101 1 1 1 1 0.015114682760971526 1 1 1 0.016211019779013763 1 1 0.010204638743314729 1 1 1 1 1 1 1 1 1 1 1 1 1 1 1 1 1 1 1 1 1 1 1 1 1 1 1 1 1 1 1 1 1 1 1 1 1 1 1 1 1 1 1 1 1 1 1 1 1 1 1 1 1 1 1 1 1 1 1 1 1 0.01653359040197909 1 1 1 1 1 1 1 1 0.018222393769541628 1 1 1 1 1 1 1 1 1 1 1 1 1 1 1 1 1 1 1 1 1 1 1 1 1 1 1 1 0.0099821908325608485 1 1 1 1 1 1 1 1 1 1 1 1 1 1 1 1 1 1 1 1 1 0.01086505291082924 1 0.009679213465616671 1 1 0.013593126735787648 0.009634147373940213 1 1 0.010301364546375966 0.01287729910015885 1 1 0.0078721126732240292 1 1 1 1 0.0092618985607193227 1 1 0.015622396048122905 1 1 0.012296603287718396 1 1 1 1 1 1 1 1 1 1 1 1 1 1 0.010044955150426124 1 1 1 1 1 1 1 1 1 1 0.0097621536627020764 1 1 0.010563746796874119 1 1 1 1 1 0.0092746156496040996 1 0.011182989541797861 1 1 0.01717810846291255 1 0.009863394675981442 1 0.0086508880141705317 1 1 1 1 1 1 1 1 1 1 1 1 1 1 1 1 0.011989775304688602 1 1 0.014761562319558656 1 1 1 1 0.011950859747305722 1 1 1 1 1 1 1 1 1 1 1 1 1 1 1 1 1 0.012908079192500725 1 1 1 1 1 1 1 1 1 0.01223042926891648 1 1 1 1 1 1 1 1 1 1 1 1 1 1 0.0089397650890147562 1 1 0.015542319778778594 1 1 0.011425543313573787 1 1 1 0.012237014805052945 1 1 1 1 1 1 1 1 1 1 0.011059093267716459 1 0.01090922084895769 1 1 1 1 1 0.010437722893454118 1 1 1 1 1 1 1 1 1 0.010860750494197895 1 1 1 1 1 1 1 1 1 1 1 0.010400577234225846 1 1 0.011239059827945356 1 1 1 1 1 1 1 1 1 0.01123406760595288 1 1 1 1 1 1 1 1 0.010868045546356595 0.012042641960702082 1 1 1 1 1 1 1 1 1 1 1 1 1 1 1 1 1 1 1 1 1 1 1 1 1 0.0098802347851334009 1 1 1 1 1 1 1 1 1 1 1 1 1 1 1 1 1 1 1 1 1 1 1 1 1 1 1 1 1 1 1 1 1 1 1 1 1 1 1 1 1 1 1 1 1 1 1 1 1 1 1 1 1 0.015552353571677708 1 1 0.014522012266977542 1 1 0.010213617120746692 0.010176157701604783 1 1 1 1 0.0087998638638887624 1 1 1 1 1 1 1 1 1 1 1 1 1 0.012116250752755438 1 1 1 1 1 1 1 1 1 1 1 1 1 1 1 1 1 0.0098173265988041776 1 0.0099414730375314911 1 1 0.0099613777576447356 1 1 1 1 1 1 1 1 1 0.01005182262092557 1 1 0.010954264550447096 1 1 1 0.0095977302528846044 1 0.011520499123586499 1 1 1 1 1 1 1 1 1 1 1 1 1 1 1 1 1 0.011647786365993028 1 1 1 1 0.01119280130729227 1 1 1 1 1 1 1 1 1 1 1 1 1 0.012332070023825033 1 1 1 1 1 1 1 1 1 1 1 1 1 1 1 1 1 1 1 1 1 1 1 1 1 1 1 1 1 1 1 1 1 1 1 1 1 0.0099336729281225399 1 0.0099840423928118649 1 0.010009313386458961 1 1 0.010261451612546289 1 1 0.010560280078805752 1 1 1 0.0097926954373782453 1 1 1 0.0099035570791246377 1 1 1 1 1 0.010735073343673573 1 1 0.010273744395658008 1 1 1 1 0.009968479034910542 1 1 1 1 1 1 1 1 1 1 1 1 1 1 0.0098373251497648473 1 1 1 1 1 1 1 1 1 1 1 1 1 1 1 1 1 1 1 1 1 1 1 1 1 0.014065666797655602 0.010700354599706524 1 1 1 1 1 1 1 1 1 1 1 1 0.0094990377372329224 0.009546862834678406 1 1 1 1 1 1 1 1 1 1 1 1 1 1 1 1 1 1 1 1 1 1 1 1 1 1 1 1 1 1 1 1 1 1 1 1 1 1 1 1 1 1 1 1 1 1 1 1 1 1 1 1 0.01069095453373619 1 1 1 1 1 0.010983868005945276 1 1 1 0.010796736278890197 1 1 0.010710671480735377 0.0097566626972442425 1 0.0099979963855977537 0.0079486727060937203 1 1 1 1 0.0095758216921582873 1 1 1 1 1 1 1 1 1 1 1 1 1 1 1 1 0.010147630115035304 1 1 1 0.01020266896914295 1 1 1 1 1 1 1 1 1 1 1 0.01099810975374085 1 1 0.0093206433578564875 1 0.011911586562265526 1 1 0.010415807422671577 1 1 0.012273506756039533 1 1 1 1 1 1 1 1 1 1 1 1 1 1 1 1 1 1 1 1 1 1 1 1 1 0.010314392836435178 0.010743029861592137 1 1 1 0.010282475744409401 1 1 0.010531825672413838 1 1 1 1 1 1 1 1 1 1 1 1 1 1 1 1 1 1 1 1 1 1 1 1 1 0.010839553773511394 1 1 0.010157428646929308 1 1 1 1 1 0.010750200879439772 1 1 0.010336325314498084 1 1 1 1 1 1 0.010064059026013058 1 1 1 1 1 0.010004085669225867 1 1 1 1 1 1 1 1 1 1 1 1 1 1 1 1 1 1 1 1 1 1 1 1 1 1 1 1 1 1 1 1 1 1 1 1 1 1 1 1 1 1 1 1 1 1 1 1 1 1 1 1 1 1 1 1 1 1 1 0.01003493274438497 1 1 1 0.01002189019419392 1 1 1 1 0.010081863550981097 1 1 1 1 1 1 1 1 1 1 1 1 1 1 1 1 1 1 1 1 1 1 1 1 1 1 1 1 1 1 1 1 1 1 1 1 1 0.010050356422598342 1 1 1 1 1 1 1 1 1 1 1 1 0.009774232796677872 1 1 1 1 1 1 1 1 1 0.0099993680227547909 1 0.0099639973336341885 1 1 1 1 1 1 1 0.0098458316729684841 0.010412480203804704 1 1 0.0099362898369736198 1 1 1 1 1 1 1 1 0.0099799080290970711 1 1 1 1 1 1 1 1 1 1 1 1 1 1 1 1 1 1 1 1 1 1 1 1 1 1 1 1 1 1 1 1 0.01239094447675335 1 1 0.010227965551630221 1 1 1 1 0.028138369374456823 1 1 1 0.010760468929003716 1 1 1 0.028129712984115908 1 1 1 1 1 0.010614479318896732 0.010199393462165016 1 1 1 1 1 0.010193212781080225 1 0.012240382403891097 0.010209262103704018 1 1 1 1 1 1 1 1 1 1 1 1 1 1 1 1 1 1 1 1 1 1 1 1 1 1 1 1 1 1 1 1 1 1 0.01176363606229517 1 1 1 1 1 1 1 1 0.012120402212897449 1 1 1 1 1 1 1 1 1 1 1 1 1 1 1 1 1 1 1 1 1 1 1 1 1 1 1 1 1 1 1 1 1 1 1 1 1 1 1 1 1 1 1 1 1 1 1 1 1 1 1 1 1 0.010048725656005224 1 1 1 1 1 1 0.012904897682294636 1 1 1 1 1 0.0099576132599829646 0.010006610111139187 1 1 1 1 1 1 1 1 1 1 1 0.012335305011549984 1 1 1 1 1 1 1 0.013668697587902932 1 1 1 1 1 1 1 1 0.010612082927376809 1 1 1 1 1 0.011393951008612072 1 1 1 1 1 1 1 1 1 1 1 1 1 1 0.0098848905670777636 1 1 1 1 1 1 1 1 0.010688413901153963 1 1 1 0.010800086478290815 1 1 1 1 1 1 0.0089034243685542549 1 1 1 1 1 1 1 1 1 1 1 1 1 1 0.01180703443721438 0.010027202754724181 1 0.010001107490093074 1 1 1 1 1 1 1 1 0.010008447497536615 1 1 1 0.0091833854023622725 1 0.012944377176583696 1 0.010014582004370654 0.012025092900206971 0.012427593776722579 1 1 1 1 0.011428578052565006 1 0.008440976486229065 1 1 0.010744166306047347 1 1 1 1 1 0.0055839606107319579 1 1 0.022960368123067669 1 1 1 1 1 1 1 0.016122281449196526 1 1 1 0.025745826489367248 0.015816025817605536 1 1 1 0.014902199160499736 0.019998228221275095 1 1 1 0.0098605805033165905 1 0.011493113706916039 1 1 0.0096633590231421599 1 1 1 1 0.011097400002476165 1 1 1 0.0096061108633627157 1 1 0.010295014171504953 1 1 1 1 1 1 0.010553731507003956 1 1 1 1 1 1 1 1 1 1 1 1 1 0.010008952683149629 1 1 1 1 1 0.010258717335499011 1 1 1 1 1 1 1 1 1 1 1 1 1 1 1 1 0.010192073044021135 1 1 1 1 1 1 1 1 1 1 1 1 0.010397976240458162 1 1 1 0.0099500234916610458 1 1 0.012065521609671531 1 1 1 1 1 1 1 1 1 1 1 0.010245292611587568 1 0.01044693358064893 1 1 1 1 1 1 1 1 1 1 1 1 1 1 1 1 0.010201640969061364 1 1 1 1 1 1 1 1 0.0098504929581147913 1 1 1 1 1 1 1 1 1 1 1 1 1 1 1 1 1 1 1 1 1 1 1 1 1 1 1 1 1 1 1 1 1 1 1 1 1 1 1 1 1 1 1 1 1 1 1 1 1 1 1 1 1 1 1 0.012592651439565249 1 1 0.0093305876582490972 1 1 1 1 1 1 1 1 1 1 1 1 1 1 1 1 1 1 1 1 0.010124896227994642 1 1 1 1 0.010100542670175829 1 1 1 1 1 0.0084190895092649647 0.0094019100844138712 1 1 0.010074434383727557 0.0075615575498494542 1 0.017484214471637914 1 1 1 1 1 1 1 1 1 1 1 1 1 1 1 1 1 1 1 1 1 1 1 1 1 1 1 1 1 0.013265243716647926 1 1 1 0.011444667303157014 1 1 0.010644959395960553 1 1 1 1 0.012632534780136097 1 1 0.017969166482964385 1 1 1 0.011169008705772218 0.011827344461342162 1 1 1 1 1 1 1 1 1 1 1 1 1 0.0097082785326353827 1 1 0.0082703303022395678 1 1 1 1 1 0.024849056619046527 1 0.020158356693303833 1 1 1 1 0.01383390282587906 1 1 1 0.010229755900640618 1 1 1 1 1 1 1 1 1 0.010483519881819966 1 0.0098922417510986568 0.012790291700497808 1 0.011247402994879023 0.0092641558497972114 1 1 1 1 1 1 1 1 1 1 1 1 0.0092736658056252197 1 1 1 1 1 0.010226218860933436 0.013942985231750575 0.042246402936303419 1 1 1 1 1 0.042564638111200884 1 1 0.0096959871874483586 1 1 1 1 1 1 1 1 1 1 0.04245741326507399 1 1 1 1 1 1 1 1 1 1 0.041835961649494172 1 1 1 0.040705562836238537 1 1 1 1 1 1 1 1 1 1 0.011150751371135624 1 1 0.011843329657490281 1 0.010940768873466487 1 1 0.011716997391407609 1 1 0.011275370609813111 1 0.012365614296989669 1 1 0.014347876026003733 1 0.011959070918604126 1 1 0.011692151282709198 1 1 1 0.011303454429392689 1 1 1 1 0.011045954722302674 1 1 1 1 0.010495979646047104 0.013086185394250197 1 1 1 1 1 1 0.012543829874747304 1 1 1 1 1 1 1 1 1 1 0.013654513588456423 1 1 1 1 0.020337737973475684 1 1 1 1 1 1 1 0.021871816227178119 1 1 1 0.014151858710459781 0.019633651814092958 1 0.012403429116975286 1 1 1 1 1 0.039276242937979787 1 0.011937295896090244 1 0.013267867607796541 0.010076973212316546 0.011635932442102374 1 0.0228218779448153 1 1 1 0.012992952348576794 1 1 1 1 1 1 1 0.011800838085581014 1 1 1 1 1 1 1 1 1 0.0097336342403772282 1 1 1 1 0.0093744524420882099 1 1 1 1 1 1 1 1 1 1 1 0.012568420013624028 1 1 1 1 1 1 0.01156678211839748 1 1 1 0.010946406661963722 1 1 1 1 1 1 1 1 1 1 1 1 1 1 0.010690778257246993 1 1 1 1 1 0.0098913803383167444 1 1 1 1 1 1 0.0098937114693763532 1 0.0099581993220726975 1 1 0.010263772595406381 1 1 1 1 1 0.0096001977519589669 1 0.013541593027752262 1 1 1 1 0.010057412607143783 1 1 1 0.009779248113376382 1 1 1 1 1 1 1 1 1 0.010017424407194348 1 0.010222035035545043 1 1 1 1 1 0.012312511133347586 1 1 1 1 0.010535733316779485 1 1 1 1 0.010344854870951645 0.0096910908972358441 1 0.010157722265474699 1 1 0.014389389594841732 1 1 0.0096109756540839301 1 0.0098884531223941106 1 1 1 1 1 0.013606336860290332 1 1 1 1 1 1 1 1 1 1 1 1 1 0.010811786422531956 1 1 1 1 1 1 1 0.012627664421634913 1 1 1 1 1 1 1 1 1 1 1 1 1 1 0.010564068145982384 1 0.02420952698431058 0.0099684095829214951 1 1 1 1 1 1 1 1 1 1 1 1 1 1 1 1 1 1 1 1 0.010007533820556511 1 1 1 1 0.010087322214060293 1 1 1 1 1 1 1 1 1 1 1 1 1 1 1 1 0.012434081699543553 1 1 1 1 1 1 1 0.022773552231359198 1 1 1 1 1 1 0.010027893416076499 1 0.010000941153487212 1 1 0.013442512618468884 1 1 1 1 0.011901794425495209 1 1 1 1 0.01053277543827376 1 1 1 0.011415132281322677 1 1 1 1 1 1 1 0.010432542595050335 1 1 1 1 1 1 0.01118927687891396 1 1 1 1 0.011100238540819964 1 1 1 1 1 1 1 1 1 0.015336172743326101 1 1 1 1 0.0207159079115233 1 1 1 0.010525935264395402 1 1 1 1 1 1 1 0.018553719985434154 1 0.010127282035325551 1 1 1 1 0.013595415222311251 1 1 0.019229771412168382 0.016919893101525921 1 1 0.010125376226795893 1 0.013709156106520921 1 1 0.015332346259527476 0.014471120008969168 1 1 0.014932281840286559 1 1 1 1 0.013552871108346323 1 1 1 1 1 0.012219331646560964 0.015917325062308217 1 1 1 1 1 1 1 1 0.012272575922091215 1 1 0.010035592515692485 0.01530882147314944 0.01754067913225163 1 1 1 0.01137652966293437 1 0.01955732143570384 1 1 1 1 0.010476421070021183 1 1 1 1 1 1 1 1 1 1 1 1 1 1 1 1 1 0.010351997097719261 1 1 0.011114431550589447 1 1 1 1 1 1 1 1 1 1 1 0.0099836905661876644 1 1 1 1 1 1 1 1 1 1 0.014946284766791537 1 1 0.0098862916635674772 1 1 1 1 1 1 1 1 1 1 1 1 0.010045729915315335 1 1 1 1 1 1 1 0.013846668729014877 1 1 1 1 0.014785149507229738 1 1 1 1 1 1 1 0.017942720579656131 0.024789867694869631 1 1 1 1 0.011225114843431198 0.013272550317669336 1 0.011530195202280462 0.0244183436394892 1 1 1 1 1 1 0.015967954312100067 0.013737704195227242 1 1 1 1 0.013448007332052297 1 0.013411887607603918 1 1 1 1 1 1 1 1 1 1 0.016167705335880071 1 1 1 1 1 0.010609009922605377 1 1 1 1 1 1 1 1 1 1 1 1 1 0.0090468661476577998 1 1 0.008887268013716967 0.010018391644811237 1 1 0.0097839249625701584 0.0099009085905503377 1 1 1 0.010006144415920654 0.010814857639736469 1 1 1 0.010909472340785167 1 1 0.010000046634214032 0.011498918280795488 1 1 1 1 1 1 1 1 1 0.011453186010301875 1 1 1 0.010000382032630512 1 0.010011175634373419 1 0.010645835703610225 1 0.011038856898732363 1 1 1 1 1 1 0.010528390826558445 1 0.010501883892189002 1 1 0.010001265989657469 1 1 1 1 1 1 1 1 1 0.012042220391563165 1 1 1 0.012098700987164424 1 1 1 1 1 1 1 1 1 1 1 1 1 1 1 1 0.011218442454605588 1 0.010031688116406989 1 1 1 1 1 1 1 1 1 0.0099897490286050463 1 0.010055123240808449 1 1 1 0.0097288460368835789 1 1 0.011149742825769887 1 1 1 1 1 1 1 1 1 1 0.010939835362820935 1 1 0.010475925524645272 1 1 1 1 1 0.010044769702026324 1 1 0.010010831236067422 1 1 1 1 1 1 1 1 1 1 1 1 1 1 1 1 1 1 0.014354471112345765 1 1 1 0.0090829246491021653 1 1 0.013973682108468818 1 1 0.010006910625221709 1 1 1 1 1 1 0.0099795236384157479 1 1 1 1 1 1 1 1 1 1 1 1 0.011449905860459091 1 1 1 1 1 1 1 1 1 1 1 1 1 0.010824275185446878 1 1 0.0099351499332157173 1 1 1 0.0097993050094162832 1 1 1 1 1 1 1 1 1 1 0.010306722481567131 1 1 1 1 1 1 1 1 1 1 1 1 1 0.0099458639173297704 1 1 1 1 1 1 1 1 1 1 1 1 1 1 1 1 1 1 1 1 1 1 1 1 1 1 0.0099558681910130748 1 1 0.0098883246428593096 1 1 1 0.0099424607255295273 1 1 1 1 1 1 1 1 1 1 1 1 1 1 0.0099947390616183934 1 1 1 1 1 0.0094028101419570981 0.0094296137289649647 0.0095802370518832305 1 1 1 0.0095697835441461224 1 1 1 1 1 1 1 1 1 0.0098996300060386552 1 1 1 1 1 1 1 1 0.010485426833970659 1 1 1 1 1 0.010392573458926893 1 1 1 1 1 0.011641826918258207 1 1 0.010846468742494987 1 1 1 1 0.0097599317459122759 1 1 1 1 1 1 1 1 1 1 1 1 1 1 1 1 1 1 1 1 1 1 1 1 1 1 1 0.010357446933519001 1 0.010626359838364623 1 1 1 1 1 1 0.0098215908966129261 1 1 1 1 1 1 1 1 1 1 1 1 1 1 1 1 1 1 1 1 1 1 1 0.0092459500496733481 1 1 1 1 0.010180338642066031 1 1 1 1 1 1 1 1 1 1 1 1 0.01233232320542902 1 1 0.010245156183121848 1 1 1 1 1 1 0.0093511311081844618 0.012454392656946076 1 1 1 1 0.012231652931769241 0.0087310985277342778 1 1 1 1 1 1 1 1 1 1 1 0.0095442509124887102 0.0098558956180613954 1 1 0.0090671321079729868 0.010033881928966808 1 1 1 1 0.0097202141188205207 1 1 1 1 1 1 1 1 1 0.01012043734130871 1 1 1 1 1 1 1 1 1 1 1 1 1 1 1 1 1 1 1 1 1 1 1 1 0.01041667209639046 1 1 0.0099439363015966162 1 1 0.010164118575083697 1 0.010978464113742762 1 1 0.0096675254389184794 0.0091509812581693582 1 0.012392340186754985 1 1 0.010471878518000093 0.0083950653643376453 1 1 1 1 1 1 1 1 1 1 1 1 1 1 1 1 1 1 1 1 1 1 1 1 1 1 1 1 1 1 0.0076140502773855857 1 1 1 1 0.013815546657411516 1 1 0.0099731952816251579 1 1 1 1 0.012303784050997184 1 1 1 1 1 1 1 1 0.010026521696517399 0.0099964679024904315 1 1 0.009825110793503131 0.010158315849280853 1 0.010195602252951491 1 1 1 1 0.0099852215428462357 1 1 1 1 1 1 1 1 1 0.010002239577722043 1 0.0099610428782375693 1 1 1 1 1 1 1 1 1 1 1 1 1 1 1 1 1 1 1 1 1 1 0.0099555990094873023 1 1 1 0.010177855366720549 1 1 1 1 0.0099058750718329092 1 1 1 1 1 0.010311617909693146 1 0.010019826168653382 1 1 1 1 0.010040436207644093 1 0.0099859048805860766 1 1 0.010192099335031485 1 1 1 1 1 0.010010259512946068 0.010021870980659072 0.010397572897288841 1 1 0.013475612408105159 1 1 1 1 0.010864079197598672 0.01244692395366148 1 1 0.011356851046328864 0.01038862865087644 1 1 1 1 0.012158386582364525 0.012221774193501417 1 1 0.011641570566959393 1 1 1 0.010127039312723927 1 1 0.010135754637963389 1 1 0.010088758109038705 1 1 1 1 1 0.010483490973275868 0.010278050011433556 1 1 1 1 1 1 1 1 1 1 1 1 1 1 1 0.0095549351378990659 1 1 1 0.0085921712757952694 1 1 1 1 0.010944777945046055 1 1 1 1 1 1 1 1 1 1 1 1 1 1 1 1 1 0.012777751971973259 1 0.010011133712122356 0.0098238674422160572 1 1 0.01082362619741976 1 1 1 0.010070348197837992 1 1 1 1 1 1 1 1 1 1 0.012581816336724592 1 1 1 1 1 1 1 1 1 1 1 1 1 1 1 1 1 1 1 1 1 1 1 1 1 1 1 1 1 1 1 1 1 1 1 1 1 1 1 1 1 1 1 1 0.010689135571018252 1 1 0.010029417796674142 1 1 1 1 1 1 1 1 1 1 1 0.010277080425187492 1 1 1 1 1 0.010872625480179966 1 0.010298291445440113 1 1 1 1 1 1 1 1 0.010114952517113128 1 1 1 1 1 1 0.012896789264822482 1 1 0.010119009753996195 1 0.010807251533699319 1 1 0.0099886242669988221 1 0.011092358895744357 1 1 1 1 1 0.010045127621644175 1 1 1 1 1 1 1 1 1 1 1 1 1 1 0.015924362171951048 1 1 1 1 0.012580627071235178 1 1 1 1 1 1 1 1 1 0.012821831998796112 1 1 1 1 1 1 1 1 1 1 1 1 1 1 1 1 1 1 1 1 1 1 1 1 1 1 1 0.016889264669623531 1 1 1 1 1 1 1 1 1 1 1 1 1 1 0.010240604483126392 1 0.0099035174070849288 1 1 1 0.010388115555701601 1 0.010364729529554891 1 0.0098433570111514535 1 1 1 1 1 1 1 1 1 1 1 1 1 1 1 1 1 1 1 1 1 1 1 1 1 1 1 1 1 1 1 1 0.010077138940763739 1 1 0.010117062254496849 1 1 1 1 1 1 1 0.0099716369695884641 1 1 1 1 1 1 1 1 1 1 1 1 1 1 1 1 1 1 1 1 1 1 1 0.0099826756647188424 1 1 0.0098393850939136693 1 1 1 1 0.015037284829557754 1 1 1 1 1 1 1 1 1 1 1 1 0.009627888155474728 1 1 1 1 1 0.016083683094000163 1 1 1 1 0.011752098282395332 1 1 1 1 1 1 1 1 1 1 1 1 1 0.013072466568728217 1 1 1 1 1 1 1 1 1 1 1 1 1 0.012020536307375167 1 1 1 1 1 1 1 1 1 1 1 1 1 1 1 1 1 1 0.011320368286332873 1 1 1 1 1 1 1 1 1 1 1 1 1 1 1 0.010405840725400291 0.011002436366736385 1 1 1 1 1 1 1 1 1 0.0096529879507898306 1 1 1 1 1 1 1 0.011951507191346217 1 1 1 1 1 1 1 0.010574132822971843 1 1 1 1 0.0099998351556693076 1 1 1 0.013735214953077307 1 1 1 1 1 0.01064647400236143 1 1 1 1 1 0.010722900170987938 1 1 1 1 1 1 1 1 0.0072760067951511184 1 0.016362065971846876 1 1 1 1 1 0.0070415173195086216 1 1 1 1 1 1 0.013623467270873102 1 1 1 0.015596917823288765 1 1 0.018476047843868672 1 1 1 1 1 1 0.0081648588434328762 1 1 0.0094985272811391099 1 1 1 1 0.016671110771319726 1 1 1 1 1 1 1 1 1 1 1 1 1 1 1 1 1 1 0.01117362835207643 1 1 1 1 1 1 1 1 1 1 1 1 1 1 1 1 1 0.014946160740941057 1 1 1 0.008772121875328406 1 1 0.014038934244714054 0.010113698604841764 1 1 1 1 1 1 1 1 1 1 1 0.011803189313389178 1 1 1 1 1 1 1 1 0.0098351589598423342 1 0.015028006943547148 1 1 1 0.012035176963278282 1 1 1 1 1 0.010399519284669985 1 1 0.01068122114582191 1 1 1 1 1 1 1 1 1 1 1 1 1 1 0.010027320077224303 0.010079216084487598 1 1 1 1 1 0.010052133385662691 1 1 1 1 1 1 1 1 0.010396531662491409 1 1 0.010095753771901087 1 1 1 0.010784643196269738 1 0.010567978463002196 1 1 1 1 1 1 1 1 1 1 1 0.010273626709949923 1 1 1 0.010164498958950812 1 0.0098061639845982342 1 1 0.01161900874218314 1 0.013980418654577885 1 1 0.010447090908341301 1 1 1 1 1 1 1 1 1 1 1 1 0.01250467212651396 1 1 0.010183636561406296 1 1 1 0.011789998587013729 1 0.012254527624875599 1 1 1 1 1 1 1 1 1 1 1 1 1 0.011441149769817744 0.020186990980179342 1 1 1 1 1 0.013955182735073832 1 1 0.014597478588454943 1 1 0.021621434914842249 1 1 1 0.0081137270010163843 1 1 1 1 1 1 1 1 0.010626373768535615 1 1 0.012887201298872469 0.0066674155036755564 1 1 1 1 1 0.0071440471857043969 1 1 0.0099187982201621814 1 1 1 0.013382010964008324 0.01198209831150491 1 1 1 1 1 0.010028561244482575 1 0.01447788873365077 1 1 1 1 1 1 1 1 1 0.010656664892731304 1 1 0.0099897779291963119 1 1 1 1 1 1 1 1 0.013047191608142826 1 1 1 1 1 1 0.011017211031606343 1 1 1 0.013060196861082356 1 1 1 1 0.0099644097606245239 1 1 1 1 1 1 1 1 1 1 1 0.012228879426148167 1 1 0.012303196987982039 1 1 1 1 1 1 0.012783414142537078 1 1 1 1 1 1 1 1 0.02127410565692223 1 1 0.011759596344828493 0.019890049135618364 1 1 1 1 1 0.018170716007488413 1 1 1 1 1 1 1 0.010336399904862223 1 1 0.016740421421985605 1 1 1 1 1 1 0.01017710896482615 1 1 1 0.012135020264716533 1 1 1 1 1 1 1 1 1 1 1 1 0.011962020488139349 1 0.018370287126557507 1 0.0102112451638183 1 1 1 0.014040884808636809 1 1 1 1 1 1 0.010080595808222927 1 1 1 1 1 1 1 1 1 1 1 1 0.010436896926301398 1 1 0.013398602739884819 0.009231990577415897 1 1 1 1 0.012096583059923513 1 1 1 0.010133140491594559 0.013839373301065957 1 1 1 1 0.0102393674785865 1 1 1 0.014484317505608814 1 0.013597712532778125 0.011004334018545165 1 1 0.013054220535493011 0.012722239507005375 1 1 1 1 1 0.0098724708339476257 1 0.012270358679427501 1 0.012424756962677946 0.012553069405264442 1 1 1 1 1 1 1 1 1 0.016448490996580252 0.0080570126041088277 0.0088659258605097192 1 1 0.013911186895036677 1 1 0.01499482149468313 1 1 1 1 1 1 1 1 0.016690079447939585 0.010111260465664323 1 1 1 0.010367307137569309 1 1 1 0.016503369243281839 1 1 0.01336518624584733 1 1 1 1 1 1 1 1 1 1 1 1 1 1 1 1 1 1 0.010124031607429579 1 1 1 1 1 1 1 1 1 0.009741064664332947 1 1 1 1 1 1 1 1 1 1 0.012862237879645331 0.011120306852480829 1 1 1 1 1 0.010159290940036073 1 1 1 1 1 1 1 1 1 1 1 0.010724598147902734 1 0.011270172967147999 1 1 0.011257291031670499 1 1 0.010598619868226949 1 1 1 1 1 1 1 1 1 1 1 1 1 1 1 1 1 0.010239943906846056 1 1 1 1 1 1 1 1 1 1 1 1 1 1 1 1 1 1 1 1 1 1 1 1 1 0.010178569487441728 1 1 1 1 1 1 1 1 1 1 1 1 1 0.010346602700824083 1 0.011214532637866398 1 1 1 1 1 1 1 1 1 1 1 1 1 1 1 1 1 1 1 1 1 1 1 1 1 1 1 1 1 1 1 1 1 1 0.013086802059657917 1 0.01665935515918153 1 1 0.009979525986346249 1 1 1 0.014221359437140457 1 1 1 1 1 1 1 1 1 1 1 1 1 1 1 1 1 1 1 0.010697482442720216 0.012112066653030709 1 1 1 1 1 1 0.010879685285526011 1 0.010894478863501839 1 1 1 1 1 1 0.010600737160303117 1 1 0.010130402900027332 1 0.023802582573486879 1 1 1 1 1 1 1 1 1 1 1 1 1 1 1 1 0.0099714613929667954 1 0.009972919138719092 1 1 1 1 1 1 1 1 0.010004321729821394 0.015175593678851204 1 1 0.012221638545165931 1 1 1 1 0.010106551950574853 1 0.0112877958868207 1 1 0.010988015774519404 1 1 1 1 1 1 1 0.010738958000827029 0.01237693311576629 1 1 1 0.010015430530415457 1 1 0.01112464939634384 1 0.011883037640168011 1 0.015350187413702957 0.0099532467374630409 1 1 1 1 1 0.010969670573348422 1 1 1 1 1 1 0.010794429645280478 1 1 0.014526351887365811 1 1 1 1 1 1 1 1 1 0.013258977395319331 0.012221986787319127 1 0.012250637008924731 1 0.0099435575635487342 1 1 0.0094887776190210361 1 1 1 1 1 1 1 1 1 0.0085731515325753009 1 1 1 1 0.0087766655155581269 1 1 1 1 1 1 1 1 1 0.024817251835957985 0.02551169702521177 1 1 1 1 1 1 1 1 1 1 1 1 1 1 1 1 1 1 1 1 1 1 1 1 1 1 1 1 1 1 0.014212548932117562 1 0.021263664818336116 1 1 1 1 1 0.016304380730922559 0.0072838612681835196 1 0.010076695295796067 0.007339096570853988 1 1 1 1 1 1 1 1 1 1 1 1 1 0.011184134541586302 1 1 1 1 1 1 1 1 1 1 1 1 1 1 1 1 1 0.013135125602055393 1 1 0.011397925072823823 1 1 1 1 1 1 1 0.010859413367758974 1 1 1 1 1 1 1 1 1 1 1 1 1 0.013023337972215925 1 1 1 1 1 1 0.011286137442984361 1 1 1 1 1 1 1 1 1 1 1 1 1 1 1 1 1 0.010286988972633819 1 1 1 1 1 1 1 1 1 1 1 1 1 0.010705984265206926 1 1 1 0.010381634758709773 1 1 1 1 1 1 1 1 0.0094990934651119335 1 1 1 1 1 1 0.0098388743967379542 1 1 1 1 0.010052817239014085 1 1 1 0.010045171052386183 1 1 1 1 0.012602711569209928 1 1 1 1 1 1 1 0.0089234019189411637 1 1 1 0.0091660675015610635 1 1 1 0.0099318582786371741 1 1 1 1 1 1 1 0.010324349506497153 1 1 0.0099282839039731893 1 1 1 1 1 1 1 1 1 1 1 1 1 1 1 1 1 1 1 1 1 1 1 1 1 1 1 1 1 1 1 1 1 1 1 1 1 1 1 1 1 1 0.010455971565477959 1 1 0.010144422143693229 1 1 0.010039150579475943 1 1 1 0.015450653678826493 1 1 1 1 1 0.010049619230985428 0.010051845792535732 1 0.010957632329403557 0.010371513882785208 1 1 1 1 1 1 1 1 1 1 1 1 1 1 1 1 1 0.012740459579603 1 1 1 1 1 1 1 1 1 1 1 1 1 1 1 1 1 1 1 1 1 1 1 1 1 1 1 1 1 0.012451268680005699 1 1 1 1 0.011075765372509301 1 1 1 1 1 1 1 0.010229048068852923 1 0.0083240363047130863 1 1 1 0.0094328487245592153 1 1 1 1 1 1 1 1 1 1 1 1 1 1 1 1 1 1 1 1 1 1 1 1 1 1 1 1 1 1 1 1 1 1 1 1 1 1 1 1 1 1 1 0.019458021628178689 0.010098524741671441 1 0.010494543984117911 1 0.012944822032146556 1 1 1 1 0.013412181930312154 1 1 1 1 1 1 1 1 1 1 1 1 1 1 1 1 0.010006994848847709 1 1 0.010013818921466168 1 1 1 1 1 1 1 1 1 1 1 1 1 1 1 0.0098383764432935575 1 1 1 1 0.011322713964540607 1 1 1 1 1 0.0099358153718056806 1 1 1 1 1 1 1 1 1 1 1 1 0.011804339147239908 1 1 0.010118350461997994 1 1 1 1 0.00994964721906565 1 1 1 1 1 1 1 1 1 0.0097634378363293112 1 1 1 1 1 1 1 1 1 1 1 1 1 1 1 1 1 1 1 1 1 1 1 1 1 1 1 0.010110476312179628 1 1 1 1 0.01036875319617297 1 1 1 1 1 1 1 1 0.011668740279877628 1 0.010638356735536654 1 1 1 0.011626981298453964 1 1 1 1 1 1 1 1 1 1 1 0.012394277977635402 1 1 1 0.010000696578021542 1 1 1 1 1 1 0.01243779690874113 0.0096140779126407689 1 1 1 1 1 1 1 1 1 1 1 1 1 1 1 1 1 0.020996420697925254 1 1 1 1 1 1 1 0.010225720093716046 1 1 1 1 1 1 1 1 1 1 1 1 0.010572607929995082 1 1 1 1 1 0.010479284367290249 0.022504049580235035 1 0.010214531848714289 1 1 0.010186058411845351 1 1 1 1 1 0.01016968180562727 1 1 1 0.010376510177342521 1 0.022179843989055419 1 1 1 0.010648378907175796 0.0098069654256986299 1 1 1 1 1 1 1 1 1 1 1 1 1 1 1 1 1 1 1 1 1 1 0.018350259459519604 1 1 1 1 1 1 1 0.011955241614182058 1 1 1 1 0.020893571789575467 1 1 0.010064480178445348 1 1 1 1 1 1 0.010204756493783168 1 1 1 1 1 1 0.0079848161958525135 1 1 1 1 1 1 1 0.0076097285323929375 1 1 1 1 1 1 1 1 0.010312410787197648 1 1 1 1 1 1 0.010638464453392962 1 1 1 1 1 0.013823480230194481 1 1 1 0.0098649480623635329 1 1 1 0.012366845779841748 1 1 1 1 1 1 1 1 1 1 1 1 1 1 1 1 1 1 1 1 0.01331724187013569 1 1 1 1 1 0.011972943546793 1 1 0.0114373708923885 0.0095080359824797431 1 1 1 1 0.0098462821781811413 1 1 0.023834589062134915 1 1 1 1 1 1 1 1 0.012789035044674428 1 1 1 0.0099436740772306971 1 1 1 1 1 0.026686645910394477 1 1 1 0.0084058986031752513 1 1 0.0090889470701618486 1 1 1 1 1 1 1 1 1 1 1 1 1 1 1 1 1 1 1 0.010231046367326205 1 1 1 1 1 0.010517518268678954 1 1 0.013764358237715301 1 1 1 1 1 1 1 0.019280525092742994 1 1 1 1 1 1 1 1 1 1 1 0.011249842429142938 1 1 1 1 0.011495216723195204 0.011015869158472915 1 1 1 1 0.010147327327192644 1 1 0.01091448961179853 1 1 1 1 1 1 0.010550742969184295 1 1 1 1 1 1 1 1 1 1 1 1 1 1 1 1 1 1 1 1 1 1 1 1 1 1 1 0.012339806156281765 1 1 0.011349443852563638 1 1 1 0.014852362615793124 1 1 1 1 1 1 1 1 1 1 0.011348040919854273 1 1 1 0.013948414863995911 1 1 1 1 1 0.013290829330350154 0.014706302748742297 1 1 1 1 0.013175272753549953 1 1 1 0.011457949806221605 1 1 1 1 1 1 1 1 1 1 1 0.011622118450845915 1 1 1 1 1 1 1 1 1 1 1 1 1 1 0.010275414571178906 1 1 1 0.014610518142153873 1 1 1 1 1 0.0096883427221467634 1 1 1 0.0090338784485511046 0.01574936950513503 1 1 0.013816881921195871 1 1 1 1 1 1 1 0.010016524760627199 1 1 1 1 0.009980446159472512 1 1 1 1 1 1 1 1 0.0098967452813203613 1 1 0.0099328238824750621 1 1 1 1 1 1 1 1 1 1 1 1 1 1 1 1 1 1 1 1 1 1 1 1 1 1 0.010105718464349588 1 1 1 0.009869454216132164 1 1 1 1 1 1 1 1 1 1 1 1 1 1 1 1 1 1 1 0.0089670586529951787 1 1 0.012683222530396644 1 0.011169333115704934 1 1 1 1 1 1 1 0.010052995695069436 1 1 0.010154337917315013 1 1 1 0.011129196082242269 1 1 1 1 1 0.0099863555584977868 1 1 1 1 1 1 1 1 1 0.0099337803485678965 1 0.011575955838035668 0.0097217889747230977 0.013009657973664102 1 1 1 0.011328516121453379 1 1 0.010490204299643504 1 1 1 1 1 1 1 1 1 1 1 1 1 0.012293048272028512 1 1 1 1 1 1 1 1 0.010940075104513848 1 1 1 1 0.016339826405103799 1 1 1 1 0.017383210823025311 1 1 1 1 1 1 1 1 1 0.0077049498169347187 1 1 1 1 0.0079159088190248472 1 1 0.010007289948235541 1 1 1 1 0.017405339931096525 1 1 0.011881184059985339 1 0.0099865792497732479 1 1 1 1 1 1 1 1 1 1 1 1 1 1 1 1 1 1 1 1 1 1 1 1 1 1 1 1 1 1 1 1 1 1 1 1 1 1 1 1 1 1 1 1 1 1 1 1 0.010639871815917667 1 0.010539209937475731 1 1 0.01181087790922517 1 1 1 1 1 1 1 0.011637935374859805 1 1 0.014335699537664793 1 1 1 1 1 0.010719447053282739 1 1 1 0.011795931323155951 1 1 1 1 1 1 1 1 0.0098298213300388633 1 1 0.0093101512428241905 1 1 1 1 1 1 1 1 1 1 1 1 0.0079410879432112134 1 1 1 1 1 0.010069920877016449 1 1 1 1 1 0.013291030644183407 1 1 1 1 1 1 1 0.012073935688470781 1 0.013444205147123713 1 1 1 0.01013904779848169 1 1 1 0.0119808748713582 1 1 1 1 1 1 1 0.014505349951605221 1 1 1 1 1 0.0094385408232256756 1 1 1 1 1 0.015823982975585127 1 1 0.013136258486908534 1 1 0.02394882136016363 1 0.010067139103616292 1 1 1 1 0.010023356549745318 1 1 1 0.024982031267175506 1 1 1 1 0.010568857363165561 1 1 1 1 1 1 1 1 1 1 1 1 0.0088597126166727325 1 0.0078940320016541547 0.0069783609043205146 1 1 1 0.012503462690114492 1 1 1 1 1 1 1 0.010198141786316601 1 1 1 1 1 1 0.011603290460436162 1 0.010217193718172896 1 1 1 0.010094236368016178 1 1 1 1 1 1 1 1 1 1 1 1 1 1 1 1 1 1 1 0.010125135830238503 1 0.010330863354901534 1 1 0.0096955498431994906 1 1 0.010559215448077565 1 1 1 1 1 1 1 1 1 1 1 1 0.012657885755637494 1 1 1 1 1 1 0.014330268313773644 1 1 1 1 0.01565507737553784 1 1 1 1 1 1 1 1 1 1 1 1 1 1 1 0.010079033945241643 1 1 1 1 1 0.0099541894832812054 1 1 1 1 0.0098288816959542641 1 1 1 1 1 1 1 0.010343701631337132 1 1 0.010220159831908816 1 1 1 1 1 1 0.0098072857321275901 1 1 1 0.012700724970033696 1 1 0.012728908759547471 1 1 1 1 1 1 1 1 0.0096480478917739809 0.0099985864432905608 1 1 0.012223868668102721 1 0.01000069411454111 1 0.010009767551371809 1 1 1 1 1 0.011195187841704105 1 0.011789727952769218 1 1 1 0.010075184436159889 1 1 1 1 1 1 1 1 0.010598456517433533 1 1 1 1 1 1 1 1 1 1 1 1 1 1 0.010147576154989568 1 1 1 1 1 1 1 0.0097977048686010617 1 1 1 0.01059190301018458 1 1 1 1 0.0087920003002044632 0.011555218882955156 1 1 1 0.010585406295412658 1 1 1 1 0.0096370566020487214 1 1 0.010859474575392075 1 1 1 1 1 0.012400441295396712 1 1 1 1 1 1 1 1 1 1 1 1 0.013200053534636762 1 1 1 1 1 1 1 1 1 1 1 1 1 1 1 1 1 1 1 1 1 1 1 1 1 1 1 1 1 1 1 1 1 1 1 1 1 1 0.010190485884374725 1 0.010071798884505018 1 1 1 1 1 1 1 1 1 1 1 1 1 1 1 1 0.01011868699986971 1 1 1 1 1 1 1 1 1 1 1 1 1 1 1 1 1 1 1 1 1 1 1 1 1 1 1 1 1 1 1 1 1 1 1 1 1 1 1 1 1 1 1 1 1 1 1 1 1 1 1 1 1 1 1 1 1 1 1 1 1 1 1 1 1 0.010716407209578005 1 1 1 1 1 1 1 1 1 1 1 1 1 1 1 1 1 1 1 1 1 1 1 1 1 1 1 1 1 1 1 1 0.012013807954582494 1 1 1 0.0099724958278371561 1 0.0089911856607462481 1 1 1 1 1 1 0.0086562485946758052 1 1 1 0.0090998688934533344 1 1 1 1 0.013441924601686136 0.01203355218756052 0.010482730529650888 1 1 1 1 0.010000621659705443 0.0067272612741509988 0.012419554019239377 0.010020239633396226 1 1 1 0.010029520062673337 1 0.011649783167624994 1 0.0094564235155669054 1 1 1 1 1 1 1 1 0.011763875071318658 1 1 1 0.010873406937904742 1 1 1 1 1 1 1 1 1 1 0.01134254539903648 1 0.010078920023157077 1 1 1 1 0.010517701840269608 1 1 1 1 1 1 1 1 1 1 1 1 1 1 0.011403884707241081 1 0.010698421470372669 1 1 0.0093226195881012733 1 0.012931954778086971 1 1 1 1 1 0.011994399747151037 1 0.01054198109506912 1 1 1 1 1 1 1 0.0090836901793312826 1 1 1 1 1 1 1 1 1 1 1 1 1 1 1 1 1 1 1 1 1 1 1 1 1 1 0.010985360006354212 1 1 1 1 1 0.0091926507341007595 1 1 1 1 1 1 1 1 1 1 1 1 1 1 1 1 0.010750288699494175 1 1 1 1 1 1 1 1 1 0.01133132844811178 1 1 1 1 1 1 0.010590534518462601 0.010578378748373626 1 1 1 1 1 1 1 1 1 1 1 1 1 0.010552292173635248 1 1 1 1 0.012356964528816818 1 0.016748285872006476 1 1 1 0.010008982323917776 1 1 1 1 1 1 1 1 1 1 1 1 0.016994280587522649 0.010465214786141002 1 1 1 1 0.011416719210718287 1 1 1 0.017018421345198067 1 1 1 1 1 1 1 1 1 1 1 0.010846809240290986 1 1 1 1 0.014111972251675847 1 0.010230228509877672 0.013040671320683792 1 0.010277610710441858 1 1 1 1 1 1 1 1 1 1 1 1 1 1 1 1 1 1 1 1 1 1 1 1 1 1 1 0.010013478611932256 1 1 1 1 1 1 1 1 1 0.01652714872462456 1 1 0.010188736481353624 1 1 1 0.011558796495692903 1 1 1 1 1 1 1 0.012192766055101773 1 1 1 1 1 1 1 0.0082177836414373921 1 0.010256404784319231 1 1 1 1 1 1 1 1 1 1 1 1 1 1 1 0.011394402194451087 1 1 1 0.0085972026499255352 1 1 1 0.010198283967878786 1 0.010048029659055062 1 1 1 1 0.0083364589747469721 1 1 1 1 1 1 1 1 1 1 1 1 1 1 0.011421418779143282 1 0.0094352884359794661 1 1 1 1 0.010543985770896632 0.010620125356347467 1 1 1 1 1 1 1 1 1 0.011237371462403806 1 1 1 1 1 1 1 1 1 1 1 1 1 0.011098446850358117 1 1 1 0.010358773966000467 1 1 1 1 1 1 0.010508025551621532 1 1 1 1 1 0.010457503300506776 1 1 0.010275658802136278 1 1 1 1 0.010656754904586344 1 1 1 1 1 1 1 0.010267398240229285 1 1 1 0.010176348071029087 1 1 1 1 1 1 1 1 1 1 1 1 0.010436318049251322 1 1 1 1 1 1 1 1 1 1 1 1 1 1 1 1 1 1 1 1 1 1 1 1 1 1 1 1 1 1 1 1 1 1 1 1 1 1 1 1 1 1 1 1 1 1 1 1 1 1 1 1 1 0.010068042347978919 1 1 1 1 0.01014455651979651 1 1 1 1 1 1 1 1 1 1 1 1 1 1 1 1 1 1 1 1 1 1 1 1 1 1 1 1 1 1 1 1 1 1 1 0.011783076968261155 1 1 1 1 0.012126803812226996 1 1 1 1 1 1 1 1 1 1 0.0099742498662377457 1 1 1 0.0092408479665174424 1 1 1 1 1 1 1 0.0096915204829011291 1 1 1 1 0.010416670190029377 1 1 1 1 0.011309822080146015 1 1 1 1 1 1 1 1 1 1 1 1 1 1 0.010395840476229467 1 0.011233391720408272 1 0.011328946833948736 1 0.012752797885782695 1 1 1 1 1 1 0.0099448879173334968 1 1 1 1 1 1 1 0.012687940039645712 1 1 1 1 1 1 1 1 1 0.010007787365940893 1 0.01372563562377312 1 1 1 1 1 0.0099007508563855925 1 1 0.010522410927556944 0.012800766280993544 1 1 0.011030014338260383 1 0.011004186940778319 0.010514211389557012 1 0.010637754833377196 1 1 1 1 1 1 1 1 1 1 1 1 1 0.010238821456388627 1 1 1 1 1 0.0099087430471304656 1 1 1 1 1 1 1 0.01167546678595658 1 1 1 0.009829835743273934 1 1 0.0098999018808671579 1 0.010364927847052251 1 1 1 1 1 1 1 0.012607378426185881 1 1 1 1 1 1 1 1 1 1 1 1 1 1 1 1 1 0.017159693226242737 1 1 1 1 1 1 1 1 1 1 1 1 1 1 1 1 1 1 1 1 1 1 1 1 0.014569368341025004 1 0.012408314213222848 1 1 1 1 0.0099384138614243278 1 1 0.019298431613323928 1 1 0.010040397554806256 1 1 1 0.017097321942224401 1 1 1 1 1 1 1 0.018170963626420907 0.016954454531186214 1 1 1 0.0109709747949223 1 1 1 0.01022396828416503 1 1 1 0.011341776319860972 1 1 0.011826361778811322 0.012628502424174041 1 1 1 1 1 0.0098837300372326738 1 1 1 1 0.0098690134611566886 1 1 1 1 1 1 1 1 1 1 1 1 1 1 1 1 1 1 1 1 1 1 1 1 1 1 1 1 1 1 1 1 1 1 1 1 1 1 1 
</DataArray>
</CellData>
</Piece>
</UnstructuredGrid>
</VTKFile>
