<?xml version="1.0"?>
<VTKFile type="UnstructuredGrid" version="0.1" byte_order="LittleEndian">
<UnstructuredGrid>
<Piece NumberOfPoints="28800" NumberOfCells="10071">
<Points>
<DataArray type="Float64" NumberOfComponents="3" format="ascii">
-0.48845978519967392 -0.49999999999999878 0 -0.5 -0.5 0 -0.48847524721005109 -0.48113855282930679 0 -0.5 -0.5 0 -0.48847524721005109 -0.48113855282930679 0 -0.5 -0.44533905111250399 0 -0.47399116852550238 -0.47906591784546038 0 -0.47399889953069058 -0.4696351942601148 0 -0.45952255185133017 -0.45813183569092247 0 -0.48847524721005109 -0.48113855282930679 0 -0.47399889953069058 -0.4696351942601148 0 -0.48847524721005109 -0.48113855282930679 0 -0.47399116852550238 -0.47906591784546038 0 -0.47399889953069058 -0.4696351942601148 0 -0.48845978519967392 -0.49999999999999878 0 -0.48847524721005109 -0.48113855282930679 0 -0.47399116852550238 -0.47906591784546038 0 -0.48845978519967392 -0.49999999999999878 0 -0.47399116852550238 -0.47906591784546038 0 -0.48845978519967392 -0.49999999999999878 0 -0.47399116852550238 -0.47906591784546038 0 -0.47240354374103682 -0.5 0 -0.47240354374103682 -0.5 0 -0.4563473022823995 -0.49999999999999889 0 -0.45859955168969169 -0.48399583434959709 0 -0.47399116852550238 -0.47906591784546038 0 -0.47240354374103682 -0.5 0 -0.45859955168969169 -0.48399583434959709 0 -0.47399116852550238 -0.47906591784546038 0 -0.4595840785933013 -0.47021189552928999 0 -0.45859955168969169 -0.48399583434959709 0 -0.47399116852550238 -0.47906591784546038 0 -0.4595840785933013 -0.47021189552928999 0 -0.45952255185133017 -0.45813183569092247 0 -0.4595840785933013 -0.47021189552928999 0 -0.45859955168969169 -0.48399583434959709 0 -0.4472434753811072 -0.47249603102815779 0 -0.4472434753811072 -0.47249603102815779 0 -0.43592330524333922 -0.48762220332400369 0 -0.43274165805303699 -0.47110944383739001 0 -0.45859955168969169 -0.48399583434959709 0 -0.4472434753811072 -0.47249603102815779 0 -0.43592330524333922 -0.48762220332400369 0 -0.4472434753811072 -0.47249603102815779 0 -0.43592330524333922 -0.48762220332400369 0 -0.4563473022823995 -0.49999999999999889 0 -0.43592330524333922 -0.48762220332400369 0 -0.4563473022823995 -0.49999999999999889 0 -0.42665997268554218 -0.49999999999999939 0 -0.43592330524333922 -0.48762220332400369 0 -0.4563473022823995 -0.49999999999999889 0 -0.45859955168969169 -0.48399583434959709 0 -0.43592330524333922 -0.48762220332400369 0 -0.44947514693095081 -0.44359463391277298 0 -0.45952255185133017 -0.45813183569092247 0 -0.43566714521728023 -0.43917558357516279 0 -0.43926643517818781 -0.45814775152321707 0 -0.45952255185133017 -0.45813183569092247 0 -0.43566714521728023 -0.43917558357516279 0 -0.45952255185133017 -0.45813183569092247 0 -0.43566714521728023 -0.43917558357516279 0 -0.4472434753811072 -0.47249603102815779 0 -0.43926643517818781 -0.45814775152321707 0 -0.45952255185133017 -0.45813183569092247 0 -0.4472434753811072 -0.47249603102815779 0 -0.43926643517818781 -0.45814775152321707 0 -0.43274165805303699 -0.47110944383739001 0 -0.47399116852550238 -0.47906591784546038 0 -0.45952255185133017 -0.45813183569092247 0 -0.4472434753811072 -0.47249603102815779 0 -0.45952255185133017 -0.45813183569092247 0 -0.4595840785933013 -0.47021189552928999 0 -0.4472434753811072 -0.47249603102815779 0 -0.45952255185133017 -0.45813183569092247 0 -0.47399889953069058 -0.4696351942601148 0 -0.45952255185133017 -0.45813183569092247 0 -0.47399889953069058 -0.4696351942601148 0 -0.45952255185133017 -0.45813183569092247 0 -0.47256434925375629 -0.4543160115402386 0 -0.45952255185133017 -0.45813183569092247 0 -0.4705119240481388 -0.44140439907288298 0 -0.45952255185133017 -0.45813183569092247 0 -0.4705119240481388 -0.44140439907288298 0 -0.47256434925375629 -0.4543160115402386 0 -0.45952255185133017 -0.45813183569092247 0 -0.46020884415810842 -0.44270473187900439 0 -0.4705119240481388 -0.44140439907288298 0 -0.44947514693095081 -0.44359463391277298 0 -0.45952255185133017 -0.45813183569092247 0 -0.46020884415810842 -0.44270473187900439 0 -0.44947514693095081 -0.44359463391277298 0 -0.45952255185133017 -0.45813183569092247 0 -0.44947514693095081 -0.44359463391277298 0 -0.46020884415810842 -0.44270473187900439 0 -0.46152098141980358 -0.43010050424306501 0 -0.46020884415810842 -0.44270473187900439 0 -0.4705119240481388 -0.44140439907288298 0 -0.46152098141980358 -0.43010050424306501 0 -0.4705119240481388 -0.44140439907288298 0 -0.5 -0.44533905111250399 0 -0.4792605511723772 -0.42821039908633651 0 -0.4705119240481388 -0.44140439907288298 0 -0.47256434925375629 -0.4543160115402386 0 -0.5 -0.44533905111250399 0 -0.48847524721005109 -0.48113855282930679 0 -0.47399889953069058 -0.4696351942601148 0 -0.5 -0.44533905111250399 0 -0.47399889953069058 -0.4696351942601148 0 -0.47256434925375629 -0.4543160115402386 0 -0.5 -0.44533905111250399 0 -0.5 -0.44533905111250399 0 -0.49309399373994639 -0.41203070099268269 0 -0.50000000000000111 -0.37443756057980321 0 -0.5 -0.44533905111250399 0 -0.49309399373994639 -0.41203070099268269 0 -0.4792605511723772 -0.42821039908633651 0 -0.49309399373994639 -0.41203070099268269 0 -0.47117585665399719 -0.41217734001054768 0 -0.4792605511723772 -0.42821039908633651 0 -0.49309399373994639 -0.41203070099268269 0 -0.47117585665399719 -0.41217734001054768 0 -0.47977652772236101 -0.39824576647622578 0 -0.4705119240481388 -0.44140439907288298 0 -0.4792605511723772 -0.42821039908633651 0 -0.46152098141980358 -0.43010050424306501 0 -0.47117585665399719 -0.41217734001054768 0 -0.4792605511723772 -0.42821039908633651 0 -0.46152098141980358 -0.43010050424306501 0 -0.49309399373994639 -0.41203070099268269 0 -0.48974847569938162 -0.38740747336048043 0 -0.50000000000000111 -0.37443756057980321 0 -0.48974847569938162 -0.38740747336048043 0 -0.48642312672438037 -0.36278150539002052 0 -0.49309399373994639 -0.41203070099268269 0 -0.48974847569938162 -0.38740747336048043 0 -0.49309399373994639 -0.41203070099268269 0 -0.48974847569938162 -0.38740747336048043 0 -0.47977652772236101 -0.39824576647622578 0 -0.47117585665399719 -0.41217734001054768 0 -0.46888544292523088 -0.39635475194215308 0 -0.47977652772236101 -0.39824576647622578 0 -0.46888544292523088 -0.39635475194215308 0 -0.47977652772236101 -0.39824576647622578 0 -0.47597886959324831 -0.38325856607526532 0 -0.48974847569938162 -0.38740747336048043 0 -0.47597886959324831 -0.38325856607526532 0 -0.48642312672438037 -0.36278150539002052 0 -0.48974847569938162 -0.38740747336048043 0 -0.47977652772236101 -0.39824576647622578 0 -0.47597886959324831 -0.38325856607526532 0 -0.46047226212004638 -0.38263127002788261 0 -0.45901914900730112 -0.37110511580400812 0 -0.44873199880990072 -0.37273943711263691 0 -0.46047226212004638 -0.38263127002788261 0 -0.46822743030822173 -0.37194584080839632 0 -0.45901914900730112 -0.37110511580400812 0 -0.47597886959324831 -0.38325856607526532 0 -0.46047226212004638 -0.38263127002788261 0 -0.46822743030822173 -0.37194584080839632 0 -0.46888544292523088 -0.39635475194215308 0 -0.47597886959324831 -0.38325856607526532 0 -0.46047226212004638 -0.38263127002788261 0 -0.46047226212004638 -0.38263127002788261 0 -0.45468813848504092 -0.39440257360107378 0 -0.44847238099986392 -0.38642364760353781 0 -0.47117585665399719 -0.41217734001054768 0 -0.46888544292523088 -0.39635475194215308 0 -0.45833632796015239 -0.40493197539091069 0 -0.46888544292523088 -0.39635475194215308 0 -0.46047226212004638 -0.38263127002788261 0 -0.45468813848504092 -0.39440257360107378 0 -0.46888544292523088 -0.39635475194215308 0 -0.45468813848504092 -0.39440257360107378 0 -0.45833632796015239 -0.40493197539091069 0 -0.45468813848504092 -0.39440257360107378 0 -0.45833632796015239 -0.40493197539091069 0 -0.44886706629917839 -0.40168544137085299 0 -0.45833632796015239 -0.40493197539091069 0 -0.44886706629917839 -0.40168544137085299 0 -0.44725281353906732 -0.41125260250332968 0 -0.44886706629917839 -0.40168544137085299 0 -0.43925595896224251 -0.40336051013321089 0 -0.44353535399930538 -0.395049807548084 0 -0.44886706629917839 -0.40168544137085299 0 -0.43925595896224251 -0.40336051013321089 0 -0.44725281353906732 -0.41125260250332968 0 -0.44353535399930538 -0.395049807548084 0 -0.4388190928287643 -0.38837495895815549 0 -0.43548642635465801 -0.39363153856849992 0 -0.43925595896224251 -0.40336051013321089 0 -0.44353535399930538 -0.395049807548084 0 -0.43548642635465801 -0.39363153856849992 0 -0.45468813848504092 -0.39440257360107378 0 -0.44886706629917839 -0.40168544137085299 0 -0.44353535399930538 -0.395049807548084 0 -0.45468813848504092 -0.39440257360107378 0 -0.44353535399930538 -0.395049807548084 0 -0.44847238099986392 -0.38642364760353781 0 -0.4388190928287643 -0.38837495895815549 0 -0.44873199880990072 -0.37273943711263691 0 -0.4388190928287643 -0.38837495895815549 0 -0.43442955601071059 -0.38033021618326229 0 -0.44873199880990072 -0.37273943711263691 0 -0.44847238099986392 -0.38642364760353781 0 -0.4388190928287643 -0.38837495895815549 0 -0.44873199880990072 -0.37273943711263691 0 -0.44847238099986392 -0.38642364760353781 0 -0.4388190928287643 -0.38837495895815549 0 -0.44353535399930538 -0.395049807548084 0 -0.44847238099986392 -0.38642364760353781 0 -0.4388190928287643 -0.38837495895815549 0 -0.46047226212004638 -0.38263127002788261 0 -0.44847238099986392 -0.38642364760353781 0 -0.44873199880990072 -0.37273943711263691 0 -0.46152098141980358 -0.43010050424306501 0 -0.45713073400600129 -0.41668745731737777 0 -0.44582116554119428 -0.42576176157496959 0 -0.47117585665399719 -0.41217734001054768 0 -0.46152098141980358 -0.43010050424306501 0 -0.45713073400600129 -0.41668745731737777 0 -0.47117585665399719 -0.41217734001054768 0 -0.45833632796015239 -0.40493197539091069 0 -0.45713073400600129 -0.41668745731737777 0 -0.45833632796015239 -0.40493197539091069 0 -0.45713073400600129 -0.41668745731737777 0 -0.44725281353906732 -0.41125260250332968 0 -0.45713073400600129 -0.41668745731737777 0 -0.44725281353906732 -0.41125260250332968 0 -0.44582116554119428 -0.42576176157496959 0 -0.43925595896224251 -0.40336051013321089 0 -0.44725281353906732 -0.41125260250332968 0 -0.43634191419794938 -0.41460369128059499 0 -0.44725281353906732 -0.41125260250332968 0 -0.44582116554119428 -0.42576176157496959 0 -0.43634191419794938 -0.41460369128059499 0 -0.44582116554119428 -0.42576176157496959 0 -0.43238159931351711 -0.42480731061578469 0 -0.43634191419794938 -0.41460369128059499 0 -0.44947514693095081 -0.44359463391277298 0 -0.46152098141980358 -0.43010050424306501 0 -0.44582116554119428 -0.42576176157496959 0 -0.44947514693095081 -0.44359463391277298 0 -0.44582116554119428 -0.42576176157496959 0 -0.43566714521728023 -0.43917558357516279 0 -0.44582116554119428 -0.42576176157496959 0 -0.43238159931351711 -0.42480731061578469 0 -0.43566714521728023 -0.43917558357516279 0 -0.43238159931351711 -0.42480731061578469 0 -0.4127706449156861 -0.42098130841801301 0 -0.43566714521728023 -0.43917558357516279 0 -0.4127706449156861 -0.42098130841801301 0 -0.43566714521728023 -0.43917558357516279 0 -0.4203172351126776 -0.43867124063479979 0 -0.4127706449156861 -0.42098130841801301 0 -0.43566714521728023 -0.43917558357516279 0 -0.43238159931351711 -0.42480731061578469 0 -0.43634191419794938 -0.41460369128059499 0 -0.42582475225701222 -0.41420990865210178 0 -0.43238159931351711 -0.42480731061578469 0 -0.42582475225701222 -0.41420990865210178 0 -0.4127706449156861 -0.42098130841801301 0 -0.43925595896224251 -0.40336051013321089 0 -0.43634191419794938 -0.41460369128059499 0 -0.42946145518722217 -0.4044374372444971 0 -0.43634191419794938 -0.41460369128059499 0 -0.42582475225701222 -0.41420990865210178 0 -0.42946145518722217 -0.4044374372444971 0 -0.42582475225701222 -0.41420990865210178 0 -0.42946145518722217 -0.4044374372444971 0 -0.41816814767068611 -0.40621979570161909 0 -0.4127706449156861 -0.42098130841801301 0 -0.41816814767068611 -0.40621979570161909 0 -0.42582475225701222 -0.41420990865210178 0 -0.4127706449156861 -0.42098130841801301 0 -0.41816814767068611 -0.40621979570161909 0 -0.4127706449156861 -0.42098130841801301 0 -0.4074812620055045 -0.41679519124696451 0 -0.41816814767068611 -0.40621979570161909 0 -0.4074812620055045 -0.41679519124696451 0 -0.41221541287031632 -0.42249980044484631 0 -0.40315384805195958 -0.4238225789287664 0 -0.4127706449156861 -0.42098130841801301 0 -0.4074812620055045 -0.41679519124696451 0 -0.41221541287031632 -0.42249980044484631 0 -0.4127706449156861 -0.42098130841801301 0 -0.41221541287031632 -0.42249980044484631 0 -0.4127706449156861 -0.42098130841801301 0 -0.4074812620055045 -0.41679519124696451 0 -0.41221541287031632 -0.42249980044484631 0 -0.40784647257069351 -0.42723346218710923 0 -0.41173716542107702 -0.4324017223950099 0 -0.41221541287031632 -0.42249980044484631 0 -0.40784647257069351 -0.42723346218710923 0 -0.40315384805195958 -0.4238225789287664 0 -0.4127706449156861 -0.42098130841801301 0 -0.41221541287031632 -0.42249980044484631 0 -0.4203172351126776 -0.43867124063479979 0 -0.41221541287031632 -0.42249980044484631 0 -0.41173716542107702 -0.4324017223950099 0 -0.4203172351126776 -0.43867124063479979 0 -0.41173716542107702 -0.4324017223950099 0 -0.4203172351126776 -0.43867124063479979 0 -0.40900197421096562 -0.43938790500116792 0 -0.40784647257069351 -0.42723346218710923 0 -0.40686393041660079 -0.43405734705029753 0 -0.41173716542107702 -0.4324017223950099 0 -0.40686393041660079 -0.43405734705029753 0 -0.41173716542107702 -0.4324017223950099 0 -0.40900197421096562 -0.43938790500116792 0 -0.42617725314406918 -0.38431586759657638 0 -0.41081736975277888 -0.38569903686225993 0 -0.43014838870240141 -0.37345529545725659 0 -0.42617725314406918 -0.38431586759657638 0 -0.43014838870240141 -0.37345529545725659 0 -0.42617725314406918 -0.38431586759657638 0 -0.43372600619628748 -0.37118932988372272 0 -0.42617725314406918 -0.38431586759657638 0 -0.43014838870240141 -0.37345529545725659 0 -0.43372600619628748 -0.37118932988372272 0 -0.43442955601071059 -0.38033021618326229 0 -0.42617725314406918 -0.38431586759657638 0 -0.43372600619628748 -0.37118932988372272 0 -0.4388190928287643 -0.38837495895815549 0 -0.42356565042568511 -0.39145828298522489 0 -0.4388190928287643 -0.38837495895815549 0 -0.43442955601071059 -0.38033021618326229 0 -0.42617725314406918 -0.38431586759657638 0 -0.4388190928287643 -0.38837495895815549 0 -0.42617725314406918 -0.38431586759657638 0 -0.42356565042568511 -0.39145828298522489 0 -0.42617725314406918 -0.38431586759657638 0 -0.42186839489242178 -0.39180136545981947 0 -0.42617725314406918 -0.38431586759657638 0 -0.42356565042568511 -0.39145828298522489 0 -0.42186839489242178 -0.39180136545981947 0 -0.42617725314406918 -0.38431586759657638 0 -0.42356565042568511 -0.39145828298522489 0 -0.42356565042568511 -0.39145828298522489 0 -0.43548642635465801 -0.39363153856849992 0 -0.42946145518722217 -0.4044374372444971 0 -0.42356565042568511 -0.39145828298522489 0 -0.42186839489242178 -0.39180136545981947 0 -0.4388190928287643 -0.38837495895815549 0 -0.42356565042568511 -0.39145828298522489 0 -0.43548642635465801 -0.39363153856849992 0 -0.4388190928287643 -0.38837495895815549 0 -0.43548642635465801 -0.39363153856849992 0 -0.43925595896224251 -0.40336051013321089 0 -0.43548642635465801 -0.39363153856849992 0 -0.42946145518722217 -0.4044374372444971 0 -0.42356565042568511 -0.39145828298522489 0 -0.42946145518722217 -0.4044374372444971 0 -0.41816814767068611 -0.40621979570161909 0 -0.4074812620055045 -0.41679519124696451 0 -0.41816814767068611 -0.40621979570161909 0 -0.42186839489242178 -0.39180136545981947 0 -0.4074812620055045 -0.41679519124696451 0 -0.42186839489242178 -0.39180136545981947 0 -0.4074812620055045 -0.41679519124696451 0 -0.40667737284778899 -0.39487207186354162 0 -0.42186839489242178 -0.39180136545981947 0 -0.42356565042568511 -0.39145828298522489 0 -0.41816814767068611 -0.40621979570161909 0 -0.40667737284778899 -0.39487207186354162 0 -0.42186839489242178 -0.39180136545981947 0 -0.41081736975277888 -0.38569903686225993 0 -0.40667737284778899 -0.39487207186354162 0 -0.42186839489242178 -0.39180136545981947 0 -0.42356565042568511 -0.39145828298522489 0 -0.41816814767068611 -0.40621979570161909 0 -0.42186839489242178 -0.39180136545981947 0 -0.41081736975277888 -0.38569903686225993 0 -0.43014838870240141 -0.37345529545725659 0 -0.41464914056493901 -0.37036657366972348 0 -0.41081736975277888 -0.38569903686225993 0 -0.43014838870240141 -0.37345529545725659 0 -0.42617725314406918 -0.38431586759657638 0 -0.42186839489242178 -0.39180136545981947 0 -0.41081736975277888 -0.38569903686225993 0 -0.41081736975277888 -0.38569903686225993 0 -0.40032241467460888 -0.37743921825103088 0 -0.41464914056493901 -0.37036657366972348 0 -0.41081736975277888 -0.38569903686225993 0 -0.40032241467460888 -0.37743921825103088 0 -0.39466510850498382 -0.38530859383598393 0 -0.41081736975277888 -0.38569903686225993 0 -0.39466510850498382 -0.38530859383598393 0 -0.3914863508031563 -0.39794277826726299 0 -0.40032241467460888 -0.37743921825103088 0 -0.39466510850498382 -0.38530859383598393 0 -0.38541451285061151 -0.38194298952601652 0 -0.41081736975277888 -0.38569903686225993 0 -0.3914863508031563 -0.39794277826726299 0 -0.40667737284778899 -0.39487207186354162 0 -0.41081736975277888 -0.38569903686225993 0 -0.3914863508031563 -0.39794277826726299 0 -0.4074812620055045 -0.41679519124696451 0 -0.40667737284778899 -0.39487207186354162 0 -0.3914863508031563 -0.39794277826726299 0 -0.4074812620055045 -0.41679519124696451 0 -0.3914863508031563 -0.39794277826726299 0 -0.38719689210223263 -0.40065960469211509 0 -0.39466510850498382 -0.38530859383598393 0 -0.3914863508031563 -0.39794277826726299 0 -0.38703127914215679 -0.39062156086861383 0 -0.40667737284778899 -0.39487207186354162 0 -0.3914863508031563 -0.39794277826726299 0 -0.38534114240029099 -0.39918496794610059 0 -0.36951815348444478 -0.38661152613834032 0 -0.38534114240029099 -0.39918496794610059 0 -0.37998209480888118 -0.38660935768327748 0 -0.36951815348444478 -0.38661152613834032 0 -0.3914863508031563 -0.39794277826726299 0 -0.38534114240029099 -0.39918496794610059 0 -0.3914863508031563 -0.39794277826726299 0 -0.38719689210223263 -0.40065960469211509 0 -0.38534114240029099 -0.39918496794610059 0 -0.3914863508031563 -0.39794277826726299 0 -0.38719689210223263 -0.40065960469211509 0 -0.38719689210223263 -0.40065960469211509 0 -0.38534114240029099 -0.39918496794610059 0 -0.38719689210223263 -0.40065960469211509 0 -0.37287618229732461 -0.40972995261553652 0 -0.38719689210223263 -0.40065960469211509 0 -0.38534114240029099 -0.39918496794610059 0 -0.37287618229732461 -0.40972995261553652 0 -0.38534114240029099 -0.39918496794610059 0 -0.38703127914215679 -0.39062156086861383 0 -0.37998209480888118 -0.38660935768327748 0 -0.3914863508031563 -0.39794277826726299 0 -0.38534114240029099 -0.39918496794610059 0 -0.38703127914215679 -0.39062156086861383 0 -0.39466510850498382 -0.38530859383598393 0 -0.38703127914215679 -0.39062156086861383 0 -0.38541451285061151 -0.38194298952601652 0 -0.38703127914215679 -0.39062156086861383 0 -0.37998209480888118 -0.38660935768327748 0 -0.38541451285061151 -0.38194298952601652 0 -0.37998209480888118 -0.38660935768327748 0 -0.38541451285061151 -0.38194298952601652 0 -0.37260538616690148 -0.37468574393731691 0 -0.39533047062786703 -0.42747417617781941 0 -0.39292891156109899 -0.41974182414701189 0 -0.38665311239275918 -0.42833715266220762 0 -0.39533047062786703 -0.42747417617781941 0 -0.40315384805195958 -0.4238225789287664 0 -0.39292891156109899 -0.41974182414701189 0 -0.39533047062786703 -0.42747417617781941 0 -0.39372836990177279 -0.43521173572503241 0 -0.40239390321924001 -0.42993319576648947 0 -0.39533047062786703 -0.42747417617781941 0 -0.39372836990177279 -0.43521173572503241 0 -0.38665311239275918 -0.42833715266220762 0 -0.39372836990177279 -0.43521173572503241 0 -0.40189520666832917 -0.43693794831523708 0 -0.40239390321924001 -0.42993319576648947 0 -0.40686393041660079 -0.43405734705029753 0 -0.40189520666832917 -0.43693794831523708 0 -0.40239390321924001 -0.42993319576648947 0 -0.40686393041660079 -0.43405734705029753 0 -0.40189520666832917 -0.43693794831523708 0 -0.40900197421096562 -0.43938790500116792 0 -0.40784647257069351 -0.42723346218710923 0 -0.40686393041660079 -0.43405734705029753 0 -0.40239390321924001 -0.42993319576648947 0 -0.39533047062786703 -0.42747417617781941 0 -0.40239390321924001 -0.42993319576648947 0 -0.40315384805195958 -0.4238225789287664 0 -0.40784647257069351 -0.42723346218710923 0 -0.40239390321924001 -0.42993319576648947 0 -0.40315384805195958 -0.4238225789287664 0 -0.4074812620055045 -0.41679519124696451 0 -0.40315384805195958 -0.4238225789287664 0 -0.39292891156109899 -0.41974182414701189 0 -0.4074812620055045 -0.41679519124696451 0 -0.38719689210223263 -0.40065960469211509 0 -0.4074812620055045 -0.41679519124696451 0 -0.38719689210223263 -0.40065960469211509 0 -0.38696160447142097 -0.41190236511297512 0 -0.4074812620055045 -0.41679519124696451 0 -0.39292891156109899 -0.41974182414701189 0 -0.38696160447142097 -0.41190236511297512 0 -0.39292891156109899 -0.41974182414701189 0 -0.38696160447142097 -0.41190236511297512 0 -0.38043392001616971 -0.41976943550850199 0 -0.38719689210223263 -0.40065960469211509 0 -0.38696160447142097 -0.41190236511297512 0 -0.37287618229732461 -0.40972995261553652 0 -0.38696160447142097 -0.41190236511297512 0 -0.38043392001616971 -0.41976943550850199 0 -0.37287618229732461 -0.40972995261553652 0 -0.38043392001616971 -0.41976943550850199 0 -0.38665311239275918 -0.42833715266220762 0 -0.37479732898604168 -0.43006389527844202 0 -0.39292891156109899 -0.41974182414701189 0 -0.38043392001616971 -0.41976943550850199 0 -0.38665311239275918 -0.42833715266220762 0 -0.39372836990177279 -0.43521173572503241 0 -0.38665311239275918 -0.42833715266220762 0 -0.38269967326360532 -0.43776184913643879 0 -0.38269967326360532 -0.43776184913643879 0 -0.37370687752839121 -0.43962503310188339 0 -0.37479732898604168 -0.43006389527844202 0 -0.38665311239275918 -0.42833715266220762 0 -0.38269967326360532 -0.43776184913643879 0 -0.37479732898604168 -0.43006389527844202 0 -0.38269967326360532 -0.43776184913643879 0 -0.38215026660067403 -0.4485121527510163 0 -0.37370687752839121 -0.43962503310188339 0 -0.38215026660067403 -0.4485121527510163 0 -0.37939535056879342 -0.45972483942586939 0 -0.36680784563055258 -0.44861298435318192 0 -0.38215026660067403 -0.4485121527510163 0 -0.38972925251197438 -0.44280596008374751 0 -0.39220550819171512 -0.44932504586571381 0 -0.38215026660067403 -0.4485121527510163 0 -0.39220550819171512 -0.44932504586571381 0 -0.38869501033092457 -0.45666122956233468 0 -0.39372836990177279 -0.43521173572503241 0 -0.38269967326360532 -0.43776184913643879 0 -0.38972925251197438 -0.44280596008374751 0 -0.38269967326360532 -0.43776184913643879 0 -0.38215026660067403 -0.4485121527510163 0 -0.38972925251197438 -0.44280596008374751 0 -0.39372836990177279 -0.43521173572503241 0 -0.38972925251197438 -0.44280596008374751 0 -0.39932731965901208 -0.44397732619216868 0 -0.39372836990177279 -0.43521173572503241 0 -0.40189520666832917 -0.43693794831523708 0 -0.39932731965901208 -0.44397732619216868 0 -0.38972925251197438 -0.44280596008374751 0 -0.39220550819171512 -0.44932504586571381 0 -0.39932731965901208 -0.44397732619216868 0 -0.39220550819171512 -0.44932504586571381 0 -0.39932731965901208 -0.44397732619216868 0 -0.40112569185599029 -0.4546685607393019 0 -0.39932731965901208 -0.44397732619216868 0 -0.40112569185599029 -0.4546685607393019 0 -0.41101694556852109 -0.44955091850826268 0 -0.40189520666832917 -0.43693794831523708 0 -0.39932731965901208 -0.44397732619216868 0 -0.40900197421096562 -0.43938790500116792 0 -0.39997452056343052 -0.46583573583352339 0 -0.40112569185599029 -0.4546685607393019 0 -0.41084853834464391 -0.4607280444742502 0 -0.39220550819171512 -0.44932504586571381 0 -0.40112569185599029 -0.4546685607393019 0 -0.38869501033092457 -0.45666122956233468 0 -0.40112569185599029 -0.4546685607393019 0 -0.38869501033092457 -0.45666122956233468 0 -0.38711851342307702 -0.46977904049286801 0 -0.40112569185599029 -0.4546685607393019 0 -0.38711851342307702 -0.46977904049286801 0 -0.39997452056343052 -0.46583573583352339 0 -0.40112569185599029 -0.4546685607393019 0 -0.38711851342307702 -0.46977904049286801 0 -0.38869501033092457 -0.45666122956233468 0 -0.37939535056879342 -0.45972483942586939 0 -0.38711851342307702 -0.46977904049286801 0 -0.37939535056879342 -0.45972483942586939 0 -0.38711851342307702 -0.46977904049286801 0 -0.36903871912645969 -0.46624442400022459 0 -0.38215026660067403 -0.4485121527510163 0 -0.38869501033092457 -0.45666122956233468 0 -0.37939535056879342 -0.45972483942586939 0 -0.38711851342307702 -0.46977904049286801 0 -0.37311133499016358 -0.48488952024643422 0 -0.36903871912645969 -0.46624442400022459 0 -0.38561402583703142 -0.48243186158574158 0 -0.38711851342307702 -0.46977904049286801 0 -0.37311133499016358 -0.48488952024643422 0 -0.38711851342307702 -0.46977904049286801 0 -0.37311133499016358 -0.48488952024643422 0 -0.38561402583703142 -0.48243186158574158 0 -0.38711851342307702 -0.46977904049286801 0 -0.39883153885245848 -0.48367491228441117 0 -0.38561402583703142 -0.48243186158574158 0 -0.38162276193334749 -0.5 0 -0.39883153885245848 -0.48367491228441117 0 -0.38561402583703142 -0.48243186158574158 0 -0.38162276193334749 -0.5 0 -0.37311133499016358 -0.48488952024643422 0 -0.38162276193334749 -0.5 0 -0.40414136730944478 -0.5 0 -0.39883153885245848 -0.48367491228441117 0 -0.39997452056343052 -0.46583573583352339 0 -0.39883153885245848 -0.48367491228441117 0 -0.41794891290338537 -0.47672896957876248 0 -0.39997452056343052 -0.46583573583352339 0 -0.38711851342307702 -0.46977904049286801 0 -0.39883153885245848 -0.48367491228441117 0 -0.39883153885245848 -0.48367491228441117 0 -0.41794891290338537 -0.47672896957876248 0 -0.41587455826328779 -0.4904591423984716 0 -0.39997452056343052 -0.46583573583352339 0 -0.41794891290338537 -0.47672896957876248 0 -0.40414136730944478 -0.5 0 -0.41587455826328779 -0.4904591423984716 0 -0.42665997268554218 -0.49999999999999939 0 -0.40414136730944478 -0.5 0 -0.39883153885245848 -0.48367491228441117 0 -0.41587455826328779 -0.4904591423984716 0 -0.41794891290338537 -0.47672896957876248 0 -0.41587455826328779 -0.4904591423984716 0 -0.43592330524333922 -0.48762220332400369 0 -0.41587455826328779 -0.4904591423984716 0 -0.42665997268554218 -0.49999999999999939 0 -0.43592330524333922 -0.48762220332400369 0 -0.42665997268554218 -0.49999999999999939 0 -0.43592330524333922 -0.48762220332400369 0 -0.41794891290338537 -0.47672896957876248 0 -0.43592330524333922 -0.48762220332400369 0 -0.43274165805303699 -0.47110944383739001 0 -0.41794891290338537 -0.47672896957876248 0 -0.43592330524333922 -0.48762220332400369 0 -0.43926643517818781 -0.45814775152321707 0 -0.43274165805303699 -0.47110944383739001 0 -0.42417662083189228 -0.45685603771140049 0 -0.41794891290338537 -0.47672896957876248 0 -0.43274165805303699 -0.47110944383739001 0 -0.42417662083189228 -0.45685603771140049 0 -0.43926643517818781 -0.45814775152321707 0 -0.42417662083189228 -0.45685603771140049 0 -0.43566714521728023 -0.43917558357516279 0 -0.42417662083189228 -0.45685603771140049 0 -0.43566714521728023 -0.43917558357516279 0 -0.4203172351126776 -0.43867124063479979 0 -0.42417662083189228 -0.45685603771140049 0 -0.4203172351126776 -0.43867124063479979 0 -0.41101694556852109 -0.44955091850826268 0 -0.4203172351126776 -0.43867124063479979 0 -0.40900197421096562 -0.43938790500116792 0 -0.41101694556852109 -0.44955091850826268 0 -0.39932731965901208 -0.44397732619216868 0 -0.40900197421096562 -0.43938790500116792 0 -0.41101694556852109 -0.44955091850826268 0 -0.39997452056343052 -0.46583573583352339 0 -0.41794891290338537 -0.47672896957876248 0 -0.41084853834464391 -0.4607280444742502 0 -0.40112569185599029 -0.4546685607393019 0 -0.41101694556852109 -0.44955091850826268 0 -0.41084853834464391 -0.4607280444742502 0 -0.41794891290338537 -0.47672896957876248 0 -0.42417662083189228 -0.45685603771140049 0 -0.41084853834464391 -0.4607280444742502 0 -0.42417662083189228 -0.45685603771140049 0 -0.41101694556852109 -0.44955091850826268 0 -0.41084853834464391 -0.4607280444742502 0 -0.45960331814471778 -0.2696725928628243 0 -0.43134695993872568 -0.26996010416178029 0 -0.44458406038942538 -0.24975118405773991 0 -0.45960331814471778 -0.2696725928628243 0 -0.44454833476856898 -0.28822414621500292 0 -0.43134695993872568 -0.26996010416178029 0 -0.45960331814471778 -0.2696725928628243 0 -0.47068923944738839 -0.24265942556915759 0 -0.44458406038942538 -0.24975118405773991 0 -0.45960331814471778 -0.2696725928628243 0 -0.48191371264785599 -0.25951362480925638 0 -0.47068923944738839 -0.24265942556915759 0 -0.48191371264785599 -0.25951362480925638 0 -0.5 -0.26594391814948398 0 -0.5 -0.24001287566872481 0 -0.48191371264785599 -0.25951362480925638 0 -0.5 -0.26594391814948398 0 -0.47927600564717399 -0.27927931179609122 0 -0.5 -0.26594391814948398 0 -0.47927600564717399 -0.27927931179609122 0 -0.49999999999999889 -0.29187496063024337 0 -0.45960331814471778 -0.2696725928628243 0 -0.48191371264785599 -0.25951362480925638 0 -0.47927600564717399 -0.27927931179609122 0 -0.47927600564717399 -0.27927931179609122 0 -0.48344945723454502 -0.29582167784803381 0 -0.46607014546550041 -0.29961990098006869 0 -0.47927600564717399 -0.27927931179609122 0 -0.48344945723454502 -0.29582167784803381 0 -0.49999999999999889 -0.29187496063024337 0 -0.48344945723454502 -0.29582167784803381 0 -0.49999999999999889 -0.29187496063024337 0 -0.48870628830018648 -0.30968841274361991 0 -0.49999999999999889 -0.29187496063024337 0 -0.48870628830018648 -0.30968841274361991 0 -0.5 -0.31644302299947491 0 -0.49999999999999889 -0.29187496063024337 0 -0.48870628830018648 -0.30968841274361991 0 -0.48344945723454502 -0.29582167784803381 0 -0.48870628830018648 -0.30968841274361991 0 -0.47596210028752889 -0.31108969625008109 0 -0.48344945723454502 -0.29582167784803381 0 -0.47596210028752889 -0.31108969625008109 0 -0.46607014546550041 -0.29961990098006869 0 -0.47596210028752889 -0.31108969625008109 0 -0.46607014546550041 -0.29961990098006869 0 -0.46334259043424669 -0.32424367678956922 0 -0.46607014546550041 -0.29961990098006869 0 -0.44302128024271598 -0.30870393661996998 0 -0.46334259043424669 -0.32424367678956922 0 -0.45960331814471778 -0.2696725928628243 0 -0.47927600564717399 -0.27927931179609122 0 -0.46607014546550041 -0.29961990098006869 0 -0.45960331814471778 -0.2696725928628243 0 -0.46607014546550041 -0.29961990098006869 0 -0.44454833476856898 -0.28822414621500292 0 -0.46607014546550041 -0.29961990098006869 0 -0.44454833476856898 -0.28822414621500292 0 -0.44302128024271598 -0.30870393661996998 0 -0.44302128024271598 -0.30870393661996998 0 -0.44086315861216141 -0.32781208875622109 0 -0.46334259043424669 -0.32424367678956922 0 -0.44086315861216141 -0.32781208875622109 0 -0.45067019388313428 -0.33552650664513001 0 -0.46334259043424669 -0.32424367678956922 0 -0.44086315861216141 -0.32781208875622109 0 -0.44161213910241842 -0.3392683395567353 0 -0.45067019388313428 -0.33552650664513001 0 -0.45067019388313428 -0.33552650664513001 0 -0.45901233461427721 -0.33920695886466812 0 -0.44815297607007298 -0.346138880237364 0 -0.44161213910241842 -0.3392683395567353 0 -0.45067019388313428 -0.33552650664513001 0 -0.44815297607007298 -0.346138880237364 0 -0.45067019388313428 -0.33552650664513001 0 -0.45901233461427721 -0.33920695886466812 0 -0.46334259043424669 -0.32424367678956922 0 -0.45901233461427721 -0.33920695886466812 0 -0.46334259043424669 -0.32424367678956922 0 -0.47741257660037489 -0.32750186485699673 0 -0.45901233461427721 -0.33920695886466812 0 -0.47741257660037489 -0.32750186485699673 0 -0.46611886490056359 -0.34531531697037382 0 -0.45901233461427721 -0.33920695886466812 0 -0.46611886490056359 -0.34531531697037382 0 -0.44302128024271598 -0.30870393661996998 0 -0.46334259043424669 -0.32424367678956922 0 -0.48870628830018648 -0.30968841274361991 0 -0.47741257660037489 -0.32750186485699673 0 -0.47596210028752889 -0.31108969625008109 0 -0.46334259043424669 -0.32424367678956922 0 -0.47741257660037489 -0.32750186485699673 0 -0.48870628830018648 -0.30968841274361991 0 -0.47596210028752889 -0.31108969625008109 0 -0.47741257660037489 -0.32750186485699673 0 -0.5 -0.31644302299947491 0 -0.48973238262793328 -0.32580389009588978 0 -0.5 -0.34101108536870628 0 -0.48870628830018648 -0.30968841274361991 0 -0.47741257660037489 -0.32750186485699673 0 -0.48973238262793328 -0.32580389009588978 0 -0.48870628830018648 -0.30968841274361991 0 -0.5 -0.31644302299947491 0 -0.48973238262793328 -0.32580389009588978 0 -0.48973238262793328 -0.32580389009588978 0 -0.5 -0.34101108536870628 0 -0.48254304823910499 -0.33437506451065108 0 -0.47741257660037489 -0.32750186485699673 0 -0.46611886490056359 -0.34531531697037382 0 -0.47741257660037489 -0.32750186485699673 0 -0.48254304823910499 -0.33437506451065108 0 -0.46611886490056359 -0.34531531697037382 0 -0.47741257660037489 -0.32750186485699673 0 -0.48973238262793328 -0.32580389009588978 0 -0.48254304823910499 -0.33437506451065108 0 -0.48642312672438037 -0.36278150539002052 0 -0.46611886490056359 -0.34531531697037382 0 -0.45864490479103559 -0.35710391526711732 0 -0.48254304823910499 -0.33437506451065108 0 -0.48642312672438037 -0.36278150539002052 0 -0.46611886490056359 -0.34531531697037382 0 -0.48642312672438037 -0.36278150539002052 0 -0.46611886490056359 -0.34531531697037382 0 -0.48254304823910499 -0.33437506451065108 0 -0.48642312672438037 -0.36278150539002052 0 -0.5 -0.34101108536870628 0 -0.48254304823910499 -0.33437506451065108 0 -0.48642312672438037 -0.36278150539002052 0 -0.5 -0.34101108536870628 0 -0.49999999999999939 -0.36557914773793782 0 -0.48642312672438037 -0.36278150539002052 0 -0.48974847569938162 -0.38740747336048043 0 -0.50000000000000111 -0.37443756057980321 0 -0.48642312672438037 -0.36278150539002052 0 -0.50000000000000111 -0.37443756057980321 0 -0.49999999999999939 -0.36557914773793782 0 -0.48642312672438037 -0.36278150539002052 0 -0.50000000000000111 -0.37443756057980321 0 -0.48642312672438037 -0.36278150539002052 0 -0.49999999999999939 -0.36557914773793782 0 -0.48642312672438037 -0.36278150539002052 0 -0.47597886959324831 -0.38325856607526532 0 -0.48642312672438037 -0.36278150539002052 0 -0.46822743030822173 -0.37194584080839632 0 -0.48642312672438037 -0.36278150539002052 0 -0.46822743030822173 -0.37194584080839632 0 -0.45864490479103559 -0.35710391526711732 0 -0.48642312672438037 -0.36278150539002052 0 -0.45864490479103559 -0.35710391526711732 0 -0.45864490479103559 -0.35710391526711732 0 -0.44873199880990072 -0.37273943711263691 0 -0.45901914900730112 -0.37110511580400812 0 -0.45864490479103559 -0.35710391526711732 0 -0.44873199880990072 -0.37273943711263691 0 -0.46822743030822173 -0.37194584080839632 0 -0.45901914900730112 -0.37110511580400812 0 -0.45864490479103559 -0.35710391526711732 0 -0.46611886490056359 -0.34531531697037382 0 -0.45864490479103559 -0.35710391526711732 0 -0.46611886490056359 -0.34531531697037382 0 -0.45679591932856439 -0.34837098766528551 0 -0.45864490479103559 -0.35710391526711732 0 -0.45901233461427721 -0.33920695886466812 0 -0.46611886490056359 -0.34531531697037382 0 -0.45679591932856439 -0.34837098766528551 0 -0.45901233461427721 -0.33920695886466812 0 -0.45679591932856439 -0.34837098766528551 0 -0.44815297607007298 -0.346138880237364 0 -0.45679591932856439 -0.34837098766528551 0 -0.45864490479103559 -0.35710391526711732 0 -0.45166084340871049 -0.35567261536303918 0 -0.45864490479103559 -0.35710391526711732 0 -0.45166084340871049 -0.35567261536303918 0 -0.44815297607007298 -0.346138880237364 0 -0.43372600619628748 -0.37118932988372272 0 -0.45166084340871049 -0.35567261536303918 0 -0.44815297607007298 -0.346138880237364 0 -0.43372600619628748 -0.37118932988372272 0 -0.44815297607007298 -0.346138880237364 0 -0.43932687719213709 -0.34835324721226141 0 -0.43372600619628748 -0.37118932988372272 0 -0.45679591932856439 -0.34837098766528551 0 -0.45166084340871049 -0.35567261536303918 0 -0.44815297607007298 -0.346138880237364 0 -0.44161213910241842 -0.3392683395567353 0 -0.44815297607007298 -0.346138880237364 0 -0.43932687719213709 -0.34835324721226141 0 -0.45864490479103559 -0.35710391526711732 0 -0.45166084340871049 -0.35567261536303918 0 -0.44873199880990072 -0.37273943711263691 0 -0.45166084340871049 -0.35567261536303918 0 -0.44873199880990072 -0.37273943711263691 0 -0.43372600619628748 -0.37118932988372272 0 -0.43442955601071059 -0.38033021618326229 0 -0.44873199880990072 -0.37273943711263691 0 -0.43372600619628748 -0.37118932988372272 0 -0.43932687719213709 -0.34835324721226141 0 -0.43014838870240141 -0.37345529545725659 0 -0.43932687719213709 -0.34835324721226141 0 -0.43014838870240141 -0.37345529545725659 0 -0.43372600619628748 -0.37118932988372272 0 -0.43014838870240141 -0.37345529545725659 0 -0.43372600619628748 -0.37118932988372272 0 -0.43932687719213709 -0.34835324721226141 0 -0.43014838870240141 -0.37345529545725659 0 -0.42020431636816441 -0.35504277821081659 0 -0.43932687719213709 -0.34835324721226141 0 -0.42020431636816441 -0.35504277821081659 0 -0.42904748975458618 -0.33851097493269999 0 -0.42020431636816441 -0.35504277821081659 0 -0.40969114981139121 -0.33919103591880878 0 -0.42904748975458618 -0.33851097493269999 0 -0.42020431636816441 -0.35504277821081659 0 -0.40086101032464122 -0.35672008907106928 0 -0.40969114981139121 -0.33919103591880878 0 -0.43014838870240141 -0.37345529545725659 0 -0.42020431636816441 -0.35504277821081659 0 -0.41464914056493901 -0.37036657366972348 0 -0.42020431636816441 -0.35504277821081659 0 -0.41464914056493901 -0.37036657366972348 0 -0.40086101032464122 -0.35672008907106928 0 -0.40032241467460888 -0.37743921825103088 0 -0.38096030279580673 -0.35781363430366991 0 -0.40032241467460888 -0.37743921825103088 0 -0.41464914056493901 -0.37036657366972348 0 -0.40086101032464122 -0.35672008907106928 0 -0.40032241467460888 -0.37743921825103088 0 -0.38096030279580673 -0.35781363430366991 0 -0.40086101032464122 -0.35672008907106928 0 -0.40032241467460888 -0.37743921825103088 0 -0.38541451285061151 -0.38194298952601652 0 -0.38096030279580673 -0.35781363430366991 0 -0.38541451285061151 -0.38194298952601652 0 -0.38096030279580673 -0.35781363430366991 0 -0.37260538616690148 -0.37468574393731691 0 -0.38096030279580673 -0.35781363430366991 0 -0.40086101032464122 -0.35672008907106928 0 -0.38495955404970827 -0.33017636663068167 0 -0.38495955404970827 -0.33017636663068167 0 -0.40969114981139121 -0.33919103591880878 0 -0.40086101032464122 -0.35672008907106928 0 -0.38495955404970827 -0.33017636663068167 0 -0.40969114981139121 -0.33919103591880878 0 -0.38096030279580673 -0.35781363430366991 0 -0.38495955404970827 -0.33017636663068167 0 -0.3615981909170044 -0.33818805035630878 0 -0.38495955404970827 -0.33017636663068167 0 -0.38327646090688727 -0.30165176109286579 0 -0.36871615313004252 -0.30814517172231148 0 -0.38495955404970827 -0.33017636663068167 0 -0.40436157312481691 -0.31328474101608639 0 -0.38327646090688727 -0.30165176109286579 0 -0.38495955404970827 -0.33017636663068167 0 -0.40436157312481691 -0.31328474101608639 0 -0.40969114981139121 -0.33919103591880878 0 -0.40436157312481691 -0.31328474101608639 0 -0.40969114981139121 -0.33919103591880878 0 -0.42494743693280951 -0.32011116228235947 0 -0.40969114981139121 -0.33919103591880878 0 -0.42904748975458618 -0.33851097493269999 0 -0.42494743693280951 -0.32011116228235947 0 -0.44086315861216141 -0.32781208875622109 0 -0.42904748975458618 -0.33851097493269999 0 -0.42494743693280951 -0.32011116228235947 0 -0.44161213910241842 -0.3392683395567353 0 -0.43932687719213709 -0.34835324721226141 0 -0.42904748975458618 -0.33851097493269999 0 -0.44086315861216141 -0.32781208875622109 0 -0.44161213910241842 -0.3392683395567353 0 -0.42904748975458618 -0.33851097493269999 0 -0.44302128024271598 -0.30870393661996998 0 -0.44086315861216141 -0.32781208875622109 0 -0.42494743693280951 -0.32011116228235947 0 -0.44302128024271598 -0.30870393661996998 0 -0.42494743693280951 -0.32011116228235947 0 -0.42269997005118531 -0.29316419645037101 0 -0.44302128024271598 -0.30870393661996998 0 -0.42269997005118531 -0.29316419645037101 0 -0.44454833476856898 -0.28822414621500292 0 -0.42269997005118531 -0.29316419645037101 0 -0.43134695993872568 -0.26996010416178029 0 -0.44454833476856898 -0.28822414621500292 0 -0.44302128024271598 -0.30870393661996998 0 -0.42269997005118531 -0.29316419645037101 0 -0.42269997005118531 -0.29316419645037101 0 -0.4023786598596546 -0.27762445628077193 0 -0.42269997005118531 -0.29316419645037101 0 -0.39881529637066399 -0.29497113156167121 0 -0.4023786598596546 -0.27762445628077193 0 -0.40436157312481691 -0.31328474101608639 0 -0.42269997005118531 -0.29316419645037101 0 -0.39881529637066399 -0.29497113156167121 0 -0.40436157312481691 -0.31328474101608639 0 -0.42494743693280951 -0.32011116228235947 0 -0.42269997005118531 -0.29316419645037101 0 -0.40436157312481691 -0.31328474101608639 0 -0.38327646090688727 -0.30165176109286579 0 -0.39881529637066399 -0.29497113156167121 0 -0.38327646090688727 -0.30165176109286579 0 -0.39881529637066399 -0.29497113156167121 0 -0.38346966333345112 -0.27743155248598272 0 -0.38327646090688727 -0.30165176109286579 0 -0.38346966333345112 -0.27743155248598272 0 -0.36290489734808989 -0.2864719217311365 0 -0.39881529637066399 -0.29497113156167121 0 -0.4023786598596546 -0.27762445628077193 0 -0.38346966333345112 -0.27743155248598272 0 -0.4023786598596546 -0.27762445628077193 0 -0.38346966333345112 -0.27743155248598272 0 -0.39590049598208632 -0.25781182944124797 0 -0.38346966333345112 -0.27743155248598272 0 -0.37688579422835178 -0.25516175044890282 0 -0.39590049598208632 -0.25781182944124797 0 -0.4023786598596546 -0.27762445628077193 0 -0.39590049598208632 -0.25781182944124797 0 -0.41492216845380259 -0.24917435442157229 0 -0.4023786598596546 -0.27762445628077193 0 -0.43134695993872568 -0.26996010416178029 0 -0.41492216845380259 -0.24917435442157229 0 -0.42269997005118531 -0.29316419645037101 0 -0.4023786598596546 -0.27762445628077193 0 -0.43134695993872568 -0.26996010416178029 0 -0.43134695993872568 -0.26996010416178029 0 -0.41492216845380259 -0.24917435442157229 0 -0.44458406038942538 -0.24975118405773991 0 -0.31325064770974448 -0.2666492680069405 0 -0.32814209364500441 -0.25840828646874381 0 -0.3084490109222261 -0.2499478765489658 0 -0.31325064770974448 -0.2666492680069405 0 -0.33020666610898142 -0.27535491352893282 0 -0.32814209364500441 -0.25840828646874381 0 -0.31325064770974448 -0.2666492680069405 0 -0.33020666610898142 -0.27535491352893282 0 -0.32003438176939292 -0.2889277394515834 0 -0.31325064770974448 -0.2666492680069405 0 -0.32003438176939292 -0.2889277394515834 0 -0.30579038965811101 -0.27844667836127812 0 -0.33020666610898142 -0.27535491352893282 0 -0.32814209364500441 -0.25840828646874381 0 -0.34817679997198842 -0.26748020169082493 0 -0.33020666610898142 -0.27535491352893282 0 -0.34817679997198842 -0.26748020169082493 0 -0.34573724499066733 -0.28280838663197028 0 -0.32814209364500441 -0.25840828646874381 0 -0.34409706512831129 -0.2509088056791956 0 -0.34817679997198842 -0.26748020169082493 0 -0.34409706512831129 -0.2509088056791956 0 -0.36366254865999831 -0.26535977012690648 0 -0.36291602693514158 -0.24235010539063789 0 -0.34409706512831129 -0.2509088056791956 0 -0.36366254865999831 -0.26535977012690648 0 -0.34817679997198842 -0.26748020169082493 0 -0.37688579422835178 -0.25516175044890282 0 -0.36366254865999831 -0.26535977012690648 0 -0.36291602693514158 -0.24235010539063789 0 -0.38346966333345112 -0.27743155248598272 0 -0.36366254865999831 -0.26535977012690648 0 -0.36290489734808989 -0.2864719217311365 0 -0.38346966333345112 -0.27743155248598272 0 -0.37688579422835178 -0.25516175044890282 0 -0.36366254865999831 -0.26535977012690648 0 -0.36366254865999831 -0.26535977012690648 0 -0.34817679997198842 -0.26748020169082493 0 -0.36290489734808989 -0.2864719217311365 0 -0.34817679997198842 -0.26748020169082493 0 -0.34573724499066733 -0.28280838663197028 0 -0.36290489734808989 -0.2864719217311365 0 -0.34573724499066733 -0.28280838663197028 0 -0.36290489734808989 -0.2864719217311365 0 -0.35221189505750139 -0.30126411181431922 0 -0.34573724499066733 -0.28280838663197028 0 -0.35221189505750139 -0.30126411181431922 0 -0.33670252660125422 -0.29190694595226441 0 -0.38327646090688727 -0.30165176109286579 0 -0.36290489734808989 -0.2864719217311365 0 -0.36871615313004252 -0.30814517172231148 0 -0.36871615313004252 -0.30814517172231148 0 -0.35221189505750139 -0.30126411181431922 0 -0.36022795828802529 -0.32116169734255462 0 -0.36290489734808989 -0.2864719217311365 0 -0.36871615313004252 -0.30814517172231148 0 -0.35221189505750139 -0.30126411181431922 0 -0.35221189505750139 -0.30126411181431922 0 -0.33549636252634241 -0.31214702805442762 0 -0.36022795828802529 -0.32116169734255462 0 -0.33549636252634241 -0.31214702805442762 0 -0.33670252660125422 -0.29190694595226441 0 -0.32003438176939292 -0.2889277394515834 0 -0.35221189505750139 -0.30126411181431922 0 -0.33549636252634241 -0.31214702805442762 0 -0.33670252660125422 -0.29190694595226441 0 -0.33020666610898142 -0.27535491352893282 0 -0.34573724499066733 -0.28280838663197028 0 -0.33670252660125422 -0.29190694595226441 0 -0.33020666610898142 -0.27535491352893282 0 -0.33670252660125422 -0.29190694595226441 0 -0.32003438176939292 -0.2889277394515834 0 -0.33549636252634241 -0.31214702805442762 0 -0.31076476676465947 -0.30313235876630051 0 -0.33549636252634241 -0.31214702805442762 0 -0.32618829594786047 -0.3203089651191724 0 -0.31076476676465947 -0.30313235876630051 0 -0.33549636252634241 -0.31214702805442762 0 -0.32003438176939292 -0.2889277394515834 0 -0.31076476676465947 -0.30313235876630051 0 -0.32618829594786047 -0.3203089651191724 0 -0.30458258457760728 -0.32212332769774932 0 -0.31076476676465947 -0.30313235876630051 0 -0.32618829594786047 -0.3203089651191724 0 -0.32455846157309948 -0.3367659209128227 0 -0.30458258457760728 -0.32212332769774932 0 -0.32455846157309948 -0.3367659209128227 0 -0.32018773600082268 -0.35028961191089492 0 -0.29849942393407669 -0.34242807986207319 0 -0.32455846157309948 -0.3367659209128227 0 -0.34325147459440902 -0.34171615173142 0 -0.33462319138082619 -0.35002235843481239 0 -0.32618829594786047 -0.3203089651191724 0 -0.32455846157309948 -0.3367659209128227 0 -0.33956650041411512 -0.33110831090573428 0 -0.32455846157309948 -0.3367659209128227 0 -0.34325147459440902 -0.34171615173142 0 -0.33956650041411512 -0.33110831090573428 0 -0.32618829594786047 -0.3203089651191724 0 -0.33956650041411512 -0.33110831090573428 0 -0.34223607903820202 -0.3185624664089477 0 -0.33549636252634241 -0.31214702805442762 0 -0.32618829594786047 -0.3203089651191724 0 -0.34223607903820202 -0.3185624664089477 0 -0.33549636252634241 -0.31214702805442762 0 -0.36022795828802529 -0.32116169734255462 0 -0.34223607903820202 -0.3185624664089477 0 -0.36022795828802529 -0.32116169734255462 0 -0.3615981909170044 -0.33818805035630878 0 -0.33549636252634241 -0.31214702805442762 0 -0.34223607903820202 -0.3185624664089477 0 -0.36022795828802529 -0.32116169734255462 0 -0.38495955404970827 -0.33017636663068167 0 -0.36871615313004252 -0.30814517172231148 0 -0.36022795828802529 -0.32116169734255462 0 -0.38495955404970827 -0.33017636663068167 0 -0.36022795828802529 -0.32116169734255462 0 -0.38495955404970827 -0.33017636663068167 0 -0.36022795828802529 -0.32116169734255462 0 -0.3615981909170044 -0.33818805035630878 0 -0.34223607903820202 -0.3185624664089477 0 -0.3615981909170044 -0.33818805035630878 0 -0.34325147459440902 -0.34171615173142 0 -0.33956650041411512 -0.33110831090573428 0 -0.3615981909170044 -0.33818805035630878 0 -0.33956650041411512 -0.33110831090573428 0 -0.34223607903820202 -0.3185624664089477 0 -0.3615981909170044 -0.33818805035630878 0 -0.34325147459440902 -0.34171615173142 0 -0.35364385007712951 -0.35546789834417469 0 -0.33462319138082619 -0.35002235843481239 0 -0.34325147459440902 -0.34171615173142 0 -0.3615981909170044 -0.33818805035630878 0 -0.35364385007712951 -0.35546789834417469 0 -0.38096030279580673 -0.35781363430366991 0 -0.3615981909170044 -0.33818805035630878 0 -0.35364385007712951 -0.35546789834417469 0 -0.38096030279580673 -0.35781363430366991 0 -0.3615981909170044 -0.33818805035630878 0 -0.38096030279580673 -0.35781363430366991 0 -0.36522617590210887 -0.36550134022893549 0 -0.37260538616690148 -0.37468574393731691 0 -0.38096030279580673 -0.35781363430366991 0 -0.35364385007712951 -0.35546789834417469 0 -0.36522617590210887 -0.36550134022893549 0 -0.36522617590210887 -0.36550134022893549 0 -0.37260538616690148 -0.37468574393731691 0 -0.35369516456859801 -0.37403808433058072 0 -0.35364385007712951 -0.35546789834417469 0 -0.35369516456859801 -0.37403808433058072 0 -0.33787217565275113 -0.36146464252282101 0 -0.35369516456859801 -0.37403808433058072 0 -0.33787217565275113 -0.36146464252282101 0 -0.35364385007712951 -0.35546789834417469 0 -0.36522617590210887 -0.36550134022893549 0 -0.35369516456859801 -0.37403808433058072 0 -0.33787217565275113 -0.36146464252282101 0 -0.32637005865666469 -0.36091971954817098 0 -0.33421282257862828 -0.37770259522389399 0 -0.35369516456859801 -0.37403808433058072 0 -0.33787217565275113 -0.36146464252282101 0 -0.33421282257862828 -0.37770259522389399 0 -0.35364385007712951 -0.35546789834417469 0 -0.33787217565275113 -0.36146464252282101 0 -0.33462319138082619 -0.35002235843481239 0 -0.33787217565275113 -0.36146464252282101 0 -0.33462319138082619 -0.35002235843481239 0 -0.32637005865666469 -0.36091971954817098 0 -0.33462319138082619 -0.35002235843481239 0 -0.32018773600082268 -0.35028961191089492 0 -0.32637005865666469 -0.36091971954817098 0 -0.32018773600082268 -0.35028961191089492 0 -0.31548717489582317 -0.35639477043633527 0 -0.32637005865666469 -0.36091971954817098 0 -0.32455846157309948 -0.3367659209128227 0 -0.33462319138082619 -0.35002235843481239 0 -0.32018773600082268 -0.35028961191089492 0 -0.31360737042798931 -0.36746932481513711 0 -0.30803392148088388 -0.37180697277304742 0 -0.33421282257862828 -0.37770259522389399 0 -0.30803392148088388 -0.37180697277304742 0 -0.33421282257862828 -0.37770259522389399 0 -0.31360737042798931 -0.36746932481513711 0 -0.32637005865666469 -0.36091971954817098 0 -0.33421282257862828 -0.37770259522389399 0 -0.31548717489582317 -0.35639477043633527 0 -0.31360737042798931 -0.36746932481513711 0 -0.32637005865666469 -0.36091971954817098 0 -0.31360737042798931 -0.36746932481513711 0 -0.30803392148088388 -0.37180697277304742 0 -0.29849942393407669 -0.34242807986207319 0 -0.31360737042798931 -0.36746932481513711 0 -0.29849942393407669 -0.34242807986207319 0 -0.32018773600082268 -0.35028961191089492 0 -0.31548717489582317 -0.35639477043633527 0 -0.29849942393407669 -0.34242807986207319 0 -0.31548717489582317 -0.35639477043633527 0 -0.31360737042798931 -0.36746932481513711 0 -0.29849942393407669 -0.34242807986207319 0 -0.28185502038313942 -0.36591135032220068 0 -0.27084505610259679 -0.34271631739309177 0 -0.29849942393407669 -0.34242807986207319 0 -0.30803392148088388 -0.37180697277304742 0 -0.28185502038313942 -0.36591135032220068 0 -0.30803392148088388 -0.37180697277304742 0 -0.28185502038313942 -0.36591135032220068 0 -0.29849942393407669 -0.34242807986207319 0 -0.30803392148088388 -0.37180697277304742 0 -0.28185502038313942 -0.36591135032220068 0 -0.29546233195630611 -0.37722678484790229 0 -0.28185502038313942 -0.36591135032220068 0 -0.25567611928539491 -0.360015727871354 0 -0.26739651117423102 -0.3819832328055115 0 -0.28185502038313942 -0.36591135032220068 0 -0.25567611928539491 -0.360015727871354 0 -0.25567611928539491 -0.360015727871354 0 -0.26739651117423102 -0.3819832328055115 0 -0.24330094490370491 -0.37758715578424529 0 -0.25567611928539491 -0.360015727871354 0 -0.27084505610259679 -0.34271631739309177 0 -0.2475774867555009 -0.34164320394308861 0 -0.28185502038313942 -0.36591135032220068 0 -0.25567611928539491 -0.360015727871354 0 -0.27084505610259679 -0.34271631739309177 0 -0.27084505610259679 -0.34271631739309177 0 -0.26153677555610388 -0.32819118811387782 0 -0.28339147744016402 -0.31738683490900921 0 -0.26153677555610388 -0.32819118811387782 0 -0.2475774867555009 -0.34164320394308861 0 -0.24749233914880131 -0.32573633236841087 0 -0.27084505610259679 -0.34271631739309177 0 -0.26153677555610388 -0.32819118811387782 0 -0.2475774867555009 -0.34164320394308861 0 -0.26153677555610388 -0.32819118811387782 0 -0.25837751833345662 -0.31347325195578862 0 -0.24749233914880131 -0.32573633236841087 0 -0.26153677555610388 -0.32819118811387782 0 -0.25837751833345662 -0.31347325195578862 0 -0.28339147744016402 -0.31738683490900921 0 -0.28339147744016402 -0.31738683490900921 0 -0.29849942393407669 -0.34242807986207319 0 -0.30458258457760728 -0.32212332769774932 0 -0.28339147744016402 -0.31738683490900921 0 -0.30458258457760728 -0.32212332769774932 0 -0.29484596446379552 -0.30501409909945232 0 -0.28339147744016402 -0.31738683490900921 0 -0.29849942393407669 -0.34242807986207319 0 -0.27084505610259679 -0.34271631739309177 0 -0.28339147744016402 -0.31738683490900921 0 -0.29849942393407669 -0.34242807986207319 0 -0.32455846157309948 -0.3367659209128227 0 -0.29849942393407669 -0.34242807986207319 0 -0.30458258457760728 -0.32212332769774932 0 -0.31076476676465947 -0.30313235876630051 0 -0.2950490247060723 -0.28908315792002731 0 -0.29484596446379552 -0.30501409909945232 0 -0.30458258457760728 -0.32212332769774932 0 -0.31076476676465947 -0.30313235876630051 0 -0.29484596446379552 -0.30501409909945232 0 -0.32003438176939292 -0.2889277394515834 0 -0.2950490247060723 -0.28908315792002731 0 -0.30579038965811101 -0.27844667836127812 0 -0.32003438176939292 -0.2889277394515834 0 -0.31076476676465947 -0.30313235876630051 0 -0.2950490247060723 -0.28908315792002731 0 -0.2950490247060723 -0.28908315792002731 0 -0.29484596446379552 -0.30501409909945232 0 -0.28044196883047412 -0.29334481620417491 0 -0.2950490247060723 -0.28908315792002731 0 -0.28044196883047412 -0.29334481620417491 0 -0.28190208301640829 -0.28105093535340259 0 -0.28339147744016402 -0.31738683490900921 0 -0.29484596446379552 -0.30501409909945232 0 -0.28044196883047412 -0.29334481620417491 0 -0.28339147744016402 -0.31738683490900921 0 -0.26828353094625151 -0.29234558995594551 0 -0.28044196883047412 -0.29334481620417491 0 -0.25837751833345662 -0.31347325195578862 0 -0.28339147744016402 -0.31738683490900921 0 -0.26279182115308469 -0.30356118846579339 0 -0.28339147744016402 -0.31738683490900921 0 -0.26828353094625151 -0.29234558995594551 0 -0.28339147744016402 -0.31738683490900921 0 -0.26279182115308469 -0.30356118846579339 0 -0.26828353094625151 -0.29234558995594551 0 -0.26279182115308469 -0.30356118846579339 0 -0.25623285980846072 -0.29159464945779051 0 -0.24936687953946449 -0.3028130127809735 0 -0.25837751833345662 -0.31347325195578862 0 -0.26279182115308469 -0.30356118846579339 0 -0.24936687953946449 -0.3028130127809735 0 -0.25623285980846072 -0.29159464945779051 0 -0.25995038722907993 -0.28421754993415099 0 -0.23938939996446321 -0.27211331721768572 0 -0.25623285980846072 -0.29159464945779051 0 -0.25995038722907993 -0.28421754993415099 0 -0.26828353094625151 -0.29234558995594551 0 -0.26279182115308469 -0.30356118846579339 0 -0.25623285980846072 -0.29159464945779051 0 -0.26828353094625151 -0.29234558995594551 0 -0.25995038722907993 -0.28421754993415099 0 -0.26960192681767442 -0.28727507562946969 0 -0.26624421860854952 -0.2777591174098657 0 -0.26960192681767442 -0.28727507562946969 0 -0.26624421860854952 -0.2777591174098657 0 -0.26960192681767442 -0.28727507562946969 0 -0.26624421860854952 -0.2777591174098657 0 -0.28190208301640829 -0.28105093535340259 0 -0.25995038722907993 -0.28421754993415099 0 -0.26960192681767442 -0.28727507562946969 0 -0.26828353094625151 -0.29234558995594551 0 -0.26960192681767442 -0.28727507562946969 0 -0.26828353094625151 -0.29234558995594551 0 -0.28044196883047412 -0.29334481620417491 0 -0.26960192681767442 -0.28727507562946969 0 -0.28044196883047412 -0.29334481620417491 0 -0.28190208301640829 -0.28105093535340259 0 -0.27952445275785742 -0.26962034066251561 0 -0.26624421860854952 -0.2777591174098657 0 -0.27180343357439379 -0.26073861407713789 0 -0.27952445275785742 -0.26962034066251561 0 -0.26624421860854952 -0.2777591174098657 0 -0.28190208301640829 -0.28105093535340259 0 -0.26624421860854952 -0.2777591174098657 0 -0.28190208301640829 -0.28105093535340259 0 -0.26624421860854952 -0.2777591174098657 0 -0.23938939996446321 -0.27211331721768572 0 -0.26624421860854952 -0.2777591174098657 0 -0.23938939996446321 -0.27211331721768572 0 -0.25633655175195141 -0.24968016057706971 0 -0.25995038722907993 -0.28421754993415099 0 -0.26624421860854952 -0.2777591174098657 0 -0.23938939996446321 -0.27211331721768572 0 -0.26624421860854952 -0.2777591174098657 0 -0.27180343357439379 -0.26073861407713789 0 -0.25633655175195141 -0.24968016057706971 0 -0.26624421860854952 -0.2777591174098657 0 -0.25633655175195141 -0.24968016057706971 0 -0.27180343357439379 -0.26073861407713789 0 -0.2738665099760702 -0.24983163637103131 0 -0.25633655175195141 -0.24968016057706971 0 -0.27952445275785742 -0.26962034066251561 0 -0.27180343357439379 -0.26073861407713789 0 -0.28410807240321551 -0.25720713578207971 0 -0.27180343357439379 -0.26073861407713789 0 -0.28410807240321551 -0.25720713578207971 0 -0.2738665099760702 -0.24983163637103131 0 -0.28410807240321551 -0.25720713578207971 0 -0.29680462018245141 -0.2579840328949719 0 -0.28882037556936779 -0.24227958441945091 0 -0.28410807240321551 -0.25720713578207971 0 -0.29680462018245141 -0.2579840328949719 0 -0.29356445618671972 -0.27134590069009201 0 -0.27952445275785742 -0.26962034066251561 0 -0.28410807240321551 -0.25720713578207971 0 -0.29356445618671972 -0.27134590069009201 0 -0.2950490247060723 -0.28908315792002731 0 -0.28190208301640829 -0.28105093535340259 0 -0.29356445618671972 -0.27134590069009201 0 -0.27952445275785742 -0.26962034066251561 0 -0.28190208301640829 -0.28105093535340259 0 -0.29356445618671972 -0.27134590069009201 0 -0.31325064770974448 -0.2666492680069405 0 -0.29356445618671972 -0.27134590069009201 0 -0.30579038965811101 -0.27844667836127812 0 -0.2950490247060723 -0.28908315792002731 0 -0.29356445618671972 -0.27134590069009201 0 -0.30579038965811101 -0.27844667836127812 0 -0.31325064770974448 -0.2666492680069405 0 -0.29680462018245141 -0.2579840328949719 0 -0.3084490109222261 -0.2499478765489658 0 -0.29680462018245141 -0.2579840328949719 0 -0.3084490109222261 -0.2499478765489658 0 -0.28882037556936779 -0.24227958441945091 0 -0.31325064770974448 -0.2666492680069405 0 -0.29680462018245141 -0.2579840328949719 0 -0.29356445618671972 -0.27134590069009201 0 -0.34000071813088539 -0.46087942065967952 0 -0.3321348815735447 -0.47337570590824418 0 -0.35140024861250568 -0.46839888643370609 0 -0.32858430235422831 -0.45540900847808852 0 -0.34000071813088539 -0.46087942065967952 0 -0.3321348815735447 -0.47337570590824418 0 -0.32858430235422831 -0.45540900847808852 0 -0.34000071813088539 -0.46087942065967952 0 -0.33543393658017218 -0.44394316039574011 0 -0.34000071813088539 -0.46087942065967952 0 -0.33543393658017218 -0.44394316039574011 0 -0.34976661196432701 -0.45304057381695489 0 -0.33543393658017218 -0.44394316039574011 0 -0.31407758057878021 -0.44296429398946319 0 -0.32352239231211111 -0.4296639300502319 0 -0.32858430235422831 -0.45540900847808852 0 -0.33543393658017218 -0.44394316039574011 0 -0.31407758057878021 -0.44296429398946319 0 -0.32858430235422831 -0.45540900847808852 0 -0.31312085023793229 -0.46186435466738529 0 -0.3321348815735447 -0.47337570590824418 0 -0.32858430235422831 -0.45540900847808852 0 -0.31407758057878021 -0.44296429398946319 0 -0.31312085023793229 -0.46186435466738529 0 -0.31312085023793229 -0.46186435466738529 0 -0.3321348815735447 -0.47337570590824418 0 -0.31107553136216332 -0.48034149462877301 0 -0.32939150603541001 -0.5 0 -0.3321348815735447 -0.47337570590824418 0 -0.31107553136216332 -0.48034149462877301 0 -0.32939150603541001 -0.5 0 -0.29967885551356999 -0.5 0 -0.31107553136216332 -0.48034149462877301 0 -0.32939150603541001 -0.5 0 -0.3321348815735447 -0.47337570590824418 0 -0.34617836159446991 -0.48499595588201821 0 -0.3321348815735447 -0.47337570590824418 0 -0.34617836159446991 -0.48499595588201821 0 -0.35140024861250568 -0.46839888643370609 0 -0.34617836159446991 -0.48499595588201821 0 -0.35976656417616981 -0.48090575731247659 0 -0.35140024861250568 -0.46839888643370609 0 -0.32939150603541001 -0.5 0 -0.34617836159446991 -0.48499595588201821 0 -0.35910415655725009 -0.50000000000000022 0 -0.34617836159446991 -0.48499595588201821 0 -0.35910415655725009 -0.50000000000000022 0 -0.35976656417616981 -0.48090575731247659 0 -0.35910415655725009 -0.50000000000000022 0 -0.37311133499016358 -0.48488952024643422 0 -0.35976656417616981 -0.48090575731247659 0 -0.38162276193334749 -0.5 0 -0.35910415655725009 -0.50000000000000022 0 -0.37311133499016358 -0.48488952024643422 0 -0.35910415655725009 -0.50000000000000022 0 -0.37311133499016358 -0.48488952024643422 0 -0.37311133499016358 -0.48488952024643422 0 -0.35976656417616981 -0.48090575731247659 0 -0.36903871912645969 -0.46624442400022459 0 -0.35976656417616981 -0.48090575731247659 0 -0.36903871912645969 -0.46624442400022459 0 -0.35140024861250568 -0.46839888643370609 0 -0.36903871912645969 -0.46624442400022459 0 -0.35922605953767239 -0.45661025453143972 0 -0.35140024861250568 -0.46839888643370609 0 -0.36903871912645969 -0.46624442400022459 0 -0.35922605953767239 -0.45661025453143972 0 -0.36680784563055258 -0.44861298435318192 0 -0.37939535056879342 -0.45972483942586939 0 -0.36903871912645969 -0.46624442400022459 0 -0.36680784563055258 -0.44861298435318192 0 -0.35922605953767239 -0.45661025453143972 0 -0.35140024861250568 -0.46839888643370609 0 -0.34976661196432701 -0.45304057381695489 0 -0.34000071813088539 -0.46087942065967952 0 -0.35140024861250568 -0.46839888643370609 0 -0.34976661196432701 -0.45304057381695489 0 -0.33543393658017218 -0.44394316039574011 0 -0.34976661196432701 -0.45304057381695489 0 -0.34667995845711969 -0.43713685561702942 0 -0.34976661196432701 -0.45304057381695489 0 -0.35569776367616718 -0.44353975845291871 0 -0.34667995845711969 -0.43713685561702942 0 -0.35922605953767239 -0.45661025453143972 0 -0.34976661196432701 -0.45304057381695489 0 -0.35569776367616718 -0.44353975845291871 0 -0.35569776367616718 -0.44353975845291871 0 -0.36207927316108229 -0.43317428399033819 0 -0.34667995845711969 -0.43713685561702942 0 -0.35569776367616718 -0.44353975845291871 0 -0.36680784563055258 -0.44861298435318192 0 -0.36207927316108229 -0.43317428399033819 0 -0.35922605953767239 -0.45661025453143972 0 -0.35569776367616718 -0.44353975845291871 0 -0.36680784563055258 -0.44861298435318192 0 -0.38215026660067403 -0.4485121527510163 0 -0.36680784563055258 -0.44861298435318192 0 -0.37370687752839121 -0.43962503310188339 0 -0.36680784563055258 -0.44861298435318192 0 -0.37370687752839121 -0.43962503310188339 0 -0.36207927316108229 -0.43317428399033819 0 -0.37370687752839121 -0.43962503310188339 0 -0.37479732898604168 -0.43006389527844202 0 -0.36207927316108229 -0.43317428399033819 0 -0.36207927316108229 -0.43317428399033819 0 -0.36966227139812119 -0.42175248130805909 0 -0.35855547249241831 -0.41880030053896061 0 -0.37479732898604168 -0.43006389527844202 0 -0.36207927316108229 -0.43317428399033819 0 -0.36966227139812119 -0.42175248130805909 0 -0.38043392001616971 -0.41976943550850199 0 -0.37479732898604168 -0.43006389527844202 0 -0.36966227139812119 -0.42175248130805909 0 -0.38043392001616971 -0.41976943550850199 0 -0.36966227139812119 -0.42175248130805909 0 -0.37287618229732461 -0.40972995261553652 0 -0.37287618229732461 -0.40972995261553652 0 -0.35855547249241831 -0.41880030053896061 0 -0.35944235839433369 -0.40442013656490922 0 -0.36966227139812119 -0.42175248130805909 0 -0.37287618229732461 -0.40972995261553652 0 -0.35855547249241831 -0.41880030053896061 0 -0.37287618229732461 -0.40972995261553652 0 -0.35855547249241831 -0.41880030053896061 0 -0.3440317427725495 -0.4218094519980341 0 -0.35944235839433369 -0.40442013656490922 0 -0.33354357438837612 -0.4096553051837164 0 -0.35944235839433369 -0.40442013656490922 0 -0.33354357438837612 -0.4096553051837164 0 -0.35855547249241831 -0.41880030053896061 0 -0.3440317427725495 -0.4218094519980341 0 -0.35944235839433369 -0.40442013656490922 0 -0.3440317427725495 -0.4218094519980341 0 -0.34667995845711969 -0.43713685561702942 0 -0.35283661172079239 -0.42773022303609048 0 -0.36207927316108229 -0.43317428399033819 0 -0.34667995845711969 -0.43713685561702942 0 -0.35283661172079239 -0.42773022303609048 0 -0.35855547249241831 -0.41880030053896061 0 -0.3440317427725495 -0.4218094519980341 0 -0.35283661172079239 -0.42773022303609048 0 -0.36207927316108229 -0.43317428399033819 0 -0.35855547249241831 -0.41880030053896061 0 -0.35283661172079239 -0.42773022303609048 0 -0.35369516456859801 -0.37403808433058072 0 -0.36951815348444478 -0.38661152613834032 0 -0.35369516456859801 -0.37403808433058072 0 -0.36951815348444478 -0.38661152613834032 0 -0.36040262698090147 -0.38795991027880622 0 -0.37260538616690148 -0.37468574393731691 0 -0.35369516456859801 -0.37403808433058072 0 -0.36951815348444478 -0.38661152613834032 0 -0.37998209480888118 -0.38660935768327748 0 -0.37260538616690148 -0.37468574393731691 0 -0.36951815348444478 -0.38661152613834032 0 -0.36951815348444478 -0.38661152613834032 0 -0.36040262698090147 -0.38795991027880622 0 -0.36650974452478191 -0.39484906669777242 0 -0.38534114240029099 -0.39918496794610059 0 -0.35944235839433369 -0.40442013656490922 0 -0.38534114240029099 -0.39918496794610059 0 -0.36951815348444478 -0.38661152613834032 0 -0.36650974452478191 -0.39484906669777242 0 -0.38534114240029099 -0.39918496794610059 0 -0.36650974452478191 -0.39484906669777242 0 -0.35944235839433369 -0.40442013656490922 0 -0.38534114240029099 -0.39918496794610059 0 -0.37287618229732461 -0.40972995261553652 0 -0.35944235839433369 -0.40442013656490922 0 -0.36040262698090147 -0.38795991027880622 0 -0.33233416389021281 -0.39806709628167553 0 -0.36040262698090147 -0.38795991027880622 0 -0.34498071721738288 -0.38596192306377453 0 -0.33233416389021281 -0.39806709628167553 0 -0.35944235839433369 -0.40442013656490922 0 -0.35044649363572122 -0.39899030300137589 0 -0.33354357438837612 -0.4096553051837164 0 -0.36040262698090147 -0.38795991027880622 0 -0.36650974452478191 -0.39484906669777242 0 -0.35044649363572122 -0.39899030300137589 0 -0.36650974452478191 -0.39484906669777242 0 -0.35944235839433369 -0.40442013656490922 0 -0.35044649363572122 -0.39899030300137589 0 -0.36040262698090147 -0.38795991027880622 0 -0.35044649363572122 -0.39899030300137589 0 -0.33233416389021281 -0.39806709628167553 0 -0.35369516456859801 -0.37403808433058072 0 -0.34498071721738288 -0.38596192306377453 0 -0.33421282257862828 -0.37770259522389399 0 -0.35369516456859801 -0.37403808433058072 0 -0.36040262698090147 -0.38795991027880622 0 -0.34498071721738288 -0.38596192306377453 0 -0.34498071721738288 -0.38596192306377453 0 -0.33421282257862828 -0.37770259522389399 0 -0.33438710088504769 -0.38763424250291889 0 -0.34498071721738288 -0.38596192306377453 0 -0.33438710088504769 -0.38763424250291889 0 -0.33233416389021281 -0.39806709628167553 0 -0.33421282257862828 -0.37770259522389399 0 -0.33438710088504769 -0.38763424250291889 0 -0.32602069985396692 -0.38880535544233169 0 -0.35044649363572122 -0.39899030300137589 0 -0.33233416389021281 -0.39806709628167553 0 -0.33354357438837612 -0.4096553051837164 0 -0.33438710088504769 -0.38763424250291889 0 -0.33233416389021281 -0.39806709628167553 0 -0.32602069985396692 -0.38880535544233169 0 -0.33233416389021281 -0.39806709628167553 0 -0.30426570079952397 -0.40817428228454472 0 -0.33233416389021281 -0.39806709628167553 0 -0.32219113121659532 -0.39672755681671751 0 -0.30426570079952397 -0.40817428228454472 0 -0.32219113121659532 -0.39672755681671751 0 -0.30426570079952397 -0.40817428228454472 0 -0.31168504910059469 -0.39842923365833161 0 -0.31385958143428672 -0.39078948002189923 0 -0.32219113121659532 -0.39672755681671751 0 -0.31168504910059469 -0.39842923365833161 0 -0.33233416389021281 -0.39806709628167553 0 -0.32219113121659532 -0.39672755681671751 0 -0.32602069985396692 -0.38880535544233169 0 -0.31385958143428672 -0.39078948002189923 0 -0.32219113121659532 -0.39672755681671751 0 -0.32602069985396692 -0.38880535544233169 0 -0.30803392148088388 -0.37180697277304742 0 -0.33421282257862828 -0.37770259522389399 0 -0.31785197647725699 -0.38231461993721427 0 -0.33421282257862828 -0.37770259522389399 0 -0.32602069985396692 -0.38880535544233169 0 -0.31785197647725699 -0.38231461993721427 0 -0.31385958143428672 -0.39078948002189923 0 -0.31785197647725699 -0.38231461993721427 0 -0.30713285703851911 -0.38246869622489882 0 -0.31385958143428672 -0.39078948002189923 0 -0.32602069985396692 -0.38880535544233169 0 -0.31785197647725699 -0.38231461993721427 0 -0.33638283944204489 -0.43063021346784058 0 -0.3322461670882722 -0.4205976692781675 0 -0.32352239231211111 -0.4296639300502319 0 -0.33543393658017218 -0.44394316039574011 0 -0.33638283944204489 -0.43063021346784058 0 -0.32352239231211111 -0.4296639300502319 0 -0.3440317427725495 -0.4218094519980341 0 -0.34667995845711969 -0.43713685561702942 0 -0.33638283944204489 -0.43063021346784058 0 -0.33543393658017218 -0.44394316039574011 0 -0.34667995845711969 -0.43713685561702942 0 -0.33638283944204489 -0.43063021346784058 0 -0.3440317427725495 -0.4218094519980341 0 -0.33638283944204489 -0.43063021346784058 0 -0.3322461670882722 -0.4205976692781675 0 -0.3440317427725495 -0.4218094519980341 0 -0.33354357438837612 -0.4096553051837164 0 -0.3322461670882722 -0.4205976692781675 0 -0.33354357438837612 -0.4096553051837164 0 -0.3322461670882722 -0.4205976692781675 0 -0.32214434169795658 -0.41914261512861761 0 -0.33354357438837612 -0.4096553051837164 0 -0.32214434169795658 -0.41914261512861761 0 -0.30764479038241849 -0.41489047380252347 0 -0.33354357438837612 -0.4096553051837164 0 -0.30764479038241849 -0.41489047380252347 0 -0.33233416389021281 -0.39806709628167553 0 -0.30764479038241849 -0.41489047380252347 0 -0.30426570079952397 -0.40817428228454472 0 -0.33233416389021281 -0.39806709628167553 0 -0.33354357438837612 -0.4096553051837164 0 -0.30764479038241849 -0.41489047380252347 0 -0.32214434169795658 -0.41914261512861761 0 -0.31432315552886458 -0.42325298884471563 0 -0.30764479038241849 -0.41489047380252347 0 -0.32214434169795658 -0.41914261512861761 0 -0.31432315552886458 -0.42325298884471563 0 -0.32352239231211111 -0.4296639300502319 0 -0.31432315552886458 -0.42325298884471563 0 -0.32352239231211111 -0.4296639300502319 0 -0.31207034820491431 -0.4301210855914499 0 -0.3322461670882722 -0.4205976692781675 0 -0.32214434169795658 -0.41914261512861761 0 -0.32352239231211111 -0.4296639300502319 0 -0.31407758057878021 -0.44296429398946319 0 -0.32352239231211111 -0.4296639300502319 0 -0.31207034820491431 -0.4301210855914499 0 -0.31407758057878021 -0.44296429398946319 0 -0.31207034820491431 -0.4301210855914499 0 -0.30317129420478722 -0.4322153528450654 0 -0.30317129420478722 -0.4322153528450654 0 -0.29695469287871518 -0.42503807624171808 0 -0.29297782441373399 -0.43269832567583227 0 -0.30317129420478722 -0.4322153528450654 0 -0.29297782441373399 -0.43269832567583227 0 -0.29822126842214319 -0.44061375144656079 0 -0.30317129420478722 -0.4322153528450654 0 -0.29695469287871518 -0.42503807624171808 0 -0.30683285623993989 -0.42510359546509452 0 -0.31207034820491431 -0.4301210855914499 0 -0.30317129420478722 -0.4322153528450654 0 -0.30683285623993989 -0.42510359546509452 0 -0.31432315552886458 -0.42325298884471563 0 -0.31207034820491431 -0.4301210855914499 0 -0.30683285623993989 -0.42510359546509452 0 -0.29695469287871518 -0.42503807624171808 0 -0.30764479038241849 -0.41489047380252347 0 -0.29160063219187948 -0.42239526462565852 0 -0.30764479038241849 -0.41489047380252347 0 -0.30426570079952397 -0.40817428228454472 0 -0.28174600637646091 -0.42012564242133071 0 -0.31432315552886458 -0.42325298884471563 0 -0.30683285623993989 -0.42510359546509452 0 -0.30764479038241849 -0.41489047380252347 0 -0.29695469287871518 -0.42503807624171808 0 -0.30683285623993989 -0.42510359546509452 0 -0.30764479038241849 -0.41489047380252347 0 -0.30426570079952397 -0.40817428228454472 0 -0.28919545713414407 -0.40839010057273062 0 -0.28267102535982219 -0.41274788659911321 0 -0.30426570079952397 -0.40817428228454472 0 -0.27619723770883481 -0.41828146828741247 0 -0.30764479038241849 -0.41489047380252347 0 -0.28174600637646091 -0.42012564242133071 0 -0.30426570079952397 -0.40817428228454472 0 -0.28174600637646091 -0.42012564242133071 0 -0.27619723770883481 -0.41828146828741247 0 -0.30426570079952397 -0.40817428228454472 0 -0.28267102535982219 -0.41274788659911321 0 -0.27619723770883481 -0.41828146828741247 0 -0.30764479038241849 -0.41489047380252347 0 -0.28174600637646091 -0.42012564242133071 0 -0.29160063219187948 -0.42239526462565852 0 -0.30426570079952397 -0.40817428228454472 0 -0.28919545713414407 -0.40839010057273062 0 -0.29563681616971882 -0.403651863401295 0 -0.28267102535982219 -0.41274788659911321 0 -0.28380285983780068 -0.40449232922826678 0 -0.27822172776593568 -0.40533857131683632 0 -0.28919545713414407 -0.40839010057273062 0 -0.28267102535982219 -0.41274788659911321 0 -0.28380285983780068 -0.40449232922826678 0 -0.28174600637646091 -0.42012564242133071 0 -0.28270147991191608 -0.42402978652163231 0 -0.29160063219187948 -0.42239526462565852 0 -0.28270147991191608 -0.42402978652163231 0 -0.28832002402846912 -0.42768090922643731 0 -0.29160063219187948 -0.42239526462565852 0 -0.28270147991191608 -0.42402978652163231 0 -0.28832002402846912 -0.42768090922643731 0 -0.28295875387678138 -0.43182503795223082 0 -0.28832002402846912 -0.42768090922643731 0 -0.28295875387678138 -0.43182503795223082 0 -0.29297782441373399 -0.43269832567583227 0 -0.28295875387678138 -0.43182503795223082 0 -0.29297782441373399 -0.43269832567583227 0 -0.28768020097304031 -0.44178426054334458 0 -0.29695469287871518 -0.42503807624171808 0 -0.28832002402846912 -0.42768090922643731 0 -0.29297782441373399 -0.43269832567583227 0 -0.29695469287871518 -0.42503807624171808 0 -0.28832002402846912 -0.42768090922643731 0 -0.29160063219187948 -0.42239526462565852 0 -0.30803392148088388 -0.37180697277304742 0 -0.30713285703851911 -0.38246869622489882 0 -0.29546233195630611 -0.37722678484790229 0 -0.30713285703851911 -0.38246869622489882 0 -0.29690399170540649 -0.38560789645586252 0 -0.29546233195630611 -0.37722678484790229 0 -0.30803392148088388 -0.37180697277304742 0 -0.31785197647725699 -0.38231461993721427 0 -0.30713285703851911 -0.38246869622489882 0 -0.31385958143428672 -0.39078948002189923 0 -0.30713285703851911 -0.38246869622489882 0 -0.30606119501303852 -0.39021446978538621 0 -0.30713285703851911 -0.38246869622489882 0 -0.30606119501303852 -0.39021446978538621 0 -0.29690399170540649 -0.38560789645586252 0 -0.30606119501303852 -0.39021446978538621 0 -0.29690399170540649 -0.38560789645586252 0 -0.30027867779784367 -0.3944601553284553 0 -0.30027867779784367 -0.3944601553284553 0 -0.30642378295197298 -0.3980256155101653 0 -0.30142135069998888 -0.40226565207179987 0 -0.30606119501303852 -0.39021446978538621 0 -0.30027867779784367 -0.3944601553284553 0 -0.30642378295197298 -0.3980256155101653 0 -0.31385958143428672 -0.39078948002189923 0 -0.30606119501303852 -0.39021446978538621 0 -0.30642378295197298 -0.3980256155101653 0 -0.31385958143428672 -0.39078948002189923 0 -0.31168504910059469 -0.39842923365833161 0 -0.30642378295197298 -0.3980256155101653 0 -0.30426570079952397 -0.40817428228454472 0 -0.31168504910059469 -0.39842923365833161 0 -0.30642378295197298 -0.3980256155101653 0 -0.30426570079952397 -0.40817428228454472 0 -0.30642378295197298 -0.3980256155101653 0 -0.30142135069998888 -0.40226565207179987 0 -0.30426570079952397 -0.40817428228454472 0 -0.30142135069998888 -0.40226565207179987 0 -0.29563681616971882 -0.403651863401295 0 -0.30027867779784367 -0.3944601553284553 0 -0.30142135069998888 -0.40226565207179987 0 -0.29539125391587512 -0.39901100517962867 0 -0.30142135069998888 -0.40226565207179987 0 -0.29563681616971882 -0.403651863401295 0 -0.29539125391587512 -0.39901100517962867 0 -0.29563681616971882 -0.403651863401295 0 -0.29539125391587512 -0.39901100517962867 0 -0.28891602539904387 -0.40092760171970782 0 -0.28919545713414407 -0.40839010057273062 0 -0.29563681616971882 -0.403651863401295 0 -0.28891602539904387 -0.40092760171970782 0 -0.28380285983780068 -0.40449232922826678 0 -0.28891602539904387 -0.40092760171970782 0 -0.28001006353005747 -0.39505748593294632 0 -0.28919545713414407 -0.40839010057273062 0 -0.28380285983780068 -0.40449232922826678 0 -0.28891602539904387 -0.40092760171970782 0 -0.28891602539904387 -0.40092760171970782 0 -0.29067267246173961 -0.39222347835494697 0 -0.28001006353005747 -0.39505748593294632 0 -0.30027867779784367 -0.3944601553284553 0 -0.29539125391587512 -0.39901100517962867 0 -0.29067267246173961 -0.39222347835494697 0 -0.29690399170540649 -0.38560789645586252 0 -0.30027867779784367 -0.3944601553284553 0 -0.29067267246173961 -0.39222347835494697 0 -0.29539125391587512 -0.39901100517962867 0 -0.28891602539904387 -0.40092760171970782 0 -0.29067267246173961 -0.39222347835494697 0 -0.28185502038313942 -0.36591135032220068 0 -0.284749731256775 -0.38216272553546871 0 -0.29546233195630611 -0.37722678484790229 0 -0.29690399170540649 -0.38560789645586252 0 -0.29067267246173961 -0.39222347835494697 0 -0.284749731256775 -0.38216272553546871 0 -0.29067267246173961 -0.39222347835494697 0 -0.284749731256775 -0.38216272553546871 0 -0.28001006353005747 -0.39505748593294632 0 -0.29690399170540649 -0.38560789645586252 0 -0.284749731256775 -0.38216272553546871 0 -0.29546233195630611 -0.37722678484790229 0 -0.284749731256775 -0.38216272553546871 0 -0.26739651117423102 -0.3819832328055115 0 -0.28001006353005747 -0.39505748593294632 0 -0.28185502038313942 -0.36591135032220068 0 -0.284749731256775 -0.38216272553546871 0 -0.26739651117423102 -0.3819832328055115 0 -0.26739651117423102 -0.3819832328055115 0 -0.27190295893722921 -0.4011847469010893 0 -0.2576742116903179 -0.39724471051377119 0 -0.27190295893722921 -0.4011847469010893 0 -0.2576742116903179 -0.39724471051377119 0 -0.27204747847693039 -0.41690226524329738 0 -0.26739651117423102 -0.3819832328055115 0 -0.28001006353005747 -0.39505748593294632 0 -0.27190295893722921 -0.4011847469010893 0 -0.28380285983780068 -0.40449232922826678 0 -0.28001006353005747 -0.39505748593294632 0 -0.27822172776593568 -0.40533857131683632 0 -0.28001006353005747 -0.39505748593294632 0 -0.27822172776593568 -0.40533857131683632 0 -0.27190295893722921 -0.4011847469010893 0 -0.27822172776593568 -0.40533857131683632 0 -0.27190295893722921 -0.4011847469010893 0 -0.2760677609859028 -0.41058221559417302 0 -0.2576742116903179 -0.39724471051377119 0 -0.25109305212649419 -0.40993790731429341 0 -0.2434516529263086 -0.39792330430020739 0 -0.2576742116903179 -0.39724471051377119 0 -0.24330094490370491 -0.37758715578424529 0 -0.26739651117423102 -0.3819832328055115 0 -0.2576742116903179 -0.39724471051377119 0 -0.24330094490370491 -0.37758715578424529 0 -0.27534973213043129 -0.42141858243744668 0 -0.25742051992969078 -0.42504278537499429 0 -0.2661870113315245 -0.43113995837606101 0 -0.27534973213043129 -0.42141858243744668 0 -0.25742051992969078 -0.42504278537499429 0 -0.27371063152831909 -0.41917687147002408 0 -0.27534973213043129 -0.42141858243744668 0 -0.25742051992969078 -0.42504278537499429 0 -0.2661870113315245 -0.43113995837606101 0 -0.27393688050930209 -0.43079777311103618 0 -0.27534973213043129 -0.42141858243744668 0 -0.2661870113315245 -0.43113995837606101 0 -0.26875091413728502 -0.43576571838887163 0 -0.26403157549729939 -0.43916716896872421 0 -0.26875091413728502 -0.43576571838887163 0 -0.27393688050930209 -0.43079777311103618 0 -0.27364914444683902 -0.44144142443240592 0 -0.2661870113315245 -0.43113995837606101 0 -0.26875091413728502 -0.43576571838887163 0 -0.27393688050930209 -0.43079777311103618 0 -0.28295875387678138 -0.43182503795223082 0 -0.27393688050930209 -0.43079777311103618 0 -0.27364914444683902 -0.44144142443240592 0 -0.28270147991191608 -0.42402978652163231 0 -0.28295875387678138 -0.43182503795223082 0 -0.27534973213043129 -0.42141858243744668 0 -0.28295875387678138 -0.43182503795223082 0 -0.27534973213043129 -0.42141858243744668 0 -0.28295875387678138 -0.43182503795223082 0 -0.27393688050930209 -0.43079777311103618 0 -0.27534973213043129 -0.42141858243744668 0 -0.28174600637646091 -0.42012564242133071 0 -0.27619723770883481 -0.41828146828741247 0 -0.28174600637646091 -0.42012564242133071 0 -0.27534973213043129 -0.42141858243744668 0 -0.27371063152831909 -0.41917687147002408 0 -0.27204747847693039 -0.41690226524329738 0 -0.25742051992969078 -0.42504278537499429 0 -0.28174600637646091 -0.42012564242133071 0 -0.28270147991191608 -0.42402978652163231 0 -0.27534973213043129 -0.42141858243744668 0 -0.27190295893722921 -0.4011847469010893 0 -0.2760677609859028 -0.41058221559417302 0 -0.27204747847693039 -0.41690226524329738 0 -0.28174600637646091 -0.42012564242133071 0 -0.27534973213043129 -0.42141858243744668 0 -0.27619723770883481 -0.41828146828741247 0 -0.28267102535982219 -0.41274788659911321 0 -0.27767759114863722 -0.41421631318256669 0 -0.27619723770883481 -0.41828146828741247 0 -0.27767759114863722 -0.41421631318256669 0 -0.27577434053998873 -0.4152536822495691 0 -0.27619723770883481 -0.41828146828741247 0 -0.27577434053998873 -0.4152536822495691 0 -0.2760677609859028 -0.41058221559417302 0 -0.27204747847693039 -0.41690226524329738 0 -0.27619723770883481 -0.41828146828741247 0 -0.27204747847693039 -0.41690226524329738 0 -0.27577434053998873 -0.4152536822495691 0 -0.27619723770883481 -0.41828146828741247 0 -0.27204747847693039 -0.41690226524329738 0 -0.27371063152831909 -0.41917687147002408 0 -0.27619723770883481 -0.41828146828741247 0 -0.27204747847693039 -0.41690226524329738 0 -0.27371063152831909 -0.41917687147002408 0 -0.27619723770883481 -0.41828146828741247 0 -0.27371063152831909 -0.41917687147002408 0 -0.27534973213043129 -0.42141858243744668 0 -0.27619723770883481 -0.41828146828741247 0 -0.27371063152831909 -0.41917687147002408 0 -0.27534973213043129 -0.42141858243744668 0 -0.28267102535982219 -0.41274788659911321 0 -0.27822172776593568 -0.40533857131683632 0 -0.2760677609859028 -0.41058221559417302 0 -0.28267102535982219 -0.41274788659911321 0 -0.27767759114863722 -0.41421631318256669 0 -0.2760677609859028 -0.41058221559417302 0 -0.27767759114863722 -0.41421631318256669 0 -0.27577434053998873 -0.4152536822495691 0 -0.2760677609859028 -0.41058221559417302 0 -0.27371063152831909 -0.41917687147002408 0 -0.27204747847693039 -0.41690226524329738 0 -0.2576742116903179 -0.39724471051377119 0 -0.27204747847693039 -0.41690226524329738 0 -0.25109305212649419 -0.40993790731429341 0 -0.2576742116903179 -0.39724471051377119 0 -0.27204747847693039 -0.41690226524329738 0 -0.27204747847693039 -0.41690226524329738 0 -0.25109305212649419 -0.40993790731429341 0 -0.27204747847693039 -0.41690226524329738 0 -0.2524429019861385 -0.41825018649880258 0 -0.25742051992969078 -0.42504278537499429 0 -0.27204747847693039 -0.41690226524329738 0 -0.25109305212649419 -0.40993790731429341 0 -0.2524429019861385 -0.41825018649880258 0 -0.2524429019861385 -0.41825018649880258 0 -0.25742051992969078 -0.42504278537499429 0 -0.24452795042479381 -0.42112381624322442 0 -0.27371063152831909 -0.41917687147002408 0 -0.25742051992969078 -0.42504278537499429 0 -0.25197813267442171 -0.42700253714732772 0 -0.25742051992969078 -0.42504278537499429 0 -0.25752733637273922 -0.4342997820608433 0 -0.25197813267442171 -0.42700253714732772 0 -0.25742051992969078 -0.42504278537499429 0 -0.2661870113315245 -0.43113995837606101 0 -0.25742051992969078 -0.42504278537499429 0 -0.25752733637273922 -0.4342997820608433 0 -0.2661870113315245 -0.43113995837606101 0 -0.25752733637273922 -0.4342997820608433 0 -0.26403157549729939 -0.43916716896872421 0 -0.25752733637273922 -0.4342997820608433 0 -0.25116971564846252 -0.43460217329565831 0 -0.25494059216976878 -0.44232201366954621 0 -0.25197813267442171 -0.42700253714732772 0 -0.25752733637273922 -0.4342997820608433 0 -0.25116971564846252 -0.43460217329565831 0 -0.25116971564846252 -0.43460217329565831 0 -0.25494059216976878 -0.44232201366954621 0 -0.24621421255866971 -0.44270785729789203 0 -0.25494059216976878 -0.44232201366954621 0 -0.25241092314773228 -0.45212153287018703 0 -0.24621421255866971 -0.44270785729789203 0 -0.25494059216976878 -0.44232201366954621 0 -0.25241092314773228 -0.45212153287018703 0 -0.26203458963429599 -0.44639327361983311 0 -0.25752733637273922 -0.4342997820608433 0 -0.25494059216976878 -0.44232201366954621 0 -0.26403157549729939 -0.43916716896872421 0 -0.25494059216976878 -0.44232201366954621 0 -0.26203458963429599 -0.44639327361983311 0 -0.26403157549729939 -0.43916716896872421 0 -0.25241092314773228 -0.45212153287018703 0 -0.25013988009879179 -0.4634133777829611 0 -0.26380198372740482 -0.46120837755114008 0 -0.26203458963429599 -0.44639327361983311 0 -0.26380198372740482 -0.46120837755114008 0 -0.2705035070156524 -0.45382533156215382 0 -0.25241092314773228 -0.45212153287018703 0 -0.26203458963429599 -0.44639327361983311 0 -0.26380198372740482 -0.46120837755114008 0 -0.25013988009879179 -0.4634133777829611 0 -0.26380198372740482 -0.46120837755114008 0 -0.26006475172855242 -0.47001476573547118 0 -0.26380198372740482 -0.46120837755114008 0 -0.2705035070156524 -0.45382533156215382 0 -0.27376019241333682 -0.46799992805156609 0 -0.26380198372740482 -0.46120837755114008 0 -0.27376019241333682 -0.46799992805156609 0 -0.26006475172855242 -0.47001476573547118 0 -0.2705035070156524 -0.45382533156215382 0 -0.27376019241333682 -0.46799992805156609 0 -0.28191444169702712 -0.45336953119987872 0 -0.26875091413728502 -0.43576571838887163 0 -0.26403157549729939 -0.43916716896872421 0 -0.27364914444683902 -0.44144142443240592 0 -0.26203458963429599 -0.44639327361983311 0 -0.26403157549729939 -0.43916716896872421 0 -0.27364914444683902 -0.44144142443240592 0 -0.26203458963429599 -0.44639327361983311 0 -0.2705035070156524 -0.45382533156215382 0 -0.27364914444683902 -0.44144142443240592 0 -0.27364914444683902 -0.44144142443240592 0 -0.28768020097304031 -0.44178426054334458 0 -0.28191444169702712 -0.45336953119987872 0 -0.2705035070156524 -0.45382533156215382 0 -0.27364914444683902 -0.44144142443240592 0 -0.28191444169702712 -0.45336953119987872 0 -0.28768020097304031 -0.44178426054334458 0 -0.28191444169702712 -0.45336953119987872 0 -0.29786762729820287 -0.45134774807854672 0 -0.28295875387678138 -0.43182503795223082 0 -0.27364914444683902 -0.44144142443240592 0 -0.28768020097304031 -0.44178426054334458 0 -0.29297782441373399 -0.43269832567583227 0 -0.28768020097304031 -0.44178426054334458 0 -0.29822126842214319 -0.44061375144656079 0 -0.28768020097304031 -0.44178426054334458 0 -0.29822126842214319 -0.44061375144656079 0 -0.29786762729820287 -0.45134774807854672 0 -0.29498517826067461 -0.46774787692119629 0 -0.28191444169702712 -0.45336953119987872 0 -0.29786762729820287 -0.45134774807854672 0 -0.27376019241333682 -0.46799992805156609 0 -0.29498517826067461 -0.46774787692119629 0 -0.28191444169702712 -0.45336953119987872 0 -0.31312085023793229 -0.46186435466738529 0 -0.29498517826067461 -0.46774787692119629 0 -0.29786762729820287 -0.45134774807854672 0 -0.31407758057878021 -0.44296429398946319 0 -0.31312085023793229 -0.46186435466738529 0 -0.29786762729820287 -0.45134774807854672 0 -0.31407758057878021 -0.44296429398946319 0 -0.29822126842214319 -0.44061375144656079 0 -0.29786762729820287 -0.45134774807854672 0 -0.31407758057878021 -0.44296429398946319 0 -0.30317129420478722 -0.4322153528450654 0 -0.29822126842214319 -0.44061375144656079 0 -0.29967885551356999 -0.5 0 -0.31107553136216332 -0.48034149462877301 0 -0.28600764534184647 -0.48402226433311413 0 -0.29498517826067461 -0.46774787692119629 0 -0.31107553136216332 -0.48034149462877301 0 -0.28600764534184647 -0.48402226433311413 0 -0.31312085023793229 -0.46186435466738529 0 -0.29498517826067461 -0.46774787692119629 0 -0.31107553136216332 -0.48034149462877301 0 -0.27376019241333682 -0.46799992805156609 0 -0.29498517826067461 -0.46774787692119629 0 -0.28600764534184647 -0.48402226433311413 0 -0.29967885551356999 -0.5 0 -0.28600764534184647 -0.48402226433311413 0 -0.26996620499172991 -0.5 0 -0.28600764534184647 -0.48402226433311413 0 -0.26996620499172991 -0.5 0 -0.26308972487571031 -0.48169994440923652 0 -0.27376019241333682 -0.46799992805156609 0 -0.28600764534184647 -0.48402226433311413 0 -0.26308972487571031 -0.48169994440923652 0 -0.27376019241333682 -0.46799992805156609 0 -0.26006475172855242 -0.47001476573547118 0 -0.26308972487571031 -0.48169994440923652 0 -0.26308972487571031 -0.48169994440923652 0 -0.24962771366494729 -0.48804849123724459 0 -0.2495319775275181 -0.47575220088245262 0 -0.26006475172855242 -0.47001476573547118 0 -0.26308972487571031 -0.48169994440923652 0 -0.2495319775275181 -0.47575220088245262 0 -0.25013988009879179 -0.4634133777829611 0 -0.26006475172855242 -0.47001476573547118 0 -0.2495319775275181 -0.47575220088245262 0 -0.26996620499172991 -0.5 0 -0.2402535544698898 -0.5 0 -0.24962771366494729 -0.48804849123724459 0 -0.26996620499172991 -0.5 0 -0.26308972487571031 -0.48169994440923652 0 -0.24962771366494729 -0.48804849123724459 0 -0.2402535544698898 -0.5 0 -0.23617438021414111 -0.48966112806064988 0 -0.24962771366494729 -0.48804849123724459 0 -0.23617438021414111 -0.48966112806064988 0 -0.24962771366494729 -0.48804849123724459 0 -0.23948613414693959 -0.48025551010113487 0 -0.24962771366494729 -0.48804849123724459 0 -0.2495319775275181 -0.47575220088245262 0 -0.23948613414693959 -0.48025551010113487 0 -0.25013988009879179 -0.4634133777829611 0 -0.2495319775275181 -0.47575220088245262 0 -0.23677418382105511 -0.467813735919554 0 -0.2495319775275181 -0.47575220088245262 0 -0.23948613414693959 -0.48025551010113487 0 -0.23677418382105511 -0.467813735919554 0 -0.23948613414693959 -0.48025551010113487 0 -0.22908264598767361 -0.48031407346031602 0 -0.23677418382105511 -0.467813735919554 0 -0.23617438021414111 -0.48966112806064988 0 -0.23948613414693959 -0.48025551010113487 0 -0.22908264598767361 -0.48031407346031602 0 -0.22908264598767361 -0.48031407346031602 0 -0.23677418382105511 -0.467813735919554 0 -0.22082222785412359 -0.46699885743698633 0 -0.22908264598767361 -0.48031407346031602 0 -0.22082222785412359 -0.46699885743698633 0 -0.21602145899079581 -0.48097186682499299 0 -0.22908264598767361 -0.48031407346031602 0 -0.22595318513523219 -0.49526117844858442 0 -0.21602145899079581 -0.48097186682499299 0 -0.2402535544698898 -0.5 0 -0.22595318513523219 -0.49526117844858442 0 -0.21054090394804981 -0.5 0 -0.2402535544698898 -0.5 0 -0.23617438021414111 -0.48966112806064988 0 -0.22595318513523219 -0.49526117844858442 0 -0.23617438021414111 -0.48966112806064988 0 -0.22908264598767361 -0.48031407346031602 0 -0.22595318513523219 -0.49526117844858442 0 -0.24621421255866971 -0.44270785729789203 0 -0.23279382651643851 -0.44227035402668469 0 -0.24355154952949179 -0.43508496178659778 0 -0.25241092314773228 -0.45212153287018703 0 -0.24621421255866971 -0.44270785729789203 0 -0.2417245898866503 -0.45326827087157012 0 -0.2417245898866503 -0.45326827087157012 0 -0.23018386510256511 -0.45568092104389041 0 -0.23279382651643851 -0.44227035402668469 0 -0.24621421255866971 -0.44270785729789203 0 -0.2417245898866503 -0.45326827087157012 0 -0.23279382651643851 -0.44227035402668469 0 -0.2417245898866503 -0.45326827087157012 0 -0.23677418382105511 -0.467813735919554 0 -0.23018386510256511 -0.45568092104389041 0 -0.25241092314773228 -0.45212153287018703 0 -0.25013988009879179 -0.4634133777829611 0 -0.2417245898866503 -0.45326827087157012 0 -0.25013988009879179 -0.4634133777829611 0 -0.2417245898866503 -0.45326827087157012 0 -0.23677418382105511 -0.467813735919554 0 -0.22082222785412359 -0.46699885743698633 0 -0.23018386510256511 -0.45568092104389041 0 -0.21809683822627871 -0.45076981829590179 0 -0.23677418382105511 -0.467813735919554 0 -0.22082222785412359 -0.46699885743698633 0 -0.23018386510256511 -0.45568092104389041 0 -0.23279382651643851 -0.44227035402668469 0 -0.21809683822627871 -0.45076981829590179 0 -0.2134587154960004 -0.43392920486652131 0 -0.23018386510256511 -0.45568092104389041 0 -0.23279382651643851 -0.44227035402668469 0 -0.21809683822627871 -0.45076981829590179 0 -0.21809683822627871 -0.45076981829590179 0 -0.202515319805365 -0.44999154432616789 0 -0.2134587154960004 -0.43392920486652131 0 -0.22082222785412359 -0.46699885743698633 0 -0.2084636109711594 -0.46092062539408579 0 -0.205049577666477 -0.47378125342462168 0 -0.22082222785412359 -0.46699885743698633 0 -0.21809683822627871 -0.45076981829590179 0 -0.2084636109711594 -0.46092062539408579 0 -0.21809683822627871 -0.45076981829590179 0 -0.2084636109711594 -0.46092062539408579 0 -0.202515319805365 -0.44999154432616789 0 -0.2084636109711594 -0.46092062539408579 0 -0.19583409130355281 -0.46306165348675121 0 -0.205049577666477 -0.47378125342462168 0 -0.19583409130355281 -0.46306165348675121 0 -0.19177648112505519 -0.47387740783992222 0 -0.18119602741982721 -0.46499314041059159 0 -0.19583409130355281 -0.46306165348675121 0 -0.202515319805365 -0.44999154432616789 0 -0.18693718246977231 -0.45177651494198268 0 -0.19583409130355281 -0.46306165348675121 0 -0.18119602741982721 -0.46499314041059159 0 -0.18693718246977231 -0.45177651494198268 0 -0.2084636109711594 -0.46092062539408579 0 -0.19583409130355281 -0.46306165348675121 0 -0.202515319805365 -0.44999154432616789 0 -0.202515319805365 -0.44999154432616789 0 -0.1914778132791552 -0.43837241461228482 0 -0.2134587154960004 -0.43392920486652131 0 -0.202515319805365 -0.44999154432616789 0 -0.1914778132791552 -0.43837241461228482 0 -0.18693718246977231 -0.45177651494198268 0 -0.22595318513523219 -0.49526117844858442 0 -0.21602145899079581 -0.48097186682499299 0 -0.20101900550617299 -0.48769765710746138 0 -0.22595318513523219 -0.49526117844858442 0 -0.20101900550617299 -0.48769765710746138 0 -0.22595318513523219 -0.49526117844858442 0 -0.21054090394804981 -0.5 0 -0.20101900550617299 -0.48769765710746138 0 -0.22082222785412359 -0.46699885743698633 0 -0.21602145899079581 -0.48097186682499299 0 -0.205049577666477 -0.47378125342462168 0 -0.21602145899079581 -0.48097186682499299 0 -0.205049577666477 -0.47378125342462168 0 -0.20101900550617299 -0.48769765710746138 0 -0.19177648112505519 -0.47387740783992222 0 -0.20101900550617299 -0.48769765710746138 0 -0.17608482587711391 -0.48013413576633851 0 -0.20101900550617299 -0.48769765710746138 0 -0.17608482587711391 -0.48013413576633851 0 -0.205049577666477 -0.47378125342462168 0 -0.19177648112505519 -0.47387740783992222 0 -0.20101900550617299 -0.48769765710746138 0 -0.19583409130355281 -0.46306165348675121 0 -0.205049577666477 -0.47378125342462168 0 -0.19177648112505519 -0.47387740783992222 0 -0.21054090394804981 -0.5 0 -0.20101900550617299 -0.48769765710746138 0 -0.1808282534262097 -0.5 0 -0.20101900550617299 -0.48769765710746138 0 -0.1808282534262097 -0.5 0 -0.17608482587711391 -0.48013413576633851 0 -0.1808282534262097 -0.5 0 -0.16095295929919889 -0.48552831894672532 0 -0.17608482587711391 -0.48013413576633851 0 -0.1808282534262097 -0.5 0 -0.16095295929919889 -0.48552831894672532 0 -0.15111560290436959 -0.5 0 -0.17608482587711391 -0.48013413576633851 0 -0.1667608212017769 -0.46555587399297371 0 -0.15115064624805469 -0.47257061442521547 0 -0.17608482587711391 -0.48013413576633851 0 -0.15115064624805469 -0.47257061442521547 0 -0.16095295929919889 -0.48552831894672532 0 -0.17608482587711391 -0.48013413576633851 0 -0.15115064624805469 -0.47257061442521547 0 -0.17608482587711391 -0.48013413576633851 0 -0.18119602741982721 -0.46499314041059159 0 -0.1667608212017769 -0.46555587399297371 0 -0.19177648112505519 -0.47387740783992222 0 -0.17608482587711391 -0.48013413576633851 0 -0.18119602741982721 -0.46499314041059159 0 -0.18119602741982721 -0.46499314041059159 0 -0.18693718246977231 -0.45177651494198268 0 -0.16984154297353199 -0.45215409417312491 0 -0.18119602741982721 -0.46499314041059159 0 -0.16984154297353199 -0.45215409417312491 0 -0.1667608212017769 -0.46555587399297371 0 -0.17925476857811951 -0.44041668993284883 0 -0.16984154297353199 -0.45215409417312491 0 -0.16813012458603641 -0.43271608857928678 0 -0.18693718246977231 -0.45177651494198268 0 -0.17925476857811951 -0.44041668993284883 0 -0.16984154297353199 -0.45215409417312491 0 -0.1914778132791552 -0.43837241461228482 0 -0.18693718246977231 -0.45177651494198268 0 -0.17925476857811951 -0.44041668993284883 0 -0.15662962182168991 -0.43779485418814013 0 -0.16984154297353199 -0.45215409417312491 0 -0.15553106349035681 -0.45792738518959769 0 -0.15662962182168991 -0.43779485418814013 0 -0.16984154297353199 -0.45215409417312491 0 -0.16813012458603641 -0.43271608857928678 0 -0.16984154297353199 -0.45215409417312491 0 -0.1667608212017769 -0.46555587399297371 0 -0.15553106349035681 -0.45792738518959769 0 -0.1667608212017769 -0.46555587399297371 0 -0.15553106349035681 -0.45792738518959769 0 -0.15115064624805469 -0.47257061442521547 0 -0.15553106349035681 -0.45792738518959769 0 -0.1442419696923628 -0.46105656766557163 0 -0.15115064624805469 -0.47257061442521547 0 -0.15553106349035681 -0.45792738518959769 0 -0.1442419696923628 -0.46105656766557163 0 -0.14406970241204101 -0.44872117796338767 0 -0.15662962182168991 -0.43779485418814013 0 -0.15553106349035681 -0.45792738518959769 0 -0.14406970241204101 -0.44872117796338767 0 -0.14406970241204101 -0.44872117796338767 0 -0.12968308686813451 -0.43980573006081197 0 -0.1262164666189976 -0.46500709308408522 0 -0.12968308686813451 -0.43980573006081197 0 -0.1262164666189976 -0.46500709308408522 0 -0.1442419696923628 -0.46105656766557163 0 -0.14406970241204101 -0.44872117796338767 0 -0.1262164666189976 -0.46500709308408522 0 -0.1442419696923628 -0.46105656766557163 0 -0.1262164666189976 -0.46500709308408522 0 -0.15115064624805469 -0.47257061442521547 0 -0.1262164666189976 -0.46500709308408522 0 -0.125215324738535 -0.47228511552500119 0 -0.1262164666189976 -0.46500709308408522 0 -0.125215324738535 -0.47228511552500119 0 -0.13323046542304959 -0.47797595886654493 0 -0.125215324738535 -0.47228511552500119 0 -0.13323046542304959 -0.47797595886654493 0 -0.1262164666189976 -0.46500709308408522 0 -0.13323046542304959 -0.47797595886654493 0 -0.15115064624805469 -0.47257061442521547 0 -0.1262164666189976 -0.46500709308408522 0 -0.15115064624805469 -0.47257061442521547 0 -0.125215324738535 -0.47228511552500119 0 -0.13323046542304959 -0.47797595886654493 0 -0.1214029523825295 -0.50000000000001799 0 -0.15111560290436959 -0.5 0 -0.14359849502918631 -0.48704454349620319 0 -0.1214029523825295 -0.50000000000001799 0 -0.13323046542304959 -0.47797595886654493 0 -0.14359849502918631 -0.48704454349620319 0 -0.1214029523825295 -0.50000000000001799 0 -0.16095295929919889 -0.48552831894672532 0 -0.15111560290436959 -0.5 0 -0.14359849502918631 -0.48704454349620319 0 -0.13323046542304959 -0.47797595886654493 0 -0.14359849502918631 -0.48704454349620319 0 -0.15115064624805469 -0.47257061442521547 0 -0.16095295929919889 -0.48552831894672532 0 -0.14359849502918631 -0.48704454349620319 0 -0.15115064624805469 -0.47257061442521547 0 -0.15108420573096579 -0.39320302287547348 0 -0.14559373452583549 -0.3780629033030618 0 -0.15459145739042829 -0.36544394533151642 0 -0.14559373452583549 -0.3780629033030618 0 -0.136616327366406 -0.38940300401426542 0 -0.1400829476155418 -0.36420164099099189 0 -0.15108420573096579 -0.39320302287547348 0 -0.15459145739042829 -0.36544394533151642 0 -0.15108420573096579 -0.39320302287547348 0 -0.14559373452583549 -0.3780629033030618 0 -0.136616327366406 -0.38940300401426542 0 -0.136616327366406 -0.38940300401426542 0 -0.12354017240737181 -0.37313133386911829 0 -0.1200190036265157 -0.39157850375754072 0 -0.136616327366406 -0.38940300401426542 0 -0.1400829476155418 -0.36420164099099189 0 -0.12354017240737181 -0.37313133386911829 0 -0.136616327366406 -0.38940300401426542 0 -0.1400829476155418 -0.36420164099099189 0 -0.15108420573096579 -0.39320302287547348 0 -0.136616327366406 -0.38940300401426542 0 -0.13314970711727031 -0.41460436703753872 0 -0.136616327366406 -0.38940300401426542 0 -0.13314970711727031 -0.41460436703753872 0 -0.136616327366406 -0.38940300401426542 0 -0.13314970711727031 -0.41460436703753872 0 -0.1200190036265157 -0.39157850375754072 0 -0.12968308686813451 -0.43980573006081197 0 -0.13314970711727031 -0.41460436703753872 0 -0.1475769540715034 -0.42096210041943061 0 -0.12968308686813451 -0.43980573006081197 0 -0.13314970711727031 -0.41460436703753872 0 -0.14406970241204101 -0.44872117796338767 0 -0.12968308686813451 -0.43980573006081197 0 -0.1475769540715034 -0.42096210041943061 0 -0.12968308686813451 -0.43980573006081197 0 -0.13314970711727031 -0.41460436703753872 0 -0.1175061369569224 -0.42073635583615671 0 -0.15662962182168991 -0.43779485418814013 0 -0.14406970241204101 -0.44872117796338767 0 -0.1475769540715034 -0.42096210041943061 0 -0.14406970241204101 -0.44872117796338767 0 -0.1475769540715034 -0.42096210041943061 0 -0.15108420573096579 -0.39320302287547348 0 -0.1475769540715034 -0.42096210041943061 0 -0.15108420573096579 -0.39320302287547348 0 -0.13314970711727031 -0.41460436703753872 0 -0.1475769540715034 -0.42096210041943061 0 -0.15108420573096579 -0.39320302287547348 0 -0.1475769540715034 -0.42096210041943061 0 -0.16085039360750791 -0.40710429437442519 0 -0.1475769540715034 -0.42096210041943061 0 -0.16085039360750791 -0.40710429437442519 0 -0.1648575644466185 -0.42063316343187351 0 -0.16085039360750791 -0.40710429437442519 0 -0.1648575644466185 -0.42063316343187351 0 -0.1740348484702165 -0.41020385005471849 0 -0.15662962182168991 -0.43779485418814013 0 -0.1648575644466185 -0.42063316343187351 0 -0.16813012458603641 -0.43271608857928678 0 -0.15662962182168991 -0.43779485418814013 0 -0.1475769540715034 -0.42096210041943061 0 -0.1648575644466185 -0.42063316343187351 0 -0.1648575644466185 -0.42063316343187351 0 -0.16813012458603641 -0.43271608857928678 0 -0.18305459034535401 -0.42410343959063329 0 -0.17925476857811951 -0.44041668993284883 0 -0.16813012458603641 -0.43271608857928678 0 -0.18305459034535401 -0.42410343959063329 0 -0.1914778132791552 -0.43837241461228482 0 -0.17925476857811951 -0.44041668993284883 0 -0.18305459034535401 -0.42410343959063329 0 -0.1648575644466185 -0.42063316343187351 0 -0.18305459034535401 -0.42410343959063329 0 -0.1740348484702165 -0.41020385005471849 0 -0.18305459034535401 -0.42410343959063329 0 -0.1740348484702165 -0.41020385005471849 0 -0.1852705800765265 -0.40965478621034512 0 -0.1740348484702165 -0.41020385005471849 0 -0.1852705800765265 -0.40965478621034512 0 -0.18318654133782361 -0.39862871508869668 0 -0.18318654133782361 -0.39862871508869668 0 -0.18305989870720049 -0.38755768967558551 0 -0.19562149244704929 -0.39150152590126802 0 -0.18318654133782361 -0.39862871508869668 0 -0.17258243844231461 -0.39963845850886942 0 -0.17244332533272549 -0.3896197956996213 0 -0.18318654133782361 -0.39862871508869668 0 -0.17244332533272549 -0.3896197956996213 0 -0.18305989870720049 -0.38755768967558551 0 -0.1740348484702165 -0.41020385005471849 0 -0.18318654133782361 -0.39862871508869668 0 -0.17258243844231461 -0.39963845850886942 0 -0.16085039360750791 -0.40710429437442519 0 -0.17258243844231461 -0.39963845850886942 0 -0.16380810085492989 -0.39488036322449188 0 -0.16085039360750791 -0.40710429437442519 0 -0.1740348484702165 -0.41020385005471849 0 -0.17258243844231461 -0.39963845850886942 0 -0.17258243844231461 -0.39963845850886942 0 -0.16380810085492989 -0.39488036322449188 0 -0.17244332533272549 -0.3896197956996213 0 -0.15108420573096579 -0.39320302287547348 0 -0.16085039360750791 -0.40710429437442519 0 -0.16380810085492989 -0.39488036322449188 0 -0.15108420573096579 -0.39320302287547348 0 -0.16465104402462899 -0.38049410113716642 0 -0.15459145739042829 -0.36544394533151642 0 -0.15108420573096579 -0.39320302287547348 0 -0.16380810085492989 -0.39488036322449188 0 -0.16465104402462899 -0.38049410113716642 0 -0.16465104402462899 -0.38049410113716642 0 -0.17622660655668329 -0.37974183800052808 0 -0.17244332533272549 -0.3896197956996213 0 -0.16380810085492989 -0.39488036322449188 0 -0.16465104402462899 -0.38049410113716642 0 -0.17244332533272549 -0.3896197956996213 0 -0.17622660655668329 -0.37974183800052808 0 -0.17244332533272549 -0.3896197956996213 0 -0.18305989870720049 -0.38755768967558551 0 -0.17622660655668329 -0.37974183800052808 0 -0.18305989870720049 -0.38755768967558551 0 -0.19014306516209001 -0.3790441764008789 0 -0.19014306516209001 -0.3790441764008789 0 -0.20918419942562219 -0.39600919145628388 0 -0.19014306516209001 -0.3790441764008789 0 -0.19562149244704929 -0.39150152590126802 0 -0.20918419942562219 -0.39600919145628388 0 -0.19014306516209001 -0.3790441764008789 0 -0.20918419942562219 -0.39600919145628388 0 -0.20455055984192441 -0.38010430057236011 0 -0.19014306516209001 -0.3790441764008789 0 -0.20455055984192441 -0.38010430057236011 0 -0.1988457493992043 -0.36740609137735292 0 -0.18305989870720049 -0.38755768967558551 0 -0.19014306516209001 -0.3790441764008789 0 -0.19562149244704929 -0.39150152590126802 0 -0.18318654133782361 -0.39862871508869668 0 -0.19721819708667501 -0.40289379140332449 0 -0.19562149244704929 -0.39150152590126802 0 -0.1852705800765265 -0.40965478621034512 0 -0.18318654133782361 -0.39862871508869668 0 -0.19721819708667501 -0.40289379140332449 0 -0.19562149244704929 -0.39150152590126802 0 -0.20918419942562219 -0.39600919145628388 0 -0.19721819708667501 -0.40289379140332449 0 -0.19562149244704929 -0.39150152590126802 0 -0.20918419942562219 -0.39600919145628388 0 -0.19721819708667501 -0.40289379140332449 0 -0.20918419942562219 -0.39600919145628388 0 -0.20860206436924991 -0.40942225232644669 0 -0.20918419942562219 -0.39600919145628388 0 -0.20860206436924991 -0.40942225232644669 0 -0.2218593227189635 -0.40730230322812089 0 -0.20918419942562219 -0.39600919145628388 0 -0.2218593227189635 -0.40730230322812089 0 -0.20918419942562219 -0.39600919145628388 0 -0.21235453904041449 -0.3846342199611425 0 -0.22396526125645369 -0.38563991531635211 0 -0.20918419942562219 -0.39600919145628388 0 -0.21235453904041449 -0.3846342199611425 0 -0.20455055984192441 -0.38010430057236011 0 -0.21235453904041449 -0.3846342199611425 0 -0.22396526125645369 -0.38563991531635211 0 -0.21222524618229069 -0.3734278236661423 0 -0.21235453904041449 -0.3846342199611425 0 -0.20455055984192441 -0.38010430057236011 0 -0.21222524618229069 -0.3734278236661423 0 -0.1914778132791552 -0.43837241461228482 0 -0.18305459034535401 -0.42410343959063329 0 -0.2021618479483123 -0.42348363642938291 0 -0.1914778132791552 -0.43837241461228482 0 -0.2021618479483123 -0.42348363642938291 0 -0.2134587154960004 -0.43392920486652131 0 -0.1914778132791552 -0.43837241461228482 0 -0.2134587154960004 -0.43392920486652131 0 -0.18305459034535401 -0.42410343959063329 0 -0.2021618479483123 -0.42348363642938291 0 -0.1958253285185553 -0.41354585562115531 0 -0.2021618479483123 -0.42348363642938291 0 -0.1958253285185553 -0.41354585562115531 0 -0.20860206436924991 -0.40942225232644669 0 -0.18305459034535401 -0.42410343959063329 0 -0.1852705800765265 -0.40965478621034512 0 -0.1958253285185553 -0.41354585562115531 0 -0.1852705800765265 -0.40965478621034512 0 -0.19721819708667501 -0.40289379140332449 0 -0.1958253285185553 -0.41354585562115531 0 -0.19721819708667501 -0.40289379140332449 0 -0.1958253285185553 -0.41354585562115531 0 -0.20860206436924991 -0.40942225232644669 0 -0.2021618479483123 -0.42348363642938291 0 -0.20860206436924991 -0.40942225232644669 0 -0.2205525756815592 -0.42152865155925628 0 -0.20860206436924991 -0.40942225232644669 0 -0.2205525756815592 -0.42152865155925628 0 -0.2218593227189635 -0.40730230322812089 0 -0.2021618479483123 -0.42348363642938291 0 -0.2134587154960004 -0.43392920486652131 0 -0.2205525756815592 -0.42152865155925628 0 -0.23279382651643851 -0.44227035402668469 0 -0.2134587154960004 -0.43392920486652131 0 -0.23543961771284561 -0.42948599512075769 0 -0.2134587154960004 -0.43392920486652131 0 -0.2205525756815592 -0.42152865155925628 0 -0.23543961771284561 -0.42948599512075769 0 -0.2134587154960004 -0.43392920486652131 0 -0.23543961771284561 -0.42948599512075769 0 -0.2205525756815592 -0.42152865155925628 0 -0.23453444601230439 -0.41859541499995839 0 -0.23543961771284561 -0.42948599512075769 0 -0.2205525756815592 -0.42152865155925628 0 -0.2218593227189635 -0.40730230322812089 0 -0.23453444601230439 -0.41859541499995839 0 -0.2218593227189635 -0.40730230322812089 0 -0.23453444601230439 -0.41859541499995839 0 -0.2218593227189635 -0.40730230322812089 0 -0.23619570383295921 -0.41080058208455489 0 -0.23453444601230439 -0.41859541499995839 0 -0.2218593227189635 -0.40730230322812089 0 -0.23619570383295921 -0.41080058208455489 0 -0.2301386257760582 -0.40297354938528879 0 -0.25109305212649419 -0.40993790731429341 0 -0.2301386257760582 -0.40297354938528879 0 -0.25109305212649419 -0.40993790731429341 0 -0.23619570383295921 -0.41080058208455489 0 -0.2301386257760582 -0.40297354938528879 0 -0.25109305212649419 -0.40993790731429341 0 -0.23619570383295921 -0.41080058208455489 0 -0.2433530725309756 -0.41519373549511318 0 -0.2524429019861385 -0.41825018649880258 0 -0.2433530725309756 -0.41519373549511318 0 -0.24452795042479381 -0.42112381624322442 0 -0.25109305212649419 -0.40993790731429341 0 -0.2524429019861385 -0.41825018649880258 0 -0.2433530725309756 -0.41519373549511318 0 -0.2433530725309756 -0.41519373549511318 0 -0.24452795042479381 -0.42112381624322442 0 -0.23453444601230439 -0.41859541499995839 0 -0.23619570383295921 -0.41080058208455489 0 -0.2433530725309756 -0.41519373549511318 0 -0.23453444601230439 -0.41859541499995839 0 -0.25742051992969078 -0.42504278537499429 0 -0.24452795042479381 -0.42112381624322442 0 -0.23543961771284561 -0.42948599512075769 0 -0.25197813267442171 -0.42700253714732772 0 -0.25742051992969078 -0.42504278537499429 0 -0.23543961771284561 -0.42948599512075769 0 -0.25742051992969078 -0.42504278537499429 0 -0.23543961771284561 -0.42948599512075769 0 -0.25197813267442171 -0.42700253714732772 0 -0.23543961771284561 -0.42948599512075769 0 -0.24355154952949179 -0.43508496178659778 0 -0.24452795042479381 -0.42112381624322442 0 -0.23453444601230439 -0.41859541499995839 0 -0.23543961771284561 -0.42948599512075769 0 -0.25116971564846252 -0.43460217329565831 0 -0.24621421255866971 -0.44270785729789203 0 -0.24355154952949179 -0.43508496178659778 0 -0.25197813267442171 -0.42700253714732772 0 -0.25116971564846252 -0.43460217329565831 0 -0.24355154952949179 -0.43508496178659778 0 -0.23279382651643851 -0.44227035402668469 0 -0.23543961771284561 -0.42948599512075769 0 -0.24355154952949179 -0.43508496178659778 0 -0.22396526125645369 -0.38563991531635211 0 -0.23368847385038971 -0.39225889911448142 0 -0.24330094490370491 -0.37758715578424529 0 -0.22396526125645369 -0.38563991531635211 0 -0.24330094490370491 -0.37758715578424529 0 -0.22668076064216899 -0.37225731383213639 0 -0.22396526125645369 -0.38563991531635211 0 -0.22668076064216899 -0.37225731383213639 0 -0.21222524618229069 -0.3734278236661423 0 -0.20918419942562219 -0.39600919145628388 0 -0.2218593227189635 -0.40730230322812089 0 -0.2301386257760582 -0.40297354938528879 0 -0.22396526125645369 -0.38563991531635211 0 -0.2301386257760582 -0.40297354938528879 0 -0.23368847385038971 -0.39225889911448142 0 -0.20918419942562219 -0.39600919145628388 0 -0.22396526125645369 -0.38563991531635211 0 -0.2301386257760582 -0.40297354938528879 0 -0.20918419942562219 -0.39600919145628388 0 -0.2301386257760582 -0.40297354938528879 0 -0.2301386257760582 -0.40297354938528879 0 -0.23368847385038971 -0.39225889911448142 0 -0.2434516529263086 -0.39792330430020739 0 -0.25109305212649419 -0.40993790731429341 0 -0.2301386257760582 -0.40297354938528879 0 -0.2434516529263086 -0.39792330430020739 0 -0.2576742116903179 -0.39724471051377119 0 -0.2434516529263086 -0.39792330430020739 0 -0.24330094490370491 -0.37758715578424529 0 -0.23368847385038971 -0.39225889911448142 0 -0.2434516529263086 -0.39792330430020739 0 -0.24330094490370491 -0.37758715578424529 0 -0.24330094490370491 -0.37758715578424529 0 -0.22892767811709189 -0.35792960105471938 0 -0.25567611928539491 -0.360015727871354 0 -0.24330094490370491 -0.37758715578424529 0 -0.22892767811709189 -0.35792960105471938 0 -0.22668076064216899 -0.37225731383213639 0 -0.22892767811709189 -0.35792960105471938 0 -0.21112454320659599 -0.35718289339346088 0 -0.24330094490370491 -0.37758715578424529 0 -0.22668076064216899 -0.37225731383213639 0 -0.22892767811709189 -0.35792960105471938 0 -0.22892767811709189 -0.35792960105471938 0 -0.21455441133047881 -0.33827204632519342 0 -0.25567611928539491 -0.360015727871354 0 -0.22892767811709189 -0.35792960105471938 0 -0.2475774867555009 -0.34164320394308861 0 -0.22892767811709189 -0.35792960105471938 0 -0.2475774867555009 -0.34164320394308861 0 -0.23182564493982549 -0.33129132133704109 0 -0.2475774867555009 -0.34164320394308861 0 -0.24749233914880131 -0.32573633236841087 0 -0.23182564493982549 -0.33129132133704109 0 -0.25837751833345662 -0.31347325195578862 0 -0.24008269080971931 -0.31544236024077932 0 -0.24749233914880131 -0.32573633236841087 0 -0.24008269080971931 -0.31544236024077932 0 -0.24749233914880131 -0.32573633236841087 0 -0.23182564493982549 -0.33129132133704109 0 -0.24008269080971931 -0.31544236024077932 0 -0.21994568049785129 -0.31677254139140171 0 -0.23182564493982549 -0.33129132133704109 0 -0.21994568049785129 -0.31677254139140171 0 -0.23182564493982549 -0.33129132133704109 0 -0.21455441133047881 -0.33827204632519342 0 -0.22892767811709189 -0.35792960105471938 0 -0.23182564493982549 -0.33129132133704109 0 -0.21455441133047881 -0.33827204632519342 0 -0.21455441133047881 -0.33827204632519342 0 -0.20212621451851781 -0.3229031153826567 0 -0.1976888455752506 -0.33643643187041589 0 -0.21994568049785129 -0.31677254139140171 0 -0.20212621451851781 -0.3229031153826567 0 -0.20013272142443581 -0.3074689068554603 0 -0.21994568049785129 -0.31677254139140171 0 -0.21455441133047881 -0.33827204632519342 0 -0.20212621451851781 -0.3229031153826567 0 -0.20212621451851781 -0.3229031153826567 0 -0.18948798945719941 -0.317231175593853 0 -0.20013272142443581 -0.3074689068554603 0 -0.20212621451851781 -0.3229031153826567 0 -0.18948798945719941 -0.317231175593853 0 -0.1866560110662849 -0.32816962803759331 0 -0.1976888455752506 -0.33643643187041589 0 -0.1918314286057867 -0.35260898220344378 0 -0.18468197500345021 -0.34047905318975707 0 -0.20212621451851781 -0.3229031153826567 0 -0.1976888455752506 -0.33643643187041589 0 -0.1866560110662849 -0.32816962803759331 0 -0.1976888455752506 -0.33643643187041589 0 -0.18468197500345021 -0.34047905318975707 0 -0.1866560110662849 -0.32816962803759331 0 -0.1918314286057867 -0.35260898220344378 0 -0.1988457493992043 -0.36740609137735292 0 -0.21112454320659599 -0.35718289339346088 0 -0.1976888455752506 -0.33643643187041589 0 -0.1918314286057867 -0.35260898220344378 0 -0.21112454320659599 -0.35718289339346088 0 -0.1918314286057867 -0.35260898220344378 0 -0.1988457493992043 -0.36740609137735292 0 -0.18579862454122831 -0.36247788882758658 0 -0.19014306516209001 -0.3790441764008789 0 -0.1988457493992043 -0.36740609137735292 0 -0.18579862454122831 -0.36247788882758658 0 -0.1988457493992043 -0.36740609137735292 0 -0.21222524618229069 -0.3734278236661423 0 -0.21112454320659599 -0.35718289339346088 0 -0.22668076064216899 -0.37225731383213639 0 -0.21222524618229069 -0.3734278236661423 0 -0.21112454320659599 -0.35718289339346088 0 -0.20455055984192441 -0.38010430057236011 0 -0.1988457493992043 -0.36740609137735292 0 -0.21222524618229069 -0.3734278236661423 0 -0.22892767811709189 -0.35792960105471938 0 -0.21455441133047881 -0.33827204632519342 0 -0.21112454320659599 -0.35718289339346088 0 -0.21455441133047881 -0.33827204632519342 0 -0.1976888455752506 -0.33643643187041589 0 -0.21112454320659599 -0.35718289339346088 0 -0.2262781706312966 -0.25694872413044523 0 -0.22880046871826021 -0.26988716217053421 0 -0.2122898985161423 -0.25490922675953331 0 -0.2262781706312966 -0.25694872413044523 0 -0.22880046871826021 -0.26988716217053421 0 -0.2262781706312966 -0.25694872413044523 0 -0.23563854950404581 -0.26777504202487962 0 -0.2262781706312966 -0.25694872413044523 0 -0.2393493786546918 -0.25469325497439688 0 -0.23563854950404581 -0.26777504202487962 0 -0.2262781706312966 -0.25694872413044523 0 -0.23563854950404581 -0.26777504202487962 0 -0.22880046871826021 -0.26988716217053421 0 -0.2262781706312966 -0.25694872413044523 0 -0.2393493786546918 -0.25469325497439688 0 -0.23914424273147569 -0.2443690931651924 0 -0.23563854950404581 -0.26777504202487962 0 -0.23938939996446321 -0.27211331721768572 0 -0.25633655175195141 -0.24968016057706971 0 -0.23563854950404581 -0.26777504202487962 0 -0.25633655175195141 -0.24968016057706971 0 -0.2393493786546918 -0.25469325497439688 0 -0.23563854950404581 -0.26777504202487962 0 -0.25633655175195141 -0.24968016057706971 0 -0.23563854950404581 -0.26777504202487962 0 -0.23938939996446321 -0.27211331721768572 0 -0.23938939996446321 -0.27211331721768572 0 -0.23236531295661231 -0.27063661419822288 0 -0.23563854950404581 -0.26777504202487962 0 -0.23938939996446321 -0.27211331721768572 0 -0.23236531295661231 -0.27063661419822288 0 -0.23938939996446321 -0.27211331721768572 0 -0.2313722855073487 -0.28089257775467091 0 -0.2399214861778369 -0.28599833990026557 0 -0.23938939996446321 -0.27211331721768572 0 -0.2313722855073487 -0.28089257775467091 0 -0.23236531295661231 -0.27063661419822288 0 -0.23236531295661231 -0.27063661419822288 0 -0.22922907107317389 -0.27208573062741648 0 -0.2144597954731903 -0.28629021265876731 0 -0.2313722855073487 -0.28089257775467091 0 -0.23236531295661231 -0.27063661419822288 0 -0.2144597954731903 -0.28629021265876731 0 -0.23236531295661231 -0.27063661419822288 0 -0.2144597954731903 -0.28629021265876731 0 -0.23236531295661231 -0.27063661419822288 0 -0.22880046871826021 -0.26988716217053421 0 -0.23563854950404581 -0.26777504202487962 0 -0.23236531295661231 -0.27063661419822288 0 -0.22880046871826021 -0.26988716217053421 0 -0.23563854950404581 -0.26777504202487962 0 -0.23236531295661231 -0.27063661419822288 0 -0.23236531295661231 -0.27063661419822288 0 -0.22922907107317389 -0.27208573062741648 0 -0.22880046871826021 -0.26988716217053421 0 -0.22922907107317389 -0.27208573062741648 0 -0.22880046871826021 -0.26988716217053421 0 -0.22922907107317389 -0.27208573062741648 0 -0.22880046871826021 -0.26988716217053421 0 -0.21633406366325361 -0.27345850067419769 0 -0.22922907107317389 -0.27208573062741648 0 -0.2144597954731903 -0.28629021265876731 0 -0.21633406366325361 -0.27345850067419769 0 -0.2306659374310481 -0.29091153336148129 0 -0.21632569122957801 -0.30033208628897839 0 -0.2144597954731903 -0.28629021265876731 0 -0.2313722855073487 -0.28089257775467091 0 -0.2306659374310481 -0.29091153336148129 0 -0.2144597954731903 -0.28629021265876731 0 -0.2313722855073487 -0.28089257775467091 0 -0.2306659374310481 -0.29091153336148129 0 -0.2399214861778369 -0.28599833990026557 0 -0.25623285980846072 -0.29159464945779051 0 -0.23938939996446321 -0.27211331721768572 0 -0.2399214861778369 -0.28599833990026557 0 -0.25623285980846072 -0.29159464945779051 0 -0.2399214861778369 -0.28599833990026557 0 -0.24194694817786391 -0.29447962170970099 0 -0.25623285980846072 -0.29159464945779051 0 -0.23938939996446321 -0.27211331721768572 0 -0.25623285980846072 -0.29159464945779051 0 -0.24194694817786391 -0.29447962170970099 0 -0.24936687953946449 -0.3028130127809735 0 -0.2306659374310481 -0.29091153336148129 0 -0.24194694817786391 -0.29447962170970099 0 -0.23348808239891661 -0.30256770161106039 0 -0.2306659374310481 -0.29091153336148129 0 -0.2399214861778369 -0.28599833990026557 0 -0.24194694817786391 -0.29447962170970099 0 -0.24194694817786391 -0.29447962170970099 0 -0.24936687953946449 -0.3028130127809735 0 -0.23348808239891661 -0.30256770161106039 0 -0.25837751833345662 -0.31347325195578862 0 -0.24008269080971931 -0.31544236024077932 0 -0.24936687953946449 -0.3028130127809735 0 -0.24008269080971931 -0.31544236024077932 0 -0.24936687953946449 -0.3028130127809735 0 -0.23348808239891661 -0.30256770161106039 0 -0.21994568049785129 -0.31677254139140171 0 -0.23348808239891661 -0.30256770161106039 0 -0.21632569122957801 -0.30033208628897839 0 -0.2306659374310481 -0.29091153336148129 0 -0.23348808239891661 -0.30256770161106039 0 -0.21632569122957801 -0.30033208628897839 0 -0.24008269080971931 -0.31544236024077932 0 -0.21994568049785129 -0.31677254139140171 0 -0.23348808239891661 -0.30256770161106039 0 -0.21994568049785129 -0.31677254139140171 0 -0.21632569122957801 -0.30033208628897839 0 -0.20013272142443581 -0.3074689068554603 0 -0.21632569122957801 -0.30033208628897839 0 -0.20013272142443581 -0.3074689068554603 0 -0.19584902105325969 -0.2944908909540046 0 -0.20013272142443581 -0.3074689068554603 0 -0.19584902105325969 -0.2944908909540046 0 -0.18292284544075349 -0.30732841294412711 0 -0.18948798945719941 -0.317231175593853 0 -0.20013272142443581 -0.3074689068554603 0 -0.18292284544075349 -0.30732841294412711 0 -0.19584902105325969 -0.2944908909540046 0 -0.2144597954731903 -0.28629021265876731 0 -0.19486940049009749 -0.2803430166044163 0 -0.19584902105325969 -0.2944908909540046 0 -0.19486940049009749 -0.2803430166044163 0 -0.18525115420299659 -0.28749720218160463 0 -0.21632569122957801 -0.30033208628897839 0 -0.19584902105325969 -0.2944908909540046 0 -0.2144597954731903 -0.28629021265876731 0 -0.22880046871826021 -0.26988716217053421 0 -0.21633406366325361 -0.27345850067419769 0 -0.20161032103075691 -0.2641708643591793 0 -0.22880046871826021 -0.26988716217053421 0 -0.20161032103075691 -0.2641708643591793 0 -0.2144597954731903 -0.28629021265876731 0 -0.2054307749105419 -0.27408605284224158 0 -0.19486940049009749 -0.2803430166044163 0 -0.2144597954731903 -0.28629021265876731 0 -0.21633406366325361 -0.27345850067419769 0 -0.2054307749105419 -0.27408605284224158 0 -0.21633406366325361 -0.27345850067419769 0 -0.2054307749105419 -0.27408605284224158 0 -0.20161032103075691 -0.2641708643591793 0 -0.2054307749105419 -0.27408605284224158 0 -0.19486940049009749 -0.2803430166044163 0 -0.19695287432767089 -0.27249231882188402 0 -0.19695287432767089 -0.27249231882188402 0 -0.20161032103075691 -0.2641708643591793 0 -0.18590100087928749 -0.27136934148169872 0 -0.19486940049009749 -0.2803430166044163 0 -0.19695287432767089 -0.27249231882188402 0 -0.18590100087928749 -0.27136934148169872 0 -0.2054307749105419 -0.27408605284224158 0 -0.19695287432767089 -0.27249231882188402 0 -0.20161032103075691 -0.2641708643591793 0 -0.20161032103075691 -0.2641708643591793 0 -0.19476493527325819 -0.25936091702199632 0 -0.2122898985161423 -0.25490922675953331 0 -0.20161032103075691 -0.2641708643591793 0 -0.19476493527325819 -0.25936091702199632 0 -0.1744201733432538 -0.25845456654782362 0 -0.19476493527325819 -0.25936091702199632 0 -0.19196627711766559 -0.24868088879022979 0 -0.19909052487695861 -0.242132382142454 0 -0.20161032103075691 -0.2641708643591793 0 -0.1744201733432538 -0.25845456654782362 0 -0.19476493527325819 -0.25936091702199632 0 -0.1851647614308066 -0.25125861257519921 0 -0.19196627711766559 -0.24868088879022979 0 -0.22880046871826021 -0.26988716217053421 0 -0.20161032103075691 -0.2641708643591793 0 -0.2122898985161423 -0.25490922675953331 0 -0.19476493527325819 -0.25936091702199632 0 -0.2122898985161423 -0.25490922675953331 0 -0.21229277179239081 -0.2407730569091879 0 -0.19476493527325819 -0.25936091702199632 0 -0.21229277179239081 -0.2407730569091879 0 -0.2262781706312966 -0.25694872413044523 0 -0.2122898985161423 -0.25490922675953331 0 -0.21229277179239081 -0.2407730569091879 0 -0.159219531005483 -0.26884666880024288 0 -0.15487598597578189 -0.25666037510628409 0 -0.1623302184605562 -0.24287034996170889 0 -0.159219531005483 -0.26884666880024288 0 -0.1623302184605562 -0.24287034996170889 0 -0.1744201733432538 -0.25845456654782362 0 -0.159219531005483 -0.26884666880024288 0 -0.1623302184605562 -0.24287034996170889 0 -0.1744201733432538 -0.25845456654782362 0 -0.1851647614308066 -0.25125861257519921 0 -0.17698627427966371 -0.2424323866290648 0 -0.19476493527325819 -0.25936091702199632 0 -0.1744201733432538 -0.25845456654782362 0 -0.1851647614308066 -0.25125861257519921 0 -0.20161032103075691 -0.2641708643591793 0 -0.1744201733432538 -0.25845456654782362 0 -0.18590100087928749 -0.27136934148169872 0 -0.1744201733432538 -0.25845456654782362 0 -0.18590100087928749 -0.27136934148169872 0 -0.1724504669798643 -0.27416692014702659 0 -0.19486940049009749 -0.2803430166044163 0 -0.18590100087928749 -0.27136934148169872 0 -0.18138213448428681 -0.27941208413604079 0 -0.18590100087928749 -0.27136934148169872 0 -0.18138213448428681 -0.27941208413604079 0 -0.1724504669798643 -0.27416692014702659 0 -0.18138213448428681 -0.27941208413604079 0 -0.1724504669798643 -0.27416692014702659 0 -0.1739252078825865 -0.28580720169257778 0 -0.1724504669798643 -0.27416692014702659 0 -0.163323543277092 -0.28117815457830969 0 -0.1739252078825865 -0.28580720169257778 0 -0.1744201733432538 -0.25845456654782362 0 -0.1724504669798643 -0.27416692014702659 0 -0.159219531005483 -0.26884666880024288 0 -0.159219531005483 -0.26884666880024288 0 -0.163323543277092 -0.28117815457830969 0 -0.15094608704479759 -0.28522964502536469 0 -0.1724504669798643 -0.27416692014702659 0 -0.159219531005483 -0.26884666880024288 0 -0.163323543277092 -0.28117815457830969 0 -0.16561650727488469 -0.2929768192898291 0 -0.16154455873088641 -0.31041177255884689 0 -0.15094608704479759 -0.28522964502536469 0 -0.163323543277092 -0.28117815457830969 0 -0.16561650727488469 -0.2929768192898291 0 -0.15094608704479759 -0.28522964502536469 0 -0.163323543277092 -0.28117815457830969 0 -0.16561650727488469 -0.2929768192898291 0 -0.1739252078825865 -0.28580720169257778 0 -0.19584902105325969 -0.2944908909540046 0 -0.18525115420299659 -0.28749720218160463 0 -0.17741401999034831 -0.29663577858268741 0 -0.19486940049009749 -0.2803430166044163 0 -0.18138213448428681 -0.27941208413604079 0 -0.18525115420299659 -0.28749720218160463 0 -0.18138213448428681 -0.27941208413604079 0 -0.1739252078825865 -0.28580720169257778 0 -0.18525115420299659 -0.28749720218160463 0 -0.1739252078825865 -0.28580720169257778 0 -0.18525115420299659 -0.28749720218160463 0 -0.17741401999034831 -0.29663577858268741 0 -0.16561650727488469 -0.2929768192898291 0 -0.1739252078825865 -0.28580720169257778 0 -0.17741401999034831 -0.29663577858268741 0 -0.17741401999034831 -0.29663577858268741 0 -0.18292284544075349 -0.30732841294412711 0 -0.16154455873088641 -0.31041177255884689 0 -0.19584902105325969 -0.2944908909540046 0 -0.17741401999034831 -0.29663577858268741 0 -0.18292284544075349 -0.30732841294412711 0 -0.16561650727488469 -0.2929768192898291 0 -0.17741401999034831 -0.29663577858268741 0 -0.16154455873088641 -0.31041177255884689 0 -0.16154455873088641 -0.31041177255884689 0 -0.15094608704479759 -0.28522964502536469 0 -0.14701618811382139 -0.31379891494444639 0 -0.13518423503312749 -0.28829772483091071 0 -0.14701618811382139 -0.31379891494444639 0 -0.15094608704479759 -0.28522964502536469 0 -0.14701618811382139 -0.31379891494444639 0 -0.13098110346399941 -0.30524561336809058 0 -0.13518423503312749 -0.28829772483091071 0 -0.14701618811382139 -0.31379891494444639 0 -0.13098110346399941 -0.30524561336809058 0 -0.13518423503312749 -0.28829772483091071 0 -0.11449122581316561 -0.29590201568704783 0 -0.13518423503312749 -0.28829772483091071 0 -0.15094608704479759 -0.28522964502536469 0 -0.14701618811382139 -0.31379891494444639 0 -0.15094608704479759 -0.28522964502536469 0 -0.15487598597578189 -0.25666037510628409 0 -0.13518423503312749 -0.28829772483091071 0 -0.15094608704479759 -0.28522964502536469 0 -0.14000372416302051 -0.27008057350313253 0 -0.159219531005483 -0.26884666880024288 0 -0.15094608704479759 -0.28522964502536469 0 -0.15487598597578189 -0.25666037510628409 0 -0.15094608704479759 -0.28522964502536469 0 -0.14000372416302051 -0.27008057350313253 0 -0.15487598597578189 -0.25666037510628409 0 -0.13518423503312749 -0.28829772483091071 0 -0.14000372416302051 -0.27008057350313253 0 -0.1233522819524247 -0.2627965347173789 0 -0.13518423503312749 -0.28829772483091071 0 -0.1233522819524247 -0.2627965347173789 0 -0.13518423503312749 -0.28829772483091071 0 -0.1233522819524247 -0.2627965347173789 0 -0.1165934306933134 -0.27667872469321259 0 -0.14000372416302051 -0.27008057350313253 0 -0.1233522819524247 -0.2627965347173789 0 -0.13685178126956929 -0.24996691480950431 0 -0.14000372416302051 -0.27008057350313253 0 -0.15487598597578189 -0.25666037510628409 0 -0.13685178126956929 -0.24996691480950431 0 -0.1580987090498901 -0.33768486778755918 0 -0.16052038332908181 -0.34290425766896881 0 -0.15459145739042829 -0.36544394533151642 0 -0.1580987090498901 -0.33768486778755918 0 -0.15459145739042829 -0.36544394533151642 0 -0.1661161616364317 -0.35302814846826491 0 -0.16052038332908181 -0.34290425766896881 0 -0.15459145739042829 -0.36544394533151642 0 -0.1661161616364317 -0.35302814846826491 0 -0.1711019308985573 -0.36207916134547419 0 -0.17677464793650541 -0.35045020405159638 0 -0.1661161616364317 -0.35302814846826491 0 -0.16808950944296391 -0.34399120600641991 0 -0.17677464793650541 -0.35045020405159638 0 -0.1661161616364317 -0.35302814846826491 0 -0.16808950944296391 -0.34399120600641991 0 -0.16052038332908181 -0.34290425766896881 0 -0.16465104402462899 -0.38049410113716642 0 -0.1711019308985573 -0.36207916134547419 0 -0.15459145739042829 -0.36544394533151642 0 -0.1661161616364317 -0.35302814846826491 0 -0.1711019308985573 -0.36207916134547419 0 -0.15459145739042829 -0.36544394533151642 0 -0.16465104402462899 -0.38049410113716642 0 -0.17622660655668329 -0.37974183800052808 0 -0.1711019308985573 -0.36207916134547419 0 -0.17622660655668329 -0.37974183800052808 0 -0.19014306516209001 -0.3790441764008789 0 -0.1711019308985573 -0.36207916134547419 0 -0.19014306516209001 -0.3790441764008789 0 -0.1711019308985573 -0.36207916134547419 0 -0.18579862454122831 -0.36247788882758658 0 -0.19014306516209001 -0.3790441764008789 0 -0.1711019308985573 -0.36207916134547419 0 -0.1918314286057867 -0.35260898220344378 0 -0.18579862454122831 -0.36247788882758658 0 -0.17677464793650541 -0.35045020405159638 0 -0.1711019308985573 -0.36207916134547419 0 -0.18579862454122831 -0.36247788882758658 0 -0.17677464793650541 -0.35045020405159638 0 -0.1918314286057867 -0.35260898220344378 0 -0.17677464793650541 -0.35045020405159638 0 -0.18468197500345021 -0.34047905318975707 0 -0.18468197500345021 -0.34047905318975707 0 -0.1866560110662849 -0.32816962803759331 0 -0.17364824219258251 -0.33497290120308287 0 -0.17677464793650541 -0.35045020405159638 0 -0.18468197500345021 -0.34047905318975707 0 -0.17364824219258251 -0.33497290120308287 0 -0.16808950944296391 -0.34399120600641991 0 -0.17677464793650541 -0.35045020405159638 0 -0.17364824219258251 -0.33497290120308287 0 -0.18292284544075349 -0.30732841294412711 0 -0.16154455873088641 -0.31041177255884689 0 -0.1756021548360048 -0.32028581474942752 0 -0.18948798945719941 -0.317231175593853 0 -0.18292284544075349 -0.30732841294412711 0 -0.1756021548360048 -0.32028581474942752 0 -0.18948798945719941 -0.317231175593853 0 -0.1866560110662849 -0.32816962803759331 0 -0.1756021548360048 -0.32028581474942752 0 -0.17364824219258251 -0.33497290120308287 0 -0.1756021548360048 -0.32028581474942752 0 -0.1669335913686795 -0.32813008576796571 0 -0.1866560110662849 -0.32816962803759331 0 -0.17364824219258251 -0.33497290120308287 0 -0.1756021548360048 -0.32028581474942752 0 -0.16154455873088641 -0.31041177255884689 0 -0.1669335913686795 -0.32813008576796571 0 -0.1580987090498901 -0.33768486778755918 0 -0.16154455873088641 -0.31041177255884689 0 -0.1580987090498901 -0.33768486778755918 0 -0.16154455873088641 -0.31041177255884689 0 -0.1756021548360048 -0.32028581474942752 0 -0.1669335913686795 -0.32813008576796571 0 -0.16808950944296391 -0.34399120600641991 0 -0.17364824219258251 -0.33497290120308287 0 -0.1657742920340336 -0.33729507254091212 0 -0.16808950944296391 -0.34399120600641991 0 -0.1657742920340336 -0.33729507254091212 0 -0.16052038332908181 -0.34290425766896881 0 -0.17364824219258251 -0.33497290120308287 0 -0.1657742920340336 -0.33729507254091212 0 -0.1669335913686795 -0.32813008576796571 0 -0.1657742920340336 -0.33729507254091212 0 -0.1669335913686795 -0.32813008576796571 0 -0.1580987090498901 -0.33768486778755918 0 -0.1657742920340336 -0.33729507254091212 0 -0.1580987090498901 -0.33768486778755918 0 -0.16052038332908181 -0.34290425766896881 0 -0.1580987090498901 -0.33768486778755918 0 -0.16052038332908181 -0.34290425766896881 0 -0.1580987090498901 -0.33768486778755918 0 -0.14354956786467751 -0.33900027796771848 0 -0.1490806704801344 -0.35158268301944651 0 -0.1580987090498901 -0.33768486778755918 0 -0.14354956786467751 -0.33900027796771848 0 -0.14701618811382139 -0.31379891494444639 0 -0.16154455873088641 -0.31041177255884689 0 -0.1580987090498901 -0.33768486778755918 0 -0.14701618811382139 -0.31379891494444639 0 -0.1580987090498901 -0.33768486778755918 0 -0.14701618811382139 -0.31379891494444639 0 -0.14354956786467751 -0.33900027796771848 0 -0.14701618811382139 -0.31379891494444639 0 -0.14354956786467751 -0.33900027796771848 0 -0.14701618811382139 -0.31379891494444639 0 -0.12723276489589139 -0.3229837980099588 0 -0.13098110346399941 -0.30524561336809058 0 -0.14701618811382139 -0.31379891494444639 0 -0.12723276489589139 -0.3229837980099588 0 -0.12723276489589139 -0.3229837980099588 0 -0.13997430397861721 -0.35006558033286977 0 -0.120374995741394 -0.34262810225356688 0 -0.14354956786467751 -0.33900027796771848 0 -0.12723276489589139 -0.3229837980099588 0 -0.13997430397861721 -0.35006558033286977 0 -0.12723276489589139 -0.3229837980099588 0 -0.13997430397861721 -0.35006558033286977 0 -0.1266290614468176 -0.35756532227537091 0 -0.13997430397861721 -0.35006558033286977 0 -0.120374995741394 -0.34262810225356688 0 -0.1266290614468176 -0.35756532227537091 0 -0.13997430397861721 -0.35006558033286977 0 -0.1400829476155418 -0.36420164099099189 0 -0.14354956786467751 -0.33900027796771848 0 -0.1400829476155418 -0.36420164099099189 0 -0.14354956786467751 -0.33900027796771848 0 -0.13997430397861721 -0.35006558033286977 0 -0.1400829476155418 -0.36420164099099189 0 -0.1580987090498901 -0.33768486778755918 0 -0.1490806704801344 -0.35158268301944651 0 -0.15459145739042829 -0.36544394533151642 0 -0.14354956786467751 -0.33900027796771848 0 -0.1490806704801344 -0.35158268301944651 0 -0.1400829476155418 -0.36420164099099189 0 -0.1490806704801344 -0.35158268301944651 0 -0.15459145739042829 -0.36544394533151642 0 -0.1400829476155418 -0.36420164099099189 0 -0.14559373452583549 -0.3780629033030618 0 -0.15459145739042829 -0.36544394533151642 0 -0.1400829476155418 -0.36420164099099189 0 -0.1266290614468176 -0.35756532227537091 0 -0.1400829476155418 -0.36420164099099189 0 -0.12354017240737181 -0.37313133386911829 0 -0.1266290614468176 -0.35756532227537091 0 -0.12354017240737181 -0.37313133386911829 0 -0.1094917257123649 -0.35791641378277189 0 -0.12354017240737181 -0.37313133386911829 0 -0.1094917257123649 -0.35791641378277189 0 -0.1077498584230588 -0.3783393321963705 0 -0.1094917257123649 -0.35791641378277189 0 -0.090561765043487258 -0.36472420484649842 0 -0.1077498584230588 -0.3783393321963705 0 -0.094229628422437789 -0.35045754050191319 0 -0.1094917257123649 -0.35791641378277189 0 -0.102682444537833 -0.33915856310768211 0 -0.094229628422437789 -0.35045754050191319 0 -0.1094917257123649 -0.35791641378277189 0 -0.090561765043487258 -0.36472420484649842 0 -0.1266290614468176 -0.35756532227537091 0 -0.1094917257123649 -0.35791641378277189 0 -0.120374995741394 -0.34262810225356688 0 -0.1094917257123649 -0.35791641378277189 0 -0.120374995741394 -0.34262810225356688 0 -0.102682444537833 -0.33915856310768211 0 -0.1139203582616522 -0.32949683109458933 0 -0.120374995741394 -0.34262810225356688 0 -0.102682444537833 -0.33915856310768211 0 -0.12723276489589139 -0.3229837980099588 0 -0.1139203582616522 -0.32949683109458933 0 -0.120374995741394 -0.34262810225356688 0 -0.12723276489589139 -0.3229837980099588 0 -0.1139203582616522 -0.32949683109458933 0 -0.10928627296244731 -0.31525791011702259 0 -0.094067087561964455 -0.32204947612028129 0 -0.10928627296244731 -0.31525791011702259 0 -0.09671992827956255 -0.30585742967323609 0 -0.1139203582616522 -0.32949683109458933 0 -0.094067087561964455 -0.32204947612028129 0 -0.10928627296244731 -0.31525791011702259 0 -0.1139203582616522 -0.32949683109458933 0 -0.094067087561964455 -0.32204947612028129 0 -0.102682444537833 -0.33915856310768211 0 -0.094229628422437789 -0.35045754050191319 0 -0.102682444537833 -0.33915856310768211 0 -0.084256458725096975 -0.33484977203071381 0 -0.094067087561964455 -0.32204947612028129 0 -0.102682444537833 -0.33915856310768211 0 -0.084256458725096975 -0.33484977203071381 0 -0.094067087561964455 -0.32204947612028129 0 -0.073484156704235859 -0.3135210734240233 0 -0.09671992827956255 -0.30585742967323609 0 -0.094067087561964455 -0.32204947612028129 0 -0.084256458725096975 -0.33484977203071381 0 -0.073484156704235859 -0.3135210734240233 0 -0.084256458725096975 -0.33484977203071381 0 -0.073484156704235859 -0.3135210734240233 0 -0.062493266686405077 -0.33224403083001591 0 -0.07711543694936332 -0.3506230006894373 0 -0.062493266686405077 -0.33224403083001591 0 -0.084256458725096975 -0.33484977203071381 0 -0.07711543694936332 -0.3506230006894373 0 -0.062493266686405077 -0.33224403083001591 0 -0.07711543694936332 -0.3506230006894373 0 -0.057498269510954762 -0.35109908882707952 0 -0.062493266686405077 -0.33224403083001591 0 -0.07711543694936332 -0.3506230006894373 0 -0.070077979718519728 -0.3695093081274694 0 -0.057498269510954762 -0.35109908882707952 0 -0.070077979718519728 -0.3695093081274694 0 -0.090561765043487258 -0.36472420484649842 0 -0.089068081027734294 -0.38240435672717871 0 -0.07711543694936332 -0.3506230006894373 0 -0.070077979718519728 -0.3695093081274694 0 -0.090561765043487258 -0.36472420484649842 0 -0.094229628422437789 -0.35045754050191319 0 -0.084256458725096975 -0.33484977203071381 0 -0.07711543694936332 -0.3506230006894373 0 -0.094229628422437789 -0.35045754050191319 0 -0.07711543694936332 -0.3506230006894373 0 -0.090561765043487258 -0.36472420484649842 0 -0.097528990332044985 -0.25412766534568998 0 -0.11014894371598891 -0.25994370054485311 0 -0.1115203288717217 -0.23729534460384721 0 -0.097528990332044985 -0.25412766534568998 0 -0.10174968673043989 -0.26882023336413691 0 -0.089008147647712865 -0.24173845104122649 0 -0.10174968673043989 -0.26882023336413691 0 -0.089008147647712865 -0.24173845104122649 0 -0.097528990332044985 -0.25412766534568998 0 -0.11014894371598891 -0.25994370054485311 0 -0.10174968673043989 -0.26882023336413691 0 -0.1233522819524247 -0.2627965347173789 0 -0.1115203288717217 -0.23729534460384721 0 -0.1233522819524247 -0.2627965347173789 0 -0.1115203288717217 -0.23729534460384721 0 -0.13685178126956929 -0.24996691480950431 0 -0.1233522819524247 -0.2627965347173789 0 -0.11014894371598891 -0.25994370054485311 0 -0.1115203288717217 -0.23729534460384721 0 -0.1233522819524247 -0.2627965347173789 0 -0.11014894371598891 -0.25994370054485311 0 -0.1165934306933134 -0.27667872469321259 0 -0.11014894371598891 -0.25994370054485311 0 -0.1165934306933134 -0.27667872469321259 0 -0.10174968673043989 -0.26882023336413691 0 -0.1165934306933134 -0.27667872469321259 0 -0.10174968673043989 -0.26882023336413691 0 -0.11449122581316561 -0.29590201568704783 0 -0.10174968673043989 -0.26882023336413691 0 -0.11449122581316561 -0.29590201568704783 0 -0.092623159509985481 -0.27889402259257429 0 -0.10174968673043989 -0.26882023336413691 0 -0.092623159509985481 -0.27889402259257429 0 -0.088203789785602338 -0.2658757782308695 0 -0.10174968673043989 -0.26882023336413691 0 -0.11449122581316561 -0.29590201568704783 0 -0.11449122581316561 -0.29590201568704783 0 -0.089608075350364066 -0.29107089931856311 0 -0.092623159509985481 -0.27889402259257429 0 -0.13518423503312749 -0.28829772483091071 0 -0.1165934306933134 -0.27667872469321259 0 -0.11449122581316561 -0.29590201568704783 0 -0.12723276489589139 -0.3229837980099588 0 -0.11449122581316561 -0.29590201568704783 0 -0.13098110346399941 -0.30524561336809058 0 -0.12723276489589139 -0.3229837980099588 0 -0.11449122581316561 -0.29590201568704783 0 -0.12723276489589139 -0.3229837980099588 0 -0.10928627296244731 -0.31525791011702259 0 -0.11449122581316561 -0.29590201568704783 0 -0.10928627296244731 -0.31525791011702259 0 -0.11449122581316561 -0.29590201568704783 0 -0.09671992827956255 -0.30585742967323609 0 -0.11449122581316561 -0.29590201568704783 0 -0.09671992827956255 -0.30585742967323609 0 -0.089608075350364066 -0.29107089931856311 0 -0.09671992827956255 -0.30585742967323609 0 -0.074503486278637066 -0.29627120827950881 0 -0.089608075350364066 -0.29107089931856311 0 -0.073484156704235859 -0.3135210734240233 0 -0.09671992827956255 -0.30585742967323609 0 -0.074503486278637066 -0.29627120827950881 0 -0.073484156704235859 -0.3135210734240233 0 -0.074503486278637066 -0.29627120827950881 0 -0.058589619925992882 -0.29487812464052621 0 -0.074503486278637066 -0.29627120827950881 0 -0.069308143428541372 -0.27589118831045711 0 -0.058589619925992882 -0.29487812464052621 0 -0.074503486278637066 -0.29627120827950881 0 -0.089608075350364066 -0.29107089931856311 0 -0.069308143428541372 -0.27589118831045711 0 -0.069308143428541372 -0.27589118831045711 0 -0.058589619925992882 -0.29487812464052621 0 -0.089608075350364066 -0.29107089931856311 0 -0.092623159509985481 -0.27889402259257429 0 -0.069308143428541372 -0.27589118831045711 0 -0.092623159509985481 -0.27889402259257429 0 -0.088203789785602338 -0.2658757782308695 0 -0.069308143428541372 -0.27589118831045711 0 -0.088203789785602338 -0.2658757782308695 0 -0.069308143428541372 -0.27589118831045711 0 -0.080026666931089882 -0.25690425198038791 0 -0.069308143428541372 -0.27589118831045711 0 -0.080026666931089882 -0.25690425198038791 0 -0.069308143428541372 -0.27589118831045711 0 -0.069062654262053561 -0.25284322283179189 0 -0.080026666931089882 -0.25690425198038791 0 -0.069308143428541372 -0.27589118831045711 0 -0.069062654262053561 -0.25284322283179189 0 -0.057728055221172539 -0.2609311721485813 0 -0.069062654262053561 -0.25284322283179189 0 -0.080026666931089882 -0.25690425198038791 0 -0.080128595710807951 -0.2495590409187248 0 -0.10174968673043989 -0.26882023336413691 0 -0.086402414537331718 -0.2530982417260294 0 -0.089008147647712865 -0.24173845104122649 0 -0.10174968673043989 -0.26882023336413691 0 -0.088203789785602338 -0.2658757782308695 0 -0.086402414537331718 -0.2530982417260294 0 -0.080026666931089882 -0.25690425198038791 0 -0.086402414537331718 -0.2530982417260294 0 -0.080128595710807951 -0.2495590409187248 0 -0.088203789785602338 -0.2658757782308695 0 -0.080026666931089882 -0.25690425198038791 0 -0.086402414537331718 -0.2530982417260294 0 -0.034133504294437428 -0.26390548040600292 0 -0.045729757362561567 -0.25659706683429062 0 -0.04915469382411608 -0.27378252688236382 0 -0.032420232802132729 -0.25026067283641712 0 -0.034133504294437428 -0.26390548040600292 0 -0.045729757362561567 -0.25659706683429062 0 -0.032420232802132729 -0.25026067283641712 0 -0.045729757362561567 -0.25659706683429062 0 -0.041314610074040407 -0.24427023327604239 0 -0.045729757362561567 -0.25659706683429062 0 -0.057728055221172539 -0.2609311721485813 0 -0.04915469382411608 -0.27378252688236382 0 -0.045729757362561567 -0.25659706683429062 0 -0.057728055221172539 -0.2609311721485813 0 -0.054124271495336648 -0.244260718842536 0 -0.069062654262053561 -0.25284322283179189 0 -0.057728055221172539 -0.2609311721485813 0 -0.054124271495336648 -0.244260718842536 0 -0.069308143428541372 -0.27589118831045711 0 -0.057728055221172539 -0.2609311721485813 0 -0.04915469382411608 -0.27378252688236382 0 -0.04915469382411608 -0.27378252688236382 0 -0.034718118773913849 -0.27698617875241371 0 -0.043919839646689253 -0.28598680849262242 0 -0.034133504294437428 -0.26390548040600292 0 -0.04915469382411608 -0.27378252688236382 0 -0.034718118773913849 -0.27698617875241371 0 -0.034125634338991372 -0.29658804744860062 0 -0.043919839646689253 -0.28598680849262242 0 -0.058589619925992882 -0.29487812464052621 0 -0.034718118773913849 -0.27698617875241371 0 -0.034125634338991372 -0.29658804744860062 0 -0.043919839646689253 -0.28598680849262242 0 -0.04915469382411608 -0.27378252688236382 0 -0.043919839646689253 -0.28598680849262242 0 -0.058589619925992882 -0.29487812464052621 0 -0.069308143428541372 -0.27589118831045711 0 -0.04915469382411608 -0.27378252688236382 0 -0.058589619925992882 -0.29487812464052621 0 -0.058589619925992882 -0.29487812464052621 0 -0.047871096423445093 -0.31386506097059569 0 -0.073484156704235859 -0.3135210734240233 0 -0.058589619925992882 -0.29487812464052621 0 -0.047871096423445093 -0.31386506097059569 0 -0.034125634338991372 -0.29658804744860062 0 -0.047871096423445093 -0.31386506097059569 0 -0.034125634338991372 -0.29658804744860062 0 -0.047871096423445093 -0.31386506097059569 0 -0.01701940184229923 -0.31766558262710998 0 -0.034125634338991372 -0.29658804744860062 0 -0.058589619925992882 -0.29487812464052621 0 -0.047871096423445093 -0.31386506097059569 0 -0.034125634338991372 -0.29658804744860062 0 -0.011827056006189661 -0.28984980151586159 0 -0.01701940184229923 -0.31766558262710998 0 -0.011827056006189661 -0.28984980151586159 0 -0.01701940184229923 -0.31766558262710998 0 -0.001504200419740815 -0.30232164797886207 0 -0.011827056006189661 -0.28984980151586159 0 -0.01701940184229923 -0.31766558262710998 0 -0.001504200419740815 -0.30232164797886207 0 -0.011827056006189661 -0.28984980151586159 0 0.0059911154865208227 -0.28204989981844369 0 -0.034125634338991372 -0.29658804744860062 0 -0.011827056006189661 -0.28984980151586159 0 -0.02038017225453596 -0.27931103392660672 0 -0.034125634338991372 -0.29658804744860062 0 -0.02038017225453596 -0.27931103392660672 0 -0.034718118773913849 -0.27698617875241371 0 -0.034125634338991372 -0.29658804744860062 0 -0.02038017225453596 -0.27931103392660672 0 -0.023467197492903082 -0.26779744995700849 0 -0.02038017225453596 -0.27931103392660672 0 -0.0066347101700803546 -0.26203402040461299 0 -0.034718118773913849 -0.27698617875241371 0 -0.023467197492903082 -0.26779744995700849 0 -0.02038017225453596 -0.27931103392660672 0 -0.034133504294437428 -0.26390548040600292 0 -0.034718118773913849 -0.27698617875241371 0 -0.023467197492903082 -0.26779744995700849 0 -0.011827056006189661 -0.28984980151586159 0 -0.02038017225453596 -0.27931103392660672 0 -0.0066347101700803546 -0.26203402040461299 0 -0.011827056006189661 -0.28984980151586159 0 -0.0066347101700803546 -0.26203402040461299 0 0.0059911154865208227 -0.28204989981844369 0 -0.011827056006189661 -0.28984980151586159 0 -0.0066347101700803546 -0.26203402040461299 0 -0.02038017225453596 -0.27931103392660672 0 -0.0066347101700803546 -0.26203402040461299 0 -0.0066347101700803546 -0.26203402040461299 0 -0.0022667461226881808 -0.2386345135768688 0 0.002133627569713394 -0.25101287838952202 0 -0.0066347101700803546 -0.26203402040461299 0 -0.0022667461226881808 -0.2386345135768688 0 -0.0066347101700803546 -0.26203402040461299 0 0.002133627569713394 -0.25101287838952202 0 -0.0066347101700803546 -0.26203402040461299 0 -0.021469481971547799 -0.25675053629540662 0 -0.012108815734419069 -0.2492138465212094 0 -0.021469481971547799 -0.25675053629540662 0 -0.020707525259693049 -0.24492552647519869 0 -0.012108815734419069 -0.2492138465212094 0 -0.023467197492903082 -0.26779744995700849 0 -0.0066347101700803546 -0.26203402040461299 0 -0.021469481971547799 -0.25675053629540662 0 -0.034133504294437428 -0.26390548040600292 0 -0.023467197492903082 -0.26779744995700849 0 -0.021469481971547799 -0.25675053629540662 0 -0.032420232802132729 -0.25026067283641712 0 -0.034133504294437428 -0.26390548040600292 0 -0.021469481971547799 -0.25675053629540662 0 -0.032420232802132729 -0.25026067283641712 0 -0.021469481971547799 -0.25675053629540662 0 -0.020707525259693049 -0.24492552647519869 0 -0.044371264766826887 -0.36367891337680092 0 -0.033433399433658778 -0.33944019111167423 0 -0.018995702443873119 -0.36501532125275321 0 -0.044371264766826887 -0.36367891337680092 0 -0.057498269510954762 -0.35109908882707952 0 -0.033433399433658778 -0.33944019111167423 0 -0.044371264766826887 -0.36367891337680092 0 -0.018995702443873119 -0.36501532125275321 0 -0.033584156834896357 -0.37816677438850371 0 -0.044371264766826887 -0.36367891337680092 0 -0.033584156834896357 -0.37816677438850371 0 -0.053939121517020898 -0.38221543914429063 0 -0.070077979718519728 -0.3695093081274694 0 -0.044371264766826887 -0.36367891337680092 0 -0.053939121517020898 -0.38221543914429063 0 -0.070077979718519728 -0.3695093081274694 0 -0.044371264766826887 -0.36367891337680092 0 -0.057498269510954762 -0.35109908882707952 0 -0.057498269510954762 -0.35109908882707952 0 -0.062493266686405077 -0.33224403083001591 0 -0.033433399433658778 -0.33944019111167423 0 -0.062493266686405077 -0.33224403083001591 0 -0.047871096423445093 -0.31386506097059569 0 -0.033433399433658778 -0.33944019111167423 0 -0.062493266686405077 -0.33224403083001591 0 -0.047871096423445093 -0.31386506097059569 0 -0.073484156704235859 -0.3135210734240233 0 -0.062493266686405077 -0.33224403083001591 0 -0.047871096423445093 -0.31386506097059569 0 -0.047871096423445093 -0.31386506097059569 0 -0.033433399433658778 -0.33944019111167423 0 -0.047871096423445093 -0.31386506097059569 0 -0.033433399433658778 -0.33944019111167423 0 -0.01701940184229923 -0.31766558262710998 0 -0.033433399433658778 -0.33944019111167423 0 -0.01701940184229923 -0.31766558262710998 0 -0.0045987494092564144 -0.34478868756049103 0 -0.01701940184229923 -0.31766558262710998 0 -0.0045987494092564144 -0.34478868756049103 0 0.0025675676883719391 -0.31926859205911717 0 -0.001504200419740815 -0.30232164797886207 0 -0.01701940184229923 -0.31766558262710998 0 0.0025675676883719391 -0.31926859205911717 0 -0.033433399433658778 -0.33944019111167423 0 -0.018995702443873119 -0.36501532125275321 0 -0.033433399433658778 -0.33944019111167423 0 -0.0045987494092564144 -0.34478868756049103 0 -0.018995702443873119 -0.36501532125275321 0 -0.0045987494092564144 -0.34478868756049103 0 -0.018995702443873119 -0.36501532125275321 0 0.00027428580365272681 -0.36892463324439351 0 -0.018995702443873119 -0.36501532125275321 0 -0.016780136547702749 -0.38294961047102227 0 0.00027428580365272681 -0.36892463324439351 0 -0.016780136547702749 -0.38294961047102227 0 0.0047232380292418791 -0.38267049908728129 0 0.00027428580365272681 -0.36892463324439351 0 -0.0015752445019280509 -0.39584212530132401 0 -0.016780136547702749 -0.38294961047102227 0 0.0047232380292418791 -0.38267049908728129 0 -0.016780136547702749 -0.38294961047102227 0 0.00027428580365272681 -0.36892463324439351 0 -0.0015752445019280509 -0.39584212530132401 0 -0.01525732859512541 -0.4106124920368775 0 0.0089749178656362196 -0.4085379017589601 0 -0.0015752445019280509 -0.39584212530132401 0 -0.01686181713595359 -0.39659470387671869 0 -0.016780136547702749 -0.38294961047102227 0 -0.0015752445019280509 -0.39584212530132401 0 -0.01686181713595359 -0.39659470387671869 0 -0.01525732859512541 -0.4106124920368775 0 -0.01686181713595359 -0.39659470387671869 0 -0.033834558899058127 -0.39697458769765132 0 -0.01525732859512541 -0.4106124920368775 0 -0.033834558899058127 -0.39697458769765132 0 -0.01525732859512541 -0.4106124920368775 0 -0.01686181713595359 -0.39659470387671869 0 -0.016780136547702749 -0.38294961047102227 0 -0.033834558899058127 -0.39697458769765132 0 -0.016780136547702749 -0.38294961047102227 0 -0.033584156834896357 -0.37816677438850371 0 -0.033834558899058127 -0.39697458769765132 0 -0.018995702443873119 -0.36501532125275321 0 -0.016780136547702749 -0.38294961047102227 0 -0.033584156834896357 -0.37816677438850371 0 -0.016780136547702749 -0.38294961047102227 0 -0.033834558899058127 -0.39697458769765132 0 -0.033834558899058127 -0.39697458769765132 0 -0.053939121517020898 -0.38221543914429063 0 -0.033584156834896357 -0.37816677438850371 0 -0.033834558899058127 -0.39697458769765132 0 -0.053939121517020898 -0.38221543914429063 0 -0.033834558899058127 -0.39697458769765132 0 -0.053939121517020898 -0.38221543914429063 0 -0.047133431472408782 -0.40791112844576127 0 -0.033834558899058127 -0.39697458769765132 0 -0.047133431472408782 -0.40791112844576127 0 -0.061754305595674783 -0.39535323011754558 0 -0.053939121517020898 -0.38221543914429063 0 -0.047133431472408782 -0.40791112844576127 0 -0.061401786383497102 -0.4061377466697263 0 -0.061754305595674783 -0.39535323011754558 0 -0.047133431472408782 -0.40791112844576127 0 -0.048375577289943343 -0.42409889221566732 0 -0.051823318574934878 -0.43640759083931568 0 -0.062395649253079763 -0.42768241346077063 0 -0.051823318574934878 -0.43640759083931568 0 -0.062395649253079763 -0.42768241346077063 0 -0.064417878391925351 -0.44221579998122629 0 -0.048375577289943343 -0.42409889221566732 0 -0.062395649253079763 -0.42768241346077063 0 -0.060432304045759368 -0.41884766919387151 0 -0.048375577289943343 -0.42409889221566732 0 -0.060432304045759368 -0.41884766919387151 0 -0.047133431472408782 -0.40791112844576127 0 -0.061401786383497102 -0.4061377466697263 0 -0.060432304045759368 -0.41884766919387151 0 -0.047133431472408782 -0.40791112844576127 0 -0.060432304045759368 -0.41884766919387151 0 -0.047133431472408782 -0.40791112844576127 0 -0.033834558899058127 -0.39697458769765132 0 -0.047133431472408782 -0.40791112844576127 0 -0.032186244207305793 -0.41809059320144731 0 -0.048375577289943343 -0.42409889221566732 0 -0.047133431472408782 -0.40791112844576127 0 -0.032186244207305793 -0.41809059320144731 0 -0.048375577289943343 -0.42409889221566732 0 -0.032186244207305793 -0.41809059320144731 0 -0.034065198265193851 -0.43765316125202491 0 -0.048375577289943343 -0.42409889221566732 0 -0.051823318574934878 -0.43640759083931568 0 -0.034065198265193851 -0.43765316125202491 0 -0.032186244207305793 -0.41809059320144731 0 -0.013843172529558309 -0.4320632142900922 0 -0.034065198265193851 -0.43765316125202491 0 -0.032186244207305793 -0.41809059320144731 0 -0.01525732859512541 -0.4106124920368775 0 -0.013843172529558309 -0.4320632142900922 0 -0.033834558899058127 -0.39697458769765132 0 -0.032186244207305793 -0.41809059320144731 0 -0.01525732859512541 -0.4106124920368775 0 -0.01525732859512541 -0.4106124920368775 0 0.0089749178656362196 -0.4085379017589601 0 0.003319901708807629 -0.42425039637610329 0 -0.01525732859512541 -0.4106124920368775 0 0.003319901708807629 -0.42425039637610329 0 -0.013843172529558309 -0.4320632142900922 0 0.003319901708807629 -0.42425039637610329 0 0.0059891361194842896 -0.44518073930204333 0 -0.01525732859512541 -0.4106124920368775 0 -0.013843172529558309 -0.4320632142900922 0 0.003319901708807629 -0.42425039637610329 0 -0.013843172529558309 -0.4320632142900922 0 -0.01176977653683204 -0.45315375861559798 0 0.0059891361194842896 -0.44518073930204333 0 -0.01176977653683204 -0.45315375861559798 0 -0.01017086125060777 -0.4771211151146702 0 0.0097387781098224185 -0.46684003122232343 0 -0.01176977653683204 -0.45315375861559798 0 -0.01017086125060777 -0.4771211151146702 0 -0.031762841950006671 -0.46265326935817619 0 -0.01176977653683204 -0.45315375861559798 0 -0.034065198265193851 -0.43765316125202491 0 -0.031762841950006671 -0.46265326935817619 0 -0.013843172529558309 -0.4320632142900922 0 -0.01176977653683204 -0.45315375861559798 0 -0.034065198265193851 -0.43765316125202491 0 -0.01210138392995614 -0.50000000000000155 0 -0.01017086125060777 -0.4771211151146702 0 0.0062221922340855986 -0.48444841357399271 0 -0.01017086125060777 -0.4771211151146702 0 0.0097387781098224185 -0.46684003122232343 0 -0.01017086125060777 -0.4771211151146702 0 -0.030080500611038369 -0.48740219900701609 0 -0.031762841950006671 -0.46265326935817619 0 -0.01017086125060777 -0.4771211151146702 0 -0.030080500611038369 -0.48740219900701609 0 -0.01210138392995614 -0.50000000000000155 0 -0.030080500611038369 -0.48740219900701609 0 -0.01210138392995614 -0.50000000000000155 0 -0.01017086125060777 -0.4771211151146702 0 -0.030080500611038369 -0.48740219900701609 0 -0.01210138392995614 -0.50000000000000155 0 -0.030080500611038369 -0.48740219900701609 0 -0.033288959382846817 -0.5 0 -0.030080500611038369 -0.48740219900701609 0 -0.033288959382846817 -0.5 0 -0.0544765348357375 -0.49999999999999839 0 -0.030080500611038369 -0.48740219900701609 0 -0.054628425361836333 -0.47020169487285712 0 -0.0544765348357375 -0.49999999999999839 0 -0.030080500611038369 -0.48740219900701609 0 -0.0544765348357375 -0.49999999999999839 0 -0.030080500611038369 -0.48740219900701609 0 -0.054628425361836333 -0.47020169487285712 0 -0.031762841950006671 -0.46265326935817619 0 -0.030080500611038369 -0.48740219900701609 0 -0.054628425361836333 -0.47020169487285712 0 -0.054628425361836333 -0.47020169487285712 0 -0.0544765348357375 -0.49999999999999839 0 -0.076672340323472268 -0.48337599687788679 0 -0.034065198265193851 -0.43765316125202491 0 -0.031762841950006671 -0.46265326935817619 0 -0.049862289674532143 -0.45038768728688949 0 -0.051823318574934878 -0.43640759083931568 0 -0.034065198265193851 -0.43765316125202491 0 -0.049862289674532143 -0.45038768728688949 0 -0.054628425361836333 -0.47020169487285712 0 -0.031762841950006671 -0.46265326935817619 0 -0.049862289674532143 -0.45038768728688949 0 -0.054628425361836333 -0.47020169487285712 0 -0.049862289674532143 -0.45038768728688949 0 -0.067046375078511133 -0.45623488283435348 0 -0.049862289674532143 -0.45038768728688949 0 -0.064417878391925351 -0.44221579998122629 0 -0.067046375078511133 -0.45623488283435348 0 -0.051823318574934878 -0.43640759083931568 0 -0.049862289674532143 -0.45038768728688949 0 -0.064417878391925351 -0.44221579998122629 0 -0.062395649253079763 -0.42768241346077063 0 -0.064417878391925351 -0.44221579998122629 0 -0.084483840621934703 -0.44336528687820592 0 -0.064417878391925351 -0.44221579998122629 0 -0.074747953540230547 -0.44939466055740052 0 -0.084483840621934703 -0.44336528687820592 0 -0.064417878391925351 -0.44221579998122629 0 -0.074747953540230547 -0.44939466055740052 0 -0.067046375078511133 -0.45623488283435348 0 -0.054628425361836333 -0.47020169487285712 0 -0.067046375078511133 -0.45623488283435348 0 -0.077554587170249517 -0.46800529706897298 0 -0.074747953540230547 -0.44939466055740052 0 -0.067046375078511133 -0.45623488283435348 0 -0.080833163819046081 -0.45818374562010322 0 -0.067046375078511133 -0.45623488283435348 0 -0.077554587170249517 -0.46800529706897298 0 -0.080833163819046081 -0.45818374562010322 0 -0.074747953540230547 -0.44939466055740052 0 -0.080833163819046081 -0.45818374562010322 0 -0.090659992765510053 -0.45422141042652098 0 -0.077554587170249517 -0.46800529706897298 0 -0.080833163819046081 -0.45818374562010322 0 -0.093689005514235341 -0.46502165397592432 0 -0.080833163819046081 -0.45818374562010322 0 -0.093689005514235341 -0.46502165397592432 0 -0.090659992765510053 -0.45422141042652098 0 -0.074747953540230547 -0.44939466055740052 0 -0.090659992765510053 -0.45422141042652098 0 -0.084483840621934703 -0.44336528687820592 0 -0.074747953540230547 -0.44939466055740052 0 -0.090659992765510053 -0.45422141042652098 0 -0.084483840621934703 -0.44336528687820592 0 -0.1016206577635944 -0.44248300109788569 0 -0.092489492777398902 -0.43085440467568858 0 -0.0544765348357375 -0.49999999999999839 0 -0.076785340684668191 -0.5 0 -0.076672340323472268 -0.48337599687788679 0 -0.054628425361836333 -0.47020169487285712 0 -0.077554587170249517 -0.46800529706897298 0 -0.076672340323472268 -0.48337599687788679 0 -0.077554587170249517 -0.46800529706897298 0 -0.093689005514235341 -0.46502165397592432 0 -0.093879460693847477 -0.47836441866334672 0 -0.077554587170249517 -0.46800529706897298 0 -0.076672340323472268 -0.48337599687788679 0 -0.093879460693847477 -0.47836441866334672 0 -0.076785340684668191 -0.5 0 -0.076672340323472268 -0.48337599687788679 0 -0.099094146533598881 -0.5 0 -0.076672340323472268 -0.48337599687788679 0 -0.099094146533598881 -0.5 0 -0.093879460693847477 -0.47836441866334672 0 -0.099094146533598881 -0.5 0 -0.093879460693847477 -0.47836441866334672 0 -0.1102485494580642 -0.48435104301414539 0 -0.093879460693847477 -0.47836441866334672 0 -0.1071056524983152 -0.47188916603299769 0 -0.1102485494580642 -0.48435104301414539 0 -0.093689005514235341 -0.46502165397592432 0 -0.093879460693847477 -0.47836441866334672 0 -0.1071056524983152 -0.47188916603299769 0 -0.125215324738535 -0.47228511552500119 0 -0.1071056524983152 -0.47188916603299769 0 -0.1102485494580642 -0.48435104301414539 0 -0.125215324738535 -0.47228511552500119 0 -0.1214029523825295 -0.50000000000001799 0 -0.125215324738535 -0.47228511552500119 0 -0.1102485494580642 -0.48435104301414539 0 -0.1214029523825295 -0.50000000000001799 0 -0.099094146533598881 -0.5 0 -0.1102485494580642 -0.48435104301414539 0 -0.1214029523825295 -0.50000000000001799 0 -0.1016206577635944 -0.44248300109788569 0 -0.1065720319907897 -0.45904816029564138 0 -0.114843615636553 -0.44735259674187899 0 -0.090659992765510053 -0.45422141042652098 0 -0.084483840621934703 -0.44336528687820592 0 -0.1065720319907897 -0.45904816029564138 0 -0.084483840621934703 -0.44336528687820592 0 -0.1065720319907897 -0.45904816029564138 0 -0.084483840621934703 -0.44336528687820592 0 -0.1016206577635944 -0.44248300109788569 0 -0.1065720319907897 -0.45904816029564138 0 -0.1016206577635944 -0.44248300109788569 0 -0.114843615636553 -0.44735259674187899 0 -0.10930278064134059 -0.43317011462506472 0 -0.090659992765510053 -0.45422141042652098 0 -0.1065720319907897 -0.45904816029564138 0 -0.093689005514235341 -0.46502165397592432 0 -0.090659992765510053 -0.45422141042652098 0 -0.1065720319907897 -0.45904816029564138 0 -0.093689005514235341 -0.46502165397592432 0 -0.1071056524983152 -0.47188916603299769 0 -0.1065720319907897 -0.45904816029564138 0 -0.1262164666189976 -0.46500709308408522 0 -0.125215324738535 -0.47228511552500119 0 -0.1065720319907897 -0.45904816029564138 0 -0.125215324738535 -0.47228511552500119 0 -0.1065720319907897 -0.45904816029564138 0 -0.1262164666189976 -0.46500709308408522 0 -0.1065720319907897 -0.45904816029564138 0 -0.114843615636553 -0.44735259674187899 0 -0.125215324738535 -0.47228511552500119 0 -0.1071056524983152 -0.47188916603299769 0 -0.1065720319907897 -0.45904816029564138 0 -0.1262164666189976 -0.46500709308408522 0 -0.1065720319907897 -0.45904816029564138 0 -0.12968308686813451 -0.43980573006081197 0 -0.1262164666189976 -0.46500709308408522 0 -0.114843615636553 -0.44735259674187899 0 -0.12968308686813451 -0.43980573006081197 0 -0.114843615636553 -0.44735259674187899 0 -0.10930278064134059 -0.43317011462506472 0 -0.12968308686813451 -0.43980573006081197 0 -0.10930278064134059 -0.43317011462506472 0 -0.1175061369569224 -0.42073635583615671 0 -0.10930278064134059 -0.43317011462506472 0 -0.10082491682243019 -0.41798666898170872 0 -0.092489492777398902 -0.43085440467568858 0 -0.1016206577635944 -0.44248300109788569 0 -0.10930278064134059 -0.43317011462506472 0 -0.092489492777398902 -0.43085440467568858 0 -0.10930278064134059 -0.43317011462506472 0 -0.10082491682243019 -0.41798666898170872 0 -0.1175061369569224 -0.42073635583615671 0 -0.10082491682243019 -0.41798666898170872 0 -0.109943076624752 -0.40474585722739709 0 -0.089355071086143462 -0.4010847590165435 0 -0.10082491682243019 -0.41798666898170872 0 -0.1175061369569224 -0.42073635583615671 0 -0.109943076624752 -0.40474585722739709 0 -0.13314970711727031 -0.41460436703753872 0 -0.1175061369569224 -0.42073635583615671 0 -0.109943076624752 -0.40474585722739709 0 -0.109943076624752 -0.40474585722739709 0 -0.1200190036265157 -0.39157850375754072 0 -0.1022911981273406 -0.3915095894309723 0 -0.13314970711727031 -0.41460436703753872 0 -0.109943076624752 -0.40474585722739709 0 -0.1200190036265157 -0.39157850375754072 0 -0.1200190036265157 -0.39157850375754072 0 -0.1077498584230588 -0.3783393321963705 0 -0.1022911981273406 -0.3915095894309723 0 -0.12354017240737181 -0.37313133386911829 0 -0.1200190036265157 -0.39157850375754072 0 -0.1077498584230588 -0.3783393321963705 0 -0.090561765043487258 -0.36472420484649842 0 -0.1077498584230588 -0.3783393321963705 0 -0.089068081027734294 -0.38240435672717871 0 -0.1077498584230588 -0.3783393321963705 0 -0.1022911981273406 -0.3915095894309723 0 -0.089068081027734294 -0.38240435672717871 0 -0.109943076624752 -0.40474585722739709 0 -0.1022911981273406 -0.3915095894309723 0 -0.089355071086143462 -0.4010847590165435 0 -0.089355071086143462 -0.4010847590165435 0 -0.073550169920140615 -0.38590795886105939 0 -0.072483577747809447 -0.40017387792360187 0 -0.1022911981273406 -0.3915095894309723 0 -0.089355071086143462 -0.4010847590165435 0 -0.089068081027734294 -0.38240435672717871 0 -0.089355071086143462 -0.4010847590165435 0 -0.072483577747809447 -0.40017387792360187 0 -0.076879540019463594 -0.41075610934726109 0 -0.089355071086143462 -0.4010847590165435 0 -0.089068081027734294 -0.38240435672717871 0 -0.073550169920140615 -0.38590795886105939 0 -0.070077979718519728 -0.3695093081274694 0 -0.053939121517020898 -0.38221543914429063 0 -0.073550169920140615 -0.38590795886105939 0 -0.061754305595674783 -0.39535323011754558 0 -0.053939121517020898 -0.38221543914429063 0 -0.073550169920140615 -0.38590795886105939 0 -0.070077979718519728 -0.3695093081274694 0 -0.089068081027734294 -0.38240435672717871 0 -0.073550169920140615 -0.38590795886105939 0 -0.061754305595674783 -0.39535323011754558 0 -0.073550169920140615 -0.38590795886105939 0 -0.072483577747809447 -0.40017387792360187 0 -0.061401786383497102 -0.4061377466697263 0 -0.072483577747809447 -0.40017387792360187 0 -0.068639779972292411 -0.41104721136337341 0 -0.061401786383497102 -0.4061377466697263 0 -0.061754305595674783 -0.39535323011754558 0 -0.072483577747809447 -0.40017387792360187 0 -0.061401786383497102 -0.4061377466697263 0 -0.060432304045759368 -0.41884766919387151 0 -0.068639779972292411 -0.41104721136337341 0 -0.068639779972292411 -0.41104721136337341 0 -0.076879540019463594 -0.41075610934726109 0 -0.07200169166493256 -0.41932065368240651 0 -0.072483577747809447 -0.40017387792360187 0 -0.068639779972292411 -0.41104721136337341 0 -0.076879540019463594 -0.41075610934726109 0 -0.060432304045759368 -0.41884766919387151 0 -0.068639779972292411 -0.41104721136337341 0 -0.07200169166493256 -0.41932065368240651 0 -0.062395649253079763 -0.42768241346077063 0 -0.084483840621934703 -0.44336528687820592 0 -0.079109502840100446 -0.42818268907256007 0 -0.062395649253079763 -0.42768241346077063 0 -0.060432304045759368 -0.41884766919387151 0 -0.07200169166493256 -0.41932065368240651 0 -0.062395649253079763 -0.42768241346077063 0 -0.07200169166493256 -0.41932065368240651 0 -0.079109502840100446 -0.42818268907256007 0 -0.062395649253079763 -0.42768241346077063 0 -0.084483840621934703 -0.44336528687820592 0 -0.079109502840100446 -0.42818268907256007 0 -0.092489492777398902 -0.43085440467568858 0 -0.086027273034490134 -0.41779522850262613 0 -0.084483840621934703 -0.44336528687820592 0 -0.079109502840100446 -0.42818268907256007 0 -0.092489492777398902 -0.43085440467568858 0 -0.10082491682243019 -0.41798666898170872 0 -0.092489492777398902 -0.43085440467568858 0 -0.086027273034490134 -0.41779522850262613 0 -0.089355071086143462 -0.4010847590165435 0 -0.076879540019463594 -0.41075610934726109 0 -0.086027273034490134 -0.41779522850262613 0 -0.10082491682243019 -0.41798666898170872 0 -0.089355071086143462 -0.4010847590165435 0 -0.086027273034490134 -0.41779522850262613 0 -0.07200169166493256 -0.41932065368240651 0 -0.079109502840100446 -0.42818268907256007 0 -0.086027273034490134 -0.41779522850262613 0 -0.076879540019463594 -0.41075610934726109 0 -0.07200169166493256 -0.41932065368240651 0 -0.086027273034490134 -0.41779522850262613 0 -0.078909177494655106 -0.079824463906044529 0 -0.090907048222274536 -0.090475644224650556 0 -0.091754603440079893 -0.074727908373024093 0 -0.078909177494655106 -0.079824463906044529 0 -0.090907048222274536 -0.090475644224650556 0 -0.076065191873354476 -0.095701922088152133 0 -0.091754603440079893 -0.074727908373024093 0 -0.080789179685183982 -0.066336439457981677 0 -0.09070822643717516 -0.061330986114851743 0 -0.078909177494655106 -0.079824463906044529 0 -0.091754603440079893 -0.074727908373024093 0 -0.080789179685183982 -0.066336439457981677 0 -0.078909177494655106 -0.079824463906044529 0 -0.080789179685183982 -0.066336439457981677 0 -0.069278635655356552 -0.070775254153583642 0 -0.080789179685183982 -0.066336439457981677 0 -0.069278635655356552 -0.070775254153583642 0 -0.071633582984976019 -0.058733830921356263 0 -0.069278635655356552 -0.070775254153583642 0 -0.058302988231959868 -0.073180908837623848 0 -0.061092019852602417 -0.06304677651486415 0 -0.069278635655356552 -0.070775254153583642 0 -0.071633582984976019 -0.058733830921356263 0 -0.061092019852602417 -0.06304677651486415 0 -0.069278635655356552 -0.070775254153583642 0 -0.065368897988019842 -0.084375278271266063 0 -0.058302988231959868 -0.073180908837623848 0 -0.078909177494655106 -0.079824463906044529 0 -0.065368897988019842 -0.084375278271266063 0 -0.076065191873354476 -0.095701922088152133 0 -0.065368897988019842 -0.084375278271266063 0 -0.076065191873354476 -0.095701922088152133 0 -0.057392982886191393 -0.098638337895988693 0 -0.078909177494655106 -0.079824463906044529 0 -0.069278635655356552 -0.070775254153583642 0 -0.065368897988019842 -0.084375278271266063 0 -0.076065191873354476 -0.095701922088152133 0 -0.06985470665528784 -0.11573341780121919 0 -0.057392982886191393 -0.098638337895988693 0 -0.06985470665528784 -0.11573341780121919 0 -0.088992218803362624 -0.1074464957298354 0 -0.088184978474185521 -0.12801040578135511 0 -0.088992218803362624 -0.1074464957298354 0 -0.10344028973991599 -0.1181431917005573 0 -0.088184978474185521 -0.12801040578135511 0 -0.076065191873354476 -0.095701922088152133 0 -0.06985470665528784 -0.11573341780121919 0 -0.088992218803362624 -0.1074464957298354 0 -0.090907048222274536 -0.090475644224650556 0 -0.076065191873354476 -0.095701922088152133 0 -0.088992218803362624 -0.1074464957298354 0 -0.090907048222274536 -0.090475644224650556 0 -0.088992218803362624 -0.1074464957298354 0 -0.10617661954943571 -0.1002546588035578 0 -0.088992218803362624 -0.1074464957298354 0 -0.10617661954943571 -0.1002546588035578 0 -0.10344028973991599 -0.1181431917005573 0 -0.10617661954943571 -0.1002546588035578 0 -0.10344028973991599 -0.1181431917005573 0 -0.12851450449001681 -0.11924487819625119 0 -0.10344028973991599 -0.1181431917005573 0 -0.10533312738257949 -0.13575951999178679 0 -0.12851450449001681 -0.11924487819625119 0 -0.10617661954943571 -0.1002546588035578 0 -0.1179758307051904 -0.090776103889588344 0 -0.1252383608340073 -0.1006862309174674 0 -0.10617661954943571 -0.1002546588035578 0 -0.1252383608340073 -0.1006862309174674 0 -0.12851450449001681 -0.11924487819625119 0 -0.1179758307051904 -0.090776103889588344 0 -0.13126100535961199 -0.091287272183990895 0 -0.1252383608340073 -0.1006862309174674 0 -0.1179758307051904 -0.090776103889588344 0 -0.1228932107768848 -0.084455829188282927 0 -0.13126100535961199 -0.091287272183990895 0 -0.1228932107768848 -0.084455829188282927 0 -0.11526731012696451 -0.080286044565867798 0 -0.1237656298583286 -0.076797543623831926 0 -0.1179758307051904 -0.090776103889588344 0 -0.1228932107768848 -0.084455829188282927 0 -0.11526731012696451 -0.080286044565867798 0 -0.1179758307051904 -0.090776103889588344 0 -0.11526731012696451 -0.080286044565867798 0 -0.1035444781727594 -0.084898416447289446 0 -0.10617661954943571 -0.1002546588035578 0 -0.1179758307051904 -0.090776103889588344 0 -0.1035444781727594 -0.084898416447289446 0 -0.090907048222274536 -0.090475644224650556 0 -0.091754603440079893 -0.074727908373024093 0 -0.1035444781727594 -0.084898416447289446 0 -0.11526731012696451 -0.080286044565867798 0 -0.1035444781727594 -0.084898416447289446 0 -0.1056608666332534 -0.07369114776498395 0 -0.090907048222274536 -0.090475644224650556 0 -0.10617661954943571 -0.1002546588035578 0 -0.1035444781727594 -0.084898416447289446 0 -0.091754603440079893 -0.074727908373024093 0 -0.099504416801456982 -0.066299234524975811 0 -0.09070822643717516 -0.061330986114851743 0 -0.091754603440079893 -0.074727908373024093 0 -0.099504416801456982 -0.066299234524975811 0 -0.1056608666332534 -0.07369114776498395 0 -0.091754603440079893 -0.074727908373024093 0 -0.1035444781727594 -0.084898416447289446 0 -0.1056608666332534 -0.07369114776498395 0 -0.099504416801456982 -0.066299234524975811 0 -0.1056608666332534 -0.07369114776498395 0 -0.10947780003793479 -0.063210368513015647 0 -0.099504416801456982 -0.066299234524975811 0 -0.10947780003793479 -0.063210368513015647 0 -0.099920587458841692 -0.058535761859003679 0 -0.10947780003793479 -0.063210368513015647 0 -0.11753937714757411 -0.071695732989920422 0 -0.1219731292675155 -0.063965478385432345 0 -0.1219731292675155 -0.063965478385432345 0 -0.1157688171284371 -0.053460403974267677 0 -0.12909152696144771 -0.072223815086390947 0 -0.1056608666332534 -0.07369114776498395 0 -0.10947780003793479 -0.063210368513015647 0 -0.11753937714757411 -0.071695732989920422 0 -0.1157688171284371 -0.053460403974267677 0 -0.12909152696144771 -0.072223815086390947 0 -0.11526731012696451 -0.080286044565867798 0 -0.1056608666332534 -0.07369114776498395 0 -0.11753937714757411 -0.071695732989920422 0 -0.11526731012696451 -0.080286044565867798 0 -0.11753937714757411 -0.071695732989920422 0 -0.1237656298583286 -0.076797543623831926 0 -0.11753937714757411 -0.071695732989920422 0 -0.1237656298583286 -0.076797543623831926 0 -0.12909152696144771 -0.072223815086390947 0 -0.11753937714757411 -0.071695732989920422 0 -0.1219731292675155 -0.063965478385432345 0 -0.12909152696144771 -0.072223815086390947 0 -0.1157688171284371 -0.053460403974267677 0 -0.12909152696144771 -0.072223815086390947 0 -0.12684415044118569 -0.057704858544417578 0 -0.10947780003793479 -0.063210368513015647 0 -0.1157688171284371 -0.053460403974267677 0 -0.1042531562579478 -0.051788456207740668 0 -0.10947780003793479 -0.063210368513015647 0 -0.1219731292675155 -0.063965478385432345 0 -0.1157688171284371 -0.053460403974267677 0 -0.1157688171284371 -0.053460403974267677 0 -0.12684415044118569 -0.057704858544417578 0 -0.12882854372584659 -0.049605510972314922 0 -0.1157688171284371 -0.053460403974267677 0 -0.1199422827605305 -0.02965683450943497 0 -0.12882854372584659 -0.049605510972314922 0 -0.1157688171284371 -0.053460403974267677 0 -0.10244610729542659 -0.034696992862144532 0 -0.1199422827605305 -0.02965683450943497 0 -0.10244610729542659 -0.034696992862144532 0 -0.1042531562579478 -0.051788456207740668 0 -0.093652469369098573 -0.049038753830271772 0 -0.1157688171284371 -0.053460403974267677 0 -0.10244610729542659 -0.034696992862144532 0 -0.1157688171284371 -0.053460403974267677 0 -0.10244610729542659 -0.034696992862144532 0 -0.1042531562579478 -0.051788456207740668 0 -0.10244610729542659 -0.034696992862144532 0 -0.093652469369098573 -0.049038753830271772 0 -0.088147131431357897 -0.037134779112761543 0 -0.099920587458841692 -0.058535761859003679 0 -0.1042531562579478 -0.051788456207740668 0 -0.093652469369098573 -0.049038753830271772 0 -0.099504416801456982 -0.066299234524975811 0 -0.099920587458841692 -0.058535761859003679 0 -0.09070822643717516 -0.061330986114851743 0 -0.099920587458841692 -0.058535761859003679 0 -0.09070822643717516 -0.061330986114851743 0 -0.093652469369098573 -0.049038753830271772 0 -0.10947780003793479 -0.063210368513015647 0 -0.099920587458841692 -0.058535761859003679 0 -0.1042531562579478 -0.051788456207740668 0 -0.1163652103361735 -0.011197960187411361 0 -0.1032354106369943 -0.00021445640766098919 0 -0.119440435482564 0.0034978936377945791 0 -0.1163652103361735 -0.011197960187411361 0 -0.1267834157359943 -0.0026565814049187282 0 -0.1307068980664256 -0.020727785816144269 0 -0.1163652103361735 -0.011197960187411361 0 -0.1267834157359943 -0.0026565814049187282 0 -0.119440435482564 0.0034978936377945791 0 -0.1163652103361735 -0.011197960187411361 0 -0.1199422827605305 -0.02965683450943497 0 -0.098985010871781715 -0.018071479866519011 0 -0.1163652103361735 -0.011197960187411361 0 -0.1199422827605305 -0.02965683450943497 0 -0.1307068980664256 -0.020727785816144269 0 -0.1199422827605305 -0.02965683450943497 0 -0.098985010871781715 -0.018071479866519011 0 -0.10244610729542659 -0.034696992862144532 0 -0.089123397462415849 -0.015933581750021599 0 -0.090216952536541634 -0.02957479346763121 0 -0.1199422827605305 -0.02965683450943497 0 -0.098261975414807717 -0.02110913792928636 0 -0.098985010871781715 -0.018071479866519011 0 -0.10244610729542659 -0.034696992862144532 0 -0.089123397462415849 -0.015933581750021599 0 -0.10244610729542659 -0.034696992862144532 0 -0.098261975414807717 -0.02110913792928636 0 -0.089123397462415849 -0.015933581750021599 0 -0.10244610729542659 -0.034696992862144532 0 -0.1199422827605305 -0.02965683450943497 0 -0.098261975414807717 -0.02110913792928636 0 -0.098985010871781715 -0.018071479866519011 0 -0.091111578959914563 -0.01371898105655953 0 -0.098261975414807717 -0.02110913792928636 0 -0.098985010871781715 -0.018071479866519011 0 -0.089123397462415849 -0.015933581750021599 0 -0.098261975414807717 -0.02110913792928636 0 -0.098985010871781715 -0.018071479866519011 0 -0.1032354106369943 -0.00021445640766098919 0 -0.091111578959914563 -0.01371898105655953 0 -0.08860203887846485 0.0020081847372806711 0 -0.098985010871781715 -0.018071479866519011 0 -0.1032354106369943 -0.00021445640766098919 0 -0.1163652103361735 -0.011197960187411361 0 -0.098985010871781715 -0.018071479866519011 0 -0.1032354106369943 -0.00021445640766098919 0 -0.098985010871781715 -0.018071479866519011 0 -0.1032354106369943 -0.00021445640766098919 0 -0.091111578959914563 -0.01371898105655953 0 -0.1032354106369943 -0.00021445640766098919 0 -0.091111578959914563 -0.01371898105655953 0 -0.091111578959914563 -0.01371898105655953 0 -0.085250324067708549 -0.01047883048070402 0 -0.08860203887846485 0.0020081847372806711 0 -0.085250324067708549 -0.01047883048070402 0 -0.075598923906003951 0.003113988946536814 0 -0.085250324067708549 -0.01047883048070402 0 -0.08860203887846485 0.0020081847372806711 0 -0.075598923906003951 0.003113988946536814 0 -0.091111578959914563 -0.01371898105655953 0 -0.089123397462415849 -0.015933581750021599 0 -0.091111578959914563 -0.01371898105655953 0 -0.085250324067708549 -0.01047883048070402 0 -0.085250324067708549 -0.01047883048070402 0 -0.089123397462415849 -0.015933581750021599 0 -0.091111578959914563 -0.01371898105655953 0 -0.085250324067708549 -0.01047883048070402 0 -0.089123397462415849 -0.015933581750021599 0 -0.085250324067708549 -0.01047883048070402 0 -0.089123397462415849 -0.015933581750021599 0 -0.078040155144820073 -0.019700702461377399 0 -0.089123397462415849 -0.015933581750021599 0 -0.074472587469430931 -0.030849779535556988 0 -0.078040155144820073 -0.019700702461377399 0 -0.089123397462415849 -0.015933581750021599 0 -0.074472587469430931 -0.030849779535556988 0 -0.098985010871781715 -0.018071479866519011 0 -0.091111578959914563 -0.01371898105655953 0 -0.089123397462415849 -0.015933581750021599 0 -0.089123397462415849 -0.015933581750021599 0 -0.090216952536541634 -0.02957479346763121 0 -0.081151173956965958 -0.03053382014559736 0 -0.089123397462415849 -0.015933581750021599 0 -0.081151173956965958 -0.03053382014559736 0 -0.074472587469430931 -0.030849779535556988 0 -0.074472587469430931 -0.030849779535556988 0 -0.069241940666184471 -0.0016292626576147871 0 -0.059745304116449488 -0.018138219989554848 0 -0.074472587469430931 -0.030849779535556988 0 -0.069241940666184471 -0.0016292626576147871 0 -0.074472587469430931 -0.030849779535556988 0 -0.078040155144820073 -0.019700702461377399 0 -0.069241940666184471 -0.0016292626576147871 0 -0.074472587469430931 -0.030849779535556988 0 -0.057035190023512872 -0.031945325615395127 0 -0.059745304116449488 -0.018138219989554848 0 -0.085250324067708549 -0.01047883048070402 0 -0.069241940666184471 -0.0016292626576147871 0 -0.075598923906003951 0.003113988946536814 0 -0.085250324067708549 -0.01047883048070402 0 -0.078040155144820073 -0.019700702461377399 0 -0.069241940666184471 -0.0016292626576147871 0 -0.085250324067708549 -0.01047883048070402 0 -0.069241940666184471 -0.0016292626576147871 0 -0.08287181627605239 -0.054920175474687229 0 -0.083713118227395356 -0.045355288265741839 0 -0.075878246119287576 -0.051081301476981297 0 -0.080789179685183982 -0.066336439457981677 0 -0.08287181627605239 -0.054920175474687229 0 -0.09070822643717516 -0.061330986114851743 0 -0.080789179685183982 -0.066336439457981677 0 -0.08287181627605239 -0.054920175474687229 0 -0.071633582984976019 -0.058733830921356263 0 -0.08287181627605239 -0.054920175474687229 0 -0.09070822643717516 -0.061330986114851743 0 -0.093652469369098573 -0.049038753830271772 0 -0.08287181627605239 -0.054920175474687229 0 -0.093652469369098573 -0.049038753830271772 0 -0.083713118227395356 -0.045355288265741839 0 -0.093652469369098573 -0.049038753830271772 0 -0.088147131431357897 -0.037134779112761543 0 -0.083713118227395356 -0.045355288265741839 0 -0.10244610729542659 -0.034696992862144532 0 -0.090216952536541634 -0.02957479346763121 0 -0.088147131431357897 -0.037134779112761543 0 -0.090216952536541634 -0.02957479346763121 0 -0.081151173956965958 -0.03053382014559736 0 -0.088147131431357897 -0.037134779112761543 0 -0.081151173956965958 -0.03053382014559736 0 -0.088147131431357897 -0.037134779112761543 0 -0.080876926519636225 -0.036518512813609627 0 -0.081151173956965958 -0.03053382014559736 0 -0.080876926519636225 -0.036518512813609627 0 -0.078571702801242371 -0.032794091810257907 0 -0.080876926519636225 -0.036518512813609627 0 -0.078571702801242371 -0.032794091810257907 0 -0.077492899038300991 -0.034584573891420688 0 -0.080876926519636225 -0.036518512813609627 0 -0.083713118227395356 -0.045355288265741839 0 -0.077098380177364659 -0.043130254536700739 0 -0.088147131431357897 -0.037134779112761543 0 -0.080876926519636225 -0.036518512813609627 0 -0.083713118227395356 -0.045355288265741839 0 -0.083713118227395356 -0.045355288265741839 0 -0.077098380177364659 -0.043130254536700739 0 -0.075878246119287576 -0.051081301476981297 0 -0.074472587469430931 -0.030849779535556988 0 -0.061327158823905173 -0.046895327165046248 0 -0.057035190023512872 -0.031945325615395127 0 -0.077098380177364659 -0.043130254536700739 0 -0.074404128540473416 -0.038508624572862152 0 -0.061327158823905173 -0.046895327165046248 0 -0.074472587469430931 -0.030849779535556988 0 -0.061327158823905173 -0.046895327165046248 0 -0.074472587469430931 -0.030849779535556988 0 -0.074404128540473416 -0.038508624572862152 0 -0.061327158823905173 -0.046895327165046248 0 -0.080876926519636225 -0.036518512813609627 0 -0.077098380177364659 -0.043130254536700739 0 -0.074404128540473416 -0.038508624572862152 0 -0.074472587469430931 -0.030849779535556988 0 -0.077492899038300991 -0.034584573891420688 0 -0.074404128540473416 -0.038508624572862152 0 -0.081151173956965958 -0.03053382014559736 0 -0.074472587469430931 -0.030849779535556988 0 -0.078571702801242371 -0.032794091810257907 0 -0.074472587469430931 -0.030849779535556988 0 -0.078571702801242371 -0.032794091810257907 0 -0.077492899038300991 -0.034584573891420688 0 -0.080876926519636225 -0.036518512813609627 0 -0.077492899038300991 -0.034584573891420688 0 -0.074404128540473416 -0.038508624572862152 0 -0.077098380177364659 -0.043130254536700739 0 -0.075878246119287576 -0.051081301476981297 0 -0.061327158823905173 -0.046895327165046248 0 -0.071633582984976019 -0.058733830921356263 0 -0.061327158823905173 -0.046895327165046248 0 -0.061092019852602417 -0.06304677651486415 0 -0.075878246119287576 -0.051081301476981297 0 -0.071633582984976019 -0.058733830921356263 0 -0.061327158823905173 -0.046895327165046248 0 -0.08287181627605239 -0.054920175474687229 0 -0.075878246119287576 -0.051081301476981297 0 -0.071633582984976019 -0.058733830921356263 0 -0.061327158823905173 -0.046895327165046248 0 -0.046092735967771137 -0.06397442971054712 0 -0.061092019852602417 -0.06304677651486415 0 -0.061327158823905173 -0.046895327165046248 0 -0.042417236825520212 -0.042241450072511767 0 -0.046092735967771137 -0.06397442971054712 0 -0.057035190023512872 -0.031945325615395127 0 -0.042417236825520212 -0.042241450072511767 0 -0.043161853142012221 -0.02167223813267442 0 -0.061327158823905173 -0.046895327165046248 0 -0.057035190023512872 -0.031945325615395127 0 -0.042417236825520212 -0.042241450072511767 0 -0.042417236825520212 -0.042241450072511767 0 -0.043161853142012221 -0.02167223813267442 0 -0.02581407878710968 -0.034384969840168658 0 -0.042417236825520212 -0.042241450072511767 0 -0.022439538886361639 -0.054945579392457783 0 -0.046092735967771137 -0.06397442971054712 0 -0.069241940666184471 -0.0016292626576147871 0 -0.050904770718203977 -0.0065393892505411066 0 -0.059745304116449488 -0.018138219989554848 0 -0.050904770718203977 -0.0065393892505411066 0 -0.059745304116449488 -0.018138219989554848 0 -0.043161853142012221 -0.02167223813267442 0 -0.057035190023512872 -0.031945325615395127 0 -0.059745304116449488 -0.018138219989554848 0 -0.043161853142012221 -0.02167223813267442 0 -0.050904770718203977 -0.0065393892505411066 0 -0.043161853142012221 -0.02167223813267442 0 -0.035419323475875557 -0.0059051719180527916 0 -0.043161853142012221 -0.02167223813267442 0 -0.035419323475875557 -0.0059051719180527916 0 -0.018576722166593361 -0.01692799253377129 0 -0.050904770718203977 -0.0065393892505411066 0 -0.035419323475875557 -0.0059051719180527916 0 -0.045215917027402193 0.011652523540130339 0 -0.035419323475875557 -0.0059051719180527916 0 -0.018576722166593361 -0.01692799253377129 0 -0.01923735432516601 0.0039612367865925167 0 -0.018576722166593361 -0.01692799253377129 0 -0.02581407878710968 -0.034384969840168658 0 -0.0052093122701638937 -0.036875927911865523 0 -0.043161853142012221 -0.02167223813267442 0 -0.018576722166593361 -0.01692799253377129 0 -0.02581407878710968 -0.034384969840168658 0 -0.018576722166593361 -0.01692799253377129 0 -0.0052093122701638937 -0.036875927911865523 0 0.0088030871894733444 -0.023666954911981241 0 -0.018576722166593361 -0.01692799253377129 0 0.0029913831872387482 -0.0052912084592871226 0 0.0088030871894733444 -0.023666954911981241 0 -0.018576722166593361 -0.01692799253377129 0 -0.01923735432516601 0.0039612367865925167 0 0.0029913831872387482 -0.0052912084592871226 0 -0.022439538886361639 -0.054945579392457783 0 -0.02581407878710968 -0.034384969840168658 0 -0.0052093122701638937 -0.036875927911865523 0 -0.042417236825520212 -0.042241450072511767 0 -0.022439538886361639 -0.054945579392457783 0 -0.02581407878710968 -0.034384969840168658 0 -0.022439538886361639 -0.054945579392457783 0 -0.0052093122701638937 -0.036875927911865523 0 -0.0020527242365353088 -0.057067134515462047 0 -0.022439538886361639 -0.054945579392457783 0 -0.0020527242365353088 -0.057067134515462047 0 -0.01309812140085676 -0.07011287192406776 0 -0.0020527242365353088 -0.057067134515462047 0 -0.01309812140085676 -0.07011287192406776 0 0.0003806329818320936 -0.083393270986056811 0 -0.02827191375596266 -0.081232395208486241 0 -0.015169606627087721 -0.1026672402057538 0 0.0003806329818320936 -0.083393270986056811 0 -0.01309812140085676 -0.07011287192406776 0 -0.02827191375596266 -0.081232395208486241 0 0.0003806329818320936 -0.083393270986056811 0 -0.015169606627087721 -0.1026672402057538 0 0.0003806329818320936 -0.083393270986056811 0 -0.022439538886361639 -0.054945579392457783 0 -0.01309812140085676 -0.07011287192406776 0 -0.02827191375596266 -0.081232395208486241 0 -0.022439538886361639 -0.054945579392457783 0 -0.02827191375596266 -0.081232395208486241 0 -0.046092735967771137 -0.06397442971054712 0 -0.02827191375596266 -0.081232395208486241 0 -0.046092735967771137 -0.06397442971054712 0 -0.049682651696049393 -0.083732805537858335 0 -0.02827191375596266 -0.081232395208486241 0 -0.049682651696049393 -0.083732805537858335 0 -0.036769396639913909 -0.10007893168754139 0 -0.065368897988019842 -0.084375278271266063 0 -0.049682651696049393 -0.083732805537858335 0 -0.057392982886191393 -0.098638337895988693 0 -0.065368897988019842 -0.084375278271266063 0 -0.049682651696049393 -0.083732805537858335 0 -0.058302988231959868 -0.073180908837623848 0 -0.046092735967771137 -0.06397442971054712 0 -0.049682651696049393 -0.083732805537858335 0 -0.058302988231959868 -0.073180908837623848 0 -0.046092735967771137 -0.06397442971054712 0 -0.058302988231959868 -0.073180908837623848 0 -0.061092019852602417 -0.06304677651486415 0 -0.06985470665528784 -0.11573341780121919 0 -0.057392982886191393 -0.098638337895988693 0 -0.045543804006045872 -0.11648543555160221 0 -0.06985470665528784 -0.11573341780121919 0 -0.045543804006045872 -0.11648543555160221 0 -0.059167403581638092 -0.1350338025598459 0 -0.049682651696049393 -0.083732805537858335 0 -0.057392982886191393 -0.098638337895988693 0 -0.036769396639913909 -0.10007893168754139 0 -0.057392982886191393 -0.098638337895988693 0 -0.036769396639913909 -0.10007893168754139 0 -0.045543804006045872 -0.11648543555160221 0 -0.036769396639913909 -0.10007893168754139 0 -0.045543804006045872 -0.11648543555160221 0 -0.0253521707500582 -0.1177659517448038 0 -0.0253521707500582 -0.1177659517448038 0 -0.015169606627087721 -0.1026672402057538 0 -0.01044844011035528 -0.12823112002220899 0 -0.02827191375596266 -0.081232395208486241 0 -0.036769396639913909 -0.10007893168754139 0 -0.015169606627087721 -0.1026672402057538 0 -0.036769396639913909 -0.10007893168754139 0 -0.0253521707500582 -0.1177659517448038 0 -0.015169606627087721 -0.1026672402057538 0 -0.015169606627087721 -0.1026672402057538 0 -0.01044844011035528 -0.12823112002220899 0 0.006624818464014165 -0.1187193322005841 0 -0.01044844011035528 -0.12823112002220899 0 -0.00113225379654322 -0.14908059611682761 0 0.005877131749355417 -0.13527815902046991 0 -0.01044844011035528 -0.12823112002220899 0 -0.030149828689090649 -0.1420571993383368 0 -0.00113225379654322 -0.14908059611682761 0 -0.0253521707500582 -0.1177659517448038 0 -0.01044844011035528 -0.12823112002220899 0 -0.030149828689090649 -0.1420571993383368 0 -0.030149828689090649 -0.1420571993383368 0 -0.00113225379654322 -0.14908059611682761 0 -0.030149828689090649 -0.1420571993383368 0 -0.00113225379654322 -0.14908059611682761 0 -0.020398650555501 -0.16737386995278319 0 -0.030149828689090649 -0.1420571993383368 0 -0.020398650555501 -0.16737386995278319 0 -0.041826389092084783 -0.1589993293006321 0 -0.00113225379654322 -0.14908059611682761 0 -0.020398650555501 -0.16737386995278319 0 0.00095454359378272782 -0.16685631586716351 0 -0.0049943227340000142 -0.18274880523110981 0 -0.020398650555501 -0.16737386995278319 0 0.00095454359378272782 -0.16685631586716351 0 -0.020398650555501 -0.16737386995278319 0 -0.042048720043546407 -0.17737869348681989 0 -0.02148699420236819 -0.19495619076476989 0 -0.0049943227340000142 -0.18274880523110981 0 -0.020398650555501 -0.16737386995278319 0 -0.02148699420236819 -0.19495619076476989 0 -0.020398650555501 -0.16737386995278319 0 -0.041826389092084783 -0.1589993293006321 0 -0.042048720043546407 -0.17737869348681989 0 -0.042048720043546407 -0.17737869348681989 0 -0.038809678611644839 -0.19435951737623661 0 -0.048083660165031419 -0.18901643379536731 0 -0.042048720043546407 -0.17737869348681989 0 -0.02148699420236819 -0.19495619076476989 0 -0.042048720043546407 -0.17737869348681989 0 -0.058918490341957057 -0.17778373222470001 0 -0.058970373167704593 -0.16878880358285819 0 -0.042048720043546407 -0.17737869348681989 0 -0.058918490341957057 -0.17778373222470001 0 -0.048083660165031419 -0.18901643379536731 0 -0.058918490341957057 -0.17778373222470001 0 -0.048083660165031419 -0.18901643379536731 0 -0.055099641335658443 -0.1925443673096871 0 -0.041826389092084783 -0.1589993293006321 0 -0.042048720043546407 -0.17737869348681989 0 -0.06261044588472478 -0.15980119620886979 0 -0.042048720043546407 -0.17737869348681989 0 -0.058970373167704593 -0.16878880358285819 0 -0.06261044588472478 -0.15980119620886979 0 -0.042048720043546407 -0.17737869348681989 0 -0.06261044588472478 -0.15980119620886979 0 -0.041826389092084783 -0.1589993293006321 0 -0.052479892176822647 -0.14844615206088829 0 -0.06261044588472478 -0.15980119620886979 0 -0.052479892176822647 -0.14844615206088829 0 -0.059167403581638092 -0.1350338025598459 0 -0.068645393636575 -0.14633923289675699 0 -0.030149828689090649 -0.1420571993383368 0 -0.052479892176822647 -0.14844615206088829 0 -0.059167403581638092 -0.1350338025598459 0 -0.052479892176822647 -0.14844615206088829 0 -0.068645393636575 -0.14633923289675699 0 -0.06261044588472478 -0.15980119620886979 0 -0.045543804006045872 -0.11648543555160221 0 -0.030149828689090649 -0.1420571993383368 0 -0.059167403581638092 -0.1350338025598459 0 -0.030149828689090649 -0.1420571993383368 0 -0.059167403581638092 -0.1350338025598459 0 -0.045543804006045872 -0.11648543555160221 0 -0.0253521707500582 -0.1177659517448038 0 -0.030149828689090649 -0.1420571993383368 0 -0.030149828689090649 -0.1420571993383368 0 -0.041826389092084783 -0.1589993293006321 0 -0.052479892176822647 -0.14844615206088829 0 -0.032420232802132729 -0.25026067283641712 0 -0.031166517850516141 -0.23511519373156189 0 -0.020707525259693049 -0.24492552647519869 0 -0.031166517850516141 -0.23511519373156189 0 -0.020707525259693049 -0.24492552647519869 0 -0.017482011143221898 -0.23372273226547161 0 -0.020707525259693049 -0.24492552647519869 0 -0.012509208220571709 -0.23976107401889671 0 -0.017482011143221898 -0.23372273226547161 0 -0.0066347101700803546 -0.26203402040461299 0 -0.012108815734419069 -0.2492138465212094 0 -0.0022667461226881808 -0.2386345135768688 0 -0.020707525259693049 -0.24492552647519869 0 -0.012108815734419069 -0.2492138465212094 0 -0.012509208220571709 -0.23976107401889671 0 -0.012108815734419069 -0.2492138465212094 0 -0.0022667461226881808 -0.2386345135768688 0 -0.012509208220571709 -0.23976107401889671 0 -0.0022667461226881808 -0.2386345135768688 0 -0.012509208220571709 -0.23976107401889671 0 -0.0099809428428363489 -0.23230875125573461 0 -0.012509208220571709 -0.23976107401889671 0 -0.0099809428428363489 -0.23230875125573461 0 -0.017482011143221898 -0.23372273226547161 0 -0.0022667461226881808 -0.2386345135768688 0 -0.0099809428428363489 -0.23230875125573461 0 -0.005284798674993204 -0.22247124188000589 0 -0.0022667461226881808 -0.2386345135768688 0 -0.005284798674993204 -0.22247124188000589 0 0.002101217924703695 -0.21523500674912471 0 -0.0099809428428363489 -0.23230875125573461 0 -0.005284798674993204 -0.22247124188000589 0 -0.012640446259352249 -0.22522853818872729 0 -0.0022667461226881808 -0.2386345135768688 0 0.002101217924703695 -0.21523500674912471 0 -0.0099809428428363489 -0.23230875125573461 0 -0.012640446259352249 -0.22522853818872729 0 -0.017482011143221898 -0.23372273226547161 0 -0.012640446259352249 -0.22522853818872729 0 -0.02147037882925542 -0.22213613548264649 0 -0.011317859171708879 -0.21871370062953929 0 -0.005284798674993204 -0.22247124188000589 0 -0.012640446259352249 -0.22522853818872729 0 -0.011317859171708879 -0.21871370062953929 0 -0.012640446259352249 -0.22522853818872729 0 -0.02147037882925542 -0.22213613548264649 0 -0.017482011143221898 -0.23372273226547161 0 -0.031166517850516141 -0.23511519373156189 0 -0.02147037882925542 -0.22213613548264649 0 -0.017482011143221898 -0.23372273226547161 0 -0.031166517850516141 -0.23511519373156189 0 -0.02147037882925542 -0.22213613548264649 0 -0.032775058057902172 -0.2226600082216928 0 -0.02147037882925542 -0.22213613548264649 0 -0.016268403733753559 -0.211198899553597 0 -0.03422220171244756 -0.20945301396598151 0 -0.016268403733753559 -0.211198899553597 0 -0.02148699420236819 -0.19495619076476989 0 -0.03422220171244756 -0.20945301396598151 0 -0.02147037882925542 -0.22213613548264649 0 -0.03422220171244756 -0.20945301396598151 0 -0.032775058057902172 -0.2226600082216928 0 -0.02147037882925542 -0.22213613548264649 0 -0.016268403733753559 -0.211198899553597 0 -0.011317859171708879 -0.21871370062953929 0 -0.016268403733753559 -0.211198899553597 0 -0.00092526836118996675 -0.2125336880427198 0 -0.02148699420236819 -0.19495619076476989 0 -0.016268403733753559 -0.211198899553597 0 -0.011317859171708879 -0.21871370062953929 0 -0.00092526836118996675 -0.2125336880427198 0 -0.00092526836118996675 -0.2125336880427198 0 -0.02148699420236819 -0.19495619076476989 0 -0.005284798674993204 -0.22247124188000589 0 -0.00092526836118996675 -0.2125336880427198 0 0.002101217924703695 -0.21523500674912471 0 -0.005284798674993204 -0.22247124188000589 0 -0.011317859171708879 -0.21871370062953929 0 -0.00092526836118996675 -0.2125336880427198 0 -0.00092526836118996675 -0.2125336880427198 0 -0.0055145796366369423 -0.19578922249617739 0 -0.02148699420236819 -0.19495619076476989 0 -0.0049943227340000142 -0.18274880523110981 0 -0.0055145796366369423 -0.19578922249617739 0 -0.02148699420236819 -0.19495619076476989 0 -0.0049943227340000142 -0.18274880523110981 0 -0.0055145796366369423 -0.19578922249617739 0 0.0064691819720955734 -0.19183549992138041 0 -0.042048720043546407 -0.17737869348681989 0 -0.02148699420236819 -0.19495619076476989 0 -0.038809678611644839 -0.19435951737623661 0 -0.02148699420236819 -0.19495619076476989 0 -0.038809678611644839 -0.19435951737623661 0 -0.03422220171244756 -0.20945301396598151 0 -0.038809678611644839 -0.19435951737623661 0 -0.048206816934830643 -0.2009932548682446 0 -0.03422220171244756 -0.20945301396598151 0 -0.038809678611644839 -0.19435951737623661 0 -0.048083660165031419 -0.18901643379536731 0 -0.048206816934830643 -0.2009932548682446 0 -0.058918490341957057 -0.17778373222470001 0 -0.055099641335658443 -0.1925443673096871 0 -0.062650670635838734 -0.19452914644682009 0 -0.048083660165031419 -0.18901643379536731 0 -0.055099641335658443 -0.1925443673096871 0 -0.048206816934830643 -0.2009932548682446 0 -0.055099641335658443 -0.1925443673096871 0 -0.057638568600634321 -0.20039926921330359 0 -0.062650670635838734 -0.19452914644682009 0 -0.055099641335658443 -0.1925443673096871 0 -0.057638568600634321 -0.20039926921330359 0 -0.048206816934830643 -0.2009932548682446 0 -0.048206816934830643 -0.2009932548682446 0 -0.059400203792498767 -0.2097550198255923 0 -0.046921544009454468 -0.21182614296707131 0 -0.057638568600634321 -0.20039926921330359 0 -0.059400203792498767 -0.2097550198255923 0 -0.069044411831859456 -0.19930609305002661 0 -0.057638568600634321 -0.20039926921330359 0 -0.048206816934830643 -0.2009932548682446 0 -0.059400203792498767 -0.2097550198255923 0 -0.059400203792498767 -0.2097550198255923 0 -0.0513236654953542 -0.21963480420093659 0 -0.064241800126254814 -0.2252558901347925 0 -0.059400203792498767 -0.2097550198255923 0 -0.046921544009454468 -0.21182614296707131 0 -0.0513236654953542 -0.21963480420093659 0 -0.046921544009454468 -0.21182614296707131 0 -0.03422220171244756 -0.20945301396598151 0 -0.041454832112141168 -0.21929462197460159 0 -0.046921544009454468 -0.21182614296707131 0 -0.041454832112141168 -0.21929462197460159 0 -0.0513236654953542 -0.21963480420093659 0 -0.048206816934830643 -0.2009932548682446 0 -0.046921544009454468 -0.21182614296707131 0 -0.03422220171244756 -0.20945301396598151 0 -0.03422220171244756 -0.20945301396598151 0 -0.032775058057902172 -0.2226600082216928 0 -0.041454832112141168 -0.21929462197460159 0 -0.032775058057902172 -0.2226600082216928 0 -0.038775607774402782 -0.22784069980264571 0 -0.041454832112141168 -0.21929462197460159 0 -0.031166517850516141 -0.23511519373156189 0 -0.038775607774402782 -0.22784069980264571 0 -0.044507357497634792 -0.2349078881291968 0 -0.031166517850516141 -0.23511519373156189 0 -0.032775058057902172 -0.2226600082216928 0 -0.038775607774402782 -0.22784069980264571 0 -0.038775607774402782 -0.22784069980264571 0 -0.046102010592113662 -0.22651079310182351 0 -0.044507357497634792 -0.2349078881291968 0 -0.038775607774402782 -0.22784069980264571 0 -0.041454832112141168 -0.21929462197460159 0 -0.046102010592113662 -0.22651079310182351 0 -0.041454832112141168 -0.21929462197460159 0 -0.046102010592113662 -0.22651079310182351 0 -0.0513236654953542 -0.21963480420093659 0 -0.046102010592113662 -0.22651079310182351 0 -0.0513236654953542 -0.21963480420093659 0 -0.054379271399051833 -0.23084020355637991 0 -0.0513236654953542 -0.21963480420093659 0 -0.054379271399051833 -0.23084020355637991 0 -0.064241800126254814 -0.2252558901347925 0 -0.054379271399051833 -0.23084020355637991 0 -0.065568489668149488 -0.2381835165705935 0 -0.064241800126254814 -0.2252558901347925 0 -0.046102010592113662 -0.22651079310182351 0 -0.054379271399051833 -0.23084020355637991 0 -0.044507357497634792 -0.2349078881291968 0 -0.054379271399051833 -0.23084020355637991 0 -0.054124271495336648 -0.244260718842536 0 -0.044507357497634792 -0.2349078881291968 0 -0.054379271399051833 -0.23084020355637991 0 -0.054124271495336648 -0.244260718842536 0 -0.065568489668149488 -0.2381835165705935 0 -0.045729757362561567 -0.25659706683429062 0 -0.054124271495336648 -0.244260718842536 0 -0.041314610074040407 -0.24427023327604239 0 -0.054124271495336648 -0.244260718842536 0 -0.041314610074040407 -0.24427023327604239 0 -0.044507357497634792 -0.2349078881291968 0 -0.031166517850516141 -0.23511519373156189 0 -0.041314610074040407 -0.24427023327604239 0 -0.044507357497634792 -0.2349078881291968 0 -0.032420232802132729 -0.25026067283641712 0 -0.031166517850516141 -0.23511519373156189 0 -0.041314610074040407 -0.24427023327604239 0 -0.086402414537331718 -0.2530982417260294 0 -0.089008147647712865 -0.24173845104122649 0 -0.089008147647712865 -0.24173845104122649 0 -0.076143095175852826 -0.2432110370141887 0 -0.074797562471551157 -0.23378223336128551 0 -0.089008147647712865 -0.24173845104122649 0 -0.080128595710807951 -0.2495590409187248 0 -0.076143095175852826 -0.2432110370141887 0 -0.086402414537331718 -0.2530982417260294 0 -0.089008147647712865 -0.24173845104122649 0 -0.080128595710807951 -0.2495590409187248 0 -0.069062654262053561 -0.25284322283179189 0 -0.080128595710807951 -0.2495590409187248 0 -0.076143095175852826 -0.2432110370141887 0 -0.069062654262053561 -0.25284322283179189 0 -0.054124271495336648 -0.244260718842536 0 -0.065568489668149488 -0.2381835165705935 0 -0.069062654262053561 -0.25284322283179189 0 -0.076143095175852826 -0.2432110370141887 0 -0.065568489668149488 -0.2381835165705935 0 -0.076143095175852826 -0.2432110370141887 0 -0.065568489668149488 -0.2381835165705935 0 -0.074797562471551157 -0.23378223336128551 0 -0.065568489668149488 -0.2381835165705935 0 -0.074797562471551157 -0.23378223336128551 0 -0.064241800126254814 -0.2252558901347925 0 -0.074797562471551157 -0.23378223336128551 0 -0.064241800126254814 -0.2252558901347925 0 -0.079026279739786848 -0.2205222720456263 0 -0.089008147647712865 -0.24173845104122649 0 -0.094396571671846383 -0.2182474155275374 0 -0.089008147647712865 -0.24173845104122649 0 -0.079026279739786848 -0.2205222720456263 0 -0.089008147647712865 -0.24173845104122649 0 -0.079026279739786848 -0.2205222720456263 0 -0.094396571671846383 -0.2182474155275374 0 -0.089008147647712865 -0.24173845104122649 0 -0.074797562471551157 -0.23378223336128551 0 -0.079026279739786848 -0.2205222720456263 0 -0.081720491751852933 -0.20877675428878201 0 -0.099309107329836083 -0.19683103309600941 0 -0.094396571671846383 -0.2182474155275374 0 -0.081720491751852933 -0.20877675428878201 0 -0.094396571671846383 -0.2182474155275374 0 -0.079026279739786848 -0.2205222720456263 0 -0.081720491751852933 -0.20877675428878201 0 -0.094396571671846383 -0.2182474155275374 0 -0.079026279739786848 -0.2205222720456263 0 -0.081720491751852933 -0.20877675428878201 0 -0.069044411831859456 -0.19930609305002661 0 -0.079026279739786848 -0.2205222720456263 0 -0.069044411831859456 -0.19930609305002661 0 -0.059400203792498767 -0.2097550198255923 0 -0.079026279739786848 -0.2205222720456263 0 -0.069044411831859456 -0.19930609305002661 0 -0.059400203792498767 -0.2097550198255923 0 -0.064241800126254814 -0.2252558901347925 0 -0.079026279739786848 -0.2205222720456263 0 -0.081720491751852933 -0.20877675428878201 0 -0.069044411831859456 -0.19930609305002661 0 -0.081720491751852933 -0.20877675428878201 0 -0.069044411831859456 -0.19930609305002661 0 -0.083121352909691928 -0.19418378341838979 0 -0.058918490341957057 -0.17778373222470001 0 -0.069044411831859456 -0.19930609305002661 0 -0.062650670635838734 -0.19452914644682009 0 -0.058918490341957057 -0.17778373222470001 0 -0.069044411831859456 -0.19930609305002661 0 -0.069044411831859456 -0.19930609305002661 0 -0.083121352909691928 -0.19418378341838979 0 -0.074206895887143784 -0.1836508443147114 0 -0.057638568600634321 -0.20039926921330359 0 -0.069044411831859456 -0.19930609305002661 0 -0.062650670635838734 -0.19452914644682009 0 -0.069044411831859456 -0.19930609305002661 0 -0.062650670635838734 -0.19452914644682009 0 -0.083121352909691928 -0.19418378341838979 0 -0.099309107329836083 -0.19683103309600941 0 -0.089230158085929281 -0.1812018496960994 0 -0.081720491751852933 -0.20877675428878201 0 -0.083121352909691928 -0.19418378341838979 0 -0.099309107329836083 -0.19683103309600941 0 -0.099309107329836083 -0.19683103309600941 0 -0.11945877907110911 -0.19527809161832901 0 -0.1042216429878258 -0.17541465066448131 0 -0.099309107329836083 -0.19683103309600941 0 -0.11945877907110911 -0.19527809161832901 0 -0.1122965929796375 -0.2121866015945415 0 -0.11945877907110911 -0.19527809161832901 0 -0.1122965929796375 -0.2121866015945415 0 -0.13204013030797909 -0.21260893748457529 0 -0.099309107329836083 -0.19683103309600941 0 -0.1122965929796375 -0.2121866015945415 0 -0.094396571671846383 -0.2182474155275374 0 -0.099309107329836083 -0.19683103309600941 0 -0.094396571671846383 -0.2182474155275374 0 -0.094396571671846383 -0.2182474155275374 0 -0.1077348799027411 -0.22821284644547349 0 -0.099984901098435192 -0.23599512570079731 0 -0.1122965929796375 -0.2121866015945415 0 -0.094396571671846383 -0.2182474155275374 0 -0.1077348799027411 -0.22821284644547349 0 -0.089008147647712865 -0.24173845104122649 0 -0.094396571671846383 -0.2182474155275374 0 -0.099984901098435192 -0.23599512570079731 0 -0.094396571671846383 -0.2182474155275374 0 -0.1077348799027411 -0.22821284644547349 0 -0.1077348799027411 -0.22821284644547349 0 -0.1115203288717217 -0.23729534460384721 0 -0.099984901098435192 -0.23599512570079731 0 -0.1147273540776001 -0.23343712355234131 0 -0.13204013030797909 -0.21260893748457529 0 -0.1122965929796375 -0.2121866015945415 0 -0.1147273540776001 -0.23343712355234131 0 -0.13204013030797909 -0.21260893748457529 0 -0.1122965929796375 -0.2121866015945415 0 -0.1077348799027411 -0.22821284644547349 0 -0.1147273540776001 -0.23343712355234131 0 -0.1077348799027411 -0.22821284644547349 0 -0.1115203288717217 -0.23729534460384721 0 -0.1077348799027411 -0.22821284644547349 0 -0.1147273540776001 -0.23343712355234131 0 -0.1115203288717217 -0.23729534460384721 0 -0.1077348799027411 -0.22821284644547349 0 -0.1147273540776001 -0.23343712355234131 0 -0.1147273540776001 -0.23343712355234131 0 -0.1115203288717217 -0.23729534460384721 0 -0.13685178126956929 -0.24996691480950431 0 -0.1147273540776001 -0.23343712355234131 0 -0.1115203288717217 -0.23729534460384721 0 -0.097528990332044985 -0.25412766534568998 0 -0.089008147647712865 -0.24173845104122649 0 -0.099984901098435192 -0.23599512570079731 0 -0.097528990332044985 -0.25412766534568998 0 -0.1115203288717217 -0.23729534460384721 0 -0.097528990332044985 -0.25412766534568998 0 -0.1115203288717217 -0.23729534460384721 0 -0.099984901098435192 -0.23599512570079731 0 -0.082151750275142016 -0.15227416178732259 0 -0.088184978474185521 -0.12801040578135511 0 -0.068645393636575 -0.14633923289675699 0 -0.082151750275142016 -0.15227416178732259 0 -0.10533312738257949 -0.13575951999178679 0 -0.082151750275142016 -0.15227416178732259 0 -0.088184978474185521 -0.12801040578135511 0 -0.10533312738257949 -0.13575951999178679 0 -0.059167403581638092 -0.1350338025598459 0 -0.088184978474185521 -0.12801040578135511 0 -0.059167403581638092 -0.1350338025598459 0 -0.088184978474185521 -0.12801040578135511 0 -0.068645393636575 -0.14633923289675699 0 -0.06985470665528784 -0.11573341780121919 0 -0.059167403581638092 -0.1350338025598459 0 -0.088184978474185521 -0.12801040578135511 0 -0.082151750275142016 -0.15227416178732259 0 -0.068645393636575 -0.14633923289675699 0 -0.06261044588472478 -0.15980119620886979 0 -0.058970373167704593 -0.16878880358285819 0 -0.082151750275142016 -0.15227416178732259 0 -0.06261044588472478 -0.15980119620886979 0 -0.058970373167704593 -0.16878880358285819 0 -0.082151750275142016 -0.15227416178732259 0 -0.071108209387675689 -0.17078997472824009 0 -0.058970373167704593 -0.16878880358285819 0 -0.082151750275142016 -0.15227416178732259 0 -0.058918490341957057 -0.17778373222470001 0 -0.069044411831859456 -0.19930609305002661 0 -0.074206895887143784 -0.1836508443147114 0 -0.058918490341957057 -0.17778373222470001 0 -0.071108209387675689 -0.17078997472824009 0 -0.074206895887143784 -0.1836508443147114 0 -0.058918490341957057 -0.17778373222470001 0 -0.058970373167704593 -0.16878880358285819 0 -0.071108209387675689 -0.17078997472824009 0 -0.071108209387675689 -0.17078997472824009 0 -0.074206895887143784 -0.1836508443147114 0 -0.081293537266431015 -0.17145233173160829 0 -0.083121352909691928 -0.19418378341838979 0 -0.074206895887143784 -0.1836508443147114 0 -0.089230158085929281 -0.1812018496960994 0 -0.074206895887143784 -0.1836508443147114 0 -0.089230158085929281 -0.1812018496960994 0 -0.081293537266431015 -0.17145233173160829 0 -0.089230158085929281 -0.1812018496960994 0 -0.081293537266431015 -0.17145233173160829 0 -0.093228412134647165 -0.16567845495139649 0 -0.082151750275142016 -0.15227416178732259 0 -0.071108209387675689 -0.17078997472824009 0 -0.081293537266431015 -0.17145233173160829 0 -0.082151750275142016 -0.15227416178732259 0 -0.081293537266431015 -0.17145233173160829 0 -0.093228412134647165 -0.16567845495139649 0 -0.1042216429878258 -0.17541465066448131 0 -0.1091341786458155 -0.15399826823295329 0 -0.082151750275142016 -0.15227416178732259 0 -0.093228412134647165 -0.16567845495139649 0 -0.1091341786458155 -0.15399826823295329 0 -0.093228412134647165 -0.16567845495139649 0 -0.1042216429878258 -0.17541465066448131 0 -0.1091341786458155 -0.15399826823295329 0 -0.099309107329836083 -0.19683103309600941 0 -0.1042216429878258 -0.17541465066448131 0 -0.099309107329836083 -0.19683103309600941 0 -0.089230158085929281 -0.1812018496960994 0 -0.1042216429878258 -0.17541465066448131 0 -0.089230158085929281 -0.1812018496960994 0 -0.093228412134647165 -0.16567845495139649 0 -0.1042216429878258 -0.17541465066448131 0 -0.11945877907110911 -0.19527809161832901 0 -0.1042216429878258 -0.17541465066448131 0 -0.12901005448167091 -0.1774681495480763 0 -0.1042216429878258 -0.17541465066448131 0 -0.1235605780643942 -0.16128723322127669 0 -0.1091341786458155 -0.15399826823295329 0 -0.1042216429878258 -0.17541465066448131 0 -0.1235605780643942 -0.16128723322127669 0 -0.12901005448167091 -0.1774681495480763 0 -0.1091341786458155 -0.15399826823295329 0 -0.10533312738257949 -0.13575951999178679 0 -0.12561010146866269 -0.14319527130708881 0 -0.1235605780643942 -0.16128723322127669 0 -0.1091341786458155 -0.15399826823295329 0 -0.12561010146866269 -0.14319527130708881 0 -0.082151750275142016 -0.15227416178732259 0 -0.1091341786458155 -0.15399826823295329 0 -0.10533312738257949 -0.13575951999178679 0 -0.10344028973991599 -0.1181431917005573 0 -0.088184978474185521 -0.12801040578135511 0 -0.10533312738257949 -0.13575951999178679 0 -0.10533312738257949 -0.13575951999178679 0 -0.12561010146866269 -0.14319527130708881 0 -0.12851450449001681 -0.11924487819625119 0 -0.10533312738257949 -0.13575951999178679 0 -0.12851450449001681 -0.11924487819625119 0 -0.1487546599681262 -0.13725529291578581 0 -0.12561010146866269 -0.14319527130708881 0 -0.12851450449001681 -0.11924487819625119 0 -0.1487546599681262 -0.13725529291578581 0 -0.13879892256602469 -0.15653712402026321 0 -0.15548266520863241 -0.1571961593025675 0 -0.1487546599681262 -0.13725529291578581 0 -0.12561010146866269 -0.14319527130708881 0 -0.13879892256602469 -0.15653712402026321 0 -0.1235605780643942 -0.16128723322127669 0 -0.12561010146866269 -0.14319527130708881 0 -0.13879892256602469 -0.15653712402026321 0 -0.13879892256602469 -0.15653712402026321 0 -0.12901005448167091 -0.1774681495480763 0 -0.14752780908433691 -0.1727616089836615 0 -0.1235605780643942 -0.16128723322127669 0 -0.13879892256602469 -0.15653712402026321 0 -0.12901005448167091 -0.1774681495480763 0 -0.14752780908433691 -0.1727616089836615 0 -0.16666568276873589 -0.17095256534904249 0 -0.149352906538358 -0.19178075141680931 0 -0.12901005448167091 -0.1774681495480763 0 -0.14752780908433691 -0.1727616089836615 0 -0.149352906538358 -0.19178075141680931 0 -0.13879892256602469 -0.15653712402026321 0 -0.14752780908433691 -0.1727616089836615 0 -0.15548266520863241 -0.1571961593025675 0 -0.16666568276873589 -0.17095256534904249 0 -0.16993604954548949 -0.14717791037182279 0 -0.15548266520863241 -0.1571961593025675 0 -0.16666568276873589 -0.17095256534904249 0 -0.16993604954548949 -0.14717791037182279 0 -0.14752780908433691 -0.1727616089836615 0 -0.15548266520863241 -0.1571961593025675 0 -0.16666568276873589 -0.17095256534904249 0 -0.16666568276873589 -0.17095256534904249 0 -0.1720447242821358 -0.16174773503342549 0 -0.16993604954548949 -0.14717791037182279 0 -0.16666568276873589 -0.17095256534904249 0 -0.17166228082577639 -0.16494139344610731 0 -0.1720447242821358 -0.16174773503342549 0 -0.16666568276873589 -0.17095256534904249 0 -0.17166228082577639 -0.16494139344610731 0 -0.17166228082577639 -0.16494139344610731 0 -0.1720447242821358 -0.16174773503342549 0 -0.16666568276873589 -0.17095256534904249 0 -0.17166228082577639 -0.16494139344610731 0 -0.16855159337070261 -0.19091771228464111 0 -0.17166228082577639 -0.16494139344610731 0 -0.16855159337070261 -0.19091771228464111 0 -0.16666568276873589 -0.17095256534904249 0 -0.1627357838377505 -0.19952183526812309 0 -0.16855159337070261 -0.19091771228464111 0 -0.16666568276873589 -0.17095256534904249 0 -0.149352906538358 -0.19178075141680931 0 -0.17166228082577639 -0.16494139344610731 0 -0.17525314722432259 -0.173734874967687 0 -0.16855159337070261 -0.19091771228464111 0 -0.16666568276873589 -0.17095256534904249 0 -0.1627357838377505 -0.19952183526812309 0 -0.16666568276873589 -0.17095256534904249 0 -0.149352906538358 -0.19178075141680931 0 -0.1627357838377505 -0.19952183526812309 0 -0.1767489917097271 -0.18125821328079361 0 -0.17525314722432259 -0.173734874967687 0 -0.16855159337070261 -0.19091771228464111 0 -0.1767489917097271 -0.18125821328079361 0 -0.16855159337070261 -0.19091771228464111 0 -0.17800386065345811 -0.18848334235855091 0 -0.1767489917097271 -0.18125821328079361 0 -0.17525314722432259 -0.173734874967687 0 -0.18137572561572379 -0.17621085489853791 0 -0.17525314722432259 -0.173734874967687 0 -0.18137572561572379 -0.17621085489853791 0 -0.18133886475852071 -0.16871620071701021 0 -0.18137572561572379 -0.17621085489853791 0 -0.184427061269404 -0.18282346274701539 0 -0.1891105631166447 -0.1745215227801831 0 -0.18137572561572379 -0.17621085489853791 0 -0.18133886475852071 -0.16871620071701021 0 -0.1891105631166447 -0.1745215227801831 0 -0.1767489917097271 -0.18125821328079361 0 -0.18137572561572379 -0.17621085489853791 0 -0.184427061269404 -0.18282346274701539 0 -0.1767489917097271 -0.18125821328079361 0 -0.184427061269404 -0.18282346274701539 0 -0.17800386065345811 -0.18848334235855091 0 -0.17601244053032061 -0.15970792109337489 0 -0.17738231060961959 -0.16471981190443671 0 -0.18386553171199721 -0.1607197556162821 0 -0.17166228082577639 -0.16494139344610731 0 -0.17601244053032061 -0.15970792109337489 0 -0.17738231060961959 -0.16471981190443671 0 -0.17166228082577639 -0.16494139344610731 0 -0.17601244053032061 -0.15970792109337489 0 -0.17166228082577639 -0.16494139344610731 0 -0.17601244053032061 -0.15970792109337489 0 -0.1720447242821358 -0.16174773503342549 0 -0.17166228082577639 -0.16494139344610731 0 -0.17525314722432259 -0.173734874967687 0 -0.1764091508545598 -0.16802807025881031 0 -0.17166228082577639 -0.16494139344610731 0 -0.1764091508545598 -0.16802807025881031 0 -0.17738231060961959 -0.16471981190443671 0 -0.17525314722432259 -0.173734874967687 0 -0.1764091508545598 -0.16802807025881031 0 -0.18133886475852071 -0.16871620071701021 0 -0.1764091508545598 -0.16802807025881031 0 -0.17738231060961959 -0.16471981190443671 0 -0.18133886475852071 -0.16871620071701021 0 -0.18133886475852071 -0.16871620071701021 0 -0.18878298984277789 -0.1657482219249983 0 -0.1891105631166447 -0.1745215227801831 0 -0.17738231060961959 -0.16471981190443671 0 -0.18133886475852071 -0.16871620071701021 0 -0.18386553171199721 -0.1607197556162821 0 -0.18133886475852071 -0.16871620071701021 0 -0.18386553171199721 -0.1607197556162821 0 -0.18878298984277789 -0.1657482219249983 0 -0.17601244053032061 -0.15970792109337489 0 -0.18386553171199721 -0.1607197556162821 0 -0.18151027782013579 -0.14930339232780601 0 -0.18386553171199721 -0.1607197556162821 0 -0.18151027782013579 -0.14930339232780601 0 -0.1912007096150618 -0.15498136591914929 0 -0.18151027782013579 -0.14930339232780601 0 -0.18586820909522009 -0.13809270552836239 0 -0.1912007096150618 -0.15498136591914929 0 -0.18151027782013579 -0.14930339232780601 0 -0.18586820909522009 -0.13809270552836239 0 -0.16993604954548949 -0.14717791037182279 0 -0.17601244053032061 -0.15970792109337489 0 -0.18151027782013579 -0.14930339232780601 0 -0.16993604954548949 -0.14717791037182279 0 -0.17601244053032061 -0.15970792109337489 0 -0.1720447242821358 -0.16174773503342549 0 -0.16993604954548949 -0.14717791037182279 0 -0.18586820909522009 -0.13809270552836239 0 -0.16993604954548949 -0.14717791037182279 0 -0.1732064163222323 -0.1234032553946016 0 -0.18586820909522009 -0.13809270552836239 0 -0.19890534426130371 -0.11653644700893941 0 -0.1732064163222323 -0.1234032553946016 0 -0.18586820909522009 -0.13809270552836239 0 -0.1732064163222323 -0.1234032553946016 0 -0.1487546599681262 -0.13725529291578581 0 -0.16993604954548949 -0.14717791037182279 0 -0.1732064163222323 -0.1234032553946016 0 -0.1487546599681262 -0.13725529291578581 0 -0.1732064163222323 -0.1234032553946016 0 -0.1522685036293179 -0.11795078749497551 0 -0.16993604954548949 -0.14717791037182279 0 -0.1732064163222323 -0.1234032553946016 0 -0.1487546599681262 -0.13725529291578581 0 -0.15548266520863241 -0.1571961593025675 0 -0.16993604954548949 -0.14717791037182279 0 -0.15487598597578189 -0.25666037510628409 0 -0.13685178126956929 -0.24996691480950431 0 -0.1588058849067662 -0.2280911051872036 0 -0.13685178126956929 -0.24996691480950431 0 -0.13470279288830209 -0.23014897496026299 0 -0.1588058849067662 -0.2280911051872036 0 -0.1147273540776001 -0.23343712355234131 0 -0.13685178126956929 -0.24996691480950431 0 -0.13470279288830209 -0.23014897496026299 0 -0.1147273540776001 -0.23343712355234131 0 -0.13685178126956929 -0.24996691480950431 0 -0.1147273540776001 -0.23343712355234131 0 -0.13470279288830209 -0.23014897496026299 0 -0.13204013030797909 -0.21260893748457529 0 -0.13470279288830209 -0.23014897496026299 0 -0.14825054942133661 -0.20966023411105131 0 -0.1588058849067662 -0.2280911051872036 0 -0.14825054942133661 -0.20966023411105131 0 -0.13204013030797909 -0.21260893748457529 0 -0.149352906538358 -0.19178075141680931 0 -0.13470279288830209 -0.23014897496026299 0 -0.14825054942133661 -0.20966023411105131 0 -0.13204013030797909 -0.21260893748457529 0 -0.11945877907110911 -0.19527809161832901 0 -0.13204013030797909 -0.21260893748457529 0 -0.149352906538358 -0.19178075141680931 0 -0.11945877907110911 -0.19527809161832901 0 -0.12901005448167091 -0.1774681495480763 0 -0.149352906538358 -0.19178075141680931 0 -0.14825054942133661 -0.20966023411105131 0 -0.149352906538358 -0.19178075141680931 0 -0.1627357838377505 -0.19952183526812309 0 -0.13204013030797909 -0.21260893748457529 0 -0.149352906538358 -0.19178075141680931 0 -0.1627357838377505 -0.19952183526812309 0 -0.16855159337070261 -0.19091771228464111 0 -0.1654409059156294 -0.21689403112317501 0 -0.16855159337070261 -0.19091771228464111 0 -0.17800386065345811 -0.18848334235855091 0 -0.17747129892593991 -0.19634032972581511 0 -0.184427061269404 -0.18282346274701539 0 -0.17800386065345811 -0.18848334235855091 0 -0.1852937882360792 -0.1920268384808714 0 -0.17800386065345811 -0.18848334235855091 0 -0.1852937882360792 -0.1920268384808714 0 -0.17747129892593991 -0.19634032972581511 0 -0.1852937882360792 -0.1920268384808714 0 -0.17747129892593991 -0.19634032972581511 0 -0.18967221426625819 -0.20662133878464389 0 -0.17747129892593991 -0.19634032972581511 0 -0.1746146044128587 -0.20481817651344189 0 -0.18967221426625819 -0.20662133878464389 0 -0.16855159337070261 -0.19091771228464111 0 -0.17747129892593991 -0.19634032972581511 0 -0.1746146044128587 -0.20481817651344189 0 -0.17948577021906351 -0.21804110076463121 0 -0.19196838494489951 -0.22336842639083301 0 -0.18967221426625819 -0.20662133878464389 0 -0.1746146044128587 -0.20481817651344189 0 -0.17948577021906351 -0.21804110076463121 0 -0.18967221426625819 -0.20662133878464389 0 -0.1746146044128587 -0.20481817651344189 0 -0.17948577021906351 -0.21804110076463121 0 -0.1654409059156294 -0.21689403112317501 0 -0.14825054942133661 -0.20966023411105131 0 -0.1627357838377505 -0.19952183526812309 0 -0.1588058849067662 -0.2280911051872036 0 -0.1627357838377505 -0.19952183526812309 0 -0.1654409059156294 -0.21689403112317501 0 -0.1588058849067662 -0.2280911051872036 0 -0.16855159337070261 -0.19091771228464111 0 -0.1746146044128587 -0.20481817651344189 0 -0.1654409059156294 -0.21689403112317501 0 -0.1627357838377505 -0.19952183526812309 0 -0.1588058849067662 -0.2280911051872036 0 -0.16855159337070261 -0.19091771228464111 0 -0.1654409059156294 -0.21689403112317501 0 -0.1654409059156294 -0.21689403112317501 0 -0.1735422067143475 -0.23033906176662791 0 -0.1623302184605562 -0.24287034996170889 0 -0.1654409059156294 -0.21689403112317501 0 -0.1623302184605562 -0.24287034996170889 0 -0.1654409059156294 -0.21689403112317501 0 -0.1588058849067662 -0.2280911051872036 0 -0.1623302184605562 -0.24287034996170889 0 -0.17948577021906351 -0.21804110076463121 0 -0.1654409059156294 -0.21689403112317501 0 -0.1735422067143475 -0.23033906176662791 0 -0.17948577021906351 -0.21804110076463121 0 -0.1834678646968248 -0.23145744035455981 0 -0.19196838494489951 -0.22336842639083301 0 -0.17948577021906351 -0.21804110076463121 0 -0.1834678646968248 -0.23145744035455981 0 -0.1735422067143475 -0.23033906176662791 0 -0.1834678646968248 -0.23145744035455981 0 -0.1735422067143475 -0.23033906176662791 0 -0.17698627427966371 -0.2424323866290648 0 -0.1834678646968248 -0.23145744035455981 0 -0.17698627427966371 -0.2424323866290648 0 -0.18884488688963899 -0.24197164342126989 0 -0.1851647614308066 -0.25125861257519921 0 -0.17698627427966371 -0.2424323866290648 0 -0.18884488688963899 -0.24197164342126989 0 -0.15487598597578189 -0.25666037510628409 0 -0.1588058849067662 -0.2280911051872036 0 -0.1744201733432538 -0.25845456654782362 0 -0.17698627427966371 -0.2424323866290648 0 -0.1623302184605562 -0.24287034996170889 0 -0.15487598597578189 -0.25666037510628409 0 -0.1588058849067662 -0.2280911051872036 0 -0.1623302184605562 -0.24287034996170889 0 -0.1735422067143475 -0.23033906176662791 0 -0.17698627427966371 -0.2424323866290648 0 -0.1623302184605562 -0.24287034996170889 0 -0.21229277179239081 -0.2407730569091879 0 -0.22126906613789599 -0.23125390698764869 0 -0.21229277179239081 -0.2407730569091879 0 -0.19909052487695861 -0.242132382142454 0 -0.20347169592413961 -0.23057050284392169 0 -0.21229277179239081 -0.2407730569091879 0 -0.20347169592413961 -0.23057050284392169 0 -0.19476493527325819 -0.25936091702199632 0 -0.21229277179239081 -0.2407730569091879 0 -0.19909052487695861 -0.242132382142454 0 -0.1851647614308066 -0.25125861257519921 0 -0.19196627711766559 -0.24868088879022979 0 -0.18884488688963899 -0.24197164342126989 0 -0.19196627711766559 -0.24868088879022979 0 -0.18884488688963899 -0.24197164342126989 0 -0.19909052487695861 -0.242132382142454 0 -0.18884488688963899 -0.24197164342126989 0 -0.19909052487695861 -0.242132382142454 0 -0.1934971523495379 -0.2337004338741798 0 -0.1834678646968248 -0.23145744035455981 0 -0.18884488688963899 -0.24197164342126989 0 -0.1934971523495379 -0.2337004338741798 0 -0.19909052487695861 -0.242132382142454 0 -0.1934971523495379 -0.2337004338741798 0 -0.20347169592413961 -0.23057050284392169 0 -0.1934971523495379 -0.2337004338741798 0 -0.19196838494489951 -0.22336842639083301 0 -0.20347169592413961 -0.23057050284392169 0 -0.1834678646968248 -0.23145744035455981 0 -0.1934971523495379 -0.2337004338741798 0 -0.19196838494489951 -0.22336842639083301 0 -0.19196838494489951 -0.22336842639083301 0 -0.20347169592413961 -0.23057050284392169 0 -0.20488397625648869 -0.21685189891152659 0 -0.21229277179239081 -0.2407730569091879 0 -0.20347169592413961 -0.23057050284392169 0 -0.22126906613789599 -0.23125390698764869 0 -0.20347169592413961 -0.23057050284392169 0 -0.20488397625648869 -0.21685189891152659 0 -0.22126906613789599 -0.23125390698764869 0 -0.20488397625648869 -0.21685189891152659 0 -0.21567813566874439 -0.20257454199297201 0 -0.22126906613789599 -0.23125390698764869 0 -0.20488397625648869 -0.21685189891152659 0 -0.18967221426625819 -0.20662133878464389 0 -0.21567813566874439 -0.20257454199297201 0 -0.21567813566874439 -0.20257454199297201 0 -0.22126906613789599 -0.23125390698764869 0 -0.19196838494489951 -0.22336842639083301 0 -0.20488397625648869 -0.21685189891152659 0 -0.18967221426625819 -0.20662133878464389 0 -0.1852937882360792 -0.1920268384808714 0 -0.18967221426625819 -0.20662133878464389 0 -0.19743862695312039 -0.18620226629385289 0 -0.18967221426625819 -0.20662133878464389 0 -0.21567813566874439 -0.20257454199297201 0 -0.19743862695312039 -0.18620226629385289 0 -0.21567813566874439 -0.20257454199297201 0 -0.19743862695312039 -0.18620226629385289 0 -0.21008720519959739 -0.1738951769982944 0 -0.21567813566874439 -0.20257454199297201 0 -0.21008720519959739 -0.1738951769982944 0 -0.21567813566874439 -0.20257454199297201 0 -0.2295713323688828 -0.2031769884598901 0 -0.2335430549900232 -0.18508194377082679 0 -0.24205643140474761 -0.20920939297862751 0 -0.2295713323688828 -0.2031769884598901 0 -0.2335430549900232 -0.18508194377082679 0 -0.24479659859057129 -0.19441108710895591 0 -0.24205643140474761 -0.20920939297862751 0 -0.2335430549900232 -0.18508194377082679 0 -0.24205643140474761 -0.20920939297862751 0 -0.2335430549900232 -0.18508194377082679 0 -0.24479659859057129 -0.19441108710895591 0 -0.2438024512430936 -0.18267014993035049 0 -0.25449940411996819 -0.1899960014345351 0 -0.24479659859057129 -0.19441108710895591 0 -0.25449940411996819 -0.1899960014345351 0 -0.25064578342257748 -0.19770227846942581 0 -0.24479659859057129 -0.19441108710895591 0 -0.2469281484224633 -0.2040430511807865 0 -0.25064578342257748 -0.19770227846942581 0 -0.24479659859057129 -0.19441108710895591 0 -0.24205643140474761 -0.20920939297862751 0 -0.2469281484224633 -0.2040430511807865 0 -0.24205643140474761 -0.20920939297862751 0 -0.24919649157834911 -0.22944477677784869 0 -0.25479553338475952 -0.21380407726207479 0 -0.24205643140474761 -0.20920939297862751 0 -0.2469281484224633 -0.2040430511807865 0 -0.25479553338475952 -0.21380407726207479 0 -0.24205643140474761 -0.20920939297862751 0 -0.2469281484224633 -0.2040430511807865 0 -0.24205643140474761 -0.20920939297862751 0 -0.22714374139506929 -0.21155370760478601 0 -0.22126906613789599 -0.23125390698764869 0 -0.21567813566874439 -0.20257454199297201 0 -0.22714374139506929 -0.21155370760478601 0 -0.22126906613789599 -0.23125390698764869 0 -0.24205643140474761 -0.20920939297862751 0 -0.22714374139506929 -0.21155370760478601 0 -0.2295713323688828 -0.2031769884598901 0 -0.21567813566874439 -0.20257454199297201 0 -0.22714374139506929 -0.21155370760478601 0 -0.2295713323688828 -0.2031769884598901 0 -0.24205643140474761 -0.20920939297862751 0 -0.22126906613789599 -0.23125390698764869 0 -0.24205643140474761 -0.20920939297862751 0 -0.22126906613789599 -0.23125390698764869 0 -0.24919649157834911 -0.22944477677784869 0 -0.24205643140474761 -0.20920939297862751 0 -0.24919649157834911 -0.22944477677784869 0 -0.24919649157834911 -0.22944477677784869 0 -0.23914424273147569 -0.2443690931651924 0 -0.25633655175195141 -0.24968016057706971 0 -0.2393493786546918 -0.25469325497439688 0 -0.23914424273147569 -0.2443690931651924 0 -0.25633655175195141 -0.24968016057706971 0 -0.22126906613789599 -0.23125390698764869 0 -0.24919649157834911 -0.22944477677784869 0 -0.23914424273147569 -0.2443690931651924 0 -0.2262781706312966 -0.25694872413044523 0 -0.22126906613789599 -0.23125390698764869 0 -0.23914424273147569 -0.2443690931651924 0 -0.2262781706312966 -0.25694872413044523 0 -0.21229277179239081 -0.2407730569091879 0 -0.22126906613789599 -0.23125390698764869 0 -0.2262781706312966 -0.25694872413044523 0 -0.21229277179239081 -0.2407730569091879 0 -0.2262781706312966 -0.25694872413044523 0 -0.22126906613789599 -0.23125390698764869 0 -0.20449627473045051 -0.14521581200361691 0 -0.22502967857529829 -0.1609544945630263 0 -0.22139356404382221 -0.1444345862417056 0 -0.20449627473045051 -0.14521581200361691 0 -0.22139356404382221 -0.1444345862417056 0 -0.22238248589600809 -0.12603956718480891 0 -0.20449627473045051 -0.14521581200361691 0 -0.22238248589600809 -0.12603956718480891 0 -0.19890534426130371 -0.11653644700893941 0 -0.20449627473045051 -0.14521581200361691 0 -0.19890534426130371 -0.11653644700893941 0 -0.18586820909522009 -0.13809270552836239 0 -0.20449627473045051 -0.14521581200361691 0 -0.19890534426130371 -0.11653644700893941 0 -0.18586820909522009 -0.13809270552836239 0 -0.20449627473045051 -0.14521581200361691 0 -0.1912007096150618 -0.15498136591914929 0 -0.20449627473045051 -0.14521581200361691 0 -0.1912007096150618 -0.15498136591914929 0 -0.19697169376361309 -0.16699469203327361 0 -0.18386553171199721 -0.1607197556162821 0 -0.1912007096150618 -0.15498136591914929 0 -0.18878298984277789 -0.1657482219249983 0 -0.1912007096150618 -0.15498136591914929 0 -0.18878298984277789 -0.1657482219249983 0 -0.19697169376361309 -0.16699469203327361 0 -0.18878298984277789 -0.1657482219249983 0 -0.19697169376361309 -0.16699469203327361 0 -0.1891105631166447 -0.1745215227801831 0 -0.19697169376361309 -0.16699469203327361 0 -0.19743862695312039 -0.18620226629385289 0 -0.21008720519959739 -0.1738951769982944 0 -0.19697169376361309 -0.16699469203327361 0 -0.1891105631166447 -0.1745215227801831 0 -0.19743862695312039 -0.18620226629385289 0 -0.184427061269404 -0.18282346274701539 0 -0.1852937882360792 -0.1920268384808714 0 -0.19743862695312039 -0.18620226629385289 0 -0.184427061269404 -0.18282346274701539 0 -0.1891105631166447 -0.1745215227801831 0 -0.19743862695312039 -0.18620226629385289 0 -0.20449627473045051 -0.14521581200361691 0 -0.19697169376361309 -0.16699469203327361 0 -0.21008720519959739 -0.1738951769982944 0 -0.20449627473045051 -0.14521581200361691 0 -0.21008720519959739 -0.1738951769982944 0 -0.20449627473045051 -0.14521581200361691 0 -0.21008720519959739 -0.1738951769982944 0 -0.22502967857529829 -0.1609544945630263 0 -0.22502967857529829 -0.1609544945630263 0 -0.2335430549900232 -0.18508194377082679 0 -0.23904127562893901 -0.1684569966278901 0 -0.21008720519959739 -0.1738951769982944 0 -0.22502967857529829 -0.1609544945630263 0 -0.2335430549900232 -0.18508194377082679 0 -0.22502967857529829 -0.1609544945630263 0 -0.2335430549900232 -0.18508194377082679 0 -0.21567813566874439 -0.20257454199297201 0 -0.21008720519959739 -0.1738951769982944 0 -0.2335430549900232 -0.18508194377082679 0 -0.2335430549900232 -0.18508194377082679 0 -0.2438024512430936 -0.18267014993035049 0 -0.23904127562893901 -0.1684569966278901 0 -0.24479659859057129 -0.19441108710895591 0 -0.2335430549900232 -0.18508194377082679 0 -0.2438024512430936 -0.18267014993035049 0 -0.2438024512430936 -0.18267014993035049 0 -0.25370212550035909 -0.15996197856000161 0 -0.2438024512430936 -0.18267014993035049 0 -0.23904127562893901 -0.1684569966278901 0 -0.25370212550035909 -0.15996197856000161 0 -0.22502967857529829 -0.1609544945630263 0 -0.23904127562893901 -0.1684569966278901 0 -0.23912906783592081 -0.153616416315245 0 -0.23904127562893901 -0.1684569966278901 0 -0.23912906783592081 -0.153616416315245 0 -0.25370212550035909 -0.15996197856000161 0 -0.23912906783592081 -0.153616416315245 0 -0.2369820591010135 -0.1378674314785848 0 -0.2636017997576246 -0.13725380718965269 0 -0.22502967857529829 -0.1609544945630263 0 -0.23912906783592081 -0.153616416315245 0 -0.22139356404382221 -0.1444345862417056 0 -0.23912906783592081 -0.153616416315245 0 -0.22139356404382221 -0.1444345862417056 0 -0.2369820591010135 -0.1378674314785848 0 -0.22139356404382221 -0.1444345862417056 0 -0.22238248589600809 -0.12603956718480891 0 -0.2369820591010135 -0.1378674314785848 0 -0.22238248589600809 -0.12603956718480891 0 -0.2369820591010135 -0.1378674314785848 0 -0.24395647137384779 -0.12545654041261339 0 -0.2369820591010135 -0.1378674314785848 0 -0.24395647137384779 -0.12545654041261339 0 -0.2636017997576246 -0.13725380718965269 0 -0.24395647137384779 -0.12545654041261339 0 -0.2478793288110141 -0.1130174099790163 0 -0.25525621579365992 -0.1208836458952024 0 -0.23600172655782131 -0.1118883854953075 0 -0.2478793288110141 -0.1130174099790163 0 -0.24006915421710709 -0.10420596465129769 0 -0.24395647137384779 -0.12545654041261339 0 -0.23600172655782131 -0.1118883854953075 0 -0.2478793288110141 -0.1130174099790163 0 -0.2478793288110141 -0.1130174099790163 0 -0.24006915421710709 -0.10420596465129769 0 -0.25249118283028049 -0.1029309716675586 0 -0.23994590340662131 -0.086734477141112223 0 -0.25585503461737608 -0.104790536983435 0 -0.25248094839387042 -0.09513443491194995 0 -0.23994590340662131 -0.086734477141112223 0 -0.25249118283028049 -0.1029309716675586 0 -0.25585503461737608 -0.104790536983435 0 -0.23148089164567021 -0.091316307515814404 0 -0.25249118283028049 -0.1029309716675586 0 -0.23994590340662131 -0.086734477141112223 0 -0.25585503461737608 -0.104790536983435 0 -0.24006915421710709 -0.10420596465129769 0 -0.23148089164567021 -0.091316307515814404 0 -0.25249118283028049 -0.1029309716675586 0 -0.24006915421710709 -0.10420596465129769 0 -0.2324926412407495 -0.10187674859879139 0 -0.23148089164567021 -0.091316307515814404 0 -0.23600172655782131 -0.1118883854953075 0 -0.24006915421710709 -0.10420596465129769 0 -0.2324926412407495 -0.10187674859879139 0 -0.23600172655782131 -0.1118883854953075 0 -0.21465807017498811 -0.099872733754785628 0 -0.23600172655782131 -0.1118883854953075 0 -0.2324926412407495 -0.10187674859879139 0 -0.21465807017498811 -0.099872733754785628 0 -0.2324926412407495 -0.10187674859879139 0 -0.23148089164567021 -0.091316307515814404 0 -0.21465807017498811 -0.099872733754785628 0 -0.22238248589600809 -0.12603956718480891 0 -0.24395647137384779 -0.12545654041261339 0 -0.23600172655782131 -0.1118883854953075 0 -0.22238248589600809 -0.12603956718480891 0 -0.23600172655782131 -0.1118883854953075 0 -0.21465807017498811 -0.099872733754785628 0 -0.23986858638978609 -0.064961931129078665 0 -0.24660135465437691 -0.086575867280953567 0 -0.25016081396004591 -0.073608492850177634 0 -0.23986858638978609 -0.064961931129078665 0 -0.23994590340662131 -0.086734477141112223 0 -0.2239123346781316 -0.068903517951528367 0 -0.23986858638978609 -0.064961931129078665 0 -0.24660135465437691 -0.086575867280953567 0 -0.23986858638978609 -0.064961931129078665 0 -0.2510958606163266 -0.061473260803628672 0 -0.25016081396004591 -0.073608492850177634 0 -0.23994590340662131 -0.086734477141112223 0 -0.23148089164567021 -0.091316307515814404 0 -0.25249118283028049 -0.1029309716675586 0 -0.23986858638978609 -0.064961931129078665 0 -0.24660135465437691 -0.086575867280953567 0 -0.23994590340662131 -0.086734477141112223 0 -0.24660135465437691 -0.086575867280953567 0 -0.23994590340662131 -0.086734477141112223 0 -0.25248094839387042 -0.09513443491194995 0 -0.23994590340662131 -0.086734477141112223 0 -0.23148089164567021 -0.091316307515814404 0 -0.2239123346781316 -0.068903517951528367 0 -0.23148089164567021 -0.091316307515814404 0 -0.2239123346781316 -0.068903517951528367 0 -0.21047060046105989 -0.079701643364070207 0 -0.23148089164567021 -0.091316307515814404 0 -0.21047060046105989 -0.079701643364070207 0 -0.21465807017498811 -0.099872733754785628 0 -0.23148089164567021 -0.091316307515814404 0 -0.21047060046105989 -0.079701643364070207 0 -0.23986858638978609 -0.064961931129078665 0 -0.2239123346781316 -0.068903517951528367 0 -0.23003279853689779 -0.058060034830836812 0 -0.23994590340662131 -0.086734477141112223 0 -0.2239123346781316 -0.068903517951528367 0 -0.2099349821475171 -0.06256843556115177 0 -0.21047060046105989 -0.079701643364070207 0 -0.1994936990865987 -0.064571033035335582 0 -0.2239123346781316 -0.068903517951528367 0 -0.2099349821475171 -0.06256843556115177 0 -0.21047060046105989 -0.079701643364070207 0 -0.21047060046105989 -0.079701643364070207 0 -0.19331441379215561 -0.087857082014262136 0 -0.21465807017498811 -0.099872733754785628 0 -0.21047060046105989 -0.079701643364070207 0 -0.19331441379215561 -0.087857082014262136 0 -0.18946030927645091 -0.068086979212324067 0 -0.21047060046105989 -0.079701643364070207 0 -0.18946030927645091 -0.068086979212324067 0 -0.19331441379215561 -0.087857082014262136 0 -0.18946030927645091 -0.068086979212324067 0 -0.21047060046105989 -0.079701643364070207 0 -0.18946030927645091 -0.068086979212324067 0 -0.1994936990865987 -0.064571033035335582 0 -0.18946030927645091 -0.068086979212324067 0 -0.1994936990865987 -0.064571033035335582 0 -0.18736640063485219 -0.057346017483437872 0 -0.18946030927645091 -0.068086979212324067 0 -0.18736640063485219 -0.057346017483437872 0 -0.22238248589600809 -0.12603956718480891 0 -0.21465807017498811 -0.099872733754785628 0 -0.19890534426130371 -0.11653644700893941 0 -0.19331441379215561 -0.087857082014262136 0 -0.21465807017498811 -0.099872733754785628 0 -0.19331441379215561 -0.087857082014262136 0 -0.21465807017498811 -0.099872733754785628 0 -0.19890534426130371 -0.11653644700893941 0 -0.19331441379215561 -0.087857082014262136 0 -0.19890534426130371 -0.11653644700893941 0 -0.19331441379215561 -0.087857082014262136 0 -0.19890534426130371 -0.11653644700893941 0 -0.1761981242535233 -0.10165437255848329 0 -0.19890534426130371 -0.11653644700893941 0 -0.1732064163222323 -0.1234032553946016 0 -0.1761981242535233 -0.10165437255848329 0 -0.1732064163222323 -0.1234032553946016 0 -0.1761981242535233 -0.10165437255848329 0 -0.1732064163222323 -0.1234032553946016 0 -0.1591710557687484 -0.1071202745675215 0 -0.1732064163222323 -0.1234032553946016 0 -0.1591710557687484 -0.1071202745675215 0 -0.1761981242535233 -0.10165437255848329 0 -0.1732064163222323 -0.1234032553946016 0 -0.1591710557687484 -0.1071202745675215 0 -0.1522685036293179 -0.11795078749497551 0 -0.1591710557687484 -0.1071202745675215 0 -0.1761981242535233 -0.10165437255848329 0 -0.16102591301406571 -0.087414008609584287 0 -0.1761981242535233 -0.10165437255848329 0 -0.1791898321848002 -0.079905489722363027 0 -0.16102591301406571 -0.087414008609584287 0 -0.19331441379215561 -0.087857082014262136 0 -0.18946030927645091 -0.068086979212324067 0 -0.1791898321848002 -0.079905489722363027 0 -0.1761981242535233 -0.10165437255848329 0 -0.1791898321848002 -0.079905489722363027 0 -0.19331441379215561 -0.087857082014262136 0 -0.1761981242535233 -0.10165437255848329 0 -0.1791898321848002 -0.079905489722363027 0 -0.19331441379215561 -0.087857082014262136 0 -0.1791898321848002 -0.079905489722363027 0 -0.1791898321848002 -0.079905489722363027 0 -0.18142646364776341 -0.063645802362143802 0 -0.17620530639876439 -0.060759503100643777 0 -0.18946030927645091 -0.068086979212324067 0 -0.1791898321848002 -0.079905489722363027 0 -0.18142646364776341 -0.063645802362143802 0 -0.1791898321848002 -0.079905489722363027 0 -0.18142646364776341 -0.063645802362143802 0 -0.18946030927645091 -0.068086979212324067 0 -0.18142646364776341 -0.063645802362143802 0 -0.18736640063485219 -0.057346017483437872 0 -0.18946030927645091 -0.068086979212324067 0 -0.18142646364776341 -0.063645802362143802 0 -0.1791898321848002 -0.079905489722363027 0 -0.15610190968210541 -0.066907883725130041 0 -0.1791898321848002 -0.079905489722363027 0 -0.16102591301406571 -0.087414008609584287 0 -0.15610190968210541 -0.066907883725130041 0 -0.15610190968210541 -0.066907883725130041 0 -0.17620530639876439 -0.060759503100643777 0 -0.1791898321848002 -0.079905489722363027 0 -0.15610190968210541 -0.066907883725130041 0 -0.17620530639876439 -0.060759503100643777 0 -0.16102591301406571 -0.087414008609584287 0 -0.1487366765424705 -0.079466793794788243 0 -0.14513569521527811 -0.090837293740429675 0 -0.1487366765424705 -0.079466793794788243 0 -0.14513569521527811 -0.090837293740429675 0 -0.1384527293715212 -0.083283051118473797 0 -0.1487366765424705 -0.079466793794788243 0 -0.13936099675341179 -0.072027889370825965 0 -0.1384527293715212 -0.083283051118473797 0 -0.14513569521527811 -0.090837293740429675 0 -0.1384527293715212 -0.083283051118473797 0 -0.14513569521527811 -0.090837293740429675 0 -0.13841986299964071 -0.085361638117180172 0 -0.1384527293715212 -0.083283051118473797 0 -0.16102591301406571 -0.087414008609584287 0 -0.1487366765424705 -0.079466793794788243 0 -0.15610190968210541 -0.066907883725130041 0 -0.15610190968210541 -0.066907883725130041 0 -0.13936099675341179 -0.072027889370825965 0 -0.140067986789222 -0.057881406252872761 0 -0.15610190968210541 -0.066907883725130041 0 -0.13936099675341179 -0.072027889370825965 0 -0.1487366765424705 -0.079466793794788243 0 -0.15610190968210541 -0.066907883725130041 0 -0.13936099675341179 -0.072027889370825965 0 -0.13936099675341179 -0.072027889370825965 0 -0.140067986789222 -0.057881406252872761 0 -0.13651542423223051 -0.062023539853413912 0 -0.13341039194956769 -0.065085692334609882 0 -0.13936099675341179 -0.072027889370825965 0 -0.13651542423223051 -0.062023539853413912 0 -0.13936099675341179 -0.072027889370825965 0 -0.140067986789222 -0.057881406252872761 0 -0.13341039194956769 -0.065085692334609882 0 -0.13389080356256719 -0.070436407170984136 0 -0.13936099675341179 -0.072027889370825965 0 -0.13936099675341179 -0.072027889370825965 0 -0.1308094362377952 -0.074643280676307766 0 -0.13936099675341179 -0.072027889370825965 0 -0.1308094362377952 -0.074643280676307766 0 -0.1384527293715212 -0.083283051118473797 0 -0.13389080356256719 -0.070436407170984136 0 -0.13936099675341179 -0.072027889370825965 0 -0.1308094362377952 -0.074643280676307766 0 -0.13936099675341179 -0.072027889370825965 0 -0.1384527293715212 -0.083283051118473797 0 -0.1237656298583286 -0.076797543623831926 0 -0.1308094362377952 -0.074643280676307766 0 -0.12946900351901239 -0.082698119882791715 0 -0.1237656298583286 -0.076797543623831926 0 -0.1308094362377952 -0.074643280676307766 0 -0.12909152696144771 -0.072223815086390947 0 -0.1237656298583286 -0.076797543623831926 0 -0.1308094362377952 -0.074643280676307766 0 -0.13389080356256719 -0.070436407170984136 0 -0.1308094362377952 -0.074643280676307766 0 -0.12909152696144771 -0.072223815086390947 0 -0.1308094362377952 -0.074643280676307766 0 -0.12909152696144771 -0.072223815086390947 0 -0.13341039194956769 -0.065085692334609882 0 -0.12909152696144771 -0.072223815086390947 0 -0.12684415044118569 -0.057704858544417578 0 -0.1219731292675155 -0.063965478385432345 0 -0.12909152696144771 -0.072223815086390947 0 -0.13341039194956769 -0.065085692334609882 0 -0.13389080356256719 -0.070436407170984136 0 -0.12909152696144771 -0.072223815086390947 0 -0.13841986299964071 -0.085361638117180172 0 -0.12946900351901239 -0.082698119882791715 0 -0.13126100535961199 -0.091287272183990895 0 -0.14513569521527811 -0.090837293740429675 0 -0.13841986299964071 -0.085361638117180172 0 -0.13126100535961199 -0.091287272183990895 0 -0.1308094362377952 -0.074643280676307766 0 -0.13841986299964071 -0.085361638117180172 0 -0.12946900351901239 -0.082698119882791715 0 -0.1308094362377952 -0.074643280676307766 0 -0.13841986299964071 -0.085361638117180172 0 -0.1384527293715212 -0.083283051118473797 0 -0.1308094362377952 -0.074643280676307766 0 -0.1384527293715212 -0.083283051118473797 0 -0.1308094362377952 -0.074643280676307766 0 -0.13841986299964071 -0.085361638117180172 0 -0.1228932107768848 -0.084455829188282927 0 -0.1237656298583286 -0.076797543623831926 0 -0.12946900351901239 -0.082698119882791715 0 -0.1228932107768848 -0.084455829188282927 0 -0.12946900351901239 -0.082698119882791715 0 -0.13126100535961199 -0.091287272183990895 0 -0.1365908217638068 -0.10117308277206589 0 -0.12851450449001681 -0.11924487819625119 0 -0.1516958815974542 -0.1027302364007156 0 -0.13126100535961199 -0.091287272183990895 0 -0.1252383608340073 -0.1006862309174674 0 -0.1365908217638068 -0.10117308277206589 0 -0.1252383608340073 -0.1006862309174674 0 -0.1365908217638068 -0.10117308277206589 0 -0.12851450449001681 -0.11924487819625119 0 -0.14513569521527811 -0.090837293740429675 0 -0.13126100535961199 -0.091287272183990895 0 -0.1365908217638068 -0.10117308277206589 0 -0.12851450449001681 -0.11924487819625119 0 -0.1516958815974542 -0.1027302364007156 0 -0.12851450449001681 -0.11924487819625119 0 -0.1522685036293179 -0.11795078749497551 0 -0.1516958815974542 -0.1027302364007156 0 -0.1487546599681262 -0.13725529291578581 0 -0.12851450449001681 -0.11924487819625119 0 -0.1522685036293179 -0.11795078749497551 0 -0.1591710557687484 -0.1071202745675215 0 -0.1522685036293179 -0.11795078749497551 0 -0.1516958815974542 -0.1027302364007156 0 -0.1591710557687484 -0.1071202745675215 0 -0.16102591301406571 -0.087414008609584287 0 -0.14513569521527811 -0.090837293740429675 0 -0.1591710557687484 -0.1071202745675215 0 -0.14513569521527811 -0.090837293740429675 0 -0.1591710557687484 -0.1071202745675215 0 -0.14513569521527811 -0.090837293740429675 0 -0.1516958815974542 -0.1027302364007156 0 -0.14513569521527811 -0.090837293740429675 0 -0.1365908217638068 -0.10117308277206589 0 -0.1516958815974542 -0.1027302364007156 0 -0.14231468349545981 -0.012926236567143441 0 -0.16324530970000081 -0.028292070966389391 0 -0.14231468349545981 -0.012926236567143441 0 -0.14089955464928011 -0.041242189152349083 0 -0.16324530970000081 -0.028292070966389391 0 -0.14231468349545981 -0.012926236567143441 0 -0.14089955464928011 -0.041242189152349083 0 -0.14231468349545981 -0.012926236567143441 0 -0.16324530970000081 -0.028292070966389391 0 -0.1615931009109785 -0.0082701906529346041 0 -0.15050868129767611 -0.0032521095412758839 0 -0.1615931009109785 -0.0082701906529346041 0 -0.1565838150956716 0.0095235695578667467 0 -0.15050868129767611 -0.0032521095412758839 0 -0.14231468349545981 -0.012926236567143441 0 -0.1615931009109785 -0.0082701906529346041 0 -0.14231468349545981 -0.012926236567143441 0 -0.14308145814072051 0.0024165038181870099 0 -0.15050868129767611 -0.0032521095412758839 0 -0.14231468349545981 -0.012926236567143441 0 -0.14308145814072051 0.0024165038181870099 0 -0.1346725580969502 -0.0073159107133344836 0 -0.1267834157359943 -0.0026565814049187282 0 -0.1307068980664256 -0.020727785816144269 0 -0.14231468349545981 -0.012926236567143441 0 -0.1346725580969502 -0.0073159107133344836 0 -0.1307068980664256 -0.020727785816144269 0 -0.14231468349545981 -0.012926236567143441 0 -0.1346725580969502 -0.0073159107133344836 0 -0.1346725580969502 -0.0073159107133344836 0 -0.13357713014657771 0.001837916871094596 0 -0.14308145814072051 0.0024165038181870099 0 -0.14231468349545981 -0.012926236567143441 0 -0.1346725580969502 -0.0073159107133344836 0 -0.14308145814072051 0.0024165038181870099 0 -0.1346725580969502 -0.0073159107133344836 0 -0.1267834157359943 -0.0026565814049187282 0 -0.13357713014657771 0.001837916871094596 0 -0.1199422827605305 -0.02965683450943497 0 -0.1307068980664256 -0.020727785816144269 0 -0.14089955464928011 -0.041242189152349083 0 -0.14231468349545981 -0.012926236567143441 0 -0.1307068980664256 -0.020727785816144269 0 -0.14089955464928011 -0.041242189152349083 0 -0.1199422827605305 -0.02965683450943497 0 -0.14089955464928011 -0.041242189152349083 0 -0.1199422827605305 -0.02965683450943497 0 -0.12882854372584659 -0.049605510972314922 0 -0.14089955464928011 -0.041242189152349083 0 -0.13747108856895601 -0.056419453152587382 0 -0.140067986789222 -0.057881406252872761 0 -0.14089955464928011 -0.041242189152349083 0 -0.140067986789222 -0.057881406252872761 0 -0.14089955464928011 -0.041242189152349083 0 -0.13226665709999511 -0.05870325815617361 0 -0.12684415044118569 -0.057704858544417578 0 -0.12882854372584659 -0.049605510972314922 0 -0.13341039194956769 -0.065085692334609882 0 -0.13226665709999511 -0.05870325815617361 0 -0.12684415044118569 -0.057704858544417578 0 -0.12882854372584659 -0.049605510972314922 0 -0.13747108856895601 -0.056419453152587382 0 -0.14089955464928011 -0.041242189152349083 0 -0.13226665709999511 -0.05870325815617361 0 -0.12882854372584659 -0.049605510972314922 0 -0.13747108856895601 -0.056419453152587382 0 -0.13747108856895601 -0.056419453152587382 0 -0.140067986789222 -0.057881406252872761 0 -0.13747108856895601 -0.056419453152587382 0 -0.140067986789222 -0.057881406252872761 0 -0.13651542423223051 -0.062023539853413912 0 -0.13226665709999511 -0.05870325815617361 0 -0.13747108856895601 -0.056419453152587382 0 -0.13651542423223051 -0.062023539853413912 0 -0.13341039194956769 -0.065085692334609882 0 -0.13226665709999511 -0.05870325815617361 0 -0.13651542423223051 -0.062023539853413912 0 -0.15610190968210541 -0.066907883725130041 0 -0.140067986789222 -0.057881406252872761 0 -0.1585524305240221 -0.051000846126496753 0 -0.140067986789222 -0.057881406252872761 0 -0.14089955464928011 -0.041242189152349083 0 -0.1585524305240221 -0.051000846126496753 0 -0.15610190968210541 -0.066907883725130041 0 -0.140067986789222 -0.057881406252872761 0 -0.14089955464928011 -0.041242189152349083 0 -0.1585524305240221 -0.051000846126496753 0 -0.14089955464928011 -0.041242189152349083 0 -0.1585524305240221 -0.051000846126496753 0 -0.16324530970000081 -0.028292070966389391 0 -0.1585524305240221 -0.051000846126496753 0 -0.17381638292826571 -0.049057739162826047 0 -0.16324530970000081 -0.028292070966389391 0 -0.1585524305240221 -0.051000846126496753 0 -0.17620530639876439 -0.060759503100643777 0 -0.1585524305240221 -0.051000846126496753 0 -0.17620530639876439 -0.060759503100643777 0 -0.17381638292826571 -0.049057739162826047 0 -0.15610190968210541 -0.066907883725130041 0 -0.1585524305240221 -0.051000846126496753 0 -0.17620530639876439 -0.060759503100643777 0 -0.17620530639876439 -0.060759503100643777 0 -0.17381638292826571 -0.049057739162826047 0 -0.18207023189851099 -0.05896578660510858 0 -0.18142646364776341 -0.063645802362143802 0 -0.17620530639876439 -0.060759503100643777 0 -0.17620530639876439 -0.060759503100643777 0 -0.18207023189851099 -0.05896578660510858 0 -0.18736640063485219 -0.057346017483437872 0 -0.18207023189851099 -0.05896578660510858 0 -0.18417593590455289 -0.043657905365620281 0 -0.17381638292826571 -0.049057739162826047 0 -0.18207023189851099 -0.05896578660510858 0 -0.18417593590455289 -0.043657905365620281 0 -0.18207023189851099 -0.05896578660510858 0 -0.18417593590455289 -0.043657905365620281 0 -0.18736640063485219 -0.057346017483437872 0 -0.18417593590455289 -0.043657905365620281 0 -0.18736640063485219 -0.057346017483437872 0 -0.18207023189851099 -0.05896578660510858 0 -0.18142646364776341 -0.063645802362143802 0 -0.18736640063485219 -0.057346017483437872 0 -0.18207023189851099 -0.05896578660510858 0 -0.18142646364776341 -0.063645802362143802 0 -0.17620530639876439 -0.060759503100643777 0 -0.18207023189851099 -0.05896578660510858 0 -0.18142646364776341 -0.063645802362143802 0 -0.18207023189851099 -0.05896578660510858 0 -0.18417593590455289 -0.043657905365620281 0 -0.16324530970000081 -0.028292070966389391 0 -0.17381638292826571 -0.049057739162826047 0 -0.18417593590455289 -0.043657905365620281 0 -0.16324530970000081 -0.028292070966389391 0 -0.18417593590455289 -0.043657905365620281 0 -0.17633523439468249 -0.030298176677503591 0 -0.16324530970000081 -0.028292070966389391 0 -0.18417593590455289 -0.043657905365620281 0 -0.18439189642622239 -0.042087932563918198 0 -0.18756394533361229 -0.038373176271786373 0 -0.18417593590455289 -0.043657905365620281 0 -0.18439189642622239 -0.042087932563918198 0 -0.18417593590455289 -0.043657905365620281 0 -0.18439189642622239 -0.042087932563918198 0 -0.17633523439468249 -0.030298176677503591 0 -0.18439189642622239 -0.042087932563918198 0 -0.18640634783413251 -0.02744343227975703 0 -0.18439189642622239 -0.042087932563918198 0 -0.18640634783413251 -0.02744343227975703 0 -0.18756394533361229 -0.038373176271786373 0 -0.18439189642622239 -0.042087932563918198 0 -0.17984383796166231 -0.018758107690909121 0 -0.17633523439468249 -0.030298176677503591 0 -0.18439189642622239 -0.042087932563918198 0 -0.17984383796166231 -0.018758107690909121 0 -0.18439189642622239 -0.042087932563918198 0 -0.18640634783413251 -0.02744343227975703 0 -0.17984383796166231 -0.018758107690909121 0 -0.18640634783413251 -0.02744343227975703 0 -0.17984383796166231 -0.018758107690909121 0 -0.18753193192871609 -0.019260749625684661 0 -0.18640634783413251 -0.02744343227975703 0 -0.18753193192871609 -0.019260749625684661 0 -0.17984383796166231 -0.018758107690909121 0 -0.17633523439468249 -0.030298176677503591 0 -0.17001919198098861 -0.01869486680066694 0 -0.17984383796166231 -0.018758107690909121 0 -0.17001919198098861 -0.01869486680066694 0 -0.1713510487719874 -0.01024490977385868 0 -0.17633523439468249 -0.030298176677503591 0 -0.17001919198098861 -0.01869486680066694 0 -0.16324530970000081 -0.028292070966389391 0 -0.17001919198098861 -0.01869486680066694 0 -0.16324530970000081 -0.028292070966389391 0 -0.1615931009109785 -0.0082701906529346041 0 -0.17001919198098861 -0.01869486680066694 0 -0.1615931009109785 -0.0082701906529346041 0 -0.1713510487719874 -0.01024490977385868 0 -0.1615931009109785 -0.0082701906529346041 0 -0.1713510487719874 -0.01024490977385868 0 -0.17529577949709821 0.0045717171820992414 0 -0.17984383796166231 -0.018758107690909121 0 -0.1713510487719874 -0.01024490977385868 0 -0.17529577949709821 0.0045717171820992414 0 -0.18388618390927811 -0.0073420311000470737 0 -0.18753193192871609 -0.019260749625684661 0 -0.19067196743121351 0.003566433312548245 0 -0.17984383796166231 -0.018758107690909121 0 -0.17529577949709821 0.0045717171820992414 0 -0.17984383796166231 -0.018758107690909121 0 -0.18388618390927811 -0.0073420311000470737 0 -0.17529577949709821 0.0045717171820992414 0 -0.17984383796166231 -0.018758107690909121 0 -0.18388618390927811 -0.0073420311000470737 0 -0.18753193192871609 -0.019260749625684661 0 -0.18753193192871609 -0.019260749625684661 0 -0.19067196743121351 0.003566433312548245 0 -0.1944627244785779 -0.008584569480343333 0 -0.18753193192871609 -0.019260749625684661 0 -0.19067196743121351 0.003566433312548245 0 -0.1944627244785779 -0.008584569480343333 0 -0.19659555308500701 -0.016733151145231929 0 -0.20573524192604489 -0.014496173176596461 0 -0.1944627244785779 -0.008584569480343333 0 -0.18753193192871609 -0.019260749625684661 0 -0.19659555308500701 -0.016733151145231929 0 -0.1986523140066892 -0.024591112298303248 0 -0.20573524192604489 -0.014496173176596461 0 -0.20174728879433321 -0.043412852375793398 0 -0.18753193192871609 -0.019260749625684661 0 -0.1986523140066892 -0.024591112298303248 0 -0.19659555308500701 -0.016733151145231929 0 -0.18640634783413251 -0.02744343227975703 0 -0.18753193192871609 -0.019260749625684661 0 -0.1986523140066892 -0.024591112298303248 0 -0.18640634783413251 -0.02744343227975703 0 -0.1986523140066892 -0.024591112298303248 0 -0.19727102014653819 -0.039275666522194323 0 -0.1986523140066892 -0.024591112298303248 0 -0.19659555308500701 -0.016733151145231929 0 -0.20573524192604489 -0.014496173176596461 0 -0.20573524192604489 -0.014496173176596461 0 -0.20174728879433321 -0.043412852375793398 0 -0.21373758486983049 -0.028134734872514489 0 -0.20573524192604489 -0.014496173176596461 0 -0.2105711572188948 -0.036815684938063413 0 -0.21373758486983049 -0.028134734872514489 0 -0.21568974806687591 -0.023133334920971568 0 -0.22054269550890521 -0.030345693631532542 0 -0.21373758486983049 -0.028134734872514489 0 -0.21568974806687591 -0.023133334920971568 0 -0.20573524192604489 -0.014496173176596461 0 -0.20573524192604489 -0.014496173176596461 0 -0.2097231950577565 0.01442050602260039 0 -0.20573524192604489 -0.014496173176596461 0 -0.22249568428157751 -0.009190399690157891 0 -0.22343034677557791 0.0065753505074754252 0 -0.1944627244785779 -0.008584569480343333 0 -0.20573524192604489 -0.014496173176596461 0 -0.2097231950577565 0.01442050602260039 0 -0.21568974806687591 -0.023133334920971568 0 -0.20573524192604489 -0.014496173176596461 0 -0.22249568428157751 -0.009190399690157891 0 -0.2099349821475171 -0.06256843556115177 0 -0.1994936990865987 -0.064571033035335582 0 -0.1982762311131564 -0.054009377846139107 0 -0.18736640063485219 -0.057346017483437872 0 -0.1982762311131564 -0.054009377846139107 0 -0.1994936990865987 -0.064571033035335582 0 -0.18736640063485219 -0.057346017483437872 0 -0.1982762311131564 -0.054009377846139107 0 -0.18736640063485219 -0.057346017483437872 0 -0.18417593590455289 -0.043657905365620281 0 -0.1982762311131564 -0.054009377846139107 0 -0.18417593590455289 -0.043657905365620281 0 -0.1982762311131564 -0.054009377846139107 0 -0.19611573382794029 -0.046164552083791791 0 -0.18417593590455289 -0.043657905365620281 0 -0.1982762311131564 -0.054009377846139107 0 -0.1982762311131564 -0.054009377846139107 0 -0.19611573382794029 -0.046164552083791791 0 -0.20787876594964119 -0.051072558761945268 0 -0.1982762311131564 -0.054009377846139107 0 -0.20787876594964119 -0.051072558761945268 0 -0.1986523140066892 -0.024591112298303248 0 -0.20174728879433321 -0.043412852375793398 0 -0.19727102014653819 -0.039275666522194323 0 -0.19727102014653819 -0.039275666522194323 0 -0.20787876594964119 -0.051072558761945268 0 -0.19727102014653819 -0.039275666522194323 0 -0.19611573382794029 -0.046164552083791791 0 -0.20787876594964119 -0.051072558761945268 0 -0.20174728879433321 -0.043412852375793398 0 -0.19727102014653819 -0.039275666522194323 0 -0.20787876594964119 -0.051072558761945268 0 -0.18417593590455289 -0.043657905365620281 0 -0.19611573382794029 -0.046164552083791791 0 -0.19136956508169331 -0.04124593756878734 0 -0.18417593590455289 -0.043657905365620281 0 -0.19136956508169331 -0.04124593756878734 0 -0.18756394533361229 -0.038373176271786373 0 -0.19727102014653819 -0.039275666522194323 0 -0.19611573382794029 -0.046164552083791791 0 -0.19136956508169331 -0.04124593756878734 0 -0.19727102014653819 -0.039275666522194323 0 -0.19136956508169331 -0.04124593756878734 0 -0.19060984682526541 -0.03694809266199589 0 -0.18640634783413251 -0.02744343227975703 0 -0.19727102014653819 -0.039275666522194323 0 -0.18640634783413251 -0.02744343227975703 0 -0.19727102014653819 -0.039275666522194323 0 -0.19060984682526541 -0.03694809266199589 0 -0.18640634783413251 -0.02744343227975703 0 -0.18756394533361229 -0.038373176271786373 0 -0.19060984682526541 -0.03694809266199589 0 -0.19136956508169331 -0.04124593756878734 0 -0.18756394533361229 -0.038373176271786373 0 -0.19060984682526541 -0.03694809266199589 0 -0.20573524192604489 -0.014496173176596461 0 -0.20174728879433321 -0.043412852375793398 0 -0.2105711572188948 -0.036815684938063413 0 -0.21373758486983049 -0.028134734872514489 0 -0.2105711572188948 -0.036815684938063413 0 -0.21614908162843191 -0.035882787695408452 0 -0.21614908162843191 -0.035882787695408452 0 -0.2124377850157321 -0.040999197977857338 0 -0.22255189503972381 -0.038382756306309197 0 -0.21373758486983049 -0.028134734872514489 0 -0.21614908162843191 -0.035882787695408452 0 -0.22054269550890521 -0.030345693631532542 0 -0.2105711572188948 -0.036815684938063413 0 -0.21614908162843191 -0.035882787695408452 0 -0.2124377850157321 -0.040999197977857338 0 -0.2124377850157321 -0.040999197977857338 0 -0.20787876594964119 -0.051072558761945268 0 -0.22255189503972381 -0.038382756306309197 0 -0.20174728879433321 -0.043412852375793398 0 -0.2124377850157321 -0.040999197977857338 0 -0.20787876594964119 -0.051072558761945268 0 -0.20174728879433321 -0.043412852375793398 0 -0.2105711572188948 -0.036815684938063413 0 -0.2124377850157321 -0.040999197977857338 0 -0.2239123346781316 -0.068903517951528367 0 -0.2099349821475171 -0.06256843556115177 0 -0.20787876594964119 -0.051072558761945268 0 -0.2239123346781316 -0.068903517951528367 0 -0.20787876594964119 -0.051072558761945268 0 -0.2232144549544782 -0.055026695265536482 0 -0.2239123346781316 -0.068903517951528367 0 -0.20787876594964119 -0.051072558761945268 0 -0.2099349821475171 -0.06256843556115177 0 -0.1982762311131564 -0.054009377846139107 0 -0.2099349821475171 -0.06256843556115177 0 -0.1982762311131564 -0.054009377846139107 0 -0.20787876594964119 -0.051072558761945268 0 -0.23986858638978609 -0.064961931129078665 0 -0.23003279853689779 -0.058060034830836812 0 -0.23313581812519529 -0.043347994977203777 0 -0.20787876594964119 -0.051072558761945268 0 -0.2232144549544782 -0.055026695265536482 0 -0.23313581812519529 -0.043347994977203777 0 -0.20787876594964119 -0.051072558761945268 0 -0.23313581812519529 -0.043347994977203777 0 -0.2239123346781316 -0.068903517951528367 0 -0.23003279853689779 -0.058060034830836812 0 -0.2232144549544782 -0.055026695265536482 0 -0.23003279853689779 -0.058060034830836812 0 -0.2232144549544782 -0.055026695265536482 0 -0.23313581812519529 -0.043347994977203777 0 -0.20787876594964119 -0.051072558761945268 0 -0.23313581812519529 -0.043347994977203777 0 -0.22255189503972381 -0.038382756306309197 0 -0.23313581812519529 -0.043347994977203777 0 -0.23363165654460641 -0.026644130668498162 0 -0.2278157512033864 -0.02626919733368082 0 -0.23313581812519529 -0.043347994977203777 0 -0.2260115399693027 -0.034586410562181577 0 -0.2278157512033864 -0.02626919733368082 0 -0.23313581812519529 -0.043347994977203777 0 -0.2278157512033864 -0.02626919733368082 0 -0.21614908162843191 -0.035882787695408452 0 -0.22255189503972381 -0.038382756306309197 0 -0.22054269550890521 -0.030345693631532542 0 -0.22255189503972381 -0.038382756306309197 0 -0.2260115399693027 -0.034586410562181577 0 -0.22054269550890521 -0.030345693631532542 0 -0.23313581812519529 -0.043347994977203777 0 -0.22255189503972381 -0.038382756306309197 0 -0.2260115399693027 -0.034586410562181577 0 -0.23363165654460641 -0.026644130668498162 0 -0.25841182140582641 -0.037386223575508679 0 -0.24213023237721731 -0.040597162215201071 0 -0.23363165654460641 -0.026644130668498162 0 -0.25073048519058982 -0.041321451274644823 0 -0.23363165654460641 -0.026644130668498162 0 -0.25841182140582641 -0.037386223575508679 0 -0.25073048519058982 -0.041321451274644823 0 -0.23313581812519529 -0.043347994977203777 0 -0.24213023237721731 -0.040597162215201071 0 -0.23363165654460641 -0.026644130668498162 0 -0.24517211909924469 -0.046195030116917932 0 -0.25073048519058982 -0.041321451274644823 0 -0.25215377302748859 -0.049816653327902291 0 -0.24517211909924469 -0.046195030116917932 0 -0.24213023237721731 -0.040597162215201071 0 -0.25073048519058982 -0.041321451274644823 0 -0.23313581812519529 -0.043347994977203777 0 -0.24213023237721731 -0.040597162215201071 0 -0.23313581812519529 -0.043347994977203777 0 -0.24517211909924469 -0.046195030116917932 0 -0.24213023237721731 -0.040597162215201071 0 -0.23986858638978609 -0.064961931129078665 0 -0.23313581812519529 -0.043347994977203777 0 -0.2439762835673179 -0.053647150876497143 0 -0.23986858638978609 -0.064961931129078665 0 -0.23313581812519529 -0.043347994977203777 0 -0.23313581812519529 -0.043347994977203777 0 -0.24517211909924469 -0.046195030116917932 0 -0.2439762835673179 -0.053647150876497143 0 -0.24517211909924469 -0.046195030116917932 0 -0.2439762835673179 -0.053647150876497143 0 -0.25215377302748859 -0.049816653327902291 0 -0.2439762835673179 -0.053647150876497143 0 -0.25215377302748859 -0.049816653327902291 0 -0.2510958606163266 -0.061473260803628672 0 -0.23986858638978609 -0.064961931129078665 0 -0.2439762835673179 -0.053647150876497143 0 -0.2510958606163266 -0.061473260803628672 0 -0.22249568428157751 -0.009190399690157891 0 -0.23534665080549211 -0.0082420104063906305 0 -0.22343034677557791 0.0065753505074754252 0 -0.22249568428157751 -0.009190399690157891 0 -0.23210460855121731 -0.0182016501285369 0 -0.23534665080549211 -0.0082420104063906305 0 -0.22249568428157751 -0.009190399690157891 0 -0.22144514848677821 -0.023429462689325671 0 -0.2278157512033864 -0.02626919733368082 0 -0.22249568428157751 -0.009190399690157891 0 -0.2278157512033864 -0.02626919733368082 0 -0.23210460855121731 -0.0182016501285369 0 -0.21568974806687591 -0.023133334920971568 0 -0.22249568428157751 -0.009190399690157891 0 -0.22144514848677821 -0.023429462689325671 0 -0.22249568428157751 -0.009190399690157891 0 -0.2278157512033864 -0.02626919733368082 0 -0.2260115399693027 -0.034586410562181577 0 -0.22054269550890521 -0.030345693631532542 0 -0.2278157512033864 -0.02626919733368082 0 -0.21568974806687591 -0.023133334920971568 0 -0.22144514848677821 -0.023429462689325671 0 -0.22054269550890521 -0.030345693631532542 0 -0.22144514848677821 -0.023429462689325671 0 -0.22054269550890521 -0.030345693631532542 0 -0.2278157512033864 -0.02626919733368082 0 -0.23363165654460641 -0.026644130668498162 0 -0.2278157512033864 -0.02626919733368082 0 -0.23210460855121731 -0.0182016501285369 0 -0.23363165654460641 -0.026644130668498162 0 -0.2479106307315144 -0.02645215509508134 0 -0.25841182140582641 -0.037386223575508679 0 -0.23363165654460641 -0.026644130668498162 0 -0.23210460855121731 -0.0182016501285369 0 -0.24115803362278129 -0.018769656960678699 0 -0.23363165654460641 -0.026644130668498162 0 -0.24115803362278129 -0.018769656960678699 0 -0.2479106307315144 -0.02645215509508134 0 -0.24115803362278129 -0.018769656960678699 0 -0.24816402863096221 -0.010189812967959981 0 -0.25090580465003909 -0.02074847577592346 0 -0.24115803362278129 -0.018769656960678699 0 -0.2479106307315144 -0.02645215509508134 0 -0.25090580465003909 -0.02074847577592346 0 -0.23210460855121731 -0.0182016501285369 0 -0.24115803362278129 -0.018769656960678699 0 -0.23534665080549211 -0.0082420104063906305 0 -0.24115803362278129 -0.018769656960678699 0 -0.24816402863096221 -0.010189812967959981 0 -0.23534665080549211 -0.0082420104063906305 0 -0.24816402863096221 -0.010189812967959981 0 -0.23534665080549211 -0.0082420104063906305 0 -0.24330282498337019 0.003007537454472953 0 -0.24816402863096221 -0.010189812967959981 0 -0.25922362587095638 -0.002133833671543222 0 -0.24330282498337019 0.003007537454472953 0 -0.24816402863096221 -0.010189812967959981 0 -0.2590472318531345 -0.01425243844769682 0 -0.25090580465003909 -0.02074847577592346 0 -0.24816402863096221 -0.010189812967959981 0 -0.2590472318531345 -0.01425243844769682 0 -0.25922362587095638 -0.002133833671543222 0 -0.2590472318531345 -0.01425243844769682 0 -0.25922362587095638 -0.002133833671543222 0 -0.27045719933831369 -0.01250407501602469 0 -0.2479106307315144 -0.02645215509508134 0 -0.25544583743431859 -0.028712288494797671 0 -0.25841182140582641 -0.037386223575508679 0 -0.2479106307315144 -0.02645215509508134 0 -0.25544583743431859 -0.028712288494797671 0 -0.25090580465003909 -0.02074847577592346 0 -0.25544583743431859 -0.028712288494797671 0 -0.25090580465003909 -0.02074847577592346 0 -0.2638018574424863 -0.024942521880438741 0 -0.2590472318531345 -0.01425243844769682 0 -0.25090580465003909 -0.02074847577592346 0 -0.2638018574424863 -0.024942521880438741 0 -0.2590472318531345 -0.01425243844769682 0 -0.2638018574424863 -0.024942521880438741 0 -0.27045719933831369 -0.01250407501602469 0 -0.25544583743431859 -0.028712288494797671 0 -0.2638018574424863 -0.024942521880438741 0 -0.26627092610597219 -0.031476994591495881 0 -0.27689692046542358 -0.026590432214187141 0 -0.27045719933831369 -0.01250407501602469 0 -0.28993948572687372 -0.01424837549127107 0 -0.2638018574424863 -0.024942521880438741 0 -0.27689692046542358 -0.026590432214187141 0 -0.26627092610597219 -0.031476994591495881 0 -0.2638018574424863 -0.024942521880438741 0 -0.27689692046542358 -0.026590432214187141 0 -0.27045719933831369 -0.01250407501602469 0 -0.27045719933831369 -0.01250407501602469 0 -0.28993948572687372 -0.01424837549127107 0 -0.27176298421615341 0.0042637724134266608 0 -0.25922362587095638 -0.002133833671543222 0 -0.27045719933831369 -0.01250407501602469 0 -0.27176298421615341 0.0042637724134266608 0 -0.28993948572687372 -0.01424837549127107 0 -0.29138068089772201 0.010839124075949931 0 -0.28993948572687372 -0.01424837549127107 0 -0.30691290727482629 -0.00095341638459660739 0 -0.29138068089772201 0.010839124075949931 0 -0.27689692046542358 -0.026590432214187141 0 -0.28993948572687372 -0.01424837549127107 0 -0.28798104315781398 -0.035084814198167218 0 -0.28993948572687372 -0.01424837549127107 0 -0.3037685947217677 -0.034614452306947527 0 -0.28798104315781398 -0.035084814198167218 0 -0.28993948572687372 -0.01424837549127107 0 -0.3037685947217677 -0.034614452306947527 0 -0.31694846817146949 -0.021526208742668081 0 -0.28993948572687372 -0.01424837549127107 0 -0.30691290727482629 -0.00095341638459660739 0 -0.31694846817146949 -0.021526208742668081 0 -0.30797215112826681 -0.058870409389529893 0 -0.29129507937438881 -0.05415241933732802 0 -0.31831105941522558 -0.065506061104621843 0 -0.29129507937438881 -0.05415241933732802 0 -0.31831105941522558 -0.065506061104621843 0 -0.30797215112826681 -0.058870409389529893 0 -0.29917548863993199 -0.044442231096297767 0 -0.31477370782836739 -0.041279687448132617 0 -0.3037685947217677 -0.034614452306947527 0 -0.29917548863993199 -0.044442231096297767 0 -0.31477370782836739 -0.041279687448132617 0 -0.3037685947217677 -0.034614452306947527 0 -0.31694846817146949 -0.021526208742668081 0 -0.31477370782836739 -0.041279687448132617 0 -0.3037685947217677 -0.034614452306947527 0 -0.29917548863993199 -0.044442231096297767 0 -0.28798104315781398 -0.035084814198167218 0 -0.29917548863993199 -0.044442231096297767 0 -0.28798104315781398 -0.035084814198167218 0 -0.28319198626704661 -0.048128316482519251 0 -0.28798104315781398 -0.035084814198167218 0 -0.28319198626704661 -0.048128316482519251 0 -0.27455053948041658 -0.035733356212375632 0 -0.30797215112826681 -0.058870409389529893 0 -0.29917548863993199 -0.044442231096297767 0 -0.28319198626704661 -0.048128316482519251 0 -0.29129507937438881 -0.05415241933732802 0 -0.27914655317743359 -0.06088789806332004 0 -0.28897964591124292 -0.07002912977584011 0 -0.30797215112826681 -0.058870409389529893 0 -0.29129507937438881 -0.05415241933732802 0 -0.28319198626704661 -0.048128316482519251 0 -0.30797215112826681 -0.058870409389529893 0 -0.28319198626704661 -0.048128316482519251 0 -0.29129507937438881 -0.05415241933732802 0 -0.27914655317743359 -0.06088789806332004 0 -0.27273482526835863 -0.053843652960636063 0 -0.29129507937438881 -0.05415241933732802 0 -0.28319198626704661 -0.048128316482519251 0 -0.26427909933355193 -0.042798777570034183 0 -0.29129507937438881 -0.05415241933732802 0 -0.26427909933355193 -0.042798777570034183 0 -0.29129507937438881 -0.05415241933732802 0 -0.27273482526835863 -0.053843652960636063 0 -0.26427909933355193 -0.042798777570034183 0 -0.27273482526835863 -0.053843652960636063 0 -0.26427909933355193 -0.042798777570034183 0 -0.26246822159484501 -0.050600549485205662 0 -0.27273482526835863 -0.053843652960636063 0 -0.26648517286157403 -0.060778620347292367 0 -0.26246822159484501 -0.050600549485205662 0 -0.27914655317743359 -0.06088789806332004 0 -0.27273482526835863 -0.053843652960636063 0 -0.26648517286157403 -0.060778620347292367 0 -0.28319198626704661 -0.048128316482519251 0 -0.25841182140582641 -0.037386223575508679 0 -0.27455053948041658 -0.035733356212375632 0 -0.26627092610597219 -0.031476994591495881 0 -0.25841182140582641 -0.037386223575508679 0 -0.28319198626704661 -0.048128316482519251 0 -0.27455053948041658 -0.035733356212375632 0 -0.25841182140582641 -0.037386223575508679 0 -0.28319198626704661 -0.048128316482519251 0 -0.25841182140582641 -0.037386223575508679 0 -0.26427909933355193 -0.042798777570034183 0 -0.27689692046542358 -0.026590432214187141 0 -0.28798104315781398 -0.035084814198167218 0 -0.27455053948041658 -0.035733356212375632 0 -0.27689692046542358 -0.026590432214187141 0 -0.27455053948041658 -0.035733356212375632 0 -0.26627092610597219 -0.031476994591495881 0 -0.25544583743431859 -0.028712288494797671 0 -0.26627092610597219 -0.031476994591495881 0 -0.25841182140582641 -0.037386223575508679 0 -0.25841182140582641 -0.037386223575508679 0 -0.26427909933355193 -0.042798777570034183 0 -0.25760868011046029 -0.044384731046659118 0 -0.26427909933355193 -0.042798777570034183 0 -0.25760868011046029 -0.044384731046659118 0 -0.26246822159484501 -0.050600549485205662 0 -0.25760868011046029 -0.044384731046659118 0 -0.25073048519058982 -0.041321451274644823 0 -0.25215377302748859 -0.049816653327902291 0 -0.25841182140582641 -0.037386223575508679 0 -0.25760868011046029 -0.044384731046659118 0 -0.25073048519058982 -0.041321451274644823 0 -0.26648517286157403 -0.060778620347292367 0 -0.26246822159484501 -0.050600549485205662 0 -0.2510958606163266 -0.061473260803628672 0 -0.25760868011046029 -0.044384731046659118 0 -0.26246822159484501 -0.050600549485205662 0 -0.25215377302748859 -0.049816653327902291 0 -0.26246822159484501 -0.050600549485205662 0 -0.25215377302748859 -0.049816653327902291 0 -0.2510958606163266 -0.061473260803628672 0 -0.2510958606163266 -0.061473260803628672 0 -0.25016081396004591 -0.073608492850177634 0 -0.25752186078887213 -0.071318514938493061 0 -0.26648517286157403 -0.060778620347292367 0 -0.2510958606163266 -0.061473260803628672 0 -0.25752186078887213 -0.071318514938493061 0 -0.25016081396004591 -0.073608492850177634 0 -0.25752186078887213 -0.071318514938493061 0 -0.25571640735086759 -0.083712890098734241 0 -0.24660135465437691 -0.086575867280953567 0 -0.25016081396004591 -0.073608492850177634 0 -0.25571640735086759 -0.083712890098734241 0 -0.24660135465437691 -0.086575867280953567 0 -0.25468555728252562 -0.093443762478902237 0 -0.25248094839387042 -0.09513443491194995 0 -0.24660135465437691 -0.086575867280953567 0 -0.25344380484567358 -0.088302577759673262 0 -0.25468555728252562 -0.093443762478902237 0 -0.24660135465437691 -0.086575867280953567 0 -0.25571640735086759 -0.083712890098734241 0 -0.25344380484567358 -0.088302577759673262 0 -0.25571640735086759 -0.083712890098734241 0 -0.25344380484567358 -0.088302577759673262 0 -0.25741896429603051 -0.089408682409500853 0 -0.25344380484567358 -0.088302577759673262 0 -0.25741896429603051 -0.089408682409500853 0 -0.25468555728252562 -0.093443762478902237 0 -0.25741896429603051 -0.089408682409500853 0 -0.25468555728252562 -0.093443762478902237 0 -0.25973521375596748 -0.093294007816274144 0 -0.25741896429603051 -0.089408682409500853 0 -0.25973521375596748 -0.093294007816274144 0 -0.26351383824511809 -0.088290173893920354 0 -0.25571640735086759 -0.083712890098734241 0 -0.25741896429603051 -0.089408682409500853 0 -0.26351383824511809 -0.088290173893920354 0 -0.25973521375596748 -0.093294007816274144 0 -0.26351383824511809 -0.088290173893920354 0 -0.2645092550365592 -0.094810252658247857 0 -0.25571640735086759 -0.083712890098734241 0 -0.26351383824511809 -0.088290173893920354 0 -0.26480294192208631 -0.079511793721846635 0 -0.25752186078887213 -0.071318514938493061 0 -0.25571640735086759 -0.083712890098734241 0 -0.26480294192208631 -0.079511793721846635 0 -0.27152231122701398 -0.084808701862232133 0 -0.27708403270671261 -0.0716418214975892 0 -0.28033836735189621 -0.095882986143313115 0 -0.26480294192208631 -0.079511793721846635 0 -0.27152231122701398 -0.084808701862232133 0 -0.27708403270671261 -0.0716418214975892 0 -0.26351383824511809 -0.088290173893920354 0 -0.26480294192208631 -0.079511793721846635 0 -0.27152231122701398 -0.084808701862232133 0 -0.27708403270671261 -0.0716418214975892 0 -0.28033836735189621 -0.095882986143313115 0 -0.26351383824511809 -0.088290173893920354 0 -0.27152231122701398 -0.084808701862232133 0 -0.27063233091997257 -0.09352826729317161 0 -0.26351383824511809 -0.088290173893920354 0 -0.27063233091997257 -0.09352826729317161 0 -0.2645092550365592 -0.094810252658247857 0 -0.27152231122701398 -0.084808701862232133 0 -0.27063233091997257 -0.09352826729317161 0 -0.28033836735189621 -0.095882986143313115 0 -0.25752186078887213 -0.071318514938493061 0 -0.26480294192208631 -0.079511793721846635 0 -0.27708403270671261 -0.0716418214975892 0 -0.26648517286157403 -0.060778620347292367 0 -0.25752186078887213 -0.071318514938493061 0 -0.27708403270671261 -0.0716418214975892 0 -0.27914655317743359 -0.06088789806332004 0 -0.26648517286157403 -0.060778620347292367 0 -0.27708403270671261 -0.0716418214975892 0 -0.2629559689680685 -0.11968914182286521 0 -0.25711178460932788 -0.1118755563835878 0 -0.27350147401489022 -0.1145456358193038 0 -0.25711178460932788 -0.1118755563835878 0 -0.25585503461737608 -0.104790536983435 0 -0.27350147401489022 -0.1145456358193038 0 -0.25585503461737608 -0.104790536983435 0 -0.27350147401489022 -0.1145456358193038 0 -0.2629559689680685 -0.11968914182286521 0 -0.25525621579365992 -0.1208836458952024 0 -0.25711178460932788 -0.1118755563835878 0 -0.2478793288110141 -0.1130174099790163 0 -0.25525621579365992 -0.1208836458952024 0 -0.25711178460932788 -0.1118755563835878 0 -0.26309795076887121 -0.1044469889973903 0 -0.25585503461737608 -0.104790536983435 0 -0.27350147401489022 -0.1145456358193038 0 -0.26309795076887121 -0.1044469889973903 0 -0.25585503461737608 -0.104790536983435 0 -0.25790472628257088 -0.1005766706907847 0 -0.2478793288110141 -0.1130174099790163 0 -0.25711178460932788 -0.1118755563835878 0 -0.25249118283028049 -0.1029309716675586 0 -0.25711178460932788 -0.1118755563835878 0 -0.25249118283028049 -0.1029309716675586 0 -0.25585503461737608 -0.104790536983435 0 -0.25249118283028049 -0.1029309716675586 0 -0.25585503461737608 -0.104790536983435 0 -0.25585503461737608 -0.104790536983435 0 -0.25248094839387042 -0.09513443491194995 0 -0.25790472628257088 -0.1005766706907847 0 -0.25248094839387042 -0.09513443491194995 0 -0.25790472628257088 -0.1005766706907847 0 -0.26006053383243122 -0.098159822523102347 0 -0.25468555728252562 -0.093443762478902237 0 -0.25248094839387042 -0.09513443491194995 0 -0.26006053383243122 -0.098159822523102347 0 -0.25973521375596748 -0.093294007816274144 0 -0.26006053383243122 -0.098159822523102347 0 -0.2645092550365592 -0.094810252658247857 0 -0.25468555728252562 -0.093443762478902237 0 -0.25973521375596748 -0.093294007816274144 0 -0.26006053383243122 -0.098159822523102347 0 -0.26309795076887121 -0.1044469889973903 0 -0.25790472628257088 -0.1005766706907847 0 -0.26006053383243122 -0.098159822523102347 0 -0.26309795076887121 -0.1044469889973903 0 -0.26006053383243122 -0.098159822523102347 0 -0.26697541778524408 -0.1003194790335607 0 -0.26006053383243122 -0.098159822523102347 0 -0.2645092550365592 -0.094810252658247857 0 -0.26697541778524408 -0.1003194790335607 0 -0.28033836735189621 -0.095882986143313115 0 -0.27834055034037292 -0.103445616604771 0 -0.28359270199707998 -0.1201241507890371 0 -0.27063233091997257 -0.09352826729317161 0 -0.2645092550365592 -0.094810252658247857 0 -0.26697541778524408 -0.1003194790335607 0 -0.27063233091997257 -0.09352826729317161 0 -0.26697541778524408 -0.1003194790335607 0 -0.27346854652463548 -0.099518074735074291 0 -0.26697541778524408 -0.1003194790335607 0 -0.27346854652463548 -0.099518074735074291 0 -0.27105606622569201 -0.104414024600555 0 -0.27063233091997257 -0.09352826729317161 0 -0.28033836735189621 -0.095882986143313115 0 -0.27346854652463548 -0.099518074735074291 0 -0.28033836735189621 -0.095882986143313115 0 -0.27346854652463548 -0.099518074735074291 0 -0.27834055034037292 -0.103445616604771 0 -0.27834055034037292 -0.103445616604771 0 -0.27105606622569201 -0.104414024600555 0 -0.27350147401489022 -0.1145456358193038 0 -0.27346854652463548 -0.099518074735074291 0 -0.27834055034037292 -0.103445616604771 0 -0.27105606622569201 -0.104414024600555 0 -0.27834055034037292 -0.103445616604771 0 -0.27350147401489022 -0.1145456358193038 0 -0.26309795076887121 -0.1044469889973903 0 -0.26697541778524408 -0.1003194790335607 0 -0.27105606622569201 -0.104414024600555 0 -0.26309795076887121 -0.1044469889973903 0 -0.27105606622569201 -0.104414024600555 0 -0.27350147401489022 -0.1145456358193038 0 -0.27350147401489022 -0.1145456358193038 0 -0.28359270199707998 -0.1201241507890371 0 -0.2636017997576246 -0.13725380718965269 0 -0.27834055034037292 -0.103445616604771 0 -0.27350147401489022 -0.1145456358193038 0 -0.28359270199707998 -0.1201241507890371 0 -0.2629559689680685 -0.11968914182286521 0 -0.27350147401489022 -0.1145456358193038 0 -0.2636017997576246 -0.13725380718965269 0 -0.27350147401489022 -0.1145456358193038 0 -0.28359270199707998 -0.1201241507890371 0 -0.29685616708450713 -0.1172154501449873 0 -0.28359270199707998 -0.1201241507890371 0 -0.30593374062575462 -0.1324744632237003 0 -0.28359270199707998 -0.1201241507890371 0 -0.29114074651289162 -0.1122542420579416 0 -0.28763547840753889 -0.10466163502388511 0 -0.29685616708450713 -0.1172154501449873 0 -0.28359270199707998 -0.1201241507890371 0 -0.29114074651289162 -0.1122542420579416 0 -0.29685616708450713 -0.1172154501449873 0 -0.29114074651289162 -0.1122542420579416 0 -0.29647863856244061 -0.10701573227385711 0 -0.28033836735189621 -0.095882986143313115 0 -0.28359270199707998 -0.1201241507890371 0 -0.28763547840753889 -0.10466163502388511 0 -0.28033836735189621 -0.095882986143313115 0 -0.28359270199707998 -0.1201241507890371 0 -0.29647863856244061 -0.10701573227385711 0 -0.28763547840753889 -0.10466163502388511 0 -0.29162364012347852 -0.094721116205227787 0 -0.29114074651289162 -0.1122542420579416 0 -0.29647863856244061 -0.10701573227385711 0 -0.28763547840753889 -0.10466163502388511 0 -0.28033836735189621 -0.095882986143313115 0 -0.28763547840753889 -0.10466163502388511 0 -0.29162364012347852 -0.094721116205227787 0 -0.29647863856244061 -0.10701573227385711 0 -0.30346124155351689 -0.096950708016400669 0 -0.30892534104498692 -0.11397828735393691 0 -0.30346124155351689 -0.096950708016400669 0 -0.30892534104498692 -0.11397828735393691 0 -0.3157837844165548 -0.099598040923710107 0 -0.29647863856244061 -0.10701573227385711 0 -0.29162364012347852 -0.094721116205227787 0 -0.30346124155351689 -0.096950708016400669 0 -0.29685616708450713 -0.1172154501449873 0 -0.30892534104498692 -0.11397828735393691 0 -0.30593374062575462 -0.1324744632237003 0 -0.29685616708450713 -0.1172154501449873 0 -0.29647863856244061 -0.10701573227385711 0 -0.30892534104498692 -0.11397828735393691 0 -0.29129507937438881 -0.05415241933732802 0 -0.28897964591124292 -0.07002912977584011 0 -0.3018796788813532 -0.069670472323039703 0 -0.28897964591124292 -0.07002912977584011 0 -0.29742605453624088 -0.081708972506021799 0 -0.3018796788813532 -0.069670472323039703 0 -0.28897964591124292 -0.07002912977584011 0 -0.28704647679132889 -0.082113194927741939 0 -0.29742605453624088 -0.081708972506021799 0 -0.27914655317743359 -0.06088789806332004 0 -0.27708403270671261 -0.0716418214975892 0 -0.28897964591124292 -0.07002912977584011 0 -0.27708403270671261 -0.0716418214975892 0 -0.28897964591124292 -0.07002912977584011 0 -0.28704647679132889 -0.082113194927741939 0 -0.27708403270671261 -0.0716418214975892 0 -0.28033836735189621 -0.095882986143313115 0 -0.28704647679132889 -0.082113194927741939 0 -0.28033836735189621 -0.095882986143313115 0 -0.29162364012347852 -0.094721116205227787 0 -0.28704647679132889 -0.082113194927741939 0 -0.29162364012347852 -0.094721116205227787 0 -0.28704647679132889 -0.082113194927741939 0 -0.29742605453624088 -0.081708972506021799 0 -0.30346124155351689 -0.096950708016400669 0 -0.3125800904162897 -0.082855015088040745 0 -0.3157837844165548 -0.099598040923710107 0 -0.29162364012347852 -0.094721116205227787 0 -0.30346124155351689 -0.096950708016400669 0 -0.29742605453624088 -0.081708972506021799 0 -0.30346124155351689 -0.096950708016400669 0 -0.29742605453624088 -0.081708972506021799 0 -0.3125800904162897 -0.082855015088040745 0 -0.3018796788813532 -0.069670472323039703 0 -0.31831105941522558 -0.065506061104621843 0 -0.3125800904162897 -0.082855015088040745 0 -0.29129507937438881 -0.05415241933732802 0 -0.3018796788813532 -0.069670472323039703 0 -0.31831105941522558 -0.065506061104621843 0 -0.29742605453624088 -0.081708972506021799 0 -0.3018796788813532 -0.069670472323039703 0 -0.3125800904162897 -0.082855015088040745 0 -0.30797215112826681 -0.058870409389529893 0 -0.31831105941522558 -0.065506061104621843 0 -0.33275231598948712 -0.069612502296540507 0 -0.30797215112826681 -0.058870409389529893 0 -0.33275231598948712 -0.069612502296540507 0 -0.31831105941522558 -0.065506061104621843 0 -0.3125800904162897 -0.082855015088040745 0 -0.32860872251840278 -0.078062749846231488 0 -0.3125800904162897 -0.082855015088040745 0 -0.32347108342265007 -0.088050388356783624 0 -0.3157837844165548 -0.099598040923710107 0 -0.3125800904162897 -0.082855015088040745 0 -0.32347108342265007 -0.088050388356783624 0 -0.32860872251840278 -0.078062749846231488 0 -0.32347108342265007 -0.088050388356783624 0 -0.33445960127106777 -0.085290161903436856 0 -0.32860872251840278 -0.078062749846231488 0 -0.33445960127106777 -0.085290161903436856 0 -0.32860872251840278 -0.078062749846231488 0 -0.34532703945606258 -0.076859702871915667 0 -0.32347108342265007 -0.088050388356783624 0 -0.33445960127106777 -0.085290161903436856 0 -0.33267722177460368 -0.094258112003337668 0 -0.33445960127106777 -0.085290161903436856 0 -0.34221393918361959 -0.089219856438915779 0 -0.33267722177460368 -0.094258112003337668 0 -0.33445960127106777 -0.085290161903436856 0 -0.34221393918361959 -0.089219856438915779 0 -0.34532703945606258 -0.076859702871915667 0 -0.31831105941522558 -0.065506061104621843 0 -0.34532703945606258 -0.076859702871915667 0 -0.31831105941522558 -0.065506061104621843 0 -0.33275231598948712 -0.069612502296540507 0 -0.34532703945606258 -0.076859702871915667 0 -0.33275231598948712 -0.069612502296540507 0 -0.34891831723486749 -0.066003446247336714 0 -0.33984796246322019 -0.056967575241787707 0 -0.31831105941522558 -0.065506061104621843 0 -0.32860872251840278 -0.078062749846231488 0 -0.34532703945606258 -0.076859702871915667 0 -0.30892534104498692 -0.11397828735393691 0 -0.32508876922767271 -0.1197109974715119 0 -0.3157837844165548 -0.099598040923710107 0 -0.30892534104498692 -0.11397828735393691 0 -0.32508876922767271 -0.1197109974715119 0 -0.30593374062575462 -0.1324744632237003 0 -0.32508876922767271 -0.1197109974715119 0 -0.3157837844165548 -0.099598040923710107 0 -0.33210859186130021 -0.1069126431057103 0 -0.32347108342265007 -0.088050388356783624 0 -0.3157837844165548 -0.099598040923710107 0 -0.33267722177460368 -0.094258112003337668 0 -0.3157837844165548 -0.099598040923710107 0 -0.33267722177460368 -0.094258112003337668 0 -0.33210859186130021 -0.1069126431057103 0 -0.33267722177460368 -0.094258112003337668 0 -0.34312631825367301 -0.1007232448918292 0 -0.33210859186130021 -0.1069126431057103 0 -0.34221393918361959 -0.089219856438915779 0 -0.33267722177460368 -0.094258112003337668 0 -0.34312631825367301 -0.1007232448918292 0 -0.34312631825367301 -0.1007232448918292 0 -0.33210859186130021 -0.1069126431057103 0 -0.34431669348696342 -0.11513041244289871 0 -0.32508876922767271 -0.1197109974715119 0 -0.34431669348696342 -0.11513041244289871 0 -0.34128569048267893 -0.13088599555088451 0 -0.32508876922767271 -0.1197109974715119 0 -0.33210859186130021 -0.1069126431057103 0 -0.34431669348696342 -0.11513041244289871 0 -0.34431669348696342 -0.11513041244289871 0 -0.35528248626880038 -0.1053198785438974 0 -0.36297243111920863 -0.1242924888655856 0 -0.34431669348696342 -0.11513041244289871 0 -0.36297243111920863 -0.1242924888655856 0 -0.34128569048267893 -0.13088599555088451 0 -0.34312631825367301 -0.1007232448918292 0 -0.34431669348696342 -0.11513041244289871 0 -0.35528248626880038 -0.1053198785438974 0 -0.34312631825367301 -0.1007232448918292 0 -0.35528248626880038 -0.1053198785438974 0 -0.35162332401755708 -0.0931487442896584 0 -0.34221393918361959 -0.089219856438915779 0 -0.34312631825367301 -0.1007232448918292 0 -0.35162332401755708 -0.0931487442896584 0 -0.35528248626880038 -0.1053198785438974 0 -0.3620583356659689 -0.093777595679541054 0 -0.35162332401755708 -0.0931487442896584 0 -0.3620583356659689 -0.093777595679541054 0 -0.3675978150694314 -0.1048467850938716 0 -0.37234301949689891 -0.088213344639210808 0 -0.3675978150694314 -0.1048467850938716 0 -0.37234301949689891 -0.088213344639210808 0 -0.38136991547938259 -0.110805240712716 0 -0.35528248626880038 -0.1053198785438974 0 -0.3620583356659689 -0.093777595679541054 0 -0.3675978150694314 -0.1048467850938716 0 -0.35528248626880038 -0.1053198785438974 0 -0.3675978150694314 -0.1048467850938716 0 -0.36297243111920863 -0.1242924888655856 0 -0.3675978150694314 -0.1048467850938716 0 -0.36297243111920863 -0.1242924888655856 0 -0.38136991547938259 -0.110805240712716 0 -0.33275231598948712 -0.069612502296540507 0 -0.34891831723486749 -0.066003446247336714 0 -0.35753248085070732 -0.08035459520355108 0 -0.33275231598948712 -0.069612502296540507 0 -0.35753248085070732 -0.08035459520355108 0 -0.33275231598948712 -0.069612502296540507 0 -0.34532703945606258 -0.076859702871915667 0 -0.35753248085070732 -0.08035459520355108 0 -0.34891831723486749 -0.066003446247336714 0 -0.35753248085070732 -0.08035459520355108 0 -0.36026188458822622 -0.067832833362898706 0 -0.34891831723486749 -0.066003446247336714 0 -0.36026188458822622 -0.067832833362898706 0 -0.35574296306760472 -0.053901450251321523 0 -0.34532703945606258 -0.076859702871915667 0 -0.35753248085070732 -0.08035459520355108 0 -0.37234301949689891 -0.088213344639210808 0 -0.34532703945606258 -0.076859702871915667 0 -0.37234301949689891 -0.088213344639210808 0 -0.3620583356659689 -0.093777595679541054 0 -0.34532703945606258 -0.076859702871915667 0 -0.35162332401755708 -0.0931487442896584 0 -0.34221393918361959 -0.089219856438915779 0 -0.34532703945606258 -0.076859702871915667 0 -0.35162332401755708 -0.0931487442896584 0 -0.35753248085070732 -0.08035459520355108 0 -0.37409795029657827 -0.082426532541013814 0 -0.36826840230373081 -0.073468690923494478 0 -0.35753248085070732 -0.08035459520355108 0 -0.37409795029657827 -0.082426532541013814 0 -0.38231264571192752 -0.09109668811056168 0 -0.35753248085070732 -0.08035459520355108 0 -0.38231264571192752 -0.09109668811056168 0 -0.35753248085070732 -0.08035459520355108 0 -0.37234301949689891 -0.088213344639210808 0 -0.38231264571192752 -0.09109668811056168 0 -0.3620583356659689 -0.093777595679541054 0 -0.34532703945606258 -0.076859702871915667 0 -0.37234301949689891 -0.088213344639210808 0 -0.37409795029657827 -0.082426532541013814 0 -0.36826840230373081 -0.073468690923494478 0 -0.37767253083955082 -0.07222684382440861 0 -0.35753248085070732 -0.08035459520355108 0 -0.36826840230373081 -0.073468690923494478 0 -0.36026188458822622 -0.067832833362898706 0 -0.36826840230373081 -0.073468690923494478 0 -0.36026188458822622 -0.067832833362898706 0 -0.37189720783083691 -0.062689075490715757 0 -0.36826840230373081 -0.073468690923494478 0 -0.37189720783083691 -0.062689075490715757 0 -0.37767253083955082 -0.07222684382440861 0 -0.36026188458822622 -0.067832833362898706 0 -0.37189720783083691 -0.062689075490715757 0 -0.35574296306760472 -0.053901450251321523 0 -0.37189720783083691 -0.062689075490715757 0 -0.35574296306760472 -0.053901450251321523 0 -0.3772011184658815 -0.044887999918692092 0 -0.34891831723486749 -0.066003446247336714 0 -0.35574296306760472 -0.053901450251321523 0 -0.33984796246322019 -0.056967575241787707 0 -0.35574296306760472 -0.053901450251321523 0 -0.34379676512487661 -0.043780038358776627 0 -0.33984796246322019 -0.056967575241787707 0 -0.35574296306760472 -0.053901450251321523 0 -0.34379676512487661 -0.043780038358776627 0 -0.35423626847689388 -0.031162777303840389 0 -0.35423626847689388 -0.031162777303840389 0 -0.38237349867587839 -0.02410924449584018 0 -0.3772011184658815 -0.044887999918692092 0 -0.35574296306760472 -0.053901450251321523 0 -0.35423626847689388 -0.031162777303840389 0 -0.3772011184658815 -0.044887999918692092 0 -0.35912004359483651 -0.010530881474089799 0 -0.35423626847689388 -0.031162777303840389 0 -0.38237349867587839 -0.02410924449584018 0 -0.35912004359483651 -0.010530881474089799 0 -0.38237349867587839 -0.02410924449584018 0 -0.35912004359483651 -0.010530881474089799 0 -0.37630101312515413 -0.0017537402174872649 0 -0.38237349867587839 -0.02410924449584018 0 -0.35912004359483651 -0.010530881474089799 0 -0.33892350374828301 -0.015117898549824441 0 -0.34477131709100672 0.0030002940641287749 0 -0.35912004359483651 -0.010530881474089799 0 -0.35423626847689388 -0.031162777303840389 0 -0.33892350374828301 -0.015117898549824441 0 -0.35423626847689388 -0.031162777303840389 0 -0.33892350374828301 -0.015117898549824441 0 -0.33233863727884289 -0.034986890833074741 0 -0.33892350374828301 -0.015117898549824441 0 -0.31694846817146949 -0.021526208742668081 0 -0.33233863727884289 -0.034986890833074741 0 -0.33892350374828301 -0.015117898549824441 0 -0.32561302252609747 0.001356273347036568 0 -0.34477131709100672 0.0030002940641287749 0 -0.33892350374828301 -0.015117898549824441 0 -0.31694846817146949 -0.021526208742668081 0 -0.32561302252609747 0.001356273347036568 0 -0.30691290727482629 -0.00095341638459660739 0 -0.31694846817146949 -0.021526208742668081 0 -0.32561302252609747 0.001356273347036568 0 -0.31477370782836739 -0.041279687448132617 0 -0.32693297735241378 -0.051760004019872838 0 -0.33233863727884289 -0.034986890833074741 0 -0.31694846817146949 -0.021526208742668081 0 -0.31477370782836739 -0.041279687448132617 0 -0.33233863727884289 -0.034986890833074741 0 -0.30797215112826681 -0.058870409389529893 0 -0.31477370782836739 -0.041279687448132617 0 -0.32693297735241378 -0.051760004019872838 0 -0.30797215112826681 -0.058870409389529893 0 -0.33275231598948712 -0.069612502296540507 0 -0.32693297735241378 -0.051760004019872838 0 -0.34379676512487661 -0.043780038358776627 0 -0.32693297735241378 -0.051760004019872838 0 -0.33984796246322019 -0.056967575241787707 0 -0.33275231598948712 -0.069612502296540507 0 -0.32693297735241378 -0.051760004019872838 0 -0.33984796246322019 -0.056967575241787707 0 -0.34379676512487661 -0.043780038358776627 0 -0.35423626847689388 -0.031162777303840389 0 -0.33233863727884289 -0.034986890833074741 0 -0.34379676512487661 -0.043780038358776627 0 -0.32693297735241378 -0.051760004019872838 0 -0.33233863727884289 -0.034986890833074741 0 -0.3084490109222261 -0.2499478765489658 0 -0.30696801570766241 -0.23133386868650441 0 -0.28882037556936779 -0.24227958441945091 0 -0.30696801570766241 -0.23133386868650441 0 -0.30236367905769979 -0.21338182677083431 0 -0.32340249057713971 -0.21782532235043781 0 -0.30696801570766241 -0.23133386868650441 0 -0.29244812795469383 -0.2258999085892418 0 -0.30236367905769979 -0.21338182677083431 0 -0.30696801570766241 -0.23133386868650441 0 -0.29244812795469383 -0.2258999085892418 0 -0.28882037556936779 -0.24227958441945091 0 -0.29244812795469383 -0.2258999085892418 0 -0.28882037556936779 -0.24227958441945091 0 -0.28019168141089362 -0.22882521342176271 0 -0.29244812795469383 -0.2258999085892418 0 -0.28019168141089362 -0.22882521342176271 0 -0.28389688802784541 -0.2136790496476568 0 -0.28410807240321551 -0.25720713578207971 0 -0.28882037556936779 -0.24227958441945091 0 -0.2738665099760702 -0.24983163637103131 0 -0.28882037556936779 -0.24227958441945091 0 -0.2738665099760702 -0.24983163637103131 0 -0.26826411658142357 -0.2392526869994174 0 -0.28882037556936779 -0.24227958441945091 0 -0.26826411658142357 -0.2392526869994174 0 -0.28019168141089362 -0.22882521342176271 0 -0.2738665099760702 -0.24983163637103131 0 -0.26826411658142357 -0.2392526869994174 0 -0.25633655175195141 -0.24968016057706971 0 -0.26826411658142357 -0.2392526869994174 0 -0.25633655175195141 -0.24968016057706971 0 -0.24919649157834911 -0.22944477677784869 0 -0.26826411658142357 -0.2392526869994174 0 -0.25633655175195141 -0.24968016057706971 0 -0.24919649157834911 -0.22944477677784869 0 -0.25633655175195141 -0.24968016057706971 0 -0.24919649157834911 -0.22944477677784869 0 -0.26456996224549922 -0.22548611137995631 0 -0.25479553338475952 -0.21380407726207479 0 -0.24919649157834911 -0.22944477677784869 0 -0.26826411658142357 -0.2392526869994174 0 -0.26456996224549922 -0.22548611137995631 0 -0.26456996224549922 -0.22548611137995631 0 -0.27390707054665597 -0.2200152310639879 0 -0.26724637272813617 -0.2114860325418785 0 -0.26456996224549922 -0.22548611137995631 0 -0.28019168141089362 -0.22882521342176271 0 -0.27390707054665597 -0.2200152310639879 0 -0.26826411658142357 -0.2392526869994174 0 -0.26456996224549922 -0.22548611137995631 0 -0.28019168141089362 -0.22882521342176271 0 -0.26826411658142357 -0.2392526869994174 0 -0.28019168141089362 -0.22882521342176271 0 -0.28019168141089362 -0.22882521342176271 0 -0.27390707054665597 -0.2200152310639879 0 -0.28389688802784541 -0.2136790496476568 0 -0.26724637272813617 -0.2114860325418785 0 -0.25877579392936129 -0.2031550987133518 0 -0.27505294725397678 -0.20259533628839099 0 -0.27390707054665597 -0.2200152310639879 0 -0.26724637272813617 -0.2114860325418785 0 -0.28389688802784541 -0.2136790496476568 0 -0.26724637272813617 -0.2114860325418785 0 -0.27505294725397678 -0.20259533628839099 0 -0.28389688802784541 -0.2136790496476568 0 -0.26456996224549922 -0.22548611137995631 0 -0.26724637272813617 -0.2114860325418785 0 -0.25479553338475952 -0.21380407726207479 0 -0.26724637272813617 -0.2114860325418785 0 -0.25877579392936129 -0.2031550987133518 0 -0.25479553338475952 -0.21380407726207479 0 -0.2469281484224633 -0.2040430511807865 0 -0.25877579392936129 -0.2031550987133518 0 -0.25479553338475952 -0.21380407726207479 0 -0.25877579392936129 -0.2031550987133518 0 -0.25449940411996819 -0.1899960014345351 0 -0.27138053893111558 -0.18726923174198801 0 -0.2469281484224633 -0.2040430511807865 0 -0.25877579392936129 -0.2031550987133518 0 -0.25064578342257748 -0.19770227846942581 0 -0.25877579392936129 -0.2031550987133518 0 -0.25449940411996819 -0.1899960014345351 0 -0.25064578342257748 -0.19770227846942581 0 -0.27505294725397678 -0.20259533628839099 0 -0.29396514265342583 -0.1973872687970803 0 -0.27138053893111558 -0.18726923174198801 0 -0.25877579392936129 -0.2031550987133518 0 -0.27505294725397678 -0.20259533628839099 0 -0.27138053893111558 -0.18726923174198801 0 -0.29396514265342583 -0.1973872687970803 0 -0.28389688802784541 -0.2136790496476568 0 -0.30236367905769979 -0.21338182677083431 0 -0.29244812795469383 -0.2258999085892418 0 -0.28389688802784541 -0.2136790496476568 0 -0.30236367905769979 -0.21338182677083431 0 -0.27505294725397678 -0.20259533628839099 0 -0.29396514265342583 -0.1973872687970803 0 -0.28389688802784541 -0.2136790496476568 0 -0.29396514265342583 -0.1973872687970803 0 -0.30236367905769979 -0.21338182677083431 0 -0.313497720914169 -0.19699734266361371 0 -0.29396514265342583 -0.1973872687970803 0 -0.30648576870635602 -0.18087420453799691 0 -0.313497720914169 -0.19699734266361371 0 -0.29396514265342583 -0.1973872687970803 0 -0.30648576870635602 -0.18087420453799691 0 -0.29050766243464382 -0.17163289612773261 0 -0.30648576870635602 -0.18087420453799691 0 -0.31044695115271859 -0.15952790723894811 0 -0.29050766243464382 -0.17163289612773261 0 -0.29050766243464382 -0.17163289612773261 0 -0.28705018221586182 -0.14587852345838481 0 -0.29050766243464382 -0.17163289612773261 0 -0.27239299520441851 -0.1624597443641255 0 -0.28705018221586182 -0.14587852345838481 0 -0.31044695115271859 -0.15952790723894811 0 -0.29050766243464382 -0.17163289612773261 0 -0.28705018221586182 -0.14587852345838481 0 -0.29396514265342583 -0.1973872687970803 0 -0.29050766243464382 -0.17163289612773261 0 -0.27138053893111558 -0.18726923174198801 0 -0.29396514265342583 -0.1973872687970803 0 -0.29050766243464382 -0.17163289612773261 0 -0.29050766243464382 -0.17163289612773261 0 -0.27138053893111558 -0.18726923174198801 0 -0.27239299520441851 -0.1624597443641255 0 -0.27138053893111558 -0.18726923174198801 0 -0.25908559660538499 -0.17582089133339851 0 -0.27239299520441851 -0.1624597443641255 0 -0.25449940411996819 -0.1899960014345351 0 -0.27138053893111558 -0.18726923174198801 0 -0.25908559660538499 -0.17582089133339851 0 -0.2438024512430936 -0.18267014993035049 0 -0.25908559660538499 -0.17582089133339851 0 -0.25370212550035909 -0.15996197856000161 0 -0.2438024512430936 -0.18267014993035049 0 -0.25449940411996819 -0.1899960014345351 0 -0.25908559660538499 -0.17582089133339851 0 -0.25908559660538499 -0.17582089133339851 0 -0.25370212550035909 -0.15996197856000161 0 -0.27239299520441851 -0.1624597443641255 0 -0.27239299520441851 -0.1624597443641255 0 -0.2636017997576246 -0.13725380718965269 0 -0.28705018221586182 -0.14587852345838481 0 -0.25370212550035909 -0.15996197856000161 0 -0.2636017997576246 -0.13725380718965269 0 -0.25370212550035909 -0.15996197856000161 0 -0.27239299520441851 -0.1624597443641255 0 -0.2636017997576246 -0.13725380718965269 0 -0.23912906783592081 -0.153616416315245 0 -0.25370212550035909 -0.15996197856000161 0 -0.2636017997576246 -0.13725380718965269 0 -0.2629559689680685 -0.11968914182286521 0 -0.25525621579365992 -0.1208836458952024 0 -0.2636017997576246 -0.13725380718965269 0 -0.24395647137384779 -0.12545654041261339 0 -0.25525621579365992 -0.1208836458952024 0 -0.2636017997576246 -0.13725380718965269 0 -0.27350147401489022 -0.1145456358193038 0 -0.2636017997576246 -0.13725380718965269 0 -0.28359270199707998 -0.1201241507890371 0 -0.2636017997576246 -0.13725380718965269 0 -0.28705018221586182 -0.14587852345838481 0 -0.28359270199707998 -0.1201241507890371 0 -0.28705018221586182 -0.14587852345838481 0 -0.28359270199707998 -0.1201241507890371 0 -0.28705018221586182 -0.14587852345838481 0 -0.30593374062575462 -0.1324744632237003 0 -0.28359270199707998 -0.1201241507890371 0 -0.30593374062575462 -0.1324744632237003 0 -0.31044695115271859 -0.15952790723894811 0 -0.28705018221586182 -0.14587852345838481 0 -0.30593374062575462 -0.1324744632237003 0 -0.30593374062575462 -0.1324744632237003 0 -0.32827477925442888 -0.14482477565836391 0 -0.32508876922767271 -0.1197109974715119 0 -0.30593374062575462 -0.1324744632237003 0 -0.32827477925442888 -0.14482477565836391 0 -0.31044695115271859 -0.15952790723894811 0 -0.30593374062575462 -0.1324744632237003 0 -0.32827477925442888 -0.14482477565836391 0 -0.31044695115271859 -0.15952790723894811 0 -0.32827477925442888 -0.14482477565836391 0 -0.33136885396006288 -0.16178594040038019 0 -0.32827477925442888 -0.14482477565836391 0 -0.34128569048267893 -0.13088599555088451 0 -0.34936516214407259 -0.14897194654657081 0 -0.32827477925442888 -0.14482477565836391 0 -0.34936516214407259 -0.14897194654657081 0 -0.33136885396006288 -0.16178594040038019 0 -0.32508876922767271 -0.1197109974715119 0 -0.32827477925442888 -0.14482477565836391 0 -0.34128569048267893 -0.13088599555088451 0 -0.36297243111920863 -0.1242924888655856 0 -0.34128569048267893 -0.13088599555088451 0 -0.34936516214407259 -0.14897194654657081 0 -0.36297243111920863 -0.1242924888655856 0 -0.3740683684951065 -0.14511189419841761 0 -0.34936516214407259 -0.14897194654657081 0 -0.3740683684951065 -0.14511189419841761 0 -0.34936516214407259 -0.14897194654657081 0 -0.36236259119811282 -0.16170237754434441 0 -0.34936516214407259 -0.14897194654657081 0 -0.36236259119811282 -0.16170237754434441 0 -0.34534905461118309 -0.17352138753239041 0 -0.3740683684951065 -0.14511189419841761 0 -0.36236259119811282 -0.16170237754434441 0 -0.3851494204742415 -0.17229842814572921 0 -0.36236259119811282 -0.16170237754434441 0 -0.36645194572902062 -0.18359309248886749 0 -0.3851494204742415 -0.17229842814572921 0 -0.34534905461118309 -0.17352138753239041 0 -0.33436862364104319 -0.1952642421823865 0 -0.35251768716300858 -0.1935964339909727 0 -0.36645194572902062 -0.18359309248886749 0 -0.34534905461118309 -0.17352138753239041 0 -0.35251768716300858 -0.1935964339909727 0 -0.36236259119811282 -0.16170237754434441 0 -0.36645194572902062 -0.18359309248886749 0 -0.34534905461118309 -0.17352138753239041 0 -0.34534905461118309 -0.17352138753239041 0 -0.32401136637682298 -0.17882560786261001 0 -0.33436862364104319 -0.1952642421823865 0 -0.34534905461118309 -0.17352138753239041 0 -0.33136885396006288 -0.16178594040038019 0 -0.32401136637682298 -0.17882560786261001 0 -0.34936516214407259 -0.14897194654657081 0 -0.34534905461118309 -0.17352138753239041 0 -0.33136885396006288 -0.16178594040038019 0 -0.31044695115271859 -0.15952790723894811 0 -0.33136885396006288 -0.16178594040038019 0 -0.32401136637682298 -0.17882560786261001 0 -0.30648576870635602 -0.18087420453799691 0 -0.31044695115271859 -0.15952790723894811 0 -0.32401136637682298 -0.17882560786261001 0 -0.30648576870635602 -0.18087420453799691 0 -0.32401136637682298 -0.17882560786261001 0 -0.313497720914169 -0.19699734266361371 0 -0.32401136637682298 -0.17882560786261001 0 -0.313497720914169 -0.19699734266361371 0 -0.33436862364104319 -0.1952642421823865 0 -0.313497720914169 -0.19699734266361371 0 -0.32340249057713971 -0.21782532235043781 0 -0.33436862364104319 -0.1952642421823865 0 -0.30236367905769979 -0.21338182677083431 0 -0.313497720914169 -0.19699734266361371 0 -0.32340249057713971 -0.21782532235043781 0 -0.32340249057713971 -0.21782532235043781 0 -0.33436862364104319 -0.1952642421823865 0 -0.34753566396855923 -0.2111942650054385 0 -0.33436862364104319 -0.1952642421823865 0 -0.35251768716300858 -0.1935964339909727 0 -0.34753566396855923 -0.2111942650054385 0 -0.36645194572902062 -0.18359309248886749 0 -0.35251768716300858 -0.1935964339909727 0 -0.36960299579656231 -0.2060307182739807 0 -0.36645194572902062 -0.18359309248886749 0 -0.36960299579656231 -0.2060307182739807 0 -0.38372992513101528 -0.19440920944578741 0 -0.36960299579656231 -0.2060307182739807 0 -0.34753566396855923 -0.2111942650054385 0 -0.36147454470899087 -0.22351422655508491 0 -0.35251768716300858 -0.1935964339909727 0 -0.36960299579656231 -0.2060307182739807 0 -0.34753566396855923 -0.2111942650054385 0 -0.34753566396855923 -0.2111942650054385 0 -0.34384764192461081 -0.23093464667976871 0 -0.36147454470899087 -0.22351422655508491 0 -0.34384764192461081 -0.23093464667976871 0 -0.36147454470899087 -0.22351422655508491 0 -0.36291602693514158 -0.24235010539063789 0 -0.36960299579656231 -0.2060307182739807 0 -0.36147454470899087 -0.22351422655508491 0 -0.3892261314270804 -0.2298844907336719 0 -0.36147454470899087 -0.22351422655508491 0 -0.36291602693514158 -0.24235010539063789 0 -0.3892261314270804 -0.2298844907336719 0 -0.34409706512831129 -0.2509088056791956 0 -0.34384764192461081 -0.23093464667976871 0 -0.36291602693514158 -0.24235010539063789 0 -0.34409706512831129 -0.2509088056791956 0 -0.34384764192461081 -0.23093464667976871 0 -0.32467237202877453 -0.24010865335760359 0 -0.32814209364500441 -0.25840828646874381 0 -0.34409706512831129 -0.2509088056791956 0 -0.32467237202877453 -0.24010865335760359 0 -0.32340249057713971 -0.21782532235043781 0 -0.34753566396855923 -0.2111942650054385 0 -0.34384764192461081 -0.23093464667976871 0 -0.32340249057713971 -0.21782532235043781 0 -0.34384764192461081 -0.23093464667976871 0 -0.32467237202877453 -0.24010865335760359 0 -0.30696801570766241 -0.23133386868650441 0 -0.32340249057713971 -0.21782532235043781 0 -0.32467237202877453 -0.24010865335760359 0 -0.3084490109222261 -0.2499478765489658 0 -0.30696801570766241 -0.23133386868650441 0 -0.32467237202877453 -0.24010865335760359 0 -0.32814209364500441 -0.25840828646874381 0 -0.3084490109222261 -0.2499478765489658 0 -0.32467237202877453 -0.24010865335760359 0 -0.43261672605212498 -0.23386856979381809 0 -0.41492216845380259 -0.24917435442157229 0 -0.44458406038942538 -0.24975118405773991 0 -0.43261672605212498 -0.23386856979381809 0 -0.41180561837843771 -0.22705208340456121 0 -0.43823276405714873 -0.21140236823060141 0 -0.43261672605212498 -0.23386856979381809 0 -0.41180561837843771 -0.22705208340456121 0 -0.41492216845380259 -0.24917435442157229 0 -0.41180561837843771 -0.22705208340456121 0 -0.41492216845380259 -0.24917435442157229 0 -0.3892261314270804 -0.2298844907336719 0 -0.39590049598208632 -0.25781182944124797 0 -0.41492216845380259 -0.24917435442157229 0 -0.3892261314270804 -0.2298844907336719 0 -0.37688579422835178 -0.25516175044890282 0 -0.36291602693514158 -0.24235010539063789 0 -0.3892261314270804 -0.2298844907336719 0 -0.37688579422835178 -0.25516175044890282 0 -0.39590049598208632 -0.25781182944124797 0 -0.3892261314270804 -0.2298844907336719 0 -0.41180561837843771 -0.22705208340456121 0 -0.3892261314270804 -0.2298844907336719 0 -0.3954809830926016 -0.21012404113437971 0 -0.3954809830926016 -0.21012404113437971 0 -0.4016237562242263 -0.1925085928779762 0 -0.41409375552542899 -0.2077607532230536 0 -0.36960299579656231 -0.2060307182739807 0 -0.3954809830926016 -0.21012404113437971 0 -0.38372992513101528 -0.19440920944578741 0 -0.36960299579656231 -0.2060307182739807 0 -0.3892261314270804 -0.2298844907336719 0 -0.3954809830926016 -0.21012404113437971 0 -0.3954809830926016 -0.21012404113437971 0 -0.38372992513101528 -0.19440920944578741 0 -0.4016237562242263 -0.1925085928779762 0 -0.4016237562242263 -0.1925085928779762 0 -0.4228378496952338 -0.1918781963856771 0 -0.40845060342683692 -0.1785809289332303 0 -0.4016237562242263 -0.1925085928779762 0 -0.41409375552542899 -0.2077607532230536 0 -0.4228378496952338 -0.1918781963856771 0 -0.41180561837843771 -0.22705208340456121 0 -0.3954809830926016 -0.21012404113437971 0 -0.41409375552542899 -0.2077607532230536 0 -0.41180561837843771 -0.22705208340456121 0 -0.41409375552542899 -0.2077607532230536 0 -0.43823276405714873 -0.21140236823060141 0 -0.41409375552542899 -0.2077607532230536 0 -0.4228378496952338 -0.1918781963856771 0 -0.43823276405714873 -0.21140236823060141 0 -0.4228378496952338 -0.1918781963856771 0 -0.44081828188740779 -0.19003321163280659 0 -0.43823276405714873 -0.21140236823060141 0 -0.4228378496952338 -0.1918781963856771 0 -0.43282278187092349 -0.1708252329947989 0 -0.44081828188740779 -0.19003321163280659 0 -0.43282278187092349 -0.1708252329947989 0 -0.42051701963191818 -0.15338194148245979 0 -0.43961912615748899 -0.1475840106266102 0 -0.40845060342683692 -0.1785809289332303 0 -0.39942370744435218 -0.1559890328597256 0 -0.42051701963191818 -0.15338194148245979 0 -0.43282278187092349 -0.1708252329947989 0 -0.40845060342683692 -0.1785809289332303 0 -0.42051701963191818 -0.15338194148245979 0 -0.4228378496952338 -0.1918781963856771 0 -0.43282278187092349 -0.1708252329947989 0 -0.40845060342683692 -0.1785809289332303 0 -0.4016237562242263 -0.1925085928779762 0 -0.40845060342683692 -0.1785809289332303 0 -0.3851494204742415 -0.17229842814572921 0 -0.38372992513101528 -0.19440920944578741 0 -0.4016237562242263 -0.1925085928779762 0 -0.3851494204742415 -0.17229842814572921 0 -0.36645194572902062 -0.18359309248886749 0 -0.38372992513101528 -0.19440920944578741 0 -0.3851494204742415 -0.17229842814572921 0 -0.3740683684951065 -0.14511189419841761 0 -0.3851494204742415 -0.17229842814572921 0 -0.39942370744435218 -0.1559890328597256 0 -0.40845060342683692 -0.1785809289332303 0 -0.3851494204742415 -0.17229842814572921 0 -0.39942370744435218 -0.1559890328597256 0 -0.40845060342683692 -0.1785809289332303 0 -0.39942370744435218 -0.1559890328597256 0 -0.39942370744435218 -0.1559890328597256 0 -0.39039681146186739 -0.13339713678622081 0 -0.41115691944944982 -0.13266826510555951 0 -0.39942370744435218 -0.1559890328597256 0 -0.39039681146186739 -0.13339713678622081 0 -0.3740683684951065 -0.14511189419841761 0 -0.39942370744435218 -0.1559890328597256 0 -0.39039681146186739 -0.13339713678622081 0 -0.36297243111920863 -0.1242924888655856 0 -0.3740683684951065 -0.14511189419841761 0 -0.39039681146186739 -0.13339713678622081 0 -0.39039681146186739 -0.13339713678622081 0 -0.41115691944944982 -0.13266826510555951 0 -0.39973580769762701 -0.1138978056195301 0 -0.41115691944944982 -0.13266826510555951 0 -0.42598283159619899 -0.1360528170108059 0 -0.42633543643755523 -0.12204073140732789 0 -0.39942370744435218 -0.1559890328597256 0 -0.41115691944944982 -0.13266826510555951 0 -0.42051701963191818 -0.15338194148245979 0 -0.41115691944944982 -0.13266826510555951 0 -0.42051701963191818 -0.15338194148245979 0 -0.42598283159619899 -0.1360528170108059 0 -0.42051701963191818 -0.15338194148245979 0 -0.42598283159619899 -0.1360528170108059 0 -0.43961912615748899 -0.1475840106266102 0 -0.42598283159619899 -0.1360528170108059 0 -0.43845233031810538 -0.13038884334590189 0 -0.43961912615748899 -0.1475840106266102 0 -0.42598283159619899 -0.1360528170108059 0 -0.43845233031810538 -0.13038884334590189 0 -0.42633543643755523 -0.12204073140732789 0 -0.45234130438283199 -0.13599412887266871 0 -0.43845233031810538 -0.13038884334590189 0 -0.43961912615748899 -0.1475840106266102 0 -0.45234130438283199 -0.13599412887266871 0 -0.43845233031810538 -0.13038884334590189 0 -0.44770348775565338 -0.1241496855469152 0 -0.43961912615748899 -0.1475840106266102 0 -0.45497176255891092 -0.14884507698552249 0 -0.4494676506409393 -0.1621207955961399 0 -0.45234130438283199 -0.13599412887266871 0 -0.43961912615748899 -0.1475840106266102 0 -0.45497176255891092 -0.14884507698552249 0 -0.46842939849900739 -0.1350140494834787 0 -0.4654072645863197 -0.16417406824993039 0 -0.45497176255891092 -0.14884507698552249 0 -0.46842939849900739 -0.1350140494834787 0 -0.4654072645863197 -0.16417406824993039 0 -0.45234130438283199 -0.13599412887266871 0 -0.46842939849900739 -0.1350140494834787 0 -0.46015867187494269 -0.12758987956456591 0 -0.45234130438283199 -0.13599412887266871 0 -0.45497176255891092 -0.14884507698552249 0 -0.46842939849900739 -0.1350140494834787 0 -0.45234130438283199 -0.13599412887266871 0 -0.46015867187494269 -0.12758987956456591 0 -0.44770348775565338 -0.1241496855469152 0 -0.47527854242284451 -0.1274447220761761 0 -0.4791055524339935 -0.1490354134353252 0 -0.46842939849900739 -0.1350140494834787 0 -0.47527854242284451 -0.1274447220761761 0 -0.4791055524339935 -0.1490354134353252 0 -0.47527854242284451 -0.1274447220761761 0 -0.48815742945689061 -0.12838251890212951 0 -0.4791055524339935 -0.1490354134353252 0 -0.5 -0.1362887057456876 0 -0.48815742945689061 -0.12838251890212951 0 -0.49999999999999739 -0.11035766326492839 0 -0.5 -0.1362887057456876 0 -0.48815742945689061 -0.12838251890212951 0 -0.4791055524339935 -0.1490354134353252 0 -0.5 -0.1362887057456876 0 -0.4791055524339935 -0.1490354134353252 0 -0.5 -0.1622197482264468 0 -0.46842939849900739 -0.1350140494834787 0 -0.4791055524339935 -0.1490354134353252 0 -0.4654072645863197 -0.16417406824993039 0 -0.4791055524339935 -0.1490354134353252 0 -0.48376175520512388 -0.1698792654265463 0 -0.4654072645863197 -0.16417406824993039 0 -0.4791055524339935 -0.1490354134353252 0 -0.48376175520512388 -0.1698792654265463 0 -0.5 -0.1622197482264468 0 -0.48376175520512388 -0.1698792654265463 0 -0.47429595900530641 -0.18581630651382289 0 -0.5 -0.18815079070720611 0 -0.48376175520512388 -0.1698792654265463 0 -0.5 -0.1622197482264468 0 -0.5 -0.18815079070720611 0 -0.48376175520512388 -0.1698792654265463 0 -0.47429595900530641 -0.18581630651382289 0 -0.4654072645863197 -0.16417406824993039 0 -0.47429595900530641 -0.18581630651382289 0 -0.45370410451034998 -0.17847744750750841 0 -0.45904718279838741 -0.19726227256203371 0 -0.47429595900530641 -0.18581630651382289 0 -0.45370410451034998 -0.17847744750750841 0 -0.4654072645863197 -0.16417406824993039 0 -0.45370410451034998 -0.17847744750750841 0 -0.4654072645863197 -0.16417406824993039 0 -0.4494676506409393 -0.1621207955961399 0 -0.45497176255891092 -0.14884507698552249 0 -0.4654072645863197 -0.16417406824993039 0 -0.4494676506409393 -0.1621207955961399 0 -0.43282278187092349 -0.1708252329947989 0 -0.43961912615748899 -0.1475840106266102 0 -0.4494676506409393 -0.1621207955961399 0 -0.43282278187092349 -0.1708252329947989 0 -0.45370410451034998 -0.17847744750750841 0 -0.4494676506409393 -0.1621207955961399 0 -0.43282278187092349 -0.1708252329947989 0 -0.45370410451034998 -0.17847744750750841 0 -0.44081828188740779 -0.19003321163280659 0 -0.45370410451034998 -0.17847744750750841 0 -0.44081828188740779 -0.19003321163280659 0 -0.45904718279838741 -0.19726227256203371 0 -0.44081828188740779 -0.19003321163280659 0 -0.43823276405714873 -0.21140236823060141 0 -0.45904718279838741 -0.19726227256203371 0 -0.43823276405714873 -0.21140236823060141 0 -0.4658585054758474 -0.21361704466038889 0 -0.45904718279838741 -0.19726227256203371 0 -0.43823276405714873 -0.21140236823060141 0 -0.4658585054758474 -0.21361704466038889 0 -0.45569962587827251 -0.22948556920367119 0 -0.47429595900530641 -0.18581630651382289 0 -0.45904718279838741 -0.19726227256203371 0 -0.48137348185426437 -0.20422725682707399 0 -0.47429595900530641 -0.18581630651382289 0 -0.5 -0.18815079070720611 0 -0.48137348185426437 -0.20422725682707399 0 -0.5 -0.18815079070720611 0 -0.5 -0.2140818331879655 0 -0.48137348185426437 -0.20422725682707399 0 -0.5 -0.2140818331879655 0 -0.48137348185426437 -0.20422725682707399 0 -0.48221645984770012 -0.22561482291032131 0 -0.4658585054758474 -0.21361704466038889 0 -0.45904718279838741 -0.19726227256203371 0 -0.48137348185426437 -0.20422725682707399 0 -0.4658585054758474 -0.21361704466038889 0 -0.48137348185426437 -0.20422725682707399 0 -0.48221645984770012 -0.22561482291032131 0 -0.48221645984770012 -0.22561482291032131 0 -0.47068923944738839 -0.24265942556915759 0 -0.45569962587827251 -0.22948556920367119 0 -0.5 -0.2140818331879655 0 -0.48221645984770012 -0.22561482291032131 0 -0.5 -0.24001287566872481 0 -0.48191371264785599 -0.25951362480925638 0 -0.5 -0.24001287566872481 0 -0.47068923944738839 -0.24265942556915759 0 -0.48221645984770012 -0.22561482291032131 0 -0.5 -0.24001287566872481 0 -0.47068923944738839 -0.24265942556915759 0 -0.47068923944738839 -0.24265942556915759 0 -0.45569962587827251 -0.22948556920367119 0 -0.44458406038942538 -0.24975118405773991 0 -0.4658585054758474 -0.21361704466038889 0 -0.48221645984770012 -0.22561482291032131 0 -0.45569962587827251 -0.22948556920367119 0 -0.43261672605212498 -0.23386856979381809 0 -0.43823276405714873 -0.21140236823060141 0 -0.45569962587827251 -0.22948556920367119 0 -0.43261672605212498 -0.23386856979381809 0 -0.45569962587827251 -0.22948556920367119 0 -0.44458406038942538 -0.24975118405773991 0 -0.42089340143700371 -0.038974870886881549 0 -0.42775006339730121 -0.029367253687902949 0 -0.40562695375692043 -0.037687607517590593 0 -0.42560913303253489 -0.049355778257137807 0 -0.40562695375692043 -0.037687607517590593 0 -0.42089340143700371 -0.038974870886881549 0 -0.42560913303253489 -0.049355778257137807 0 -0.40562695375692043 -0.037687607517590593 0 -0.41117004196989859 -0.051139061871165258 0 -0.42560913303253489 -0.049355778257137807 0 -0.40562695375692043 -0.037687607517590593 0 -0.41117004196989859 -0.051139061871165258 0 -0.41304150832143549 -0.061866805063038412 0 -0.4040004258616256 -0.065105102191383574 0 -0.41304150832143549 -0.061866805063038412 0 -0.42463052936300127 -0.056660178633496337 0 -0.41902033383963772 -0.067834520266261245 0 -0.41117004196989859 -0.051139061871165258 0 -0.41304150832143549 -0.061866805063038412 0 -0.42463052936300127 -0.056660178633496337 0 -0.41117004196989859 -0.051139061871165258 0 -0.42560913303253489 -0.049355778257137807 0 -0.42463052936300127 -0.056660178633496337 0 -0.42560913303253489 -0.049355778257137807 0 -0.42463052936300127 -0.056660178633496337 0 -0.44559131230814941 -0.061023948996685083 0 -0.42560913303253489 -0.049355778257137807 0 -0.43802889944063361 -0.0491532213080422 0 -0.44559131230814941 -0.061023948996685083 0 -0.42560913303253489 -0.049355778257137807 0 -0.44559131230814941 -0.061023948996685083 0 -0.42560913303253489 -0.049355778257137807 0 -0.43179719241621017 -0.040795295154017343 0 -0.43802889944063361 -0.0491532213080422 0 -0.43179719241621017 -0.040795295154017343 0 -0.43901068316009462 -0.035467323025656333 0 -0.44131818743038292 -0.043190895177821098 0 -0.43179719241621017 -0.040795295154017343 0 -0.44131818743038292 -0.043190895177821098 0 -0.43802889944063361 -0.0491532213080422 0 -0.42089340143700371 -0.038974870886881549 0 -0.42560913303253489 -0.049355778257137807 0 -0.43179719241621017 -0.040795295154017343 0 -0.42089340143700371 -0.038974870886881549 0 -0.43179719241621017 -0.040795295154017343 0 -0.42775006339730121 -0.029367253687902949 0 -0.43179719241621017 -0.040795295154017343 0 -0.42775006339730121 -0.029367253687902949 0 -0.43901068316009462 -0.035467323025656333 0 -0.43335032612692181 -0.017887535643456409 0 -0.42775006339730121 -0.029367253687902949 0 -0.44412179861910639 -0.02480628842233663 0 -0.43335032612692181 -0.017887535643456409 0 -0.42775006339730121 -0.029367253687902949 0 -0.41968245188359687 -0.012438694687523261 0 -0.42775006339730121 -0.029367253687902949 0 -0.43901068316009462 -0.035467323025656333 0 -0.44412179861910639 -0.02480628842233663 0 -0.43335032612692181 -0.017887535643456409 0 -0.41968245188359687 -0.012438694687523261 0 -0.4418469906076829 -0.0049379057760628037 0 -0.41968245188359687 -0.012438694687523261 0 -0.4418469906076829 -0.0049379057760628037 0 -0.43373795001027488 0.012810218142543021 0 -0.41968245188359687 -0.012438694687523261 0 -0.39623740299342319 -0.0023384003391818502 0 -0.41309341137854177 0.010357606111404891 0 -0.41968245188359687 -0.012438694687523261 0 -0.40098007682745468 -0.019143486760033971 0 -0.40562695375692043 -0.037687607517590593 0 -0.41968245188359687 -0.012438694687523261 0 -0.40562695375692043 -0.037687607517590593 0 -0.42775006339730121 -0.029367253687902949 0 -0.41968245188359687 -0.012438694687523261 0 -0.40562695375692043 -0.037687607517590593 0 -0.40098007682745468 -0.019143486760033971 0 -0.38237349867587839 -0.02410924449584018 0 -0.40562695375692043 -0.037687607517590593 0 -0.38237349867587839 -0.02410924449584018 0 -0.40562695375692043 -0.037687607517590593 0 -0.41968245188359687 -0.012438694687523261 0 -0.40098007682745468 -0.019143486760033971 0 -0.39623740299342319 -0.0023384003391818502 0 -0.40098007682745468 -0.019143486760033971 0 -0.39623740299342319 -0.0023384003391818502 0 -0.38237349867587839 -0.02410924449584018 0 -0.39623740299342319 -0.0023384003391818502 0 -0.37630101312515413 -0.0017537402174872649 0 -0.38237349867587839 -0.02410924449584018 0 -0.38237349867587839 -0.02410924449584018 0 -0.3772011184658815 -0.044887999918692092 0 -0.40562695375692043 -0.037687607517590593 0 -0.41117004196989859 -0.051139061871165258 0 -0.39332981898715502 -0.059777844452844127 0 -0.4040004258616256 -0.065105102191383574 0 -0.40562695375692043 -0.037687607517590593 0 -0.39332981898715502 -0.059777844452844127 0 -0.41117004196989859 -0.051139061871165258 0 -0.40562695375692043 -0.037687607517590593 0 -0.39332981898715502 -0.059777844452844127 0 -0.3772011184658815 -0.044887999918692092 0 -0.40562695375692043 -0.037687607517590593 0 -0.39332981898715502 -0.059777844452844127 0 -0.37189720783083691 -0.062689075490715757 0 -0.3772011184658815 -0.044887999918692092 0 -0.39332981898715502 -0.059777844452844127 0 -0.39332981898715502 -0.059777844452844127 0 -0.37767253083955082 -0.07222684382440861 0 -0.38103268421739123 -0.081868081388098646 0 -0.39332981898715502 -0.059777844452844127 0 -0.38103268421739123 -0.081868081388098646 0 -0.39750408142114291 -0.076718880513424778 0 -0.39332981898715502 -0.059777844452844127 0 -0.38103268421739123 -0.081868081388098646 0 -0.37189720783083691 -0.062689075490715757 0 -0.39332981898715502 -0.059777844452844127 0 -0.37767253083955082 -0.07222684382440861 0 -0.37409795029657827 -0.082426532541013814 0 -0.37767253083955082 -0.07222684382440861 0 -0.38103268421739123 -0.081868081388098646 0 -0.38103268421739123 -0.081868081388098646 0 -0.39006375632723278 -0.084740467633582006 0 -0.39750408142114291 -0.076718880513424778 0 -0.37409795029657827 -0.082426532541013814 0 -0.38103268421739123 -0.081868081388098646 0 -0.38052527421474852 -0.086084899170000062 0 -0.38103268421739123 -0.081868081388098646 0 -0.38052527421474852 -0.086084899170000062 0 -0.38492122607103513 -0.088044300314449944 0 -0.37234301949689891 -0.088213344639210808 0 -0.38231264571192752 -0.09109668811056168 0 -0.37409795029657827 -0.082426532541013814 0 -0.38052527421474852 -0.086084899170000062 0 -0.38231264571192752 -0.09109668811056168 0 -0.37234301949689891 -0.088213344639210808 0 -0.38231264571192752 -0.09109668811056168 0 -0.3837455672030976 -0.10002432004358559 0 -0.38052527421474852 -0.086084899170000062 0 -0.38231264571192752 -0.09109668811056168 0 -0.38492122607103513 -0.088044300314449944 0 -0.38506172516203091 -0.092934745246378722 0 -0.38492122607103513 -0.088044300314449944 0 -0.38938100716737922 -0.089873057443714433 0 -0.38231264571192752 -0.09109668811056168 0 -0.38506172516203091 -0.092934745246378722 0 -0.38492122607103513 -0.088044300314449944 0 -0.38492122607103513 -0.088044300314449944 0 -0.38938100716737922 -0.089873057443714433 0 -0.39006375632723278 -0.084740467633582006 0 -0.38506172516203091 -0.092934745246378722 0 -0.38938100716737922 -0.089873057443714433 0 -0.39092715353136998 -0.095457676529514909 0 -0.38103268421739123 -0.081868081388098646 0 -0.38492122607103513 -0.088044300314449944 0 -0.39006375632723278 -0.084740467633582006 0 -0.39006375632723278 -0.084740467633582006 0 -0.39585524839219632 -0.088124094047499435 0 -0.39750408142114291 -0.076718880513424778 0 -0.38938100716737922 -0.089873057443714433 0 -0.39585524839219632 -0.088124094047499435 0 -0.39092715353136998 -0.095457676529514909 0 -0.38938100716737922 -0.089873057443714433 0 -0.39006375632723278 -0.084740467633582006 0 -0.39585524839219632 -0.088124094047499435 0 -0.39585524839219632 -0.088124094047499435 0 -0.39979689236220461 -0.099272869582853876 0 -0.40789698553799669 -0.085908070196479822 0 -0.39585524839219632 -0.088124094047499435 0 -0.39750408142114291 -0.076718880513424778 0 -0.40789698553799669 -0.085908070196479822 0 -0.4040004258616256 -0.065105102191383574 0 -0.39750408142114291 -0.076718880513424778 0 -0.41075796164922862 -0.0711667096674021 0 -0.39750408142114291 -0.076718880513424778 0 -0.41075796164922862 -0.0711667096674021 0 -0.40789698553799669 -0.085908070196479822 0 -0.39332981898715502 -0.059777844452844127 0 -0.4040004258616256 -0.065105102191383574 0 -0.39750408142114291 -0.076718880513424778 0 -0.39039681146186739 -0.13339713678622081 0 -0.38136991547938259 -0.110805240712716 0 -0.36297243111920863 -0.1242924888655856 0 -0.39039681146186739 -0.13339713678622081 0 -0.38136991547938259 -0.110805240712716 0 -0.39039681146186739 -0.13339713678622081 0 -0.38136991547938259 -0.110805240712716 0 -0.39973580769762701 -0.1138978056195301 0 -0.37234301949689891 -0.088213344639210808 0 -0.38136991547938259 -0.110805240712716 0 -0.37234301949689891 -0.088213344639210808 0 -0.38136991547938259 -0.110805240712716 0 -0.3837455672030976 -0.10002432004358559 0 -0.38136991547938259 -0.110805240712716 0 -0.3837455672030976 -0.10002432004358559 0 -0.39144946592284469 -0.1040705029616148 0 -0.38506172516203091 -0.092934745246378722 0 -0.3837455672030976 -0.10002432004358559 0 -0.39092715353136998 -0.095457676529514909 0 -0.3837455672030976 -0.10002432004358559 0 -0.39092715353136998 -0.095457676529514909 0 -0.39144946592284469 -0.1040705029616148 0 -0.38231264571192752 -0.09109668811056168 0 -0.38506172516203091 -0.092934745246378722 0 -0.3837455672030976 -0.10002432004358559 0 -0.39092715353136998 -0.095457676529514909 0 -0.39979689236220461 -0.099272869582853876 0 -0.39144946592284469 -0.1040705029616148 0 -0.39585524839219632 -0.088124094047499435 0 -0.39092715353136998 -0.095457676529514909 0 -0.39979689236220461 -0.099272869582853876 0 -0.39979689236220461 -0.099272869582853876 0 -0.39973580769762701 -0.1138978056195301 0 -0.41128116382142749 -0.1012575238182556 0 -0.39979689236220461 -0.099272869582853876 0 -0.39144946592284469 -0.1040705029616148 0 -0.39973580769762701 -0.1138978056195301 0 -0.38136991547938259 -0.110805240712716 0 -0.39144946592284469 -0.1040705029616148 0 -0.39973580769762701 -0.1138978056195301 0 -0.41115691944944982 -0.13266826510555951 0 -0.41529054215667532 -0.1150159380257956 0 -0.42633543643755523 -0.12204073140732789 0 -0.41115691944944982 -0.13266826510555951 0 -0.39973580769762701 -0.1138978056195301 0 -0.41529054215667532 -0.1150159380257956 0 -0.39973580769762701 -0.1138978056195301 0 -0.41529054215667532 -0.1150159380257956 0 -0.41128116382142749 -0.1012575238182556 0 -0.41128116382142749 -0.1012575238182556 0 -0.4279908183919004 -0.1029769794952089 0 -0.41697593678216149 -0.090473479989665109 0 -0.41529054215667532 -0.1150159380257956 0 -0.41128116382142749 -0.1012575238182556 0 -0.4279908183919004 -0.1029769794952089 0 -0.39979689236220461 -0.099272869582853876 0 -0.41128116382142749 -0.1012575238182556 0 -0.40789698553799669 -0.085908070196479822 0 -0.43618842777811723 -0.094374074729781418 0 -0.4279908183919004 -0.1029769794952089 0 -0.42752146068503399 -0.087321506891491943 0 -0.43618842777811723 -0.094374074729781418 0 -0.4279908183919004 -0.1029769794952089 0 -0.44038994904925 -0.1031935976067227 0 -0.4279908183919004 -0.1029769794952089 0 -0.43913917671300212 -0.1151415454606958 0 -0.44038994904925 -0.1031935976067227 0 -0.41529054215667532 -0.1150159380257956 0 -0.4279908183919004 -0.1029769794952089 0 -0.42633543643755523 -0.12204073140732789 0 -0.4279908183919004 -0.1029769794952089 0 -0.42633543643755523 -0.12204073140732789 0 -0.43913917671300212 -0.1151415454606958 0 -0.43845233031810538 -0.13038884334590189 0 -0.42633543643755523 -0.12204073140732789 0 -0.43913917671300212 -0.1151415454606958 0 -0.41902033383963772 -0.067834520266261245 0 -0.41833626238011717 -0.079110673490444497 0 -0.42808834981562988 -0.073903123889577677 0 -0.41902033383963772 -0.067834520266261245 0 -0.41075796164922862 -0.0711667096674021 0 -0.41833626238011717 -0.079110673490444497 0 -0.41304150832143549 -0.061866805063038412 0 -0.41902033383963772 -0.067834520266261245 0 -0.41075796164922862 -0.0711667096674021 0 -0.41304150832143549 -0.061866805063038412 0 -0.4040004258616256 -0.065105102191383574 0 -0.41075796164922862 -0.0711667096674021 0 -0.41075796164922862 -0.0711667096674021 0 -0.40789698553799669 -0.085908070196479822 0 -0.41833626238011717 -0.079110673490444497 0 -0.41128116382142749 -0.1012575238182556 0 -0.40789698553799669 -0.085908070196479822 0 -0.41697593678216149 -0.090473479989665109 0 -0.40789698553799669 -0.085908070196479822 0 -0.41697593678216149 -0.090473479989665109 0 -0.41833626238011717 -0.079110673490444497 0 -0.41697593678216149 -0.090473479989665109 0 -0.41833626238011717 -0.079110673490444497 0 -0.42752146068503399 -0.087321506891491943 0 -0.41833626238011717 -0.079110673490444497 0 -0.42752146068503399 -0.087321506891491943 0 -0.42808834981562988 -0.073903123889577677 0 -0.4279908183919004 -0.1029769794952089 0 -0.41697593678216149 -0.090473479989665109 0 -0.42752146068503399 -0.087321506891491943 0 -0.43618842777811723 -0.094374074729781418 0 -0.42752146068503399 -0.087321506891491943 0 -0.43737990877477739 -0.083812998159773666 0 -0.42752146068503399 -0.087321506891491943 0 -0.43737990877477739 -0.083812998159773666 0 -0.42808834981562988 -0.073903123889577677 0 -0.43737990877477739 -0.083812998159773666 0 -0.43642770157751759 -0.073715491404638303 0 -0.42808834981562988 -0.073903123889577677 0 -0.42463052936300127 -0.056660178633496337 0 -0.43642770157751759 -0.073715491404638303 0 -0.44643469494480392 -0.072194702577138947 0 -0.42463052936300127 -0.056660178633496337 0 -0.44643469494480392 -0.072194702577138947 0 -0.42463052936300127 -0.056660178633496337 0 -0.41902033383963772 -0.067834520266261245 0 -0.42808834981562988 -0.073903123889577677 0 -0.42463052936300127 -0.056660178633496337 0 -0.43642770157751759 -0.073715491404638303 0 -0.42808834981562988 -0.073903123889577677 0 -0.44643469494480392 -0.072194702577138947 0 -0.46557349158376399 -0.072692119736231964 0 -0.44559131230814941 -0.061023948996685083 0 -0.42463052936300127 -0.056660178633496337 0 -0.44643469494480392 -0.072194702577138947 0 -0.44559131230814941 -0.061023948996685083 0 -0.43642770157751759 -0.073715491404638303 0 -0.44643469494480392 -0.072194702577138947 0 -0.44560502498937582 -0.082006453763204909 0 -0.43737990877477739 -0.083812998159773666 0 -0.43642770157751759 -0.073715491404638303 0 -0.44560502498937582 -0.082006453763204909 0 -0.43737990877477739 -0.083812998159773666 0 -0.44706666027677822 -0.093733455921883369 0 -0.44560502498937582 -0.082006453763204909 0 -0.43618842777811723 -0.094374074729781418 0 -0.43737990877477739 -0.083812998159773666 0 -0.44706666027677822 -0.093733455921883369 0 -0.44706666027677822 -0.093733455921883369 0 -0.44560502498937582 -0.082006453763204909 0 -0.45512457235105669 -0.086622700845742293 0 -0.44643469494480392 -0.072194702577138947 0 -0.44560502498937582 -0.082006453763204909 0 -0.45512457235105669 -0.086622700845742293 0 -0.44643469494480392 -0.072194702577138947 0 -0.45512457235105669 -0.086622700845742293 0 -0.46823886052660701 -0.087729226520781189 0 -0.44643469494480392 -0.072194702577138947 0 -0.46823886052660701 -0.087729226520781189 0 -0.44706666027677822 -0.093733455921883369 0 -0.45512457235105669 -0.086622700845742293 0 -0.45954814342940542 -0.098560521520782624 0 -0.45512457235105669 -0.086622700845742293 0 -0.46823886052660701 -0.087729226520781189 0 -0.45954814342940542 -0.098560521520782624 0 -0.46823886052660701 -0.087729226520781189 0 -0.46557349158376399 -0.072692119736231964 0 -0.46823886052660701 -0.087729226520781189 0 -0.46557349158376399 -0.072692119736231964 0 -0.47229452656071241 -0.076616725885332818 0 -0.46557349158376399 -0.072692119736231964 0 -0.44559131230814941 -0.061023948996685083 0 -0.44643469494480392 -0.072194702577138947 0 -0.46823886052660701 -0.087729226520781189 0 -0.46557349158376399 -0.072692119736231964 0 -0.46557349158376399 -0.072692119736231964 0 -0.4561960712713598 -0.059243987447316702 0 -0.44559131230814941 -0.061023948996685083 0 -0.46557349158376399 -0.072692119736231964 0 -0.46398898108834291 -0.063752849401868539 0 -0.46557349158376399 -0.072692119736231964 0 -0.46398898108834291 -0.063752849401868539 0 -0.47360286880055508 -0.066658825712798742 0 -0.46557349158376399 -0.072692119736231964 0 -0.46398898108834291 -0.063752849401868539 0 -0.4561960712713598 -0.059243987447316702 0 -0.44770348775565338 -0.1241496855469152 0 -0.43913917671300212 -0.1151415454606958 0 -0.45037797866075979 -0.10807826127839119 0 -0.44770348775565338 -0.1241496855469152 0 -0.45037797866075979 -0.10807826127839119 0 -0.4579337887515661 -0.11773462180324371 0 -0.43845233031810538 -0.13038884334590189 0 -0.44770348775565338 -0.1241496855469152 0 -0.43913917671300212 -0.1151415454606958 0 -0.44706666027677822 -0.093733455921883369 0 -0.45037797866075979 -0.10807826127839119 0 -0.44038994904925 -0.1031935976067227 0 -0.43913917671300212 -0.1151415454606958 0 -0.45037797866075979 -0.10807826127839119 0 -0.44038994904925 -0.1031935976067227 0 -0.43618842777811723 -0.094374074729781418 0 -0.44706666027677822 -0.093733455921883369 0 -0.44038994904925 -0.1031935976067227 0 -0.44706666027677822 -0.093733455921883369 0 -0.45037797866075979 -0.10807826127839119 0 -0.45954814342940542 -0.098560521520782624 0 -0.46823886052660701 -0.087729226520781189 0 -0.45954814342940542 -0.098560521520782624 0 -0.47145153241169518 -0.105854030717027 0 -0.45954814342940542 -0.098560521520782624 0 -0.45982786081335658 -0.1075568588298611 0 -0.47145153241169518 -0.105854030717027 0 -0.45037797866075979 -0.10807826127839119 0 -0.45954814342940542 -0.098560521520782624 0 -0.45982786081335658 -0.1075568588298611 0 -0.46842939849900739 -0.1350140494834787 0 -0.46015867187494269 -0.12758987956456591 0 -0.47145153241169518 -0.105854030717027 0 -0.46015867187494269 -0.12758987956456591 0 -0.4579337887515661 -0.11773462180324371 0 -0.47145153241169518 -0.105854030717027 0 -0.45037797866075979 -0.10807826127839119 0 -0.45982786081335658 -0.1075568588298611 0 -0.4579337887515661 -0.11773462180324371 0 -0.45982786081335658 -0.1075568588298611 0 -0.4579337887515661 -0.11773462180324371 0 -0.47145153241169518 -0.105854030717027 0 -0.46015867187494269 -0.12758987956456591 0 -0.44770348775565338 -0.1241496855469152 0 -0.4579337887515661 -0.11773462180324371 0 -0.46842939849900739 -0.1350140494834787 0 -0.47145153241169518 -0.105854030717027 0 -0.47527854242284451 -0.1274447220761761 0 -0.47145153241169518 -0.105854030717027 0 -0.47527854242284451 -0.1274447220761761 0 -0.48436059405129972 -0.11472352844584729 0 -0.47145153241169518 -0.105854030717027 0 -0.46842939849900739 -0.1350140494834787 0 -0.47527854242284451 -0.1274447220761761 0 -0.47145153241169518 -0.105854030717027 0 -0.47527854242284451 -0.1274447220761761 0 -0.48815742945689061 -0.12838251890212951 0 -0.48436059405129972 -0.11472352844584729 0 -0.46823886052660701 -0.087729226520781189 0 -0.47145153241169518 -0.105854030717027 0 -0.47297990760667508 -0.09110701729690264 0 -0.46823886052660701 -0.087729226520781189 0 -0.47145153241169518 -0.105854030717027 0 -0.48436059405129972 -0.11472352844584729 0 -0.47145153241169518 -0.105854030717027 0 -0.48648995380333548 -0.1007323402809166 0 -0.47145153241169518 -0.105854030717027 0 -0.47297990760667508 -0.09110701729690264 0 -0.47145153241169518 -0.105854030717027 0 -0.48648995380333548 -0.1007323402809166 0 -0.47297990760667508 -0.09110701729690264 0 -0.48648995380333548 -0.1007323402809166 0 -0.47297990760667508 -0.09110701729690264 0 -0.48436059405129972 -0.11472352844584729 0 -0.48648995380333548 -0.1007323402809166 0 -0.49999999999999739 -0.11035766326492839 0 -0.48648995380333548 -0.1007323402809166 0 -0.49999999999999739 -0.11035766326492839 0 -0.5 -0.081634528849989563 0 -0.48648995380333548 -0.1007323402809166 0 -0.49999999999999739 -0.11035766326492839 0 -0.48815742945689061 -0.12838251890212951 0 -0.48436059405129972 -0.11472352844584729 0 -0.49999999999999739 -0.11035766326492839 0 -0.48151161102097673 -0.077213467180526144 0 -0.47360286880055508 -0.066658825712798742 0 -0.48340708929856752 -0.061331084507455287 0 -0.48151161102097673 -0.077213467180526144 0 -0.47360286880055508 -0.066658825712798742 0 -0.47229452656071241 -0.076616725885332818 0 -0.46557349158376399 -0.072692119736231964 0 -0.47360286880055508 -0.066658825712798742 0 -0.47229452656071241 -0.076616725885332818 0 -0.46557349158376399 -0.072692119736231964 0 -0.47229452656071241 -0.076616725885332818 0 -0.48151161102097673 -0.077213467180526144 0 -0.47229452656071241 -0.076616725885332818 0 -0.47366401771747552 -0.084506163646609372 0 -0.46823886052660701 -0.087729226520781189 0 -0.47229452656071241 -0.076616725885332818 0 -0.47366401771747552 -0.084506163646609372 0 -0.46823886052660701 -0.087729226520781189 0 -0.47297990760667508 -0.09110701729690264 0 -0.46823886052660701 -0.087729226520781189 0 -0.47366401771747552 -0.084506163646609372 0 -0.47297990760667508 -0.09110701729690264 0 -0.47366401771747552 -0.084506163646609372 0 -0.47297990760667508 -0.09110701729690264 0 -0.47366401771747552 -0.084506163646609372 0 -0.47297990760667508 -0.09110701729690264 0 -0.48410059546796391 -0.088400212269266643 0 -0.48648995380333548 -0.1007323402809166 0 -0.47297990760667508 -0.09110701729690264 0 -0.48410059546796391 -0.088400212269266643 0 -0.48151161102097673 -0.077213467180526144 0 -0.47366401771747552 -0.084506163646609372 0 -0.48410059546796391 -0.088400212269266643 0 -0.48648995380333548 -0.1007323402809166 0 -0.48410059546796391 -0.088400212269266643 0 -0.5 -0.081634528849989563 0 -0.48151161102097673 -0.077213467180526144 0 -0.48410059546796391 -0.088400212269266643 0 -0.5 -0.081634528849989563 0 -0.5 -0.081634528849989563 0 -0.5 -0.052911394435050663 0 -0.48340708929856752 -0.061331084507455287 0 -0.48151161102097673 -0.077213467180526144 0 -0.5 -0.081634528849989563 0 -0.48340708929856752 -0.061331084507455287 0 -0.5 -0.052911394435050663 0 -0.48006218173585402 -0.042885540709648187 0 -0.48340708929856752 -0.061331084507455287 0 -0.5 -0.052911394435050663 0 -0.48826856945237362 -0.031882755885117797 0 -0.5 -0.024188260020111541 0 -0.5 -0.052911394435050663 0 -0.48826856945237362 -0.031882755885117797 0 -0.48006218173585402 -0.042885540709648187 0 -0.48006218173585402 -0.042885540709648187 0 -0.46441747557752072 -0.042076336371925108 0 -0.47262109959338228 -0.023759470059269459 0 -0.48006218173585402 -0.042885540709648187 0 -0.4714289676584309 -0.053175486943015902 0 -0.46441747557752072 -0.042076336371925108 0 -0.48826856945237362 -0.031882755885117797 0 -0.48006218173585402 -0.042885540709648187 0 -0.47262109959338228 -0.023759470059269459 0 -0.48006218173585402 -0.042885540709648187 0 -0.48340708929856752 -0.061331084507455287 0 -0.4714289676584309 -0.053175486943015902 0 -0.47360286880055508 -0.066658825712798742 0 -0.48340708929856752 -0.061331084507455287 0 -0.4714289676584309 -0.053175486943015902 0 -0.46398898108834291 -0.063752849401868539 0 -0.47360286880055508 -0.066658825712798742 0 -0.4714289676584309 -0.053175486943015902 0 -0.46398898108834291 -0.063752849401868539 0 -0.4714289676584309 -0.053175486943015902 0 -0.46234682160625817 -0.05580265784851221 0 -0.46234682160625817 -0.05580265784851221 0 -0.4561960712713598 -0.059243987447316702 0 -0.45624546448159781 -0.049824906456414242 0 -0.46398898108834291 -0.063752849401868539 0 -0.46234682160625817 -0.05580265784851221 0 -0.4561960712713598 -0.059243987447316702 0 -0.4561960712713598 -0.059243987447316702 0 -0.45624546448159781 -0.049824906456414242 0 -0.44716773489653472 -0.050919261725005383 0 -0.46234682160625817 -0.05580265784851221 0 -0.45624546448159781 -0.049824906456414242 0 -0.46441747557752072 -0.042076336371925108 0 -0.4714289676584309 -0.053175486943015902 0 -0.46234682160625817 -0.05580265784851221 0 -0.46441747557752072 -0.042076336371925108 0 -0.46441747557752072 -0.042076336371925108 0 -0.45815162002964932 -0.02990940990041218 0 -0.47262109959338228 -0.023759470059269459 0 -0.46441747557752072 -0.042076336371925108 0 -0.45006617393747222 -0.039176882686203639 0 -0.45815162002964932 -0.02990940990041218 0 -0.45624546448159781 -0.049824906456414242 0 -0.46441747557752072 -0.042076336371925108 0 -0.45006617393747222 -0.039176882686203639 0 -0.45624546448159781 -0.049824906456414242 0 -0.45006617393747222 -0.039176882686203639 0 -0.44716773489653472 -0.050919261725005383 0 -0.45006617393747222 -0.039176882686203639 0 -0.44131818743038292 -0.043190895177821098 0 -0.44716773489653472 -0.050919261725005383 0 -0.45006617393747222 -0.039176882686203639 0 -0.44412179861910639 -0.02480628842233663 0 -0.45815162002964932 -0.02990940990041218 0 -0.45006617393747222 -0.039176882686203639 0 -0.43901068316009462 -0.035467323025656333 0 -0.44412179861910639 -0.02480628842233663 0 -0.45006617393747222 -0.039176882686203639 0 -0.43901068316009462 -0.035467323025656333 0 -0.44131818743038292 -0.043190895177821098 0 -0.43802889944063361 -0.0491532213080422 0 -0.44559131230814941 -0.061023948996685083 0 -0.44716773489653472 -0.050919261725005383 0 -0.44131818743038292 -0.043190895177821098 0 -0.43802889944063361 -0.0491532213080422 0 -0.44716773489653472 -0.050919261725005383 0 -0.4561960712713598 -0.059243987447316702 0 -0.44559131230814941 -0.061023948996685083 0 -0.44716773489653472 -0.050919261725005383 0 -0.4418469906076829 -0.0049379057760628037 0 -0.44412179861910639 -0.02480628842233663 0 -0.4561048052465394 -0.018194844869976801 0 -0.43335032612692181 -0.017887535643456409 0 -0.4418469906076829 -0.0049379057760628037 0 -0.44412179861910639 -0.02480628842233663 0 -0.44412179861910639 -0.02480628842233663 0 -0.4561048052465394 -0.018194844869976801 0 -0.45815162002964932 -0.02990940990041218 0 -0.4561048052465394 -0.018194844869976801 0 -0.4647633116070844 -0.0058847989239488316 0 -0.47262109959338228 -0.023759470059269459 0 -0.4561048052465394 -0.018194844869976801 0 -0.45815162002964932 -0.02990940990041218 0 -0.47262109959338228 -0.023759470059269459 0 -0.4418469906076829 -0.0049379057760628037 0 -0.4561048052465394 -0.018194844869976801 0 -0.4647633116070844 -0.0058847989239488316 0 -0.47700938333057602 -0.0090882924840460372 0 -0.48865956593263149 -0.015669114201509189 0 -0.48199355618920592 0.0089602132485433195 0 -0.4647633116070844 -0.0058847989239488316 0 -0.47700938333057602 -0.0090882924840460372 0 -0.48199355618920592 0.0089602132485433195 0 -0.4647633116070844 -0.0058847989239488316 0 -0.47700938333057602 -0.0090882924840460372 0 -0.47262109959338228 -0.023759470059269459 0 -0.47700938333057602 -0.0090882924840460372 0 -0.47262109959338228 -0.023759470059269459 0 -0.48865956593263149 -0.015669114201509189 0 -0.48826856945237362 -0.031882755885117797 0 -0.47262109959338228 -0.023759470059269459 0 -0.48865956593263149 -0.015669114201509189 0 -0.48826856945237362 -0.031882755885117797 0 -0.48865956593263149 -0.015669114201509189 0 -0.5 -0.024188260020111541 0 -0.48865956593263149 -0.015669114201509189 0 -0.5 -0.024188260020111541 0 -0.5 0.0045348743948275261 0 -0.48865956593263149 -0.015669114201509189 0 -0.5 0.0045348743948275261 0 -0.48199355618920592 0.0089602132485433195 0 -0.48865956593263149 -0.015669114201509189 0 -0.48199355618920592 0.0089602132485433195 0 -0.5 0.0045348743948275261 0 -0.48753279155892493 0.023676178430758029 0 -0.48199355618920592 0.0089602132485433195 0 -0.5 0.0045348743948275261 0 -0.48753279155892493 0.023676178430758029 0 -0.5 0.033258008809766648 0 -0.48753279155892493 0.023676178430758029 0 -0.48199355618920592 0.0089602132485433195 0 -0.47532754644578118 0.03358954069859614 0 -0.48199355618920592 0.0089602132485433195 0 -0.47532754644578118 0.03358954069859614 0 -0.48199355618920592 0.0089602132485433195 0 -0.47532754644578118 0.03358954069859614 0 -0.45858726852673237 0.01432581746126649 0 -0.49999999999999861 0.061981143224705708 0 -0.48766377322288967 0.047785341961651059 0 -0.5 0.033258008809766648 0 -0.49999999999999861 0.061981143224705708 0 -0.48766377322288967 0.047785341961651059 0 -0.48235581259802851 0.065767295003990256 0 -0.49999999999999861 0.061981143224705708 0 -0.48766377322288967 0.047785341961651059 0 -0.48753279155892493 0.023676178430758029 0 -0.48766377322288967 0.047785341961651059 0 -0.5 0.033258008809766648 0 -0.47532754644578118 0.03358954069859614 0 -0.47023761783694001 0.052395621582013947 0 -0.48766377322288967 0.047785341961651059 0 -0.47532754644578118 0.03358954069859614 0 -0.47023761783694001 0.052395621582013947 0 -0.48753279155892493 0.023676178430758029 0 -0.48766377322288967 0.047785341961651059 0 -0.47532754644578118 0.03358954069859614 0 -0.48766377322288967 0.047785341961651059 0 -0.47532754644578118 0.03358954069859614 0 -0.48766377322288967 0.047785341961651059 0 -0.47023761783694001 0.052395621582013947 0 -0.48235581259802851 0.065767295003990256 0 -0.47023761783694001 0.052395621582013947 0 -0.45413384225205622 0.057760327943577709 0 -0.46514768922809968 0.071201702465432004 0 -0.47023761783694001 0.052395621582013947 0 -0.46514768922809968 0.071201702465432004 0 -0.47023761783694001 0.052395621582013947 0 -0.45413384225205622 0.057760327943577709 0 -0.45413661529677452 0.040119955132595683 0 -0.47532754644578118 0.03358954069859614 0 -0.47023761783694001 0.052395621582013947 0 -0.45413661529677452 0.040119955132595683 0 -0.45413661529677452 0.040119955132595683 0 -0.43518453493587578 0.033132819615680723 0 -0.43492073795856451 0.051520071892084962 0 -0.45413384225205622 0.057760327943577709 0 -0.43492073795856451 0.051520071892084962 0 -0.44622655093990221 0.073564288645761977 0 -0.45413384225205622 0.057760327943577709 0 -0.45413661529677452 0.040119955132595683 0 -0.43492073795856451 0.051520071892084962 0 -0.4647633116070844 -0.0058847989239488316 0 -0.48199355618920592 0.0089602132485433195 0 -0.45858726852673237 0.01432581746126649 0 -0.4418469906076829 -0.0049379057760628037 0 -0.4647633116070844 -0.0058847989239488316 0 -0.45858726852673237 0.01432581746126649 0 -0.47532754644578118 0.03358954069859614 0 -0.45858726852673237 0.01432581746126649 0 -0.47532754644578118 0.03358954069859614 0 -0.45413661529677452 0.040119955132595683 0 -0.45858726852673237 0.01432581746126649 0 -0.45413661529677452 0.040119955132595683 0 -0.45858726852673237 0.01432581746126649 0 -0.43518453493587578 0.033132819615680723 0 -0.45858726852673237 0.01432581746126649 0 -0.43373795001027488 0.012810218142543021 0 -0.43518453493587578 0.033132819615680723 0 -0.4418469906076829 -0.0049379057760628037 0 -0.45858726852673237 0.01432581746126649 0 -0.43373795001027488 0.012810218142543021 0 -0.4418469906076829 -0.0049379057760628037 0 -0.45858726852673237 0.01432581746126649 0 -0.41968245188359687 -0.012438694687523261 0 -0.43373795001027488 0.012810218142543021 0 -0.41968245188359687 -0.012438694687523261 0 -0.43373795001027488 0.012810218142543021 0 -0.41309341137854177 0.010357606111404891 0 -0.43373795001027488 0.012810218142543021 0 -0.41309341137854177 0.010357606111404891 0 -0.41466445386552558 0.031087876408641461 0 -0.43373795001027488 0.012810218142543021 0 -0.41466445386552558 0.031087876408641461 0 -0.43518453493587578 0.033132819615680723 0 -0.41466445386552558 0.031087876408641461 0 -0.43518453493587578 0.033132819615680723 0 -0.41712981979359098 0.050059814875227593 0 -0.43518453493587578 0.033132819615680723 0 -0.43492073795856451 0.051520071892084962 0 -0.41712981979359098 0.050059814875227593 0 -0.43492073795856451 0.051520071892084962 0 -0.41712981979359098 0.050059814875227593 0 -0.42336559121294137 0.069329866733020051 0 -0.41466445386552558 0.031087876408641461 0 -0.41712981979359098 0.050059814875227593 0 -0.3978521306621291 0.046917692615044117 0 -0.41466445386552558 0.031087876408641461 0 -0.3978521306621291 0.046917692615044117 0 -0.38811235108204362 0.024200554439509889 0 -0.3978521306621291 0.046917692615044117 0 -0.37801430930939572 0.050332987804399411 0 -0.40175859613340859 0.071074968910753822 0 -0.41712981979359098 0.050059814875227593 0 -0.3978521306621291 0.046917692615044117 0 -0.40175859613340859 0.071074968910753822 0 -0.3978521306621291 0.046917692615044117 0 -0.37801430930939572 0.050332987804399411 0 -0.38811235108204362 0.024200554439509889 0 -0.37801430930939572 0.050332987804399411 0 -0.38811235108204362 0.024200554439509889 0 -0.35937373737194711 0.038251268854201707 0 -0.39623740299342319 -0.0023384003391818502 0 -0.37630101312515413 -0.0017537402174872649 0 -0.38811235108204362 0.024200554439509889 0 -0.37630101312515413 -0.0017537402174872649 0 -0.38811235108204362 0.024200554439509889 0 -0.36562343834461147 0.014315277159003451 0 -0.39623740299342319 -0.0023384003391818502 0 -0.41309341137854177 0.010357606111404891 0 -0.38811235108204362 0.024200554439509889 0 -0.41309341137854177 0.010357606111404891 0 -0.41466445386552558 0.031087876408641461 0 -0.38811235108204362 0.024200554439509889 0 -0.38775338436157458 0.095933848507897296 0 -0.4140857060928349 0.090118613714940898 0 -0.40830763149152671 0.112716758936021 0 -0.39018544758925539 0.12223357284412099 0 -0.38775338436157458 0.095933848507897296 0 -0.40830763149152671 0.112716758936021 0 -0.39018544758925539 0.12223357284412099 0 -0.38775338436157458 0.095933848507897296 0 -0.36396488972870727 0.1211125751459896 0 -0.38775338436157458 0.095933848507897296 0 -0.37585247148374201 0.069663029433269366 0 -0.40175859613340859 0.071074968910753822 0 -0.38775338436157458 0.095933848507897296 0 -0.37585247148374201 0.069663029433269366 0 -0.36351483687688008 0.087508303231400617 0 -0.37585247148374201 0.069663029433269366 0 -0.40175859613340859 0.071074968910753822 0 -0.37801430930939572 0.050332987804399411 0 -0.37585247148374201 0.069663029433269366 0 -0.40175859613340859 0.071074968910753822 0 -0.38775338436157458 0.095933848507897296 0 -0.40175859613340859 0.071074968910753822 0 -0.4140857060928349 0.090118613714940898 0 -0.40175859613340859 0.071074968910753822 0 -0.4140857060928349 0.090118613714940898 0 -0.42336559121294137 0.069329866733020051 0 -0.41712981979359098 0.050059814875227593 0 -0.40175859613340859 0.071074968910753822 0 -0.42336559121294137 0.069329866733020051 0 -0.43492073795856451 0.051520071892084962 0 -0.42336559121294137 0.069329866733020051 0 -0.44622655093990221 0.073564288645761977 0 -0.42336559121294137 0.069329866733020051 0 -0.43299011279210958 0.085214098388281839 0 -0.44622655093990221 0.073564288645761977 0 -0.4140857060928349 0.090118613714940898 0 -0.42336559121294137 0.069329866733020051 0 -0.43299011279210958 0.085214098388281839 0 -0.4140857060928349 0.090118613714940898 0 -0.43299011279210958 0.085214098388281839 0 -0.43033892056544898 0.1064421408136714 0 -0.4140857060928349 0.090118613714940898 0 -0.43033892056544898 0.1064421408136714 0 -0.40830763149152671 0.112716758936021 0 -0.43033892056544898 0.1064421408136714 0 -0.40830763149152671 0.112716758936021 0 -0.42528090327961682 0.12478372277520131 0 -0.43033892056544898 0.1064421408136714 0 -0.42528090327961682 0.12478372277520131 0 -0.44846971209976688 0.1188110924678162 0 -0.43033892056544898 0.1064421408136714 0 -0.44846971209976688 0.1188110924678162 0 -0.45508042089745943 0.094400139192213781 0 -0.43299011279210958 0.085214098388281839 0 -0.43033892056544898 0.1064421408136714 0 -0.45508042089745943 0.094400139192213781 0 -0.45508042089745943 0.094400139192213781 0 -0.46577920546336887 0.11569925900572089 0 -0.47354205512653441 0.1002827526724671 0 -0.44846971209976688 0.1188110924678162 0 -0.46577920546336887 0.11569925900572089 0 -0.45771757463044932 0.13766380371636561 0 -0.44846971209976688 0.1188110924678162 0 -0.45508042089745943 0.094400139192213781 0 -0.46577920546336887 0.11569925900572089 0 -0.43299011279210958 0.085214098388281839 0 -0.45508042089745943 0.094400139192213781 0 -0.44622655093990221 0.073564288645761977 0 -0.45508042089745943 0.094400139192213781 0 -0.44622655093990221 0.073564288645761977 0 -0.46514768922809968 0.071201702465432004 0 -0.45508042089745943 0.094400139192213781 0 -0.46514768922809968 0.071201702465432004 0 -0.47815616934647198 0.084003450564989354 0 -0.45413384225205622 0.057760327943577709 0 -0.44622655093990221 0.073564288645761977 0 -0.46514768922809968 0.071201702465432004 0 -0.46514768922809968 0.071201702465432004 0 -0.48235581259802851 0.065767295003990256 0 -0.47815616934647198 0.084003450564989354 0 -0.47023761783694001 0.052395621582013947 0 -0.46514768922809968 0.071201702465432004 0 -0.48235581259802851 0.065767295003990256 0 -0.45508042089745943 0.094400139192213781 0 -0.47815616934647198 0.084003450564989354 0 -0.47354205512653441 0.1002827526724671 0 -0.47815616934647198 0.084003450564989354 0 -0.5 0.084598191238043852 0 -0.48729162670239318 0.09710045979371823 0 -0.49999999999999861 0.061981143224705708 0 -0.48235581259802851 0.065767295003990256 0 -0.5 0.084598191238043852 0 -0.48235581259802851 0.065767295003990256 0 -0.47815616934647198 0.084003450564989354 0 -0.5 0.084598191238043852 0 -0.46577920546336887 0.11569925900572089 0 -0.48373536888434382 0.1133853299771002 0 -0.47354205512653441 0.1002827526724671 0 -0.46577920546336887 0.11569925900572089 0 -0.48373536888434382 0.1133853299771002 0 -0.4761301011416601 0.12965243600836249 0 -0.48373536888434382 0.1133853299771002 0 -0.47354205512653441 0.1002827526724671 0 -0.48729162670239318 0.09710045979371823 0 -0.47815616934647198 0.084003450564989354 0 -0.47354205512653441 0.1002827526724671 0 -0.48729162670239318 0.09710045979371823 0 -0.5 0.084598191238043852 0 -0.5 0.107215239251382 0 -0.48729162670239318 0.09710045979371823 0 -0.48373536888434382 0.1133853299771002 0 -0.5 0.107215239251382 0 -0.48729162670239318 0.09710045979371823 0 -0.48373536888434382 0.1133853299771002 0 -0.5 0.107215239251382 0 -0.50000000000000044 0.12983228726472021 0 -0.48373536888434382 0.1133853299771002 0 -0.50000000000000044 0.12983228726472021 0 -0.4761301011416601 0.12965243600836249 0 -0.4761301011416601 0.12965243600836249 0 -0.47598312315866798 0.14546650805393291 0 -0.45771757463044932 0.13766380371636561 0 -0.50000000000000044 0.12983228726472021 0 -0.4761301011416601 0.12965243600836249 0 -0.47598312315866798 0.14546650805393291 0 -0.47598312315866798 0.14546650805393291 0 -0.48996921146813022 0.1541154951048857 0 -0.47338753422849428 0.1629022012976461 0 -0.47598312315866798 0.14546650805393291 0 -0.47338753422849428 0.1629022012976461 0 -0.46040069073476042 0.15777629194424911 0 -0.50000000000000044 0.12983228726472021 0 -0.48996921146813022 0.1541154951048857 0 -0.5 0.1575973459517451 0 -0.50000000000000044 0.12983228726472021 0 -0.48996921146813022 0.1541154951048857 0 -0.50000000000000044 0.12983228726472021 0 -0.47598312315866798 0.14546650805393291 0 -0.48996921146813022 0.1541154951048857 0 -0.48996921146813022 0.1541154951048857 0 -0.5 0.1575973459517451 0 -0.47993842293625949 0.1783987029450512 0 -0.48996921146813022 0.1541154951048857 0 -0.47993842293625949 0.1783987029450512 0 -0.5 0.18536240463876991 0 -0.47993842293625949 0.1783987029450512 0 -0.48569094853516459 0.19766808955187401 0 -0.5 0.1575973459517451 0 -0.5 0.18536240463876991 0 -0.47993842293625949 0.1783987029450512 0 -0.47993842293625949 0.1783987029450512 0 -0.46005787604031328 0.1764480323229016 0 -0.468063747323894 0.19309699945867259 0 -0.47993842293625949 0.1783987029450512 0 -0.47338753422849428 0.1629022012976461 0 -0.46005787604031328 0.1764480323229016 0 -0.48996921146813022 0.1541154951048857 0 -0.47993842293625949 0.1783987029450512 0 -0.47338753422849428 0.1629022012976461 0 -0.47338753422849428 0.1629022012976461 0 -0.46040069073476042 0.15777629194424911 0 -0.46005787604031328 0.1764480323229016 0 -0.46040069073476042 0.15777629194424911 0 -0.46005787604031328 0.1764480323229016 0 -0.44239166013485121 0.1691582263492688 0 -0.46005787604031328 0.1764480323229016 0 -0.468063747323894 0.19309699945867259 0 -0.45065912758952748 0.19242222152540819 0 -0.46005787604031328 0.1764480323229016 0 -0.44362306490729619 0.18145749171913159 0 -0.45065912758952748 0.19242222152540819 0 -0.44362306490729619 0.18145749171913159 0 -0.45065912758952748 0.19242222152540819 0 -0.43448329252662787 0.18815914178265619 0 -0.46005787604031328 0.1764480323229016 0 -0.44362306490729619 0.18145749171913159 0 -0.44239166013485121 0.1691582263492688 0 -0.44362306490729619 0.18145749171913159 0 -0.44239166013485121 0.1691582263492688 0 -0.43316401248701841 0.17991819557690231 0 -0.46040069073476042 0.15777629194424911 0 -0.44239166013485121 0.1691582263492688 0 -0.44488104194866862 0.15393531366015861 0 -0.44239166013485121 0.1691582263492688 0 -0.44488104194866862 0.15393531366015861 0 -0.4265058240968474 0.15994468081909979 0 -0.44488104194866862 0.15393531366015861 0 -0.45771757463044932 0.13766380371636561 0 -0.43748776809830719 0.13937788664345799 0 -0.44846971209976688 0.1188110924678162 0 -0.43748776809830719 0.13937788664345799 0 -0.44846971209976688 0.1188110924678162 0 -0.45771757463044932 0.13766380371636561 0 -0.43748776809830719 0.13937788664345799 0 -0.46577920546336887 0.11569925900572089 0 -0.4761301011416601 0.12965243600836249 0 -0.45771757463044932 0.13766380371636561 0 -0.46040069073476042 0.15777629194424911 0 -0.44488104194866862 0.15393531366015861 0 -0.45771757463044932 0.13766380371636561 0 -0.47598312315866798 0.14546650805393291 0 -0.46040069073476042 0.15777629194424911 0 -0.45771757463044932 0.13766380371636561 0 -0.48254006292239671 0.2288942955740555 0 -0.46679894975526193 0.24337328335867059 0 -0.48359338383118872 0.25165714750028401 0 -0.5 0.2408925220128196 0 -0.48254006292239671 0.2288942955740555 0 -0.48359338383118872 0.25165714750028401 0 -0.5 0.2408925220128196 0 -0.48254006292239671 0.2288942955740555 0 -0.5 0.2131274633257948 0 -0.48254006292239671 0.2288942955740555 0 -0.47257298912742601 0.21042721696612379 0 -0.4630067535343998 0.22585852801776721 0 -0.48254006292239671 0.2288942955740555 0 -0.4630067535343998 0.22585852801776721 0 -0.46679894975526193 0.24337328335867059 0 -0.47257298912742601 0.21042721696612379 0 -0.5 0.2131274633257948 0 -0.48569094853516459 0.19766808955187401 0 -0.48254006292239671 0.2288942955740555 0 -0.47257298912742601 0.21042721696612379 0 -0.5 0.2131274633257948 0 -0.5 0.18536240463876991 0 -0.5 0.2131274633257948 0 -0.48569094853516459 0.19766808955187401 0 -0.47257298912742601 0.21042721696612379 0 -0.48569094853516459 0.19766808955187401 0 -0.468063747323894 0.19309699945867259 0 -0.47993842293625949 0.1783987029450512 0 -0.48569094853516459 0.19766808955187401 0 -0.468063747323894 0.19309699945867259 0 -0.47257298912742601 0.21042721696612379 0 -0.468063747323894 0.19309699945867259 0 -0.45946311971467307 0.20321773344067659 0 -0.468063747323894 0.19309699945867259 0 -0.45065912758952748 0.19242222152540819 0 -0.45946311971467307 0.20321773344067659 0 -0.45065912758952748 0.19242222152540819 0 -0.44047310600849482 0.19750810022166429 0 -0.43448329252662787 0.18815914178265619 0 -0.44047310600849482 0.19750810022166429 0 -0.44636894553121231 0.20674407306558931 0 -0.43138339693359362 0.20388446896692319 0 -0.45065912758952748 0.19242222152540819 0 -0.44047310600849482 0.19750810022166429 0 -0.44636894553121231 0.20674407306558931 0 -0.45065912758952748 0.19242222152540819 0 -0.44636894553121231 0.20674407306558931 0 -0.45946311971467307 0.20321773344067659 0 -0.44636894553121231 0.20674407306558931 0 -0.43502945289184702 0.21604195532540091 0 -0.43138339693359362 0.20388446896692319 0 -0.44636894553121231 0.20674407306558931 0 -0.44545276895467578 0.2222522789686798 0 -0.43502945289184702 0.21604195532540091 0 -0.44636894553121231 0.20674407306558931 0 -0.45670797495860349 0.21451494091750881 0 -0.44545276895467578 0.2222522789686798 0 -0.47257298912742601 0.21042721696612379 0 -0.45670797495860349 0.21451494091750881 0 -0.4630067535343998 0.22585852801776721 0 -0.47257298912742601 0.21042721696612379 0 -0.45670797495860349 0.21451494091750881 0 -0.45946311971467307 0.20321773344067659 0 -0.44636894553121231 0.20674407306558931 0 -0.45670797495860349 0.21451494091750881 0 -0.45946311971467307 0.20321773344067659 0 -0.4630067535343998 0.22585852801776721 0 -0.44545276895467578 0.2222522789686798 0 -0.45202248634843201 0.23479966129740029 0 -0.45670797495860349 0.21451494091750881 0 -0.4630067535343998 0.22585852801776721 0 -0.44545276895467578 0.2222522789686798 0 -0.44545276895467578 0.2222522789686798 0 -0.45202248634843201 0.23479966129740029 0 -0.43347163933379251 0.23201813456626921 0 -0.44545276895467578 0.2222522789686798 0 -0.43347163933379251 0.23201813456626921 0 -0.43502945289184702 0.21604195532540091 0 -0.45202248634843201 0.23479966129740029 0 -0.44183483748243452 0.2459604683899565 0 -0.45534616164961361 0.25564713573606468 0 -0.45202248634843201 0.23479966129740029 0 -0.44183483748243452 0.2459604683899565 0 -0.43347163933379251 0.23201813456626921 0 -0.4630067535343998 0.22585852801776721 0 -0.45202248634843201 0.23479966129740029 0 -0.46679894975526193 0.24337328335867059 0 -0.45202248634843201 0.23479966129740029 0 -0.46679894975526193 0.24337328335867059 0 -0.45534616164961361 0.25564713573606468 0 -0.4067830915969341 0.24534087608109109 0 -0.41953635959006103 0.24155842677898079 0 -0.40868088726265939 0.25984379596385471 0 -0.4067830915969341 0.24534087608109109 0 -0.4168215555355807 0.23026908747479399 0 -0.40023729396284258 0.23150800378532579 0 -0.4067830915969341 0.24534087608109109 0 -0.41953635959006103 0.24155842677898079 0 -0.4168215555355807 0.23026908747479399 0 -0.41953635959006103 0.24155842677898079 0 -0.43089509863926612 0.24319502056850881 0 -0.42744724339512319 0.25418522124651738 0 -0.41953635959006103 0.24155842677898079 0 -0.43347163933379251 0.23201813456626921 0 -0.4168215555355807 0.23026908747479399 0 -0.44183483748243452 0.2459604683899565 0 -0.43089509863926612 0.24319502056850881 0 -0.42744724339512319 0.25418522124651738 0 -0.44183483748243452 0.2459604683899565 0 -0.43089509863926612 0.24319502056850881 0 -0.43347163933379251 0.23201813456626921 0 -0.41953635959006103 0.24155842677898079 0 -0.43089509863926612 0.24319502056850881 0 -0.43347163933379251 0.23201813456626921 0 -0.43347163933379251 0.23201813456626921 0 -0.42571222824659621 0.22280080241563391 0 -0.4168215555355807 0.23026908747479399 0 -0.43347163933379251 0.23201813456626921 0 -0.42571222824659621 0.22280080241563391 0 -0.43502945289184702 0.21604195532540091 0 -0.42571222824659621 0.22280080241563391 0 -0.4168215555355807 0.23026908747479399 0 -0.41185461573722798 0.21995391176645371 0 -0.4168215555355807 0.23026908747479399 0 -0.41185461573722798 0.21995391176645371 0 -0.40023729396284258 0.23150800378532579 0 -0.41185461573722798 0.21995391176645371 0 -0.41686920150582629 0.2060846051821312 0 -0.39786787695997838 0.213577331313275 0 -0.41686920150582629 0.2060846051821312 0 -0.40669587852768302 0.19704440315400831 0 -0.39786787695997838 0.213577331313275 0 -0.41185461573722798 0.21995391176645371 0 -0.41686920150582629 0.2060846051821312 0 -0.4257440506588514 0.21229444182048501 0 -0.42571222824659621 0.22280080241563391 0 -0.41185461573722798 0.21995391176645371 0 -0.4257440506588514 0.21229444182048501 0 -0.42571222824659621 0.22280080241563391 0 -0.4257440506588514 0.21229444182048501 0 -0.43502945289184702 0.21604195532540091 0 -0.4257440506588514 0.21229444182048501 0 -0.43502945289184702 0.21604195532540091 0 -0.43138339693359362 0.20388446896692319 0 -0.41686920150582629 0.2060846051821312 0 -0.4257440506588514 0.21229444182048501 0 -0.43138339693359362 0.20388446896692319 0 -0.41686920150582629 0.2060846051821312 0 -0.43138339693359362 0.20388446896692319 0 -0.42443336459080477 0.1952049923305276 0 -0.43138339693359362 0.20388446896692319 0 -0.43260352801281587 0.19595678940555181 0 -0.42443336459080477 0.1952049923305276 0 -0.44047310600849482 0.19750810022166429 0 -0.43138339693359362 0.20388446896692319 0 -0.43260352801281587 0.19595678940555181 0 -0.43260352801281587 0.19595678940555181 0 -0.43448329252662787 0.18815914178265619 0 -0.42675948354210969 0.1871447648198403 0 -0.44047310600849482 0.19750810022166429 0 -0.43260352801281587 0.19595678940555181 0 -0.43448329252662787 0.18815914178265619 0 -0.43260352801281587 0.19595678940555181 0 -0.42443336459080477 0.1952049923305276 0 -0.42675948354210969 0.1871447648198403 0 -0.42443336459080477 0.1952049923305276 0 -0.42135927732934741 0.18998310963701351 0 -0.42675948354210969 0.1871447648198403 0 -0.40669587852768302 0.19704440315400831 0 -0.41552388009538532 0.1805114749947403 0 -0.41534256149611798 0.1931797654285734 0 -0.40669587852768302 0.19704440315400831 0 -0.41552388009538532 0.1805114749947403 0 -0.42443336459080477 0.1952049923305276 0 -0.41534256149611798 0.1931797654285734 0 -0.42135927732934741 0.18998310963701351 0 -0.41534256149611798 0.1931797654285734 0 -0.42135927732934741 0.18998310963701351 0 -0.41890169968835722 0.18440291596911279 0 -0.41686920150582629 0.2060846051821312 0 -0.42443336459080477 0.1952049923305276 0 -0.41534256149611798 0.1931797654285734 0 -0.41686920150582629 0.2060846051821312 0 -0.41534256149611798 0.1931797654285734 0 -0.40669587852768302 0.19704440315400831 0 -0.40669587852768302 0.19704440315400831 0 -0.38183382241586811 0.19439232559644329 0 -0.39544986665892029 0.18011719879879401 0 -0.40669587852768302 0.19704440315400831 0 -0.38183382241586811 0.19439232559644329 0 -0.39786787695997838 0.213577331313275 0 -0.38017735200646408 0.21129188600416479 0 -0.39786787695997838 0.213577331313275 0 -0.37864104058428671 0.22864504276082859 0 -0.38183382241586811 0.19439232559644329 0 -0.38017735200646408 0.21129188600416479 0 -0.39786787695997838 0.213577331313275 0 -0.40669587852768302 0.19704440315400831 0 -0.39786787695997838 0.213577331313275 0 -0.41185461573722798 0.21995391176645371 0 -0.39786787695997838 0.213577331313275 0 -0.40023729396284258 0.23150800378532579 0 -0.39786787695997838 0.213577331313275 0 -0.40023729396284258 0.23150800378532579 0 -0.37864104058428671 0.22864504276082859 0 -0.37864104058428671 0.22864504276082859 0 -0.36825714865980769 0.24773254399152009 0 -0.39028235366146108 0.25013208232574202 0 -0.40023729396284258 0.23150800378532579 0 -0.37864104058428671 0.22864504276082859 0 -0.39028235366146108 0.25013208232574202 0 -0.4067830915969341 0.24534087608109109 0 -0.40023729396284258 0.23150800378532579 0 -0.39028235366146108 0.25013208232574202 0 -0.40975011251353571 0.14049247320179031 0 -0.41252934166973182 0.16041511768186359 0 -0.39833754997315879 0.16071184171182379 0 -0.40975011251353571 0.14049247320179031 0 -0.4265058240968474 0.15994468081909979 0 -0.41252934166973182 0.16041511768186359 0 -0.40830763149152671 0.112716758936021 0 -0.42528090327961682 0.12478372277520131 0 -0.40975011251353571 0.14049247320179031 0 -0.42528090327961682 0.12478372277520131 0 -0.44846971209976688 0.1188110924678162 0 -0.43748776809830719 0.13937788664345799 0 -0.42528090327961682 0.12478372277520131 0 -0.40975011251353571 0.14049247320179031 0 -0.43748776809830719 0.13937788664345799 0 -0.40975011251353571 0.14049247320179031 0 -0.43748776809830719 0.13937788664345799 0 -0.4265058240968474 0.15994468081909979 0 -0.43748776809830719 0.13937788664345799 0 -0.4265058240968474 0.15994468081909979 0 -0.44488104194866862 0.15393531366015861 0 -0.43748776809830719 0.13937788664345799 0 -0.4265058240968474 0.15994468081909979 0 -0.44239166013485121 0.1691582263492688 0 -0.4265058240968474 0.15994468081909979 0 -0.42738362826458698 0.17362878015748431 0 -0.4265058240968474 0.15994468081909979 0 -0.42738362826458698 0.17362878015748431 0 -0.41552388009538532 0.1805114749947403 0 -0.44362306490729619 0.18145749171913159 0 -0.43448329252662787 0.18815914178265619 0 -0.43316401248701841 0.17991819557690231 0 -0.43448329252662787 0.18815914178265619 0 -0.43316401248701841 0.17991819557690231 0 -0.42675948354210969 0.1871447648198403 0 -0.44239166013485121 0.1691582263492688 0 -0.43316401248701841 0.17991819557690231 0 -0.42738362826458698 0.17362878015748431 0 -0.42738362826458698 0.17362878015748431 0 -0.4243465408154915 0.18112122630361599 0 -0.41552388009538532 0.1805114749947403 0 -0.43316401248701841 0.17991819557690231 0 -0.42738362826458698 0.17362878015748431 0 -0.4243465408154915 0.18112122630361599 0 -0.4243465408154915 0.18112122630361599 0 -0.42675948354210969 0.1871447648198403 0 -0.41890169968835722 0.18440291596911279 0 -0.43316401248701841 0.17991819557690231 0 -0.4243465408154915 0.18112122630361599 0 -0.42675948354210969 0.1871447648198403 0 -0.42135927732934741 0.18998310963701351 0 -0.42675948354210969 0.1871447648198403 0 -0.41890169968835722 0.18440291596911279 0 -0.41534256149611798 0.1931797654285734 0 -0.41890169968835722 0.18440291596911279 0 -0.41552388009538532 0.1805114749947403 0 -0.4243465408154915 0.18112122630361599 0 -0.41890169968835722 0.18440291596911279 0 -0.41552388009538532 0.1805114749947403 0 -0.41890169968835722 0.18440291596911279 0 -0.41552388009538532 0.1805114749947403 0 -0.41552388009538532 0.1805114749947403 0 -0.39833754997315879 0.16071184171182379 0 -0.4265058240968474 0.15994468081909979 0 -0.41552388009538532 0.1805114749947403 0 -0.41552388009538532 0.1805114749947403 0 -0.41252934166973182 0.16041511768186359 0 -0.39833754997315879 0.16071184171182379 0 -0.4265058240968474 0.15994468081909979 0 -0.41552388009538532 0.1805114749947403 0 -0.41252934166973182 0.16041511768186359 0 -0.41552388009538532 0.1805114749947403 0 -0.39833754997315879 0.16071184171182379 0 -0.39544986665892029 0.18011719879879401 0 -0.40669587852768302 0.19704440315400831 0 -0.41552388009538532 0.1805114749947403 0 -0.39544986665892029 0.18011719879879401 0 -0.38183382241586811 0.19439232559644329 0 -0.39544986665892029 0.18011719879879401 0 -0.37414581105635603 0.1669766632901053 0 -0.39833754997315879 0.16071184171182379 0 -0.39544986665892029 0.18011719879879401 0 -0.37414581105635603 0.1669766632901053 0 -0.39833754997315879 0.16071184171182379 0 -0.38115121985093309 0.1409122084289067 0 -0.37414581105635603 0.1669766632901053 0 -0.39833754997315879 0.16071184171182379 0 -0.38115121985093309 0.1409122084289067 0 -0.40975011251353571 0.14049247320179031 0 -0.39833754997315879 0.16071184171182379 0 -0.38115121985093309 0.1409122084289067 0 -0.39018544758925539 0.12223357284412099 0 -0.40830763149152671 0.112716758936021 0 -0.40975011251353571 0.14049247320179031 0 -0.39018544758925539 0.12223357284412099 0 -0.40975011251353571 0.14049247320179031 0 -0.38115121985093309 0.1409122084289067 0 -0.39018544758925539 0.12223357284412099 0 -0.38115121985093309 0.1409122084289067 0 -0.36396488972870727 0.1211125751459896 0 -0.38115121985093309 0.1409122084289067 0 -0.35653776288020028 0.1413694636844883 0 -0.36396488972870727 0.1211125751459896 0 -0.38115121985093309 0.1409122084289067 0 -0.36396488972870727 0.1211125751459896 0 -0.35653776288020028 0.1413694636844883 0 -0.36396488972870727 0.1211125751459896 0 -0.34052967131299461 0.1203510869419194 0 -0.35653776288020028 0.1413694636844883 0 -0.33536100206260883 0.14033697262570399 0 -0.34052967131299461 0.1203510869419194 0 -0.35653776288020028 0.1413694636844883 0 -0.34513110160525812 0.16110646796081571 0 -0.33536100206260883 0.14033697262570399 0 -0.38115121985093309 0.1409122084289067 0 -0.35653776288020028 0.1413694636844883 0 -0.37414581105635603 0.1669766632901053 0 -0.38183382241586811 0.19439232559644329 0 -0.37414581105635603 0.1669766632901053 0 -0.35678683661848581 0.1836393127723919 0 -0.35678683661848581 0.1836393127723919 0 -0.33362719418173231 0.17523578827004271 0 -0.34394392807420038 0.19456677093887129 0 -0.35678683661848581 0.1836393127723919 0 -0.34513110160525812 0.16110646796081571 0 -0.33362719418173231 0.17523578827004271 0 -0.37414581105635603 0.1669766632901053 0 -0.35678683661848581 0.1836393127723919 0 -0.34513110160525812 0.16110646796081571 0 -0.35653776288020028 0.1413694636844883 0 -0.37414581105635603 0.1669766632901053 0 -0.34513110160525812 0.16110646796081571 0 -0.34513110160525812 0.16110646796081571 0 -0.33362719418173231 0.17523578827004271 0 -0.33049308386422172 0.15579361650800611 0 -0.33362719418173231 0.17523578827004271 0 -0.34394392807420038 0.19456677093887129 0 -0.32740487989583239 0.19248051261565691 0 -0.33362719418173231 0.17523578827004271 0 -0.31460719750773503 0.1773040947556592 0 -0.32740487989583239 0.19248051261565691 0 -0.31460719750773503 0.1773040947556592 0 -0.32740487989583239 0.19248051261565691 0 -0.30772249829299481 0.19175853678382809 0 -0.33362719418173231 0.17523578827004271 0 -0.31680915801493181 0.16185181250933919 0 -0.33049308386422172 0.15579361650800611 0 -0.33362719418173231 0.17523578827004271 0 -0.31460719750773503 0.1773040947556592 0 -0.31680915801493181 0.16185181250933919 0 -0.31680915801493181 0.16185181250933919 0 -0.31849398364829279 0.14174517415575719 0 -0.30315979245670949 0.14647388315241269 0 -0.31849398364829279 0.14174517415575719 0 -0.33536100206260883 0.14033697262570399 0 -0.33049308386422172 0.15579361650800611 0 -0.31680915801493181 0.16185181250933919 0 -0.31849398364829279 0.14174517415575719 0 -0.33049308386422172 0.15579361650800611 0 -0.31849398364829279 0.14174517415575719 0 -0.30320178352823779 0.1252860067792789 0 -0.32067599475822622 0.12174117593257761 0 -0.31849398364829279 0.14174517415575719 0 -0.33536100206260883 0.14033697262570399 0 -0.32067599475822622 0.12174117593257761 0 -0.33536100206260883 0.14033697262570399 0 -0.34052967131299461 0.1203510869419194 0 -0.32067599475822622 0.12174117593257761 0 -0.34513110160525812 0.16110646796081571 0 -0.33536100206260883 0.14033697262570399 0 -0.33049308386422172 0.15579361650800611 0 -0.36825714865980769 0.24773254399152009 0 -0.35199739146015507 0.23302533313898829 0 -0.34796663495934771 0.25003234052934198 0 -0.37864104058428671 0.22864504276082859 0 -0.36825714865980769 0.24773254399152009 0 -0.35199739146015507 0.23302533313898829 0 -0.37864104058428671 0.22864504276082859 0 -0.35199739146015507 0.23302533313898829 0 -0.36236666806572332 0.20855284434611221 0 -0.36236666806572332 0.20855284434611221 0 -0.34394392807420038 0.19456677093887129 0 -0.34057909003751963 0.21089375637478319 0 -0.35199739146015507 0.23302533313898829 0 -0.36236666806572332 0.20855284434611221 0 -0.34057909003751963 0.21089375637478319 0 -0.38183382241586811 0.19439232559644329 0 -0.38017735200646408 0.21129188600416479 0 -0.36236666806572332 0.20855284434611221 0 -0.38017735200646408 0.21129188600416479 0 -0.37864104058428671 0.22864504276082859 0 -0.36236666806572332 0.20855284434611221 0 -0.38183382241586811 0.19439232559644329 0 -0.35678683661848581 0.1836393127723919 0 -0.36236666806572332 0.20855284434611221 0 -0.35678683661848581 0.1836393127723919 0 -0.36236666806572332 0.20855284434611221 0 -0.34394392807420038 0.19456677093887129 0 -0.34394392807420038 0.19456677093887129 0 -0.32740487989583239 0.19248051261565691 0 -0.34057909003751963 0.21089375637478319 0 -0.32740487989583239 0.19248051261565691 0 -0.31637204486415588 0.21117201879520561 0 -0.30772249829299481 0.19175853678382809 0 -0.32740487989583239 0.19248051261565691 0 -0.31637204486415588 0.21117201879520561 0 -0.34057909003751963 0.21089375637478319 0 -0.35199739146015507 0.23302533313898829 0 -0.34057909003751963 0.21089375637478319 0 -0.32556950702892812 0.24128123437957871 0 -0.31637204486415588 0.21117201879520561 0 -0.34057909003751963 0.21089375637478319 0 -0.32556950702892812 0.24128123437957871 0 -0.31637204486415588 0.21117201879520561 0 -0.32556950702892812 0.24128123437957871 0 -0.29634759094324498 0.22595278392503729 0 -0.35199739146015507 0.23302533313898829 0 -0.32556950702892812 0.24128123437957871 0 -0.35199739146015507 0.23302533313898829 0 -0.32556950702892812 0.24128123437957871 0 -0.34796663495934771 0.25003234052934198 0 -0.28210350667159279 0.24098917955268831 0 -0.299141622597701 0.24953713562016919 0 -0.27271373816647387 0.25779303686075961 0 -0.28210350667159279 0.24098917955268831 0 -0.299141622597701 0.24953713562016919 0 -0.29634759094324498 0.22595278392503729 0 -0.32556950702892812 0.24128123437957871 0 -0.299141622597701 0.24953713562016919 0 -0.32556950702892812 0.24128123437957871 0 -0.299141622597701 0.24953713562016919 0 -0.29634759094324498 0.22595278392503729 0 -0.29634759094324498 0.22595278392503729 0 -0.2824993274066403 0.21290427767091291 0 -0.27627661577298712 0.22711429261559449 0 -0.28210350667159279 0.24098917955268831 0 -0.29634759094324498 0.22595278392503729 0 -0.27627661577298712 0.22711429261559449 0 -0.29634759094324498 0.22595278392503729 0 -0.2824993274066403 0.21290427767091291 0 -0.29782004496954428 0.20492079483809669 0 -0.2824993274066403 0.21290427767091291 0 -0.29782004496954428 0.20492079483809669 0 -0.28297685649861493 0.1979612276211036 0 -0.31637204486415588 0.21117201879520561 0 -0.29634759094324498 0.22595278392503729 0 -0.29782004496954428 0.20492079483809669 0 -0.29782004496954428 0.20492079483809669 0 -0.30772249829299481 0.19175853678382809 0 -0.2920028630917722 0.1885463102237466 0 -0.31637204486415588 0.21117201879520561 0 -0.29782004496954428 0.20492079483809669 0 -0.30772249829299481 0.19175853678382809 0 -0.29782004496954428 0.20492079483809669 0 -0.2920028630917722 0.1885463102237466 0 -0.28297685649861493 0.1979612276211036 0 -0.2920028630917722 0.1885463102237466 0 -0.28297685649861493 0.1979612276211036 0 -0.27786366209725138 0.18487912050813821 0 -0.28297685649861493 0.1979612276211036 0 -0.27141115811142508 0.1945414528545755 0 -0.27786366209725138 0.18487912050813821 0 -0.28297685649861493 0.1979612276211036 0 -0.27141115811142508 0.1945414528545755 0 -0.27432425535463939 0.20538301103434611 0 -0.27141115811142508 0.1945414528545755 0 -0.26405457831998358 0.20328648065265381 0 -0.27432425535463939 0.20538301103434611 0 -0.27141115811142508 0.1945414528545755 0 -0.26177149153482382 0.18806196676496989 0 -0.26931715219006253 0.18396346640280439 0 -0.27141115811142508 0.1945414528545755 0 -0.26177149153482382 0.18806196676496989 0 -0.26405457831998358 0.20328648065265381 0 -0.27141115811142508 0.1945414528545755 0 -0.27786366209725138 0.18487912050813821 0 -0.26931715219006253 0.18396346640280439 0 -0.25333209387370931 0.20193790937719339 0 -0.2499958028559843 0.17796646964061449 0 -0.25333209387370931 0.20193790937719339 0 -0.25513616844039549 0.1732384144345494 0 -0.26177149153482382 0.18806196676496989 0 -0.25333209387370931 0.20193790937719339 0 -0.25513616844039549 0.1732384144345494 0 -0.26177149153482382 0.18806196676496989 0 -0.25333209387370931 0.20193790937719339 0 -0.26405457831998358 0.20328648065265381 0 -0.25333209387370931 0.20193790937719339 0 -0.25508687089008991 0.2145460815287758 0 -0.25147982383094603 0.23140410534617009 0 -0.25333209387370931 0.20193790937719339 0 -0.25147982383094603 0.23140410534617009 0 -0.25333209387370931 0.20193790937719339 0 -0.25508687089008991 0.2145460815287758 0 -0.25333209387370931 0.20193790937719339 0 -0.26405457831998358 0.20328648065265381 0 -0.25508687089008991 0.2145460815287758 0 -0.25508687089008991 0.2145460815287758 0 -0.26840160015521591 0.21524846235606249 0 -0.26319591596026598 0.22615778603810521 0 -0.26405457831998358 0.20328648065265381 0 -0.25508687089008991 0.2145460815287758 0 -0.26840160015521591 0.21524846235606249 0 -0.26405457831998358 0.20328648065265381 0 -0.26840160015521591 0.21524846235606249 0 -0.27432425535463939 0.20538301103434611 0 -0.2824993274066403 0.21290427767091291 0 -0.28297685649861493 0.1979612276211036 0 -0.27432425535463939 0.20538301103434611 0 -0.2824993274066403 0.21290427767091291 0 -0.26840160015521591 0.21524846235606249 0 -0.27627661577298712 0.22711429261559449 0 -0.2824993274066403 0.21290427767091291 0 -0.26840160015521591 0.21524846235606249 0 -0.27432425535463939 0.20538301103434611 0 -0.27627661577298712 0.22711429261559449 0 -0.26319591596026598 0.22615778603810521 0 -0.26473466915209137 0.242475988343923 0 -0.26840160015521591 0.21524846235606249 0 -0.27627661577298712 0.22711429261559449 0 -0.26319591596026598 0.22615778603810521 0 -0.25508687089008991 0.2145460815287758 0 -0.25147982383094603 0.23140410534617009 0 -0.26319591596026598 0.22615778603810521 0 -0.25147982383094603 0.23140410534617009 0 -0.26319591596026598 0.22615778603810521 0 -0.26473466915209137 0.242475988343923 0 -0.25147982383094603 0.23140410534617009 0 -0.26473466915209137 0.242475988343923 0 -0.24962755378818399 0.26087030131514671 0 -0.25147982383094603 0.23140410534617009 0 -0.24962755378818399 0.26087030131514671 0 -0.28210350667159279 0.24098917955268831 0 -0.27627661577298712 0.22711429261559449 0 -0.26473466915209137 0.242475988343923 0 -0.28210350667159279 0.24098917955268831 0 -0.26473466915209137 0.242475988343923 0 -0.27271373816647387 0.25779303686075961 0 -0.28766692440233921 0.14769322787425851 0 -0.30315979245670949 0.14647388315241269 0 -0.29902395480254129 0.16363991053017271 0 -0.28766692440233921 0.14769322787425851 0 -0.29213317550500512 0.1339349641375589 0 -0.30315979245670949 0.14647388315241269 0 -0.28766692440233921 0.14769322787425851 0 -0.28482818778335878 0.16069842962674979 0 -0.27687273242007532 0.1548266681158435 0 -0.28766692440233921 0.14769322787425851 0 -0.29213317550500512 0.1339349641375589 0 -0.27881136776586152 0.13166385307299991 0 -0.29213317550500512 0.1339349641375589 0 -0.27881136776586152 0.13166385307299991 0 -0.28782600937187719 0.1185578498088445 0 -0.29213317550500512 0.1339349641375589 0 -0.30320178352823779 0.1252860067792789 0 -0.28782600937187719 0.1185578498088445 0 -0.31849398364829279 0.14174517415575719 0 -0.30320178352823779 0.1252860067792789 0 -0.30315979245670949 0.14647388315241269 0 -0.29213317550500512 0.1339349641375589 0 -0.30320178352823779 0.1252860067792789 0 -0.30315979245670949 0.14647388315241269 0 -0.31680915801493181 0.16185181250933919 0 -0.30315979245670949 0.14647388315241269 0 -0.29902395480254129 0.16363991053017271 0 -0.31460719750773503 0.1773040947556592 0 -0.31680915801493181 0.16185181250933919 0 -0.29902395480254129 0.16363991053017271 0 -0.30772249829299481 0.19175853678382809 0 -0.2920028630917722 0.1885463102237466 0 -0.29986622330232149 0.17834861051097459 0 -0.31460719750773503 0.1773040947556592 0 -0.30772249829299481 0.19175853678382809 0 -0.29986622330232149 0.17834861051097459 0 -0.31460719750773503 0.1773040947556592 0 -0.29902395480254129 0.16363991053017271 0 -0.29986622330232149 0.17834861051097459 0 -0.2920028630917722 0.1885463102237466 0 -0.29986622330232149 0.17834861051097459 0 -0.28576789338990649 0.17340957108033861 0 -0.2920028630917722 0.1885463102237466 0 -0.28576789338990649 0.17340957108033861 0 -0.27786366209725138 0.18487912050813821 0 -0.28766692440233921 0.14769322787425851 0 -0.29902395480254129 0.16363991053017271 0 -0.28482818778335878 0.16069842962674979 0 -0.29902395480254129 0.16363991053017271 0 -0.28576789338990649 0.17340957108033861 0 -0.28482818778335878 0.16069842962674979 0 -0.29902395480254129 0.16363991053017271 0 -0.29986622330232149 0.17834861051097459 0 -0.28576789338990649 0.17340957108033861 0 -0.28576789338990649 0.17340957108033861 0 -0.28482818778335878 0.16069842962674979 0 -0.27527307057119099 0.16435015644044851 0 -0.28482818778335878 0.16069842962674979 0 -0.27527307057119099 0.16435015644044851 0 -0.27687273242007532 0.1548266681158435 0 -0.27527307057119099 0.16435015644044851 0 -0.26838103017274612 0.15573119042058339 0 -0.27687273242007532 0.1548266681158435 0 -0.28576789338990649 0.17340957108033861 0 -0.27527307057119099 0.16435015644044851 0 -0.27164099335583858 0.17568511732775541 0 -0.27527307057119099 0.16435015644044851 0 -0.27164099335583858 0.17568511732775541 0 -0.26496113826363887 0.16557513338159069 0 -0.27527307057119099 0.16435015644044851 0 -0.26496113826363887 0.16557513338159069 0 -0.26838103017274612 0.15573119042058339 0 -0.28576789338990649 0.17340957108033861 0 -0.27786366209725138 0.18487912050813821 0 -0.27164099335583858 0.17568511732775541 0 -0.27164099335583858 0.17568511732775541 0 -0.26387510886668608 0.17776982679603659 0 -0.26496113826363887 0.16557513338159069 0 -0.27164099335583858 0.17568511732775541 0 -0.26931715219006253 0.18396346640280439 0 -0.26387510886668608 0.17776982679603659 0 -0.27786366209725138 0.18487912050813821 0 -0.27164099335583858 0.17568511732775541 0 -0.26931715219006253 0.18396346640280439 0 -0.25333209387370931 0.20193790937719339 0 -0.25513616844039549 0.1732384144345494 0 -0.2499958028559843 0.17796646964061449 0 -0.26177149153482382 0.18806196676496989 0 -0.26387510886668608 0.17776982679603659 0 -0.25513616844039549 0.1732384144345494 0 -0.26177149153482382 0.18806196676496989 0 -0.26931715219006253 0.18396346640280439 0 -0.26387510886668608 0.17776982679603659 0 -0.26387510886668608 0.17776982679603659 0 -0.25513616844039549 0.1732384144345494 0 -0.26496113826363887 0.16557513338159069 0 -0.25513616844039549 0.1732384144345494 0 -0.24665951183825799 0.15399502990403571 0 -0.2499958028559843 0.17796646964061449 0 -0.25513616844039549 0.1732384144345494 0 -0.25694024300708301 0.14453891949190539 0 -0.24665951183825799 0.15399502990403571 0 -0.25513616844039549 0.1732384144345494 0 -0.26496113826363887 0.16557513338159069 0 -0.25694024300708301 0.14453891949190539 0 -0.25513616844039549 0.1732384144345494 0 -0.25694024300708301 0.14453891949190539 0 -0.26496113826363887 0.16557513338159069 0 -0.25694024300708301 0.14453891949190539 0 -0.26838103017274612 0.15573119042058339 0 -0.28766692440233921 0.14769322787425851 0 -0.27211949857114692 0.14482115850599389 0 -0.27881136776586152 0.13166385307299991 0 -0.26838103017274612 0.15573119042058339 0 -0.27211949857114692 0.14482115850599389 0 -0.27687273242007532 0.1548266681158435 0 -0.25694024300708301 0.14453891949190539 0 -0.26838103017274612 0.15573119042058339 0 -0.27211949857114692 0.14482115850599389 0 -0.28766692440233921 0.14769322787425851 0 -0.27211949857114692 0.14482115850599389 0 -0.27687273242007532 0.1548266681158435 0 -0.27881136776586152 0.13166385307299991 0 -0.26741787935213152 0.1314313175227122 0 -0.2744243915423657 0.11964809473860991 0 -0.27211949857114692 0.14482115850599389 0 -0.27881136776586152 0.13166385307299991 0 -0.26741787935213152 0.1314313175227122 0 -0.25694024300708301 0.14453891949190539 0 -0.26741787935213152 0.1314313175227122 0 -0.25874431757377048 0.11583942454926149 0 -0.25694024300708301 0.14453891949190539 0 -0.25874431757377048 0.11583942454926149 0 -0.25694024300708301 0.14453891949190539 0 -0.25062573814025307 0.1290075630397173 0 -0.25874431757377048 0.11583942454926149 0 -0.25694024300708301 0.14453891949190539 0 -0.27211949857114692 0.14482115850599389 0 -0.26741787935213152 0.1314313175227122 0 -0.25694024300708301 0.14453891949190539 0 -0.25062573814025307 0.1290075630397173 0 -0.2433232208205317 0.13002359016745679 0 -0.25062573814025307 0.1290075630397173 0 -0.25130212163981069 0.1208790083453674 0 -0.25874431757377048 0.11583942454926149 0 -0.25130212163981069 0.1208790083453674 0 -0.25874431757377048 0.11583942454926149 0 -0.24751987864844749 0.1140817531071557 0 -0.25874431757377048 0.11583942454926149 0 -0.24528315690140501 0.1005867942857518 0 -0.24751987864844749 0.1140817531071557 0 -0.25874431757377048 0.11583942454926149 0 -0.26054839214045789 0.087139929606617511 0 -0.24528315690140501 0.1005867942857518 0 -0.25874431757377048 0.11583942454926149 0 -0.26054839214045789 0.087139929606617511 0 -0.25874431757377048 0.11583942454926149 0 -0.27932238364818768 0.1007480287392313 0 -0.26054839214045789 0.087139929606617511 0 -0.27932238364818768 0.1007480287392313 0 -0.2744243915423657 0.11964809473860991 0 -0.28782600937187719 0.1185578498088445 0 -0.25874431757377048 0.11583942454926149 0 -0.27932238364818768 0.1007480287392313 0 -0.2744243915423657 0.11964809473860991 0 -0.26741787935213152 0.1314313175227122 0 -0.25874431757377048 0.11583942454926149 0 -0.2744243915423657 0.11964809473860991 0 -0.27881136776586152 0.13166385307299991 0 -0.2744243915423657 0.11964809473860991 0 -0.28782600937187719 0.1185578498088445 0 -0.27932238364818768 0.1007480287392313 0 -0.28782600937187719 0.1185578498088445 0 -0.30261235105349737 0.1050923992576074 0 -0.27932238364818768 0.1007480287392313 0 -0.30261235105349737 0.1050923992576074 0 -0.29570426641026681 0.08610162277761263 0 -0.30320178352823779 0.1252860067792789 0 -0.30261235105349737 0.1050923992576074 0 -0.32067599475822622 0.12174117593257761 0 -0.30320178352823779 0.1252860067792789 0 -0.28782600937187719 0.1185578498088445 0 -0.30261235105349737 0.1050923992576074 0 -0.29570426641026681 0.08610162277761263 0 -0.29426307123941853 0.061014123210391721 0 -0.31404747689749402 0.084167846506252669 0 -0.29426307123941853 0.061014123210391721 0 -0.31404747689749402 0.084167846506252669 0 -0.32404022218440898 0.066839150478300469 0 -0.30261235105349737 0.1050923992576074 0 -0.29570426641026681 0.08610162277761263 0 -0.31404747689749402 0.084167846506252669 0 -0.27932238364818768 0.1007480287392313 0 -0.29570426641026681 0.08610162277761263 0 -0.27808823727155518 0.073531410533923064 0 -0.29570426641026681 0.08610162277761263 0 -0.27808823727155518 0.073531410533923064 0 -0.29426307123941853 0.061014123210391721 0 -0.29570426641026681 0.08610162277761263 0 -0.29426307123941853 0.061014123210391721 0 -0.27808823727155518 0.073531410533923064 0 -0.26054839214045789 0.087139929606617511 0 -0.2623524667071454 0.058440434663973591 0 -0.27932238364818768 0.1007480287392313 0 -0.27808823727155518 0.073531410533923064 0 -0.26054839214045789 0.087139929606617511 0 -0.26054839214045789 0.087139929606617511 0 -0.2623524667071454 0.058440434663973591 0 -0.24121248507036511 0.076801683577728888 0 -0.26054839214045789 0.087139929606617511 0 -0.2623524667071454 0.058440434663973591 0 -0.2623524667071454 0.058440434663973591 0 -0.26415654127383292 0.029740939721329629 0 -0.2397047388991114 0.04121853486884508 0 -0.2623524667071454 0.058440434663973591 0 -0.26415654127383292 0.029740939721329629 0 -0.27914898434294533 0.04929723252571834 0 -0.26415654127383292 0.029740939721329629 0 -0.29282187606857019 0.035926623643170841 0 -0.2623524667071454 0.058440434663973591 0 -0.27914898434294533 0.04929723252571834 0 -0.26415654127383292 0.029740939721329629 0 -0.27808823727155518 0.073531410533923064 0 -0.2623524667071454 0.058440434663973591 0 -0.27914898434294533 0.04929723252571834 0 -0.25922362587095638 -0.002133833671543222 0 -0.25542037218922242 0.013888854862119391 0 -0.27176298421615341 0.0042637724134266608 0 -0.25922362587095638 -0.002133833671543222 0 -0.25542037218922242 0.013888854862119391 0 -0.24330282498337019 0.003007537454472953 0 -0.25542037218922242 0.013888854862119391 0 -0.26415654127383292 0.029740939721329629 0 -0.27176298421615341 0.0042637724134266608 0 -0.25542037218922242 0.013888854862119391 0 -0.26415654127383292 0.029740939721329629 0 -0.2397047388991114 0.04121853486884508 0 -0.26415654127383292 0.029740939721329629 0 -0.27176298421615341 0.0042637724134266608 0 -0.29138068089772201 0.010839124075949931 0 -0.28993948572687372 -0.01424837549127107 0 -0.27176298421615341 0.0042637724134266608 0 -0.29138068089772201 0.010839124075949931 0 -0.29138068089772201 0.010839124075949931 0 -0.29282187606857019 0.035926623643170841 0 -0.26415654127383292 0.029740939721329629 0 -0.29138068089772201 0.010839124075949931 0 -0.29282187606857019 0.035926623643170841 0 -0.29138068089772201 0.010839124075949931 0 -0.31068287905196867 0.018812104887969611 0 -0.29282187606857019 0.035926623643170841 0 -0.30691290727482629 -0.00095341638459660739 0 -0.29138068089772201 0.010839124075949931 0 -0.31068287905196867 0.018812104887969611 0 -0.27914898434294533 0.04929723252571834 0 -0.29426307123941853 0.061014123210391721 0 -0.29282187606857019 0.035926623643170841 0 -0.27808823727155518 0.073531410533923064 0 -0.27914898434294533 0.04929723252571834 0 -0.29426307123941853 0.061014123210391721 0 -0.29426307123941853 0.061014123210391721 0 -0.29282187606857019 0.035926623643170841 0 -0.29426307123941853 0.061014123210391721 0 -0.29282187606857019 0.035926623643170841 0 -0.31649129068222281 0.042197705827504352 0 -0.31068287905196867 0.018812104887969611 0 -0.29282187606857019 0.035926623643170841 0 -0.31649129068222281 0.042197705827504352 0 -0.29426307123941853 0.061014123210391721 0 -0.31649129068222281 0.042197705827504352 0 -0.32404022218440898 0.066839150478300469 0 -0.31649129068222281 0.042197705827504352 0 -0.33688563486277201 0.048103582990861912 0 -0.32404022218440898 0.066839150478300469 0 -0.33688563486277201 0.048103582990861912 0 -0.33457657724120532 0.024978699838518099 0 -0.35937373737194711 0.038251268854201707 0 -0.31649129068222281 0.042197705827504352 0 -0.33688563486277201 0.048103582990861912 0 -0.33457657724120532 0.024978699838518099 0 -0.33688563486277201 0.048103582990861912 0 -0.34994634683407561 0.06825108995578491 0 -0.32404022218440898 0.066839150478300469 0 -0.30691290727482629 -0.00095341638459660739 0 -0.31068287905196867 0.018812104887969611 0 -0.32561302252609747 0.001356273347036568 0 -0.31068287905196867 0.018812104887969611 0 -0.32561302252609747 0.001356273347036568 0 -0.33457657724120532 0.024978699838518099 0 -0.31068287905196867 0.018812104887969611 0 -0.31649129068222281 0.042197705827504352 0 -0.33457657724120532 0.024978699838518099 0 -0.32561302252609747 0.001356273347036568 0 -0.33457657724120532 0.024978699838518099 0 -0.34477131709100672 0.0030002940641287749 0 -0.35912004359483651 -0.010530881474089799 0 -0.34477131709100672 0.0030002940641287749 0 -0.36562343834461147 0.014315277159003451 0 -0.33457657724120532 0.024978699838518099 0 -0.34477131709100672 0.0030002940641287749 0 -0.36562343834461147 0.014315277159003451 0 -0.33457657724120532 0.024978699838518099 0 -0.36562343834461147 0.014315277159003451 0 -0.35937373737194711 0.038251268854201707 0 -0.38811235108204362 0.024200554439509889 0 -0.36562343834461147 0.014315277159003451 0 -0.35937373737194711 0.038251268854201707 0 -0.35912004359483651 -0.010530881474089799 0 -0.37630101312515413 -0.0017537402174872649 0 -0.36562343834461147 0.014315277159003451 0 -0.33688563486277201 0.048103582990861912 0 -0.35937373737194711 0.038251268854201707 0 -0.34994634683407561 0.06825108995578491 0 -0.37801430930939572 0.050332987804399411 0 -0.35937373737194711 0.038251268854201707 0 -0.34994634683407561 0.06825108995578491 0 -0.37585247148374201 0.069663029433269366 0 -0.34994634683407561 0.06825108995578491 0 -0.36351483687688008 0.087508303231400617 0 -0.37801430930939572 0.050332987804399411 0 -0.37585247148374201 0.069663029433269366 0 -0.34994634683407561 0.06825108995578491 0 -0.37585247148374201 0.069663029433269366 0 -0.34994634683407561 0.06825108995578491 0 -0.36351483687688008 0.087508303231400617 0 -0.34677855960648157 0.10131294186307239 0 -0.33678739087444293 0.085083797653686982 0 -0.34994634683407561 0.06825108995578491 0 -0.36351483687688008 0.087508303231400617 0 -0.33678739087444293 0.085083797653686982 0 -0.36351483687688008 0.087508303231400617 0 -0.36396488972870727 0.1211125751459896 0 -0.34677855960648157 0.10131294186307239 0 -0.38775338436157458 0.095933848507897296 0 -0.36351483687688008 0.087508303231400617 0 -0.36396488972870727 0.1211125751459896 0 -0.36396488972870727 0.1211125751459896 0 -0.34677855960648157 0.10131294186307239 0 -0.34052967131299461 0.1203510869419194 0 -0.36396488972870727 0.1211125751459896 0 -0.34677855960648157 0.10131294186307239 0 -0.34677855960648157 0.10131294186307239 0 -0.34052967131299461 0.1203510869419194 0 -0.32239690284731731 0.1024234538873109 0 -0.34677855960648157 0.10131294186307239 0 -0.32239690284731731 0.1024234538873109 0 -0.33678739087444293 0.085083797653686982 0 -0.34052967131299461 0.1203510869419194 0 -0.32067599475822622 0.12174117593257761 0 -0.32239690284731731 0.1024234538873109 0 -0.30261235105349737 0.1050923992576074 0 -0.32067599475822622 0.12174117593257761 0 -0.32239690284731731 0.1024234538873109 0 -0.30261235105349737 0.1050923992576074 0 -0.32239690284731731 0.1024234538873109 0 -0.31404747689749402 0.084167846506252669 0 -0.32239690284731731 0.1024234538873109 0 -0.31404747689749402 0.084167846506252669 0 -0.33678739087444293 0.085083797653686982 0 -0.31404747689749402 0.084167846506252669 0 -0.32404022218440898 0.066839150478300469 0 -0.33678739087444293 0.085083797653686982 0 -0.34994634683407561 0.06825108995578491 0 -0.32404022218440898 0.066839150478300469 0 -0.34994634683407561 0.06825108995578491 0 -0.32404022218440898 0.066839150478300469 0 -0.33678739087444293 0.085083797653686982 0 -0.39467911694481961 0.47560619769625012 0 -0.39138670791060992 0.50000000000000067 0 -0.41951146698371361 0.47076173414950312 0 -0.39138670791060992 0.50000000000000067 0 -0.37578495439707432 0.48162369174692699 0 -0.39138670791060992 0.50000000000000067 0 -0.37578495439707432 0.48162369174692699 0 -0.36271262299221391 0.5 0 -0.39467911694481961 0.47560619769625012 0 -0.39138670791060992 0.50000000000000067 0 -0.37578495439707432 0.48162369174692699 0 -0.37578495439707432 0.48162369174692699 0 -0.38584785107143171 0.46757250914048132 0 -0.36657254078654272 0.46629090303299209 0 -0.39467911694481961 0.47560619769625012 0 -0.37578495439707432 0.48162369174692699 0 -0.38584785107143171 0.46757250914048132 0 -0.38584785107143171 0.46757250914048132 0 -0.38476259046108641 0.44979561670398888 0 -0.40086460436126831 0.45807305344433891 0 -0.38476259046108641 0.44979561670398888 0 -0.37419802332540192 0.45286545964978442 0 -0.36657254078654272 0.46629090303299209 0 -0.38476259046108641 0.44979561670398888 0 -0.36657254078654272 0.46629090303299209 0 -0.38584785107143171 0.46757250914048132 0 -0.38476259046108641 0.44979561670398888 0 -0.36657254078654272 0.46629090303299209 0 -0.38268545722282959 0.44092582458482887 0 -0.38476259046108641 0.44979561670398888 0 -0.40295264013562998 0.43330033037498578 0 -0.38268545722282959 0.44092582458482887 0 -0.37419802332540192 0.45286545964978442 0 -0.37325376656998699 0.44111987596666041 0 -0.38268545722282959 0.44092582458482887 0 -0.37704527446399078 0.43700471666497559 0 -0.37325376656998699 0.44111987596666041 0 -0.38268545722282959 0.44092582458482887 0 -0.38476259046108641 0.44979561670398888 0 -0.37419802332540192 0.45286545964978442 0 -0.40086460436126831 0.45807305344433891 0 -0.41482998617327638 0.44745448473306487 0 -0.40295264013562998 0.43330033037498578 0 -0.38476259046108641 0.44979561670398888 0 -0.40295264013562998 0.43330033037498578 0 -0.38476259046108641 0.44979561670398888 0 -0.40086460436126831 0.45807305344433891 0 -0.40295264013562998 0.43330033037498578 0 -0.39467911694481961 0.47560619769625012 0 -0.40086460436126831 0.45807305344433891 0 -0.41951146698371361 0.47076173414950312 0 -0.39467911694481961 0.47560619769625012 0 -0.38584785107143171 0.46757250914048132 0 -0.40086460436126831 0.45807305344433891 0 -0.40086460436126831 0.45807305344433891 0 -0.41482998617327638 0.44745448473306487 0 -0.41951146698371361 0.47076173414950312 0 -0.41482998617327638 0.44745448473306487 0 -0.42594930790044899 0.43218670470462228 0 -0.40295264013562998 0.43330033037498578 0 -0.41482998617327638 0.44745448473306487 0 -0.43453864746875892 0.44732708895001139 0 -0.42594930790044899 0.43218670470462228 0 -0.41482998617327638 0.44745448473306487 0 -0.43453864746875892 0.44732708895001139 0 -0.41951146698371361 0.47076173414950312 0 -0.43453864746875892 0.44732708895001139 0 -0.41951146698371361 0.47076173414950312 0 -0.44738011707973357 0.46476893185876972 0 -0.39138670791060992 0.50000000000000067 0 -0.41951146698371361 0.47076173414950312 0 -0.45376809059013651 0.5 0 -0.41951146698371361 0.47076173414950312 0 -0.45376809059013651 0.5 0 -0.44738011707973357 0.46476893185876972 0 -0.45376809059013651 0.5 0 -0.47203018337179942 0.46406824317681128 0 -0.44738011707973357 0.46476893185876972 0 -0.45376809059013651 0.5 0 -0.5 0.5 0 -0.47203018337179942 0.46406824317681128 0 -0.5 0.5 0 -0.5 0.44799006148694032 0 -0.47203018337179942 0.46406824317681128 0 -0.5 0.44799006148694032 0 -0.47203018337179942 0.46406824317681128 0 -0.47701325537246803 0.4309202025715404 0 -0.47203018337179942 0.46406824317681128 0 -0.45401963718845822 0.44073026314361752 0 -0.47701325537246803 0.4309202025715404 0 -0.47203018337179942 0.46406824317681128 0 -0.45401963718845822 0.44073026314361752 0 -0.44738011707973357 0.46476893185876972 0 -0.43453864746875892 0.44732708895001139 0 -0.45401963718845822 0.44073026314361752 0 -0.44738011707973357 0.46476893185876972 0 -0.43453864746875892 0.44732708895001139 0 -0.45401963718845822 0.44073026314361752 0 -0.44233115426648911 0.43127563200866748 0 -0.44233115426648911 0.43127563200866748 0 -0.43995366955151249 0.41711981761630051 0 -0.45719450922326699 0.41901428562878579 0 -0.45401963718845822 0.44073026314361752 0 -0.44233115426648911 0.43127563200866748 0 -0.45719450922326699 0.41901428562878579 0 -0.43995366955151249 0.41711981761630051 0 -0.4519842664821635 0.40692636527765358 0 -0.45719450922326699 0.41901428562878579 0 -0.43995366955151249 0.41711981761630051 0 -0.4519842664821635 0.40692636527765358 0 -0.43933273948471629 0.40030975771697802 0 -0.45719450922326699 0.41901428562878579 0 -0.47563857796104841 0.40760889767597591 0 -0.46388525449484491 0.40474218846557181 0 -0.4519842664821635 0.40692636527765358 0 -0.45719450922326699 0.41901428562878579 0 -0.46388525449484491 0.40474218846557181 0 -0.45401963718845822 0.44073026314361752 0 -0.45719450922326699 0.41901428562878579 0 -0.47701325537246803 0.4309202025715404 0 -0.5 0.44799006148694032 0 -0.47701325537246803 0.4309202025715404 0 -0.5 0.40897884172062859 0 -0.45719450922326699 0.41901428562878579 0 -0.47701325537246803 0.4309202025715404 0 -0.47563857796104841 0.40760889767597591 0 -0.47701325537246803 0.4309202025715404 0 -0.47563857796104841 0.40760889767597591 0 -0.5 0.40897884172062859 0 -0.49999999999999889 0.3797178154479447 0 -0.47977757982823782 0.38658179620428829 0 -0.48610491715569992 0.37200189217170881 0 -0.49999999999999889 0.3797178154479447 0 -0.47977757982823782 0.38658179620428829 0 -0.5 0.40897884172062859 0 -0.49999999999999889 0.3797178154479447 0 -0.47977757982823782 0.38658179620428829 0 -0.47563857796104841 0.40760889767597591 0 -0.5 0.40897884172062859 0 -0.47977757982823782 0.38658179620428829 0 -0.47563857796104841 0.40760889767597591 0 -0.47977757982823782 0.38658179620428829 0 -0.46388525449484491 0.40474218846557181 0 -0.47977757982823782 0.38658179620428829 0 -0.4652352923582988 0.37682054059297021 0 -0.48610491715569992 0.37200189217170881 0 -0.47977757982823782 0.38658179620428829 0 -0.4595551596564767 0.39344577696063221 0 -0.47977757982823782 0.38658179620428829 0 -0.4652352923582988 0.37682054059297021 0 -0.4595551596564767 0.39344577696063221 0 -0.4652352923582988 0.37682054059297021 0 -0.4595551596564767 0.39344577696063221 0 -0.45228401592150808 0.38856514915497481 0 -0.4652352923582988 0.37682054059297021 0 -0.45228401592150808 0.38856514915497481 0 -0.4652352923582988 0.37682054059297021 0 -0.45299540083471551 0.37659621775906399 0 -0.45228401592150808 0.38856514915497481 0 -0.47977757982823782 0.38658179620428829 0 -0.46388525449484491 0.40474218846557181 0 -0.4595551596564767 0.39344577696063221 0 -0.4519842664821635 0.40692636527765358 0 -0.46388525449484491 0.40474218846557181 0 -0.4595551596564767 0.39344577696063221 0 -0.4595551596564767 0.39344577696063221 0 -0.43933273948471629 0.40030975771697802 0 -0.4519842664821635 0.40692636527765358 0 -0.4595551596564767 0.39344577696063221 0 -0.43933273948471629 0.40030975771697802 0 -0.4595551596564767 0.39344577696063221 0 -0.43933273948471629 0.40030975771697802 0 -0.45228401592150808 0.38856514915497481 0 -0.43933273948471629 0.40030975771697802 0 -0.45228401592150808 0.38856514915497481 0 -0.43933273948471629 0.40030975771697802 0 -0.45228401592150808 0.38856514915497481 0 -0.43993656572427381 0.38799537896030128 0 -0.44647657962060389 0.38265654557939499 0 -0.45299540083471551 0.37659621775906399 0 -0.45228401592150808 0.38856514915497481 0 -0.44647657962060389 0.38265654557939499 0 -0.45299540083471551 0.37659621775906399 0 -0.44366460749211339 0.37473469742480392 0 -0.44647657962060389 0.38265654557939499 0 -0.45228401592150808 0.38856514915497481 0 -0.43993656572427381 0.38799537896030128 0 -0.44647657962060389 0.38265654557939499 0 -0.43993656572427381 0.38799537896030128 0 -0.43457897479931429 0.37904995266483837 0 -0.44647657962060389 0.38265654557939499 0 -0.43457897479931429 0.37904995266483837 0 -0.44366460749211339 0.37473469742480392 0 -0.43993656572427381 0.38799537896030128 0 -0.43457897479931429 0.37904995266483837 0 -0.42686101171477142 0.38980884650502889 0 -0.43457897479931429 0.37904995266483837 0 -0.42686101171477142 0.38980884650502889 0 -0.42021883612201599 0.38062497501244857 0 -0.43457897479931429 0.37904995266483837 0 -0.42021883612201599 0.38062497501244857 0 -0.4272860420887698 0.37194294085194612 0 -0.42021883612201599 0.38062497501244857 0 -0.41338686564199029 0.37255203634427841 0 -0.4272860420887698 0.37194294085194612 0 -0.42021883612201599 0.38062497501244857 0 -0.41081065472881417 0.38694542713787689 0 -0.41338686564199029 0.37255203634427841 0 -0.42686101171477142 0.38980884650502889 0 -0.42021883612201599 0.38062497501244857 0 -0.41081065472881417 0.38694542713787689 0 -0.41081065472881417 0.38694542713787689 0 -0.40379524868008743 0.3784810786223512 0 -0.41338686564199029 0.37255203634427841 0 -0.42686101171477142 0.38980884650502889 0 -0.41275127843169462 0.39900431311459122 0 -0.42335821895932157 0.40573189812088489 0 -0.41275127843169462 0.39900431311459122 0 -0.42335821895932157 0.40573189812088489 0 -0.40738369843392752 0.41115403852479371 0 -0.41275127843169462 0.39900431311459122 0 -0.40738369843392752 0.41115403852479371 0 -0.40151505335888882 0.39395809793899172 0 -0.42686101171477142 0.38980884650502889 0 -0.41081065472881417 0.38694542713787689 0 -0.41275127843169462 0.39900431311459122 0 -0.41081065472881417 0.38694542713787689 0 -0.41275127843169462 0.39900431311459122 0 -0.40151505335888882 0.39395809793899172 0 -0.43933273948471629 0.40030975771697802 0 -0.42335821895932157 0.40573189812088489 0 -0.43933273948471629 0.40030975771697802 0 -0.42686101171477142 0.38980884650502889 0 -0.42335821895932157 0.40573189812088489 0 -0.43933273948471629 0.40030975771697802 0 -0.43993656572427381 0.38799537896030128 0 -0.42686101171477142 0.38980884650502889 0 -0.43995366955151249 0.41711981761630051 0 -0.43933273948471629 0.40030975771697802 0 -0.42114268981017378 0.41680504404598262 0 -0.43933273948471629 0.40030975771697802 0 -0.42335821895932157 0.40573189812088489 0 -0.42114268981017378 0.41680504404598262 0 -0.43933273948471629 0.40030975771697802 0 -0.42114268981017378 0.41680504404598262 0 -0.43995366955151249 0.41711981761630051 0 -0.42594930790044899 0.43218670470462228 0 -0.42114268981017378 0.41680504404598262 0 -0.43453864746875892 0.44732708895001139 0 -0.44233115426648911 0.43127563200866748 0 -0.42594930790044899 0.43218670470462228 0 -0.44233115426648911 0.43127563200866748 0 -0.43995366955151249 0.41711981761630051 0 -0.42594930790044899 0.43218670470462228 0 -0.42114268981017378 0.41680504404598262 0 -0.40295264013562998 0.43330033037498578 0 -0.42594930790044899 0.43218670470462228 0 -0.42114268981017378 0.41680504404598262 0 -0.40295264013562998 0.43330033037498578 0 -0.42335821895932157 0.40573189812088489 0 -0.42114268981017378 0.41680504404598262 0 -0.40738369843392752 0.41115403852479371 0 -0.42335821895932157 0.40573189812088489 0 -0.40738369843392752 0.41115403852479371 0 -0.42114268981017378 0.41680504404598262 0 -0.40738369843392752 0.41115403852479371 0 -0.40295264013562998 0.43330033037498578 0 -0.40738369843392752 0.41115403852479371 0 -0.39587991958026858 0.41480761064680699 0 -0.40295264013562998 0.43330033037498578 0 -0.40738369843392752 0.41115403852479371 0 -0.39587991958026858 0.41480761064680699 0 -0.39339814839268877 0.40362144337074479 0 -0.39587991958026858 0.41480761064680699 0 -0.3877035053983926 0.40956052159021011 0 -0.39339814839268877 0.40362144337074479 0 -0.40295264013562998 0.43330033037498578 0 -0.38390044838088128 0.43146894814857861 0 -0.39027939358509778 0.42351205955908577 0 -0.39587991958026858 0.41480761064680699 0 -0.40295264013562998 0.43330033037498578 0 -0.39027939358509778 0.42351205955908577 0 -0.38268545722282959 0.44092582458482887 0 -0.40295264013562998 0.43330033037498578 0 -0.38390044838088128 0.43146894814857861 0 -0.38390044838088128 0.43146894814857861 0 -0.39027939358509778 0.42351205955908577 0 -0.3818589420420111 0.42377357645408209 0 -0.3818589420420111 0.42377357645408209 0 -0.37773408284538201 0.41782628711634717 0 -0.37438716231324032 0.42410623227884348 0 -0.3818589420420111 0.42377357645408209 0 -0.37794965265953928 0.42798793942232938 0 -0.37438716231324032 0.42410623227884348 0 -0.37794965265953928 0.42798793942232938 0 -0.37388870539249391 0.42848762982128841 0 -0.37438716231324032 0.42410623227884348 0 -0.37794965265953928 0.42798793942232938 0 -0.37568054734269513 0.43233891557180387 0 -0.37388870539249391 0.42848762982128841 0 -0.38390044838088128 0.43146894814857861 0 -0.3818589420420111 0.42377357645408209 0 -0.37794965265953928 0.42798793942232938 0 -0.38390044838088128 0.43146894814857861 0 -0.37794965265953928 0.42798793942232938 0 -0.37568054734269513 0.43233891557180387 0 -0.38390044838088128 0.43146894814857861 0 -0.37568054734269513 0.43233891557180387 0 -0.37704527446399078 0.43700471666497559 0 -0.38268545722282959 0.44092582458482887 0 -0.38390044838088128 0.43146894814857861 0 -0.37704527446399078 0.43700471666497559 0 -0.37568054734269513 0.43233891557180387 0 -0.37704527446399078 0.43700471666497559 0 -0.3723502293118699 0.43487096394545782 0 -0.3877035053983926 0.40956052159021011 0 -0.380135510113286 0.41074486547501488 0 -0.38190537168149458 0.4018193431481652 0 -0.39587991958026858 0.41480761064680699 0 -0.3877035053983926 0.40956052159021011 0 -0.38538277475884702 0.4169586788766132 0 -0.3877035053983926 0.40956052159021011 0 -0.38538277475884702 0.4169586788766132 0 -0.380135510113286 0.41074486547501488 0 -0.39027939358509778 0.42351205955908577 0 -0.3818589420420111 0.42377357645408209 0 -0.38538277475884702 0.4169586788766132 0 -0.39587991958026858 0.41480761064680699 0 -0.39027939358509778 0.42351205955908577 0 -0.38538277475884702 0.4169586788766132 0 -0.38538277475884702 0.4169586788766132 0 -0.37773408284538201 0.41782628711634717 0 -0.380135510113286 0.41074486547501488 0 -0.3818589420420111 0.42377357645408209 0 -0.38538277475884702 0.4169586788766132 0 -0.37773408284538201 0.41782628711634717 0 -0.37773408284538201 0.41782628711634717 0 -0.380135510113286 0.41074486547501488 0 -0.37314907036103928 0.41220867505892828 0 -0.380135510113286 0.41074486547501488 0 -0.37473002140687978 0.40611281246880448 0 -0.37314907036103928 0.41220867505892828 0 -0.38190537168149458 0.4018193431481652 0 -0.36986267214773322 0.39826939991460819 0 -0.37473002140687978 0.40611281246880448 0 -0.380135510113286 0.41074486547501488 0 -0.38190537168149458 0.4018193431481652 0 -0.37473002140687978 0.40611281246880448 0 -0.3877035053983926 0.40956052159021011 0 -0.38190537168149458 0.4018193431481652 0 -0.39339814839268877 0.40362144337074479 0 -0.38190537168149458 0.4018193431481652 0 -0.38944458822061478 0.39293821563751452 0 -0.39339814839268877 0.40362144337074479 0 -0.38190537168149458 0.4018193431481652 0 -0.38944458822061478 0.39293821563751452 0 -0.37782064618846761 0.3910497352711762 0 -0.38190537168149458 0.4018193431481652 0 -0.37782064618846761 0.3910497352711762 0 -0.36986267214773322 0.39826939991460819 0 -0.37782064618846761 0.3910497352711762 0 -0.38310376077606589 0.38112984221139179 0 -0.37312837600072302 0.37959583673975472 0 -0.38310376077606589 0.38112984221139179 0 -0.37612665915839061 0.36932049556565438 0 -0.37312837600072302 0.37959583673975472 0 -0.38310376077606589 0.38112984221139179 0 -0.39427090170379397 0.38335392226124498 0 -0.38703161031401428 0.37227960401726951 0 -0.38944458822061478 0.39293821563751452 0 -0.37782064618846761 0.3910497352711762 0 -0.38310376077606589 0.38112984221139179 0 -0.38944458822061478 0.39293821563751452 0 -0.38310376077606589 0.38112984221139179 0 -0.39427090170379397 0.38335392226124498 0 -0.38944458822061478 0.39293821563751452 0 -0.39427090170379397 0.38335392226124498 0 -0.40151505335888882 0.39395809793899172 0 -0.39427090170379397 0.38335392226124498 0 -0.40379524868008743 0.3784810786223512 0 -0.39787688065107951 0.3679909687712456 0 -0.41081065472881417 0.38694542713787689 0 -0.40379524868008743 0.3784810786223512 0 -0.40151505335888882 0.39395809793899172 0 -0.39427090170379397 0.38335392226124498 0 -0.40379524868008743 0.3784810786223512 0 -0.40151505335888882 0.39395809793899172 0 -0.40738369843392752 0.41115403852479371 0 -0.40151505335888882 0.39395809793899172 0 -0.39339814839268877 0.40362144337074479 0 -0.38944458822061478 0.39293821563751452 0 -0.40151505335888882 0.39395809793899172 0 -0.39339814839268877 0.40362144337074479 0 -0.39425760043182201 0.35284903796786798 0 -0.40561316397180031 0.34575477918514919 0 -0.40772579010091992 0.36215427845471898 0 -0.39425760043182201 0.35284903796786798 0 -0.40561316397180031 0.34575477918514919 0 -0.39133015205378707 0.34060994629858771 0 -0.39425760043182201 0.35284903796786798 0 -0.39787688065107951 0.3679909687712456 0 -0.40772579010091992 0.36215427845471898 0 -0.40379524868008743 0.3784810786223512 0 -0.39787688065107951 0.3679909687712456 0 -0.41338686564199029 0.37255203634427841 0 -0.39427090170379397 0.38335392226124498 0 -0.39787688065107951 0.3679909687712456 0 -0.38703161031401428 0.37227960401726951 0 -0.39425760043182201 0.35284903796786798 0 -0.39787688065107951 0.3679909687712456 0 -0.38377984928074149 0.35960279127681072 0 -0.39787688065107951 0.3679909687712456 0 -0.38377984928074149 0.35960279127681072 0 -0.38703161031401428 0.37227960401726951 0 -0.38310376077606589 0.38112984221139179 0 -0.38703161031401428 0.37227960401726951 0 -0.37612665915839061 0.36932049556565438 0 -0.38377984928074149 0.35960279127681072 0 -0.37612665915839061 0.36932049556565438 0 -0.36865939452984198 0.35615258012565593 0 -0.38377984928074149 0.35960279127681072 0 -0.38703161031401428 0.37227960401726951 0 -0.37612665915839061 0.36932049556565438 0 -0.38377984928074149 0.35960279127681072 0 -0.37929051534455333 0.34441744710754801 0 -0.36865939452984198 0.35615258012565593 0 -0.39425760043182201 0.35284903796786798 0 -0.38377984928074149 0.35960279127681072 0 -0.37929051534455333 0.34441744710754801 0 -0.39425760043182201 0.35284903796786798 0 -0.37929051534455333 0.34441744710754801 0 -0.39133015205378707 0.34060994629858771 0 -0.37929051534455333 0.34441744710754801 0 -0.3851338447775855 0.3287143045194264 0 -0.37087714182678999 0.32786519271641767 0 -0.37929051534455333 0.34441744710754801 0 -0.3851338447775855 0.3287143045194264 0 -0.39133015205378707 0.34060994629858771 0 -0.3851338447775855 0.3287143045194264 0 -0.38583213547516271 0.31473299970648688 0 -0.37312469192333431 0.31448100794429701 0 -0.3851338447775855 0.3287143045194264 0 -0.37087714182678999 0.32786519271641767 0 -0.37312469192333431 0.31448100794429701 0 -0.3851338447775855 0.3287143045194264 0 -0.38583213547516271 0.31473299970648688 0 -0.3953733875206259 0.32192749795402881 0 -0.41805450146682072 0.32033792020882312 0 -0.39415841018097092 0.31003968378602081 0 -0.3953733875206259 0.32192749795402881 0 -0.40228178343085208 0.33219581211748428 0 -0.41805450146682072 0.32033792020882312 0 -0.3851338447775855 0.3287143045194264 0 -0.3953733875206259 0.32192749795402881 0 -0.40228178343085208 0.33219581211748428 0 -0.3953733875206259 0.32192749795402881 0 -0.41805450146682072 0.32033792020882312 0 -0.39415841018097092 0.31003968378602081 0 -0.38583213547516271 0.31473299970648688 0 -0.3953733875206259 0.32192749795402881 0 -0.39415841018097092 0.31003968378602081 0 -0.3851338447775855 0.3287143045194264 0 -0.39133015205378707 0.34060994629858771 0 -0.40228178343085208 0.33219581211748428 0 -0.40561316397180031 0.34575477918514919 0 -0.39133015205378707 0.34060994629858771 0 -0.40228178343085208 0.33219581211748428 0 -0.40561316397180031 0.34575477918514919 0 -0.40228178343085208 0.33219581211748428 0 -0.42055036917354671 0.33874346949657841 0 -0.40228178343085208 0.33219581211748428 0 -0.42055036917354671 0.33874346949657841 0 -0.41805450146682072 0.32033792020882312 0 -0.41805450146682072 0.32033792020882312 0 -0.44195059275267118 0.33063615663162371 0 -0.41805450146682072 0.32033792020882312 0 -0.4364648529071965 0.31256390574318182 0 -0.44195059275267118 0.33063615663162371 0 -0.41805450146682072 0.32033792020882312 0 -0.4364648529071965 0.31256390574318182 0 -0.4265767020830814 0.30620409484255412 0 -0.42055036917354671 0.33874346949657841 0 -0.41805450146682072 0.32033792020882312 0 -0.44195059275267118 0.33063615663162371 0 -0.42055036917354671 0.33874346949657841 0 -0.43416584807537711 0.34265462924979589 0 -0.44195059275267118 0.33063615663162371 0 -0.42055036917354671 0.33874346949657841 0 -0.43416584807537711 0.34265462924979589 0 -0.42607008471258923 0.34954553421976198 0 -0.43416584807537711 0.34265462924979589 0 -0.42607008471258923 0.34954553421976198 0 -0.43822070131790619 0.35404145003122078 0 -0.42607008471258923 0.34954553421976198 0 -0.42413229487293158 0.36101266460234022 0 -0.43822070131790619 0.35404145003122078 0 -0.42607008471258923 0.34954553421976198 0 -0.4155540152733545 0.35291452525394401 0 -0.42413229487293158 0.36101266460234022 0 -0.40561316397180031 0.34575477918514919 0 -0.4155540152733545 0.35291452525394401 0 -0.40772579010091992 0.36215427845471898 0 -0.4155540152733545 0.35291452525394401 0 -0.40772579010091992 0.36215427845471898 0 -0.42413229487293158 0.36101266460234022 0 -0.42055036917354671 0.33874346949657841 0 -0.42607008471258923 0.34954553421976198 0 -0.4155540152733545 0.35291452525394401 0 -0.40561316397180031 0.34575477918514919 0 -0.42055036917354671 0.33874346949657841 0 -0.4155540152733545 0.35291452525394401 0 -0.41338686564199029 0.37255203634427841 0 -0.40772579010091992 0.36215427845471898 0 -0.42413229487293158 0.36101266460234022 0 -0.39787688065107951 0.3679909687712456 0 -0.41338686564199029 0.37255203634427841 0 -0.40772579010091992 0.36215427845471898 0 -0.41338686564199029 0.37255203634427841 0 -0.4272860420887698 0.37194294085194612 0 -0.42413229487293158 0.36101266460234022 0 -0.4272860420887698 0.37194294085194612 0 -0.42413229487293158 0.36101266460234022 0 -0.43571491731080791 0.36764570309990618 0 -0.42413229487293158 0.36101266460234022 0 -0.43571491731080791 0.36764570309990618 0 -0.43822070131790619 0.35404145003122078 0 -0.43457897479931429 0.37904995266483837 0 -0.4272860420887698 0.37194294085194612 0 -0.43571491731080791 0.36764570309990618 0 -0.43457897479931429 0.37904995266483837 0 -0.43571491731080791 0.36764570309990618 0 -0.44366460749211339 0.37473469742480392 0 -0.43571491731080791 0.36764570309990618 0 -0.44366460749211339 0.37473469742480392 0 -0.44640688329381251 0.3650925130242878 0 -0.43571491731080791 0.36764570309990618 0 -0.44640688329381251 0.3650925130242878 0 -0.43822070131790619 0.35404145003122078 0 -0.44640688329381251 0.3650925130242878 0 -0.45425783425967958 0.35002880333645431 0 -0.45656699080369212 0.36511268500132099 0 -0.45299540083471551 0.37659621775906399 0 -0.44640688329381251 0.3650925130242878 0 -0.45656699080369212 0.36511268500132099 0 -0.45299540083471551 0.37659621775906399 0 -0.44366460749211339 0.37473469742480392 0 -0.44640688329381251 0.3650925130242878 0 -0.44640688329381251 0.3650925130242878 0 -0.43822070131790619 0.35404145003122078 0 -0.45425783425967958 0.35002880333645431 0 -0.43822070131790619 0.35404145003122078 0 -0.45425783425967958 0.35002880333645431 0 -0.4446341987069381 0.34306774774196319 0 -0.43416584807537711 0.34265462924979589 0 -0.43822070131790619 0.35404145003122078 0 -0.4446341987069381 0.34306774774196319 0 -0.45425783425967958 0.35002880333645431 0 -0.46508027312441852 0.35638450335693778 0 -0.45656699080369212 0.36511268500132099 0 -0.45425783425967958 0.35002880333645431 0 -0.45656699080369212 0.36511268500132099 0 -0.45425783425967958 0.35002880333645431 0 -0.46508027312441852 0.35638450335693778 0 -0.46818956994151328 0.34194408090053158 0 -0.4652352923582988 0.37682054059297021 0 -0.46508027312441852 0.35638450335693778 0 -0.45656699080369212 0.36511268500132099 0 -0.4652352923582988 0.37682054059297021 0 -0.45299540083471551 0.37659621775906399 0 -0.45656699080369212 0.36511268500132099 0 -0.4652352923582988 0.37682054059297021 0 -0.46508027312441852 0.35638450335693778 0 -0.47695710781164802 0.36038403260812302 0 -0.4652352923582988 0.37682054059297021 0 -0.47695710781164802 0.36038403260812302 0 -0.48610491715569992 0.37200189217170881 0 -0.46508027312441852 0.35638450335693778 0 -0.47695710781164802 0.36038403260812302 0 -0.48145593692314198 0.34716109742383511 0 -0.46508027312441852 0.35638450335693778 0 -0.48145593692314198 0.34716109742383511 0 -0.46818956994151328 0.34194408090053158 0 -0.47695710781164802 0.36038403260812302 0 -0.48145593692314198 0.34716109742383511 0 -0.5 0.35195275676091969 0 -0.48145593692314198 0.34716109742383511 0 -0.5 0.35195275676091969 0 -0.48414866801890782 0.33316242057416262 0 -0.49999999999999889 0.3797178154479447 0 -0.5 0.35195275676091969 0 -0.48610491715569992 0.37200189217170881 0 -0.47695710781164802 0.36038403260812302 0 -0.5 0.35195275676091969 0 -0.48610491715569992 0.37200189217170881 0 -0.5 0.32418769807389469 0 -0.48414866801890782 0.33316242057416262 0 -0.47411174631489011 0.31721379959605589 0 -0.5 0.32418769807389469 0 -0.47411174631489011 0.31721379959605589 0 -0.48456576614336933 0.30405286451095609 0 -0.5 0.35195275676091969 0 -0.5 0.32418769807389469 0 -0.48414866801890782 0.33316242057416262 0 -0.48145593692314198 0.34716109742383511 0 -0.48414866801890782 0.33316242057416262 0 -0.46818956994151328 0.34194408090053158 0 -0.48414866801890782 0.33316242057416262 0 -0.46558050877473989 0.32924804784806111 0 -0.46818956994151328 0.34194408090053158 0 -0.48414866801890782 0.33316242057416262 0 -0.47411174631489011 0.31721379959605589 0 -0.46558050877473989 0.32924804784806111 0 -0.47411174631489011 0.31721379959605589 0 -0.46558050877473989 0.32924804784806111 0 -0.44950388188272111 0.31897501649796761 0 -0.46558050877473989 0.32924804784806111 0 -0.45194867771566688 0.33494492167158751 0 -0.44950388188272111 0.31897501649796761 0 -0.46558050877473989 0.32924804784806111 0 -0.46818956994151328 0.34194408090053158 0 -0.45194867771566688 0.33494492167158751 0 -0.45425783425967958 0.35002880333645431 0 -0.46818956994151328 0.34194408090053158 0 -0.45194867771566688 0.33494492167158751 0 -0.46818956994151328 0.34194408090053158 0 -0.45194867771566688 0.33494492167158751 0 -0.45194867771566688 0.33494492167158751 0 -0.44195059275267118 0.33063615663162371 0 -0.44950388188272111 0.31897501649796761 0 -0.45425783425967958 0.35002880333645431 0 -0.45194867771566688 0.33494492167158751 0 -0.45194867771566688 0.33494492167158751 0 -0.44195059275267118 0.33063615663162371 0 -0.4446341987069381 0.34306774774196319 0 -0.45425783425967958 0.35002880333645431 0 -0.45194867771566688 0.33494492167158751 0 -0.4446341987069381 0.34306774774196319 0 -0.45194867771566688 0.33494492167158751 0 -0.44195059275267118 0.33063615663162371 0 -0.43416584807537711 0.34265462924979589 0 -0.44195059275267118 0.33063615663162371 0 -0.43416584807537711 0.34265462924979589 0 -0.44195059275267118 0.33063615663162371 0 -0.4446341987069381 0.34306774774196319 0 -0.4364648529071965 0.31256390574318182 0 -0.44195059275267118 0.33063615663162371 0 -0.44950388188272111 0.31897501649796761 0 -0.45194867771566688 0.33494492167158751 0 -0.44950388188272111 0.31897501649796761 0 -0.44195059275267118 0.33063615663162371 0 -0.44950388188272111 0.31897501649796761 0 -0.4364648529071965 0.31256390574318182 0 -0.44950388188272111 0.31897501649796761 0 -0.44714209646298442 0.30354735227940849 0 -0.4364648529071965 0.31256390574318182 0 -0.44714209646298442 0.30354735227940849 0 -0.43557426336139238 0.29795728598721632 0 -0.44950388188272111 0.31897501649796761 0 -0.44714209646298442 0.30354735227940849 0 -0.44478031104324789 0.28811968806084931 0 -0.43830931682563418 0.28515290543917671 0 -0.46038477014796558 0.27270951626575451 0 -0.44714209646298442 0.30354735227940849 0 -0.44478031104324789 0.28811968806084931 0 -0.46551207860427218 0.29426077320037541 0 -0.44478031104324789 0.28811968806084931 0 -0.43830931682563418 0.28515290543917671 0 -0.43557426336139238 0.29795728598721632 0 -0.44714209646298442 0.30354735227940849 0 -0.44478031104324789 0.28811968806084931 0 -0.43557426336139238 0.29795728598721632 0 -0.44714209646298442 0.30354735227940849 0 -0.44478031104324789 0.28811968806084931 0 -0.44478031104324789 0.28811968806084931 0 -0.46551207860427218 0.29426077320037541 0 -0.46038477014796558 0.27270951626575451 0 -0.44950388188272111 0.31897501649796761 0 -0.44714209646298442 0.30354735227940849 0 -0.46551207860427218 0.29426077320037541 0 -0.44950388188272111 0.31897501649796761 0 -0.46551207860427218 0.29426077320037541 0 -0.47411174631489011 0.31721379959605589 0 -0.44950388188272111 0.31897501649796761 0 -0.46551207860427218 0.29426077320037541 0 -0.47411174631489011 0.31721379959605589 0 -0.46551207860427218 0.29426077320037541 0 -0.48456576614336933 0.30405286451095609 0 -0.46551207860427218 0.29426077320037541 0 -0.48152027532582309 0.26954652990278283 0 -0.46551207860427218 0.29426077320037541 0 -0.48320500579768411 0.28817941229758509 0 -0.48456576614336933 0.30405286451095609 0 -0.46551207860427218 0.29426077320037541 0 -0.48320500579768411 0.28817941229758509 0 -0.48152027532582309 0.26954652990278283 0 -0.48320500579768411 0.28817941229758509 0 -0.5 0.29642263938686958 0 -0.5 0.26865758069984458 0 -0.48320500579768411 0.28817941229758509 0 -0.5 0.29642263938686958 0 -0.48456576614336933 0.30405286451095609 0 -0.5 0.32418769807389469 0 -0.5 0.29642263938686958 0 -0.48456576614336933 0.30405286451095609 0 -0.5 0.2408925220128196 0 -0.5 0.26865758069984458 0 -0.48359338383118872 0.25165714750028401 0 -0.5 0.26865758069984458 0 -0.48152027532582309 0.26954652990278283 0 -0.48359338383118872 0.25165714750028401 0 -0.48320500579768411 0.28817941229758509 0 -0.5 0.26865758069984458 0 -0.48152027532582309 0.26954652990278283 0 -0.46551207860427218 0.29426077320037541 0 -0.48152027532582309 0.26954652990278283 0 -0.46038477014796558 0.27270951626575451 0 -0.48152027532582309 0.26954652990278283 0 -0.46952870814197062 0.25858672255271131 0 -0.46038477014796558 0.27270951626575451 0 -0.48152027532582309 0.26954652990278283 0 -0.48359338383118872 0.25165714750028401 0 -0.46952870814197062 0.25858672255271131 0 -0.46679894975526193 0.24337328335867059 0 -0.48359338383118872 0.25165714750028401 0 -0.46952870814197062 0.25858672255271131 0 -0.46679894975526193 0.24337328335867059 0 -0.46952870814197062 0.25858672255271131 0 -0.45534616164961361 0.25564713573606468 0 -0.46952870814197062 0.25858672255271131 0 -0.45534616164961361 0.25564713573606468 0 -0.46038477014796558 0.27270951626575451 0 -0.43830931682563418 0.28515290543917671 0 -0.46038477014796558 0.27270951626575451 0 -0.43830931682563418 0.28515290543917671 0 -0.46038477014796558 0.27270951626575451 0 -0.43823227947798071 0.26791843810621607 0 -0.44183483748243452 0.2459604683899565 0 -0.45534616164961361 0.25564713573606468 0 -0.43823227947798071 0.26791843810621607 0 -0.45534616164961361 0.25564713573606468 0 -0.46038477014796558 0.27270951626575451 0 -0.43823227947798071 0.26791843810621607 0 -0.44183483748243452 0.2459604683899565 0 -0.43823227947798071 0.26791843810621607 0 -0.42744724339512319 0.25418522124651738 0 -0.43823227947798071 0.26791843810621607 0 -0.42291921221482892 0.26530594554166881 0 -0.42744724339512319 0.25418522124651738 0 -0.42291921221482892 0.26530594554166881 0 -0.42744724339512319 0.25418522124651738 0 -0.40868088726265939 0.25984379596385471 0 -0.41953635959006103 0.24155842677898079 0 -0.42744724339512319 0.25418522124651738 0 -0.40868088726265939 0.25984379596385471 0 -0.40868088726265939 0.25984379596385471 0 -0.41731643872355229 0.27927632685008708 0 -0.39302169820313893 0.27102951338145392 0 -0.42291921221482892 0.26530594554166881 0 -0.40868088726265939 0.25984379596385471 0 -0.41731643872355229 0.27927632685008708 0 -0.43823227947798071 0.26791843810621607 0 -0.42291921221482892 0.26530594554166881 0 -0.41731643872355229 0.27927632685008708 0 -0.43823227947798071 0.26791843810621607 0 -0.41731643872355229 0.27927632685008708 0 -0.43830931682563418 0.28515290543917671 0 -0.43823227947798071 0.26791843810621607 0 -0.41731643872355229 0.27927632685008708 0 -0.43830931682563418 0.28515290543917671 0 -0.41731643872355229 0.27927632685008708 0 -0.41623386350330271 0.29759629461259901 0 -0.43830931682563418 0.28515290543917671 0 -0.41623386350330271 0.29759629461259901 0 -0.43830931682563418 0.28515290543917671 0 -0.43557426336139238 0.29795728598721632 0 -0.41623386350330271 0.29759629461259901 0 -0.43557426336139238 0.29795728598721632 0 -0.4265767020830814 0.30620409484255412 0 -0.41623386350330271 0.29759629461259901 0 -0.4364648529071965 0.31256390574318182 0 -0.43557426336139238 0.29795728598721632 0 -0.4265767020830814 0.30620409484255412 0 -0.41805450146682072 0.32033792020882312 0 -0.4265767020830814 0.30620409484255412 0 -0.41623386350330271 0.29759629461259901 0 -0.41805450146682072 0.32033792020882312 0 -0.41623386350330271 0.29759629461259901 0 -0.39415841018097092 0.31003968378602081 0 -0.41731643872355229 0.27927632685008708 0 -0.39640059796912391 0.29063421559395819 0 -0.41731643872355229 0.27927632685008708 0 -0.41623386350330271 0.29759629461259901 0 -0.39640059796912391 0.29063421559395819 0 -0.41623386350330271 0.29759629461259901 0 -0.39415841018097092 0.31003968378602081 0 -0.41623386350330271 0.29759629461259901 0 -0.39640059796912391 0.29063421559395819 0 -0.39415841018097092 0.31003968378602081 0 -0.38583213547516271 0.31473299970648688 0 -0.39415841018097092 0.31003968378602081 0 -0.37548475721469537 0.30199210433782941 0 -0.39415841018097092 0.31003968378602081 0 -0.37548475721469537 0.30199210433782941 0 -0.39640059796912391 0.29063421559395819 0 -0.39415841018097092 0.31003968378602081 0 -0.37548475721469537 0.30199210433782941 0 -0.38583213547516271 0.31473299970648688 0 -0.39415841018097092 0.31003968378602081 0 -0.38583213547516271 0.31473299970648688 0 -0.37548475721469537 0.30199210433782941 0 -0.37312469192333431 0.31448100794429701 0 -0.39640059796912391 0.29063421559395819 0 -0.37548475721469537 0.30199210433782941 0 -0.39640059796912391 0.29063421559395819 0 -0.37548475721469537 0.30199210433782941 0 -0.37294360532210691 0.28035251092691937 0 -0.39640059796912391 0.29063421559395819 0 -0.39302169820313893 0.27102951338145392 0 -0.37294360532210691 0.28035251092691937 0 -0.37648770391828212 0.26298159895773532 0 -0.39302169820313893 0.27102951338145392 0 -0.37294360532210691 0.28035251092691937 0 -0.36825714865980769 0.24773254399152009 0 -0.39028235366146108 0.25013208232574202 0 -0.37648770391828212 0.26298159895773532 0 -0.39028235366146108 0.25013208232574202 0 -0.37648770391828212 0.26298159895773532 0 -0.39302169820313893 0.27102951338145392 0 -0.4067830915969341 0.24534087608109109 0 -0.40868088726265939 0.25984379596385471 0 -0.39028235366146108 0.25013208232574202 0 -0.40868088726265939 0.25984379596385471 0 -0.39028235366146108 0.25013208232574202 0 -0.39302169820313893 0.27102951338145392 0 -0.41731643872355229 0.27927632685008708 0 -0.39640059796912391 0.29063421559395819 0 -0.39302169820313893 0.27102951338145392 0 -0.35305099538380008 0.27818554818338059 0 -0.35953906541907049 0.26313059047348442 0 -0.33641867756330762 0.26324013528649992 0 -0.36825714865980769 0.24773254399152009 0 -0.34796663495934771 0.25003234052934198 0 -0.35953906541907049 0.26313059047348442 0 -0.34796663495934771 0.25003234052934198 0 -0.35953906541907049 0.26313059047348442 0 -0.33641867756330762 0.26324013528649992 0 -0.36825714865980769 0.24773254399152009 0 -0.37648770391828212 0.26298159895773532 0 -0.35953906541907049 0.26313059047348442 0 -0.37648770391828212 0.26298159895773532 0 -0.35953906541907049 0.26313059047348442 0 -0.37294360532210691 0.28035251092691937 0 -0.35305099538380008 0.27818554818338059 0 -0.35953906541907049 0.26313059047348442 0 -0.37294360532210691 0.28035251092691937 0 -0.35305099538380008 0.27818554818338059 0 -0.37294360532210691 0.28035251092691937 0 -0.35710309576872962 0.29407036127324021 0 -0.37548475721469537 0.30199210433782941 0 -0.37294360532210691 0.28035251092691937 0 -0.35710309576872962 0.29407036127324021 0 -0.37548475721469537 0.30199210433782941 0 -0.35941207903207339 0.31072001983296021 0 -0.37548475721469537 0.30199210433782941 0 -0.35941207903207339 0.31072001983296021 0 -0.37312469192333431 0.31448100794429701 0 -0.37548475721469537 0.30199210433782941 0 -0.35941207903207339 0.31072001983296021 0 -0.35710309576872962 0.29407036127324021 0 -0.37548475721469537 0.30199210433782941 0 -0.35710309576872962 0.29407036127324021 0 -0.35941207903207339 0.31072001983296021 0 -0.35710309576872962 0.29407036127324021 0 -0.34255556562327288 0.30277024860035479 0 -0.35941207903207339 0.31072001983296021 0 -0.34255556562327288 0.30277024860035479 0 -0.3433394008494513 0.31944793532809101 0 -0.35710309576872962 0.29407036127324021 0 -0.3387214343227638 0.28614861820865062 0 -0.34255556562327288 0.30277024860035479 0 -0.35305099538380008 0.27818554818338059 0 -0.35710309576872962 0.29407036127324021 0 -0.3387214343227638 0.28614861820865062 0 -0.35710309576872962 0.29407036127324021 0 -0.3387214343227638 0.28614861820865062 0 -0.3387214343227638 0.28614861820865062 0 -0.34255556562327288 0.30277024860035479 0 -0.32383009437528743 0.29513274070126999 0 -0.3387214343227638 0.28614861820865062 0 -0.32383009437528743 0.29513274070126999 0 -0.32520951545803678 0.2760697862246092 0 -0.32989225258677818 0.31195431790270017 0 -0.34255556562327288 0.30277024860035479 0 -0.32383009437528743 0.29513274070126999 0 -0.32989225258677818 0.31195431790270017 0 -0.34255556562327288 0.30277024860035479 0 -0.3433394008494513 0.31944793532809101 0 -0.31362207304563328 0.30927585958100529 0 -0.32383009437528743 0.29513274070126999 0 -0.30024433054957628 0.29422866790555829 0 -0.32989225258677818 0.31195431790270017 0 -0.31362207304563328 0.30927585958100529 0 -0.32383009437528743 0.29513274070126999 0 -0.32383009437528743 0.29513274070126999 0 -0.32520951545803678 0.2760697862246092 0 -0.30877077252241952 0.27882743090047218 0 -0.32520951545803678 0.2760697862246092 0 -0.33641867756330762 0.26324013528649992 0 -0.31602200747864551 0.26021566252272299 0 -0.32520951545803678 0.2760697862246092 0 -0.31602200747864551 0.26021566252272299 0 -0.30877077252241952 0.27882743090047218 0 -0.35305099538380008 0.27818554818338059 0 -0.3387214343227638 0.28614861820865062 0 -0.33641867756330762 0.26324013528649992 0 -0.3387214343227638 0.28614861820865062 0 -0.32520951545803678 0.2760697862246092 0 -0.33641867756330762 0.26324013528649992 0 -0.32556950702892812 0.24128123437957871 0 -0.34796663495934771 0.25003234052934198 0 -0.33641867756330762 0.26324013528649992 0 -0.32556950702892812 0.24128123437957871 0 -0.299141622597701 0.24953713562016919 0 -0.31602200747864551 0.26021566252272299 0 -0.32556950702892812 0.24128123437957871 0 -0.33641867756330762 0.26324013528649992 0 -0.31602200747864551 0.26021566252272299 0 -0.299141622597701 0.24953713562016919 0 -0.31602200747864551 0.26021566252272299 0 -0.2899726003974924 0.27095610213999671 0 -0.31602200747864551 0.26021566252272299 0 -0.30877077252241952 0.27882743090047218 0 -0.2899726003974924 0.27095610213999671 0 -0.299141622597701 0.24953713562016919 0 -0.2899726003974924 0.27095610213999671 0 -0.27271373816647387 0.25779303686075961 0 -0.299141622597701 0.24953713562016919 0 -0.27271373816647387 0.25779303686075961 0 -0.2899726003974924 0.27095610213999671 0 -0.26448612630065771 0.27729003481456183 0 -0.27916030021299659 0.28861122796630451 0 -0.2899726003974924 0.27095610213999671 0 -0.27271373816647387 0.25779303686075961 0 -0.26448612630065771 0.27729003481456183 0 -0.26448612630065771 0.27729003481456183 0 -0.24777528374542379 0.29033649728412347 0 -0.24962755378818399 0.26087030131514671 0 -0.26473466915209137 0.242475988343923 0 -0.27271373816647387 0.25779303686075961 0 -0.24962755378818399 0.26087030131514671 0 -0.27271373816647387 0.25779303686075961 0 -0.26448612630065771 0.27729003481456183 0 -0.24962755378818399 0.26087030131514671 0 -0.26177637843935742 0.29622568110352859 0 -0.25088383685196508 0.31287664005578197 0 -0.24777528374542379 0.29033649728412347 0 -0.26177637843935742 0.29622568110352859 0 -0.26657634508574513 0.31201400539687152 0 -0.25088383685196508 0.31287664005578197 0 -0.26448612630065771 0.27729003481456183 0 -0.26177637843935742 0.29622568110352859 0 -0.24777528374542379 0.29033649728412347 0 -0.26448612630065771 0.27729003481456183 0 -0.26177637843935742 0.29622568110352859 0 -0.27916030021299659 0.28861122796630451 0 -0.27916030021299659 0.28861122796630451 0 -0.26657634508574513 0.31201400539687152 0 -0.26177637843935742 0.29622568110352859 0 -0.27916030021299659 0.28861122796630451 0 -0.26657634508574513 0.31201400539687152 0 -0.27916030021299659 0.28861122796630451 0 -0.26657634508574513 0.31201400539687152 0 -0.28932273182480062 0.31481394622250791 0 -0.27916030021299659 0.28861122796630451 0 -0.30024433054957628 0.29422866790555829 0 -0.28932273182480062 0.31481394622250791 0 -0.2899726003974924 0.27095610213999671 0 -0.27916030021299659 0.28861122796630451 0 -0.30024433054957628 0.29422866790555829 0 -0.32383009437528743 0.29513274070126999 0 -0.30877077252241952 0.27882743090047218 0 -0.30024433054957628 0.29422866790555829 0 -0.30877077252241952 0.27882743090047218 0 -0.2899726003974924 0.27095610213999671 0 -0.30024433054957628 0.29422866790555829 0 -0.31362207304563328 0.30927585958100529 0 -0.30024433054957628 0.29422866790555829 0 -0.28932273182480062 0.31481394622250791 0 -0.31362207304563328 0.30927585958100529 0 -0.30524749281578217 0.32804331725105812 0 -0.28932273182480062 0.31481394622250791 0 -0.30524749281578217 0.32804331725105812 0 -0.29041175566477972 0.33918745044585052 0 -0.31071766822436803 0.34987228238539481 0 -0.29041175566477972 0.33918745044585052 0 -0.28932273182480062 0.31481394622250791 0 -0.27458163376161271 0.32988845639575171 0 -0.30524749281578217 0.32804331725105812 0 -0.29041175566477972 0.33918745044585052 0 -0.28932273182480062 0.31481394622250791 0 -0.26657634508574513 0.31201400539687152 0 -0.28932273182480062 0.31481394622250791 0 -0.27458163376161271 0.32988845639575171 0 -0.27458163376161271 0.32988845639575171 0 -0.25399238995849932 0.33541678282744147 0 -0.27313586973795939 0.34796737762965718 0 -0.29041175566477972 0.33918745044585052 0 -0.27458163376161271 0.32988845639575171 0 -0.27313586973795939 0.34796737762965718 0 -0.25399238995849932 0.33541678282744147 0 -0.25088383685196508 0.31287664005578197 0 -0.26657634508574513 0.31201400539687152 0 -0.25399238995849932 0.33541678282744147 0 -0.25088383685196508 0.31287664005578197 0 -0.26657634508574513 0.31201400539687152 0 -0.27458163376161271 0.32988845639575171 0 -0.25399238995849932 0.33541678282744147 0 -0.26657634508574513 0.31201400539687152 0 -0.25399238995849932 0.33541678282744147 0 -0.25168980356281478 0.36611571363862611 0 -0.25689055470175481 0.35643139793928391 0 -0.25978871944500498 0.37744601305112702 0 -0.25689055470175481 0.35643139793928391 0 -0.2773148673347321 0.3666310303998595 0 -0.25978871944500498 0.37744601305112702 0 -0.25689055470175481 0.35643139793928391 0 -0.25978871944500498 0.37744601305112702 0 -0.25168980356281478 0.36611571363862611 0 -0.25978871944500498 0.37744601305112702 0 -0.24653654808961289 0.37292736348013872 0 -0.25168980356281478 0.36611571363862611 0 -0.25689055470175481 0.35643139793928391 0 -0.24354339201488651 0.35765808008395472 0 -0.25399238995849932 0.33541678282744147 0 -0.25689055470175481 0.35643139793928391 0 -0.27313586973795939 0.34796737762965718 0 -0.25399238995849932 0.33541678282744147 0 -0.25689055470175481 0.35643139793928391 0 -0.25399238995849932 0.33541678282744147 0 -0.25689055470175481 0.35643139793928391 0 -0.2437433409425481 0.35447726187156148 0 -0.25689055470175481 0.35643139793928391 0 -0.27313586973795939 0.34796737762965718 0 -0.2773148673347321 0.3666310303998595 0 -0.2773148673347321 0.3666310303998595 0 -0.2939609641838497 0.358199550333681 0 -0.29587125153975119 0.37549905754498308 0 -0.27313586973795939 0.34796737762965718 0 -0.2773148673347321 0.3666310303998595 0 -0.2939609641838497 0.358199550333681 0 -0.29041175566477972 0.33918745044585052 0 -0.27313586973795939 0.34796737762965718 0 -0.2939609641838497 0.358199550333681 0 -0.2939609641838497 0.358199550333681 0 -0.31071766822436803 0.34987228238539481 0 -0.31631437260150791 0.37004010359634132 0 -0.29041175566477972 0.33918745044585052 0 -0.2939609641838497 0.358199550333681 0 -0.31071766822436803 0.34987228238539481 0 -0.2939609641838497 0.358199550333681 0 -0.31631437260150791 0.37004010359634132 0 -0.29587125153975119 0.37549905754498308 0 -0.31631437260150791 0.37004010359634132 0 -0.33437315767365972 0.35846435648398911 0 -0.33066241767514931 0.37714359316989648 0 -0.31071766822436803 0.34987228238539481 0 -0.31631437260150791 0.37004010359634132 0 -0.33437315767365972 0.35846435648398911 0 -0.33437315767365972 0.35846435648398911 0 -0.34474869998767288 0.38305860493548111 0 -0.33437315767365972 0.35846435648398911 0 -0.34474869998767288 0.38305860493548111 0 -0.33066241767514931 0.37714359316989648 0 -0.33437315767365972 0.35846435648398911 0 -0.32399761535964661 0.33387010803249728 0 -0.33437315767365972 0.35846435648398911 0 -0.34084090521983818 0.3428775148871247 0 -0.35338106573630568 0.36031271786451319 0 -0.33437315767365972 0.35846435648398911 0 -0.32399761535964661 0.33387010803249728 0 -0.34084090521983818 0.3428775148871247 0 -0.31071766822436803 0.34987228238539481 0 -0.33437315767365972 0.35846435648398911 0 -0.32399761535964661 0.33387010803249728 0 -0.30524749281578217 0.32804331725105812 0 -0.31071766822436803 0.34987228238539481 0 -0.32399761535964661 0.33387010803249728 0 -0.32989225258677818 0.31195431790270017 0 -0.31362207304563328 0.30927585958100529 0 -0.32399761535964661 0.33387010803249728 0 -0.31362207304563328 0.30927585958100529 0 -0.32399761535964661 0.33387010803249728 0 -0.31362207304563328 0.30927585958100529 0 -0.30524749281578217 0.32804331725105812 0 -0.32399761535964661 0.33387010803249728 0 -0.32989225258677818 0.31195431790270017 0 -0.32399761535964661 0.33387010803249728 0 -0.3433394008494513 0.31944793532809101 0 -0.32399761535964661 0.33387010803249728 0 -0.3433394008494513 0.31944793532809101 0 -0.34084090521983818 0.3428775148871247 0 -0.34084090521983818 0.3428775148871247 0 -0.35244640780615299 0.33626526831503062 0 -0.35613024625213541 0.34709799745030367 0 -0.3433394008494513 0.31944793532809101 0 -0.34084090521983818 0.3428775148871247 0 -0.35244640780615299 0.33626526831503062 0 -0.35244640780615299 0.33626526831503062 0 -0.35954503365696971 0.32471569557448599 0 -0.36532345796853782 0.33988190605919422 0 -0.35244640780615299 0.33626526831503062 0 -0.36532345796853782 0.33988190605919422 0 -0.35613024625213541 0.34709799745030367 0 -0.3433394008494513 0.31944793532809101 0 -0.35244640780615299 0.33626526831503062 0 -0.35954503365696971 0.32471569557448599 0 -0.35941207903207339 0.31072001983296021 0 -0.3433394008494513 0.31944793532809101 0 -0.35954503365696971 0.32471569557448599 0 -0.35941207903207339 0.31072001983296021 0 -0.3433394008494513 0.31944793532809101 0 -0.35941207903207339 0.31072001983296021 0 -0.35954503365696971 0.32471569557448599 0 -0.37312469192333431 0.31448100794429701 0 -0.35954503365696971 0.32471569557448599 0 -0.37087714182678999 0.32786519271641767 0 -0.37312469192333431 0.31448100794429701 0 -0.37929051534455333 0.34441744710754801 0 -0.37087714182678999 0.32786519271641767 0 -0.36532345796853782 0.33988190605919422 0 -0.35954503365696971 0.32471569557448599 0 -0.37087714182678999 0.32786519271641767 0 -0.36532345796853782 0.33988190605919422 0 -0.37929051534455333 0.34441744710754801 0 -0.36532345796853782 0.33988190605919422 0 -0.36865939452984198 0.35615258012565593 0 -0.36532345796853782 0.33988190605919422 0 -0.36865939452984198 0.35615258012565593 0 -0.35613024625213541 0.34709799745030367 0 -0.36865939452984198 0.35615258012565593 0 -0.35338106573630568 0.36031271786451319 0 -0.35613024625213541 0.34709799745030367 0 -0.37612665915839061 0.36932049556565438 0 -0.36865939452984198 0.35615258012565593 0 -0.36574322682427279 0.36993449523028182 0 -0.37612665915839061 0.36932049556565438 0 -0.36574322682427279 0.36993449523028182 0 -0.37312837600072302 0.37959583673975472 0 -0.36865939452984198 0.35615258012565593 0 -0.36574322682427279 0.36993449523028182 0 -0.35338106573630568 0.36031271786451319 0 -0.36574322682427279 0.36993449523028182 0 -0.35338106573630568 0.36031271786451319 0 -0.35742063869610308 0.38429084585583051 0 -0.35338106573630568 0.36031271786451319 0 -0.35742063869610308 0.38429084585583051 0 -0.33437315767365972 0.35846435648398911 0 -0.35338106573630568 0.36031271786451319 0 -0.34474869998767288 0.38305860493548111 0 -0.34084090521983818 0.3428775148871247 0 -0.35338106573630568 0.36031271786451319 0 -0.35613024625213541 0.34709799745030367 0 -0.34474869998767288 0.38305860493548111 0 -0.35512424230168599 0.40765285338697282 0 -0.35742063869610308 0.38429084585583051 0 -0.36146021165590048 0.40826897384714778 0 -0.35512424230168599 0.40765285338697282 0 -0.34474869998767288 0.38305860493548111 0 -0.35742063869610308 0.38429084585583051 0 -0.35512424230168599 0.40765285338697282 0 -0.34474869998767288 0.38305860493548111 0 -0.35512424230168599 0.40765285338697282 0 -0.34370788873517449 0.39706934061105342 0 -0.34574132551615488 0.40474804058496738 0 -0.35512424230168599 0.40765285338697282 0 -0.34370788873517449 0.39706934061105342 0 -0.35338106573630568 0.36031271786451319 0 -0.34474869998767288 0.38305860493548111 0 -0.35742063869610308 0.38429084585583051 0 -0.35742063869610308 0.38429084585583051 0 -0.37312837600072302 0.37959583673975472 0 -0.36955808325825668 0.38830145444534242 0 -0.35742063869610308 0.38429084585583051 0 -0.36955808325825668 0.38830145444534242 0 -0.36986267214773322 0.39826939991460819 0 -0.36574322682427279 0.36993449523028182 0 -0.35742063869610308 0.38429084585583051 0 -0.37312837600072302 0.37959583673975472 0 -0.37782064618846761 0.3910497352711762 0 -0.37312837600072302 0.37959583673975472 0 -0.36955808325825668 0.38830145444534242 0 -0.35742063869610308 0.38429084585583051 0 -0.36146021165590048 0.40826897384714778 0 -0.35742063869610308 0.38429084585583051 0 -0.36986267214773322 0.39826939991460819 0 -0.36146021165590048 0.40826897384714778 0 -0.37782064618846761 0.3910497352711762 0 -0.36955808325825668 0.38830145444534242 0 -0.36986267214773322 0.39826939991460819 0 -0.36986267214773322 0.39826939991460819 0 -0.36892212974765631 0.40711238985459519 0 -0.36146021165590048 0.40826897384714778 0 -0.36986267214773322 0.39826939991460819 0 -0.37473002140687978 0.40611281246880448 0 -0.36892212974765631 0.40711238985459519 0 -0.37473002140687978 0.40611281246880448 0 -0.36892212974765631 0.40711238985459519 0 -0.37314907036103928 0.41220867505892828 0 -0.36711542413084791 0.42072056313219169 0 -0.36146021165590048 0.40826897384714778 0 -0.36549978461569849 0.43224710183846488 0 -0.36549978461569849 0.43224710183846488 0 -0.35758880355628808 0.42351363534750291 0 -0.35512424230168599 0.40765285338697282 0 -0.36146021165590048 0.40826897384714778 0 -0.36549978461569849 0.43224710183846488 0 -0.35512424230168599 0.40765285338697282 0 -0.36549978461569849 0.43224710183846488 0 -0.35512424230168599 0.40765285338697282 0 -0.36146021165590048 0.40826897384714778 0 -0.36549978461569849 0.43224710183846488 0 -0.36892212974765631 0.40711238985459519 0 -0.36835140156013502 0.41312103398741251 0 -0.37314907036103928 0.41220867505892828 0 -0.36835140156013502 0.41312103398741251 0 -0.37314907036103928 0.41220867505892828 0 -0.37181568450067859 0.41875630566189109 0 -0.37773408284538201 0.41782628711634717 0 -0.37314907036103928 0.41220867505892828 0 -0.37181568450067859 0.41875630566189109 0 -0.37773408284538201 0.41782628711634717 0 -0.37181568450067859 0.41875630566189109 0 -0.37438716231324032 0.42410623227884348 0 -0.37181568450067859 0.41875630566189109 0 -0.36711542413084791 0.42072056313219169 0 -0.3703697841584988 0.42421779982266572 0 -0.36835140156013502 0.41312103398741251 0 -0.37181568450067859 0.41875630566189109 0 -0.36711542413084791 0.42072056313219169 0 -0.36835140156013502 0.41312103398741251 0 -0.36711542413084791 0.42072056313219169 0 -0.36146021165590048 0.40826897384714778 0 -0.36892212974765631 0.40711238985459519 0 -0.36835140156013502 0.41312103398741251 0 -0.36146021165590048 0.40826897384714778 0 -0.3723502293118699 0.43487096394545782 0 -0.36549978461569849 0.43224710183846488 0 -0.37325376656998699 0.44111987596666041 0 -0.37568054734269513 0.43233891557180387 0 -0.37027177356697771 0.43164420968538442 0 -0.37388870539249391 0.42848762982128841 0 -0.37568054734269513 0.43233891557180387 0 -0.3723502293118699 0.43487096394545782 0 -0.37027177356697771 0.43164420968538442 0 -0.3723502293118699 0.43487096394545782 0 -0.37027177356697771 0.43164420968538442 0 -0.36549978461569849 0.43224710183846488 0 -0.37027177356697771 0.43164420968538442 0 -0.36885107199708811 0.42726428628178859 0 -0.36549978461569849 0.43224710183846488 0 -0.37027177356697771 0.43164420968538442 0 -0.36885107199708811 0.42726428628178859 0 -0.37099859351341768 0.42749175693023589 0 -0.36885107199708811 0.42726428628178859 0 -0.37099859351341768 0.42749175693023589 0 -0.3703697841584988 0.42421779982266572 0 -0.37099859351341768 0.42749175693023589 0 -0.37388870539249391 0.42848762982128841 0 -0.37438716231324032 0.42410623227884348 0 -0.37027177356697771 0.43164420968538442 0 -0.37099859351341768 0.42749175693023589 0 -0.37388870539249391 0.42848762982128841 0 -0.37181568450067859 0.41875630566189109 0 -0.37438716231324032 0.42410623227884348 0 -0.3703697841584988 0.42421779982266572 0 -0.37099859351341768 0.42749175693023589 0 -0.37438716231324032 0.42410623227884348 0 -0.3703697841584988 0.42421779982266572 0 -0.36711542413084791 0.42072056313219169 0 -0.36885107199708811 0.42726428628178859 0 -0.3703697841584988 0.42421779982266572 0 -0.36711542413084791 0.42072056313219169 0 -0.36885107199708811 0.42726428628178859 0 -0.36549978461569849 0.43224710183846488 0 -0.36549978461569849 0.43224710183846488 0 -0.35923707971496849 0.42983430929730931 0 -0.35758880355628808 0.42351363534750291 0 -0.36549978461569849 0.43224710183846488 0 -0.36008301249178032 0.43472051639511278 0 -0.35923707971496849 0.42983430929730931 0 -0.36008301249178032 0.43472051639511278 0 -0.36601118213677591 0.43528265914536152 0 -0.36010912662608308 0.44067522191792918 0 -0.36549978461569849 0.43224710183846488 0 -0.36008301249178032 0.43472051639511278 0 -0.36601118213677591 0.43528265914536152 0 -0.36549978461569849 0.43224710183846488 0 -0.36601118213677591 0.43528265914536152 0 -0.35196097536273291 0.43500988823724618 0 -0.34715891765488649 0.42549885634108542 0 -0.33578941980615762 0.43284608005672481 0 -0.36008301249178032 0.43472051639511278 0 -0.35196097536273291 0.43500988823724618 0 -0.36010912662608308 0.44067522191792918 0 -0.36008301249178032 0.43472051639511278 0 -0.35196097536273291 0.43500988823724618 0 -0.3542975052077777 0.42916919698843881 0 -0.36008301249178032 0.43472051639511278 0 -0.35923707971496849 0.42983430929730931 0 -0.3542975052077777 0.42916919698843881 0 -0.3542975052077777 0.42916919698843881 0 -0.35758880355628808 0.42351363534750291 0 -0.34715891765488649 0.42549885634108542 0 -0.35923707971496849 0.42983430929730931 0 -0.3542975052077777 0.42916919698843881 0 -0.35758880355628808 0.42351363534750291 0 -0.35196097536273291 0.43500988823724618 0 -0.3542975052077777 0.42916919698843881 0 -0.34715891765488649 0.42549885634108542 0 -0.35758880355628808 0.42351363534750291 0 -0.35512424230168599 0.40765285338697282 0 -0.35074899403641829 0.41619228670440639 0 -0.35758880355628808 0.42351363534750291 0 -0.34715891765488649 0.42549885634108542 0 -0.35074899403641829 0.41619228670440639 0 -0.34715891765488649 0.42549885634108542 0 -0.35074899403641829 0.41619228670440639 0 -0.3427385125467946 0.41282525814537541 0 -0.35512424230168599 0.40765285338697282 0 -0.35074899403641829 0.41619228670440639 0 -0.34858826860026348 0.41035460970543047 0 -0.34574132551615488 0.40474804058496738 0 -0.34858826860026348 0.41035460970543047 0 -0.3427385125467946 0.41282525814537541 0 -0.34574132551615488 0.40474804058496738 0 -0.35512424230168599 0.40765285338697282 0 -0.34858826860026348 0.41035460970543047 0 -0.35074899403641829 0.41619228670440639 0 -0.34858826860026348 0.41035460970543047 0 -0.3427385125467946 0.41282525814537541 0 -0.3427385125467946 0.41282525814537541 0 -0.33326491646018391 0.40842562875115912 0 -0.33822914881805433 0.40081552753142208 0 -0.34715891765488649 0.42549885634108542 0 -0.3427385125467946 0.41282525814537541 0 -0.32987155460072393 0.41945223249394109 0 -0.3427385125467946 0.41282525814537541 0 -0.32987155460072393 0.41945223249394109 0 -0.33326491646018391 0.40842562875115912 0 -0.32987155460072393 0.41945223249394109 0 -0.33326491646018391 0.40842562875115912 0 -0.32295684806158448 0.40673758624325512 0 -0.32987155460072393 0.41945223249394109 0 -0.33578941980615762 0.43284608005672481 0 -0.31887831120451843 0.43335682615451637 0 -0.34715891765488649 0.42549885634108542 0 -0.32987155460072393 0.41945223249394109 0 -0.33578941980615762 0.43284608005672481 0 -0.32987155460072393 0.41945223249394109 0 -0.31887831120451843 0.43335682615451637 0 -0.31281237538217282 0.41974214010262778 0 -0.32987155460072393 0.41945223249394109 0 -0.32295684806158448 0.40673758624325512 0 -0.31281237538217282 0.41974214010262778 0 -0.32295684806158448 0.40673758624325512 0 -0.31281237538217282 0.41974214010262778 0 -0.31085742652087378 0.40716624163741599 0 -0.32295684806158448 0.40673758624325512 0 -0.3163315161438468 0.39637423477853351 0 -0.31085742652087378 0.40716624163741599 0 -0.3163315161438468 0.39637423477853351 0 -0.32846076257862061 0.39782640775288441 0 -0.32317983106060127 0.38508322421724772 0 -0.32295684806158448 0.40673758624325512 0 -0.3163315161438468 0.39637423477853351 0 -0.32846076257862061 0.39782640775288441 0 -0.33326491646018391 0.40842562875115912 0 -0.32846076257862061 0.39782640775288441 0 -0.33822914881805433 0.40081552753142208 0 -0.33326491646018391 0.40842562875115912 0 -0.32295684806158448 0.40673758624325512 0 -0.32846076257862061 0.39782640775288441 0 -0.32846076257862061 0.39782640775288441 0 -0.33822914881805433 0.40081552753142208 0 -0.33469602705230472 0.38907167661642339 0 -0.32846076257862061 0.39782640775288441 0 -0.33469602705230472 0.38907167661642339 0 -0.32317983106060127 0.38508322421724772 0 -0.34370788873517449 0.39706934061105342 0 -0.33822914881805433 0.40081552753142208 0 -0.33469602705230472 0.38907167661642339 0 -0.34574132551615488 0.40474804058496738 0 -0.3427385125467946 0.41282525814537541 0 -0.33822914881805433 0.40081552753142208 0 -0.34574132551615488 0.40474804058496738 0 -0.34370788873517449 0.39706934061105342 0 -0.33822914881805433 0.40081552753142208 0 -0.34474869998767288 0.38305860493548111 0 -0.33469602705230472 0.38907167661642339 0 -0.33066241767514931 0.37714359316989648 0 -0.34474869998767288 0.38305860493548111 0 -0.34370788873517449 0.39706934061105342 0 -0.33469602705230472 0.38907167661642339 0 -0.33469602705230472 0.38907167661642339 0 -0.33066241767514931 0.37714359316989648 0 -0.32317983106060127 0.38508322421724772 0 -0.31631437260150791 0.37004010359634132 0 -0.33066241767514931 0.37714359316989648 0 -0.32317983106060127 0.38508322421724772 0 -0.3163315161438468 0.39637423477853351 0 -0.32317983106060127 0.38508322421724772 0 -0.3085919782447179 0.38486421722925129 0 -0.31631437260150791 0.37004010359634132 0 -0.32317983106060127 0.38508322421724772 0 -0.3085919782447179 0.38486421722925129 0 -0.31631437260150791 0.37004010359634132 0 -0.3085919782447179 0.38486421722925129 0 -0.29587125153975119 0.37549905754498308 0 -0.3085919782447179 0.38486421722925129 0 -0.29587125153975119 0.37549905754498308 0 -0.29500216804044038 0.38907777562624868 0 -0.3163315161438468 0.39637423477853351 0 -0.30197432683923842 0.39809884853751493 0 -0.31085742652087378 0.40716624163741599 0 -0.3163315161438468 0.39637423477853351 0 -0.3085919782447179 0.38486421722925129 0 -0.30197432683923842 0.39809884853751493 0 -0.3085919782447179 0.38486421722925129 0 -0.30197432683923842 0.39809884853751493 0 -0.29500216804044038 0.38907777562624868 0 -0.30197432683923842 0.39809884853751493 0 -0.2881965678568259 0.3994367732709363 0 -0.29321773089736408 0.41903245820010138 0 -0.2881965678568259 0.3994367732709363 0 -0.28037671572166889 0.38748998154855802 0 -0.27795230754280598 0.40874654318153852 0 -0.30197432683923842 0.39809884853751493 0 -0.2881965678568259 0.3994367732709363 0 -0.29500216804044038 0.38907777562624868 0 -0.2881965678568259 0.3994367732709363 0 -0.29500216804044038 0.38907777562624868 0 -0.28037671572166889 0.38748998154855802 0 -0.2773148673347321 0.3666310303998595 0 -0.29587125153975119 0.37549905754498308 0 -0.28037671572166889 0.38748998154855802 0 -0.29587125153975119 0.37549905754498308 0 -0.29500216804044038 0.38907777562624868 0 -0.28037671572166889 0.38748998154855802 0 -0.2773148673347321 0.3666310303998595 0 -0.28037671572166889 0.38748998154855802 0 -0.25978871944500498 0.37744601305112702 0 -0.28037671572166889 0.38748998154855802 0 -0.26268688418825142 0.39846062816297068 0 -0.25978871944500498 0.37744601305112702 0 -0.28037671572166889 0.38748998154855802 0 -0.26268688418825142 0.39846062816297068 0 -0.27795230754280598 0.40874654318153852 0 -0.26268688418825142 0.39846062816297068 0 -0.27795230754280598 0.40874654318153852 0 -0.26268688418825142 0.39846062816297068 0 -0.24705393830488409 0.38792707471271631 0 -0.2446363452888029 0.39303345088456132 0 -0.2594498795644104 0.4057011922387968 0 -0.26268688418825142 0.39846062816297068 0 -0.2446363452888029 0.39303345088456132 0 -0.26268688418825142 0.39846062816297068 0 -0.24705393830488409 0.38792707471271631 0 -0.2594498795644104 0.4057011922387968 0 -0.2446363452888029 0.39303345088456132 0 -0.2483074533253381 0.40138907884491742 0 -0.2594498795644104 0.4057011922387968 0 -0.25135353745088079 0.40538122757465328 0 -0.2483074533253381 0.40138907884491742 0 -0.2594498795644104 0.4057011922387968 0 -0.2446363452888029 0.39303345088456132 0 -0.26268688418825142 0.39846062816297068 0 -0.25978871944500498 0.37744601305112702 0 -0.26268688418825142 0.39846062816297068 0 -0.25978871944500498 0.37744601305112702 0 -0.24705393830488409 0.38792707471271631 0 -0.25978871944500498 0.37744601305112702 0 -0.24705393830488409 0.38792707471271631 0 -0.24653654808961289 0.37292736348013872 0 -0.25464476882582948 0.42043371933178819 0 -0.26642854777515401 0.42559145995567671 0 -0.25456142618314681 0.43813564254405413 0 -0.25464476882582948 0.42043371933178819 0 -0.25456142618314681 0.43813564254405413 0 -0.2446382873926061 0.42656169270257099 0 -0.26268688418825142 0.39846062816297068 0 -0.26642854777515401 0.42559145995567671 0 -0.25464476882582948 0.42043371933178819 0 -0.25177455709189939 0.41006407045360649 0 -0.2454015548800843 0.41483303658358861 0 -0.2594498795644104 0.4057011922387968 0 -0.25464476882582948 0.42043371933178819 0 -0.26642854777515401 0.42559145995567671 0 -0.2594498795644104 0.4057011922387968 0 -0.26268688418825142 0.39846062816297068 0 -0.26642854777515401 0.42559145995567671 0 -0.2594498795644104 0.4057011922387968 0 -0.25464476882582948 0.42043371933178819 0 -0.25177455709189939 0.41006407045360649 0 -0.2594498795644104 0.4057011922387968 0 -0.25135353745088079 0.40538122757465328 0 -0.25177455709189939 0.41006407045360649 0 -0.27795230754280598 0.40874654318153852 0 -0.26642854777515401 0.42559145995567671 0 -0.28081326350124769 0.42211313911372528 0 -0.26268688418825142 0.39846062816297068 0 -0.27795230754280598 0.40874654318153852 0 -0.26642854777515401 0.42559145995567671 0 -0.26642854777515401 0.42559145995567671 0 -0.28565446778966658 0.43508209511758461 0 -0.27884423502192862 0.44571822511076598 0 -0.26642854777515401 0.42559145995567671 0 -0.28081326350124769 0.42211313911372528 0 -0.28565446778966658 0.43508209511758461 0 -0.28081326350124769 0.42211313911372528 0 -0.28565446778966658 0.43508209511758461 0 -0.29321773089736408 0.41903245820010138 0 -0.28565446778966658 0.43508209511758461 0 -0.29321773089736408 0.41903245820010138 0 -0.30045595717128859 0.43349999100286107 0 -0.28565446778966658 0.43508209511758461 0 -0.30045595717128859 0.43349999100286107 0 -0.29121840155307982 0.44330421436568002 0 -0.2881965678568259 0.3994367732709363 0 -0.27795230754280598 0.40874654318153852 0 -0.29321773089736408 0.41903245820010138 0 -0.27795230754280598 0.40874654318153852 0 -0.29321773089736408 0.41903245820010138 0 -0.27795230754280598 0.40874654318153852 0 -0.28081326350124769 0.42211313911372528 0 -0.29321773089736408 0.41903245820010138 0 -0.30197432683923842 0.39809884853751493 0 -0.29321773089736408 0.41903245820010138 0 -0.31085742652087378 0.40716624163741599 0 -0.31281237538217282 0.41974214010262778 0 -0.29321773089736408 0.41903245820010138 0 -0.31085742652087378 0.40716624163741599 0 -0.31281237538217282 0.41974214010262778 0 -0.29321773089736408 0.41903245820010138 0 -0.30045595717128859 0.43349999100286107 0 -0.31887831120451843 0.43335682615451637 0 -0.31281237538217282 0.41974214010262778 0 -0.30045595717128859 0.43349999100286107 0 -0.31887831120451843 0.43335682615451637 0 -0.30045595717128859 0.43349999100286107 0 -0.30336264016321768 0.44832359954455531 0 -0.30045595717128859 0.43349999100286107 0 -0.30336264016321768 0.44832359954455531 0 -0.29121840155307982 0.44330421436568002 0 -0.30336264016321768 0.44832359954455531 0 -0.3102578592582082 0.4653991095534083 0 -0.32374965263750538 0.44954684618946089 0 -0.30336264016321768 0.44832359954455531 0 -0.3102578592582082 0.4653991095534083 0 -0.29248542751737 0.46454598345419318 0 -0.30336264016321768 0.44832359954455531 0 -0.29248542751737 0.46454598345419318 0 -0.28777470761929741 0.453897161052633 0 -0.29248542751737 0.46454598345419318 0 -0.27967908111433798 0.45973457471564122 0 -0.27283881721540137 0.4720723735627016 0 -0.28777470761929741 0.453897161052633 0 -0.27992862165148241 0.45344907389544992 0 -0.27967908111433798 0.45973457471564122 0 -0.29248542751737 0.46454598345419318 0 -0.28777470761929741 0.453897161052633 0 -0.27967908111433798 0.45973457471564122 0 -0.30336264016321768 0.44832359954455531 0 -0.28777470761929741 0.453897161052633 0 -0.29121840155307982 0.44330421436568002 0 -0.28777470761929741 0.453897161052633 0 -0.29121840155307982 0.44330421436568002 0 -0.27884423502192862 0.44571822511076598 0 -0.28777470761929741 0.453897161052633 0 -0.27884423502192862 0.44571822511076598 0 -0.27992862165148241 0.45344907389544992 0 -0.28565446778966658 0.43508209511758461 0 -0.29121840155307982 0.44330421436568002 0 -0.27884423502192862 0.44571822511076598 0 -0.26642854777515401 0.42559145995567671 0 -0.27017021136205699 0.45272229174838252 0 -0.26642854777515401 0.42559145995567671 0 -0.27017021136205699 0.45272229174838252 0 -0.27884423502192862 0.44571822511076598 0 -0.27017021136205699 0.45272229174838252 0 -0.27268688555620618 0.45278322111634672 0 -0.27017021136205699 0.45272229174838252 0 -0.27268688555620618 0.45278322111634672 0 -0.27884423502192862 0.44571822511076598 0 -0.27268688555620618 0.45278322111634672 0 -0.27884423502192862 0.44571822511076598 0 -0.27992862165148241 0.45344907389544992 0 -0.27017021136205699 0.45272229174838252 0 -0.27283881721540137 0.4720723735627016 0 -0.27017021136205699 0.45272229174838252 0 -0.25556445229377328 0.46739238556893248 0 -0.27283881721540137 0.4720723735627016 0 -0.27268688555620618 0.45278322111634672 0 -0.27992862165148241 0.45344907389544992 0 -0.27967908111433798 0.45973457471564122 0 -0.27017021136205699 0.45272229174838252 0 -0.27967908111433798 0.45973457471564122 0 -0.27283881721540137 0.4720723735627016 0 -0.27017021136205699 0.45272229174838252 0 -0.27268688555620618 0.45278322111634672 0 -0.27967908111433798 0.45973457471564122 0 -0.27017021136205699 0.45272229174838252 0 -0.25556445229377328 0.46739238556893248 0 -0.25494417147558512 0.45235366517386782 0 -0.25556445229377328 0.46739238556893248 0 -0.25494417147558512 0.45235366517386782 0 -0.24717940938886601 0.45843702787370572 0 -0.26642854777515401 0.42559145995567671 0 -0.27017021136205699 0.45272229174838252 0 -0.25456142618314681 0.43813564254405413 0 -0.25494417147558512 0.45235366517386782 0 -0.25456142618314681 0.43813564254405413 0 -0.24764079941193529 0.44557000668861629 0 -0.27017021136205699 0.45272229174838252 0 -0.25494417147558512 0.45235366517386782 0 -0.25456142618314681 0.43813564254405413 0 -0.27017021136205699 0.45272229174838252 0 -0.25494417147558512 0.45235366517386782 0 -0.25500833337336543 0.5 0 -0.25995291876372129 0.48392212061088519 0 -0.23580819294092509 0.48135619878758379 0 -0.25500833337336543 0.5 0 -0.25995291876372129 0.48392212061088519 0 -0.27669036823702592 0.49999999999998118 0 -0.25556445229377328 0.46739238556893248 0 -0.27283881721540137 0.4720723735627016 0 -0.25556445229377328 0.46739238556893248 0 -0.25995291876372129 0.48392212061088519 0 -0.23580819294092509 0.48135619878758379 0 -0.25556445229377328 0.46739238556893248 0 -0.25995291876372129 0.48392212061088519 0 -0.27283881721540137 0.4720723735627016 0 -0.25995291876372129 0.48392212061088519 0 -0.27283881721540137 0.4720723735627016 0 -0.27669036823702592 0.49999999999998118 0 -0.27283881721540137 0.4720723735627016 0 -0.27669036823702592 0.49999999999998118 0 -0.27669036823702592 0.49999999999998118 0 -0.29760948290772271 0.47878326675985389 0 -0.30536445315542182 0.5 0 -0.27283881721540137 0.4720723735627016 0 -0.29760948290772271 0.47878326675985389 0 -0.29248542751737 0.46454598345419318 0 -0.27283881721540137 0.4720723735627016 0 -0.29760948290772271 0.47878326675985389 0 -0.27283881721540137 0.4720723735627016 0 -0.27669036823702592 0.49999999999998118 0 -0.29760948290772271 0.47878326675985389 0 -0.3102578592582082 0.4653991095534083 0 -0.29248542751737 0.46454598345419318 0 -0.29760948290772271 0.47878326675985389 0 -0.3102578592582082 0.4653991095534083 0 -0.29760948290772271 0.47878326675985389 0 -0.31981304230905988 0.48278965138745311 0 -0.29760948290772271 0.47878326675985389 0 -0.30536445315542182 0.5 0 -0.31981304230905988 0.48278965138745311 0 -0.30536445315542182 0.5 0 -0.33403853807381778 0.5 0 -0.31981304230905988 0.48278965138745311 0 -0.33403853807381778 0.5 0 -0.34163722810632241 0.4837297815358147 0 -0.31981304230905988 0.48278965138745311 0 -0.34163722810632241 0.4837297815358147 0 -0.33057432643197071 0.46709791128368111 0 -0.34675102155557541 0.46816971720485601 0 -0.34163722810632241 0.4837297815358147 0 -0.31981304230905988 0.48278965138745311 0 -0.33057432643197071 0.46709791128368111 0 -0.3102578592582082 0.4653991095534083 0 -0.31981304230905988 0.48278965138745311 0 -0.33057432643197071 0.46709791128368111 0 -0.3102578592582082 0.4653991095534083 0 -0.32374965263750538 0.44954684618946089 0 -0.33057432643197071 0.46709791128368111 0 -0.31887831120451843 0.43335682615451637 0 -0.30336264016321768 0.44832359954455531 0 -0.32374965263750538 0.44954684618946089 0 -0.33578941980615762 0.43284608005672481 0 -0.31887831120451843 0.43335682615451637 0 -0.32374965263750538 0.44954684618946089 0 -0.33578941980615762 0.43284608005672481 0 -0.32374965263750538 0.44954684618946089 0 -0.3445814473700034 0.44487107524077918 0 -0.32374965263750538 0.44954684618946089 0 -0.33057432643197071 0.46709791128368111 0 -0.3445814473700034 0.44487107524077918 0 -0.33057432643197071 0.46709791128368111 0 -0.34675102155557541 0.46816971720485601 0 -0.3445814473700034 0.44487107524077918 0 -0.34675102155557541 0.46816971720485601 0 -0.3445814473700034 0.44487107524077918 0 -0.36018320088353878 0.46324738349385308 0 -0.3445814473700034 0.44487107524077918 0 -0.36018320088353878 0.46324738349385308 0 -0.35196097536273291 0.43500988823724618 0 -0.33578941980615762 0.43284608005672481 0 -0.3445814473700034 0.44487107524077918 0 -0.3445814473700034 0.44487107524077918 0 -0.35994891038768639 0.44970190367967461 0 -0.36018320088353878 0.46324738349385308 0 -0.3445814473700034 0.44487107524077918 0 -0.36010912662608308 0.44067522191792918 0 -0.35994891038768639 0.44970190367967461 0 -0.35196097536273291 0.43500988823724618 0 -0.3445814473700034 0.44487107524077918 0 -0.36010912662608308 0.44067522191792918 0 -0.36549978461569849 0.43224710183846488 0 -0.37419802332540192 0.45286545964978442 0 -0.36549978461569849 0.43224710183846488 0 -0.36601118213677591 0.43528265914536152 0 -0.37419802332540192 0.45286545964978442 0 -0.36549978461569849 0.43224710183846488 0 -0.37419802332540192 0.45286545964978442 0 -0.37325376656998699 0.44111987596666041 0 -0.36601118213677591 0.43528265914536152 0 -0.36518363714730889 0.44690064558452358 0 -0.37419802332540192 0.45286545964978442 0 -0.36601118213677591 0.43528265914536152 0 -0.36010912662608308 0.44067522191792918 0 -0.36518363714730889 0.44690064558452358 0 -0.35994891038768639 0.44970190367967461 0 -0.36518363714730889 0.44690064558452358 0 -0.36565094326059733 0.45597798352986829 0 -0.36010912662608308 0.44067522191792918 0 -0.35994891038768639 0.44970190367967461 0 -0.36518363714730889 0.44690064558452358 0 -0.36518363714730889 0.44690064558452358 0 -0.37419802332540192 0.45286545964978442 0 -0.36565094326059733 0.45597798352986829 0 -0.37704527446399078 0.43700471666497559 0 -0.3723502293118699 0.43487096394545782 0 -0.37325376656998699 0.44111987596666041 0 -0.36657254078654272 0.46629090303299209 0 -0.36018320088353878 0.46324738349385308 0 -0.36565094326059733 0.45597798352986829 0 -0.35994891038768639 0.44970190367967461 0 -0.36018320088353878 0.46324738349385308 0 -0.36565094326059733 0.45597798352986829 0 -0.37419802332540192 0.45286545964978442 0 -0.36657254078654272 0.46629090303299209 0 -0.36565094326059733 0.45597798352986829 0 -0.37578495439707432 0.48162369174692699 0 -0.36018320088353878 0.46324738349385308 0 -0.357382539065145 0.48017459527819112 0 -0.37578495439707432 0.48162369174692699 0 -0.36657254078654272 0.46629090303299209 0 -0.36018320088353878 0.46324738349385308 0 -0.37578495439707432 0.48162369174692699 0 -0.36018320088353878 0.46324738349385308 0 -0.37578495439707432 0.48162369174692699 0 -0.36271262299221391 0.5 0 -0.357382539065145 0.48017459527819112 0 -0.34163722810632241 0.4837297815358147 0 -0.36271262299221391 0.5 0 -0.357382539065145 0.48017459527819112 0 -0.33403853807381778 0.5 0 -0.34163722810632241 0.4837297815358147 0 -0.36271262299221391 0.5 0 -0.34163722810632241 0.4837297815358147 0 -0.34675102155557541 0.46816971720485601 0 -0.357382539065145 0.48017459527819112 0 -0.34675102155557541 0.46816971720485601 0 -0.36018320088353878 0.46324738349385308 0 -0.357382539065145 0.48017459527819112 0 -0.14516580290055439 0.47506371570460948 0 -0.15439754067133349 0.5 0 -0.1280879547252097 0.5 0 -0.14516580290055439 0.47506371570460948 0 -0.1280879547252097 0.5 0 -0.12585215327447319 0.4788759980507391 0 -0.14516580290055439 0.47506371570460948 0 -0.12585215327447319 0.4788759980507391 0 -0.12585866778586999 0.45894467057032751 0 -0.14516580290055439 0.47506371570460948 0 -0.12585866778586999 0.45894467057032751 0 -0.1438670290058684 0.45191600063467441 0 -0.12585866778586999 0.45894467057032751 0 -0.1438670290058684 0.45191600063467441 0 -0.12549131003263969 0.43394357887995061 0 -0.1438670290058684 0.45191600063467441 0 -0.14735091579000159 0.42769912051895709 0 -0.12549131003263969 0.43394357887995061 0 -0.1438670290058684 0.45191600063467441 0 -0.16291924711229999 0.45920744016389031 0 -0.15859814595808311 0.44297544341723538 0 -0.1438670290058684 0.45191600063467441 0 -0.15859814595808311 0.44297544341723538 0 -0.14735091579000159 0.42769912051895709 0 -0.14516580290055439 0.47506371570460948 0 -0.1438670290058684 0.45191600063467441 0 -0.16291924711229999 0.45920744016389031 0 -0.16291924711229999 0.45920744016389031 0 -0.15859814595808311 0.44297544341723538 0 -0.174476065348594 0.44612521546905543 0 -0.15859814595808311 0.44297544341723538 0 -0.174476065348594 0.44612521546905543 0 -0.16437747253365159 0.42992944029959979 0 -0.174476065348594 0.44612521546905543 0 -0.19307921095815439 0.45085589762259382 0 -0.1840164156669542 0.43294744510755567 0 -0.16291924711229999 0.45920744016389031 0 -0.174476065348594 0.44612521546905543 0 -0.1830051126082175 0.46304534624737298 0 -0.16291924711229999 0.45920744016389031 0 -0.1830051126082175 0.46304534624737298 0 -0.17150357114128481 0.47990841886840152 0 -0.174476065348594 0.44612521546905543 0 -0.1830051126082175 0.46304534624737298 0 -0.19307921095815439 0.45085589762259382 0 -0.1830051126082175 0.46304534624737298 0 -0.17150357114128481 0.47990841886840152 0 -0.19216145141642271 0.47712722338060348 0 -0.14516580290055439 0.47506371570460948 0 -0.16291924711229999 0.45920744016389031 0 -0.17150357114128481 0.47990841886840152 0 -0.14516580290055439 0.47506371570460948 0 -0.15439754067133349 0.5 0 -0.17150357114128481 0.47990841886840152 0 -0.15439754067133349 0.5 0 -0.17150357114128481 0.47990841886840152 0 -0.18070712661745739 0.5 0 -0.17150357114128481 0.47990841886840152 0 -0.18070712661745739 0.5 0 -0.19216145141642271 0.47712722338060348 0 -0.18070712661745739 0.5 0 -0.20576994056991069 0.48433413438178752 0 -0.20701671256358109 0.5 0 -0.18070712661745739 0.5 0 -0.19216145141642271 0.47712722338060348 0 -0.20576994056991069 0.48433413438178752 0 -0.19216145141642271 0.47712722338060348 0 -0.20871876617699239 0.47267246900317211 0 -0.20576994056991069 0.48433413438178752 0 -0.19216145141642271 0.47712722338060348 0 -0.20871876617699239 0.47267246900317211 0 -0.19944731903862289 0.46296172043222072 0 -0.20871876617699239 0.47267246900317211 0 -0.20576994056991069 0.48433413438178752 0 -0.21977460001045759 0.48225681904101159 0 -0.20871876617699239 0.47267246900317211 0 -0.21802971214061939 0.46942499335423271 0 -0.21977460001045759 0.48225681904101159 0 -0.20576994056991069 0.48433413438178752 0 -0.20701671256358109 0.5 0 -0.21977460001045759 0.48225681904101159 0 -0.20701671256358109 0.5 0 -0.23332629850970479 0.50000000000000322 0 -0.21977460001045759 0.48225681904101159 0 -0.23332629850970479 0.50000000000000322 0 -0.21977460001045759 0.48225681904101159 0 -0.23580819294092509 0.48135619878758379 0 -0.21977460001045759 0.48225681904101159 0 -0.22763484693895289 0.47078105150467031 0 -0.23580819294092509 0.48135619878758379 0 -0.22763484693895289 0.47078105150467031 0 -0.23580819294092509 0.48135619878758379 0 -0.2382900873721451 0.46271239757516452 0 -0.21802971214061939 0.46942499335423271 0 -0.21977460001045759 0.48225681904101159 0 -0.22763484693895289 0.47078105150467031 0 -0.23580819294092509 0.48135619878758379 0 -0.2382900873721451 0.46271239757516452 0 -0.25556445229377328 0.46739238556893248 0 -0.23580819294092509 0.48135619878758379 0 -0.2382900873721451 0.46271239757516452 0 -0.23332629850970479 0.50000000000000322 0 -0.23580819294092509 0.48135619878758379 0 -0.25500833337336543 0.5 0 -0.23332629850970479 0.50000000000000322 0 -0.23580819294092509 0.48135619878758379 0 -0.23971813158911251 0.45198503859938011 0 -0.24133946839989709 0.43980568043716378 0 -0.23971813158911251 0.45198503859938011 0 -0.24133946839989709 0.43980568043716378 0 -0.22834527844058361 0.44380519953338149 0 -0.25456142618314681 0.43813564254405413 0 -0.24133946839989709 0.43980568043716378 0 -0.24764079941193529 0.44557000668861629 0 -0.25494417147558512 0.45235366517386782 0 -0.23971813158911251 0.45198503859938011 0 -0.23971813158911251 0.45198503859938011 0 -0.24133946839989709 0.43980568043716378 0 -0.24764079941193529 0.44557000668861629 0 -0.25494417147558512 0.45235366517386782 0 -0.23971813158911251 0.45198503859938011 0 -0.24764079941193529 0.44557000668861629 0 -0.25556445229377328 0.46739238556893248 0 -0.2382900873721451 0.46271239757516452 0 -0.25494417147558512 0.45235366517386782 0 -0.23971813158911251 0.45198503859938011 0 -0.24717940938886601 0.45843702787370572 0 -0.25556445229377328 0.46739238556893248 0 -0.24717940938886601 0.45843702787370572 0 -0.2382900873721451 0.46271239757516452 0 -0.23971813158911251 0.45198503859938011 0 -0.2382900873721451 0.46271239757516452 0 -0.2292291693608122 0.45613877184142809 0 -0.23971813158911251 0.45198503859938011 0 -0.2382900873721451 0.46271239757516452 0 -0.23971813158911251 0.45198503859938011 0 -0.24717940938886601 0.45843702787370572 0 -0.2382900873721451 0.46271239757516452 0 -0.2382900873721451 0.46271239757516452 0 -0.2292291693608122 0.45613877184142809 0 -0.22250978720835801 0.45843718308018111 0 -0.22763484693895289 0.47078105150467031 0 -0.2382900873721451 0.46271239757516452 0 -0.22250978720835801 0.45843718308018111 0 -0.2382900873721451 0.46271239757516452 0 -0.22250978720835801 0.45843718308018111 0 -0.23971813158911251 0.45198503859938011 0 -0.2292291693608122 0.45613877184142809 0 -0.21639867127363341 0.45142046811098691 0 -0.21802971214061939 0.46942499335423271 0 -0.22763484693895289 0.47078105150467031 0 -0.22250978720835801 0.45843718308018111 0 -0.2292291693608122 0.45613877184142809 0 -0.22250978720835801 0.45843718308018111 0 -0.21639867127363341 0.45142046811098691 0 -0.23971813158911251 0.45198503859938011 0 -0.22834527844058361 0.44380519953338149 0 -0.21639867127363341 0.45142046811098691 0 -0.22834527844058361 0.44380519953338149 0 -0.21858068503683359 0.44151438487491329 0 -0.21639867127363341 0.45142046811098691 0 -0.23971813158911251 0.45198503859938011 0 -0.21639867127363341 0.45142046811098691 0 -0.24133946839989709 0.43980568043716378 0 -0.22834527844058361 0.44380519953338149 0 -0.2317484290765269 0.43609171960551019 0 -0.22834527844058361 0.44380519953338149 0 -0.21858068503683359 0.44151438487491329 0 -0.22232423192772449 0.43214096094707499 0 -0.21639867127363341 0.45142046811098691 0 -0.19307921095815439 0.45085589762259382 0 -0.21639867127363341 0.45142046811098691 0 -0.20822074587918771 0.44438158837499869 0 -0.19307921095815439 0.45085589762259382 0 -0.21639867127363341 0.45142046811098691 0 -0.20672948704457089 0.4541619685851977 0 -0.19307921095815439 0.45085589762259382 0 -0.21858068503683359 0.44151438487491329 0 -0.21639867127363341 0.45142046811098691 0 -0.20822074587918771 0.44438158837499869 0 -0.21858068503683359 0.44151438487491329 0 -0.20822074587918771 0.44438158837499869 0 -0.20482441624812939 0.4337356028915012 0 -0.22250978720835801 0.45843718308018111 0 -0.20672948704457089 0.4541619685851977 0 -0.22250978720835801 0.45843718308018111 0 -0.21151056036833621 0.46297744414212788 0 -0.20672948704457089 0.4541619685851977 0 -0.22250978720835801 0.45843718308018111 0 -0.21639867127363341 0.45142046811098691 0 -0.20672948704457089 0.4541619685851977 0 -0.20871876617699239 0.47267246900317211 0 -0.21802971214061939 0.46942499335423271 0 -0.21151056036833621 0.46297744414212788 0 -0.21802971214061939 0.46942499335423271 0 -0.22250978720835801 0.45843718308018111 0 -0.21151056036833621 0.46297744414212788 0 -0.21151056036833621 0.46297744414212788 0 -0.20672948704457089 0.4541619685851977 0 -0.19944731903862289 0.46296172043222072 0 -0.20871876617699239 0.47267246900317211 0 -0.21151056036833621 0.46297744414212788 0 -0.19944731903862289 0.46296172043222072 0 -0.1830051126082175 0.46304534624737298 0 -0.19216145141642271 0.47712722338060348 0 -0.19944731903862289 0.46296172043222072 0 -0.1830051126082175 0.46304534624737298 0 -0.19944731903862289 0.46296172043222072 0 -0.19307921095815439 0.45085589762259382 0 -0.20672948704457089 0.4541619685851977 0 -0.19944731903862289 0.46296172043222072 0 -0.19307921095815439 0.45085589762259382 0 -0.19307921095815439 0.45085589762259382 0 -0.20482441624812939 0.4337356028915012 0 -0.1840164156669542 0.43294744510755567 0 -0.20822074587918771 0.44438158837499869 0 -0.19307921095815439 0.45085589762259382 0 -0.20482441624812939 0.4337356028915012 0 -0.19268915961001321 0.41554358287331072 0 -0.20482441624812939 0.4337356028915012 0 -0.1840164156669542 0.43294744510755567 0 -0.19268915961001321 0.41554358287331072 0 -0.21070603970369209 0.41591777083564502 0 -0.2055969040031167 0.40171268223250228 0 -0.19268915961001321 0.41554358287331072 0 -0.21070603970369209 0.41591777083564502 0 -0.20482441624812939 0.4337356028915012 0 -0.21070603970369209 0.41591777083564502 0 -0.22026442535844509 0.39814174018298581 0 -0.21070603970369209 0.41591777083564502 0 -0.20482441624812939 0.4337356028915012 0 -0.22232423192772449 0.43214096094707499 0 -0.21858068503683359 0.44151438487491329 0 -0.20482441624812939 0.4337356028915012 0 -0.22232423192772449 0.43214096094707499 0 -0.21070603970369209 0.41591777083564502 0 -0.22232423192772449 0.43214096094707499 0 -0.22659617960973299 0.42097606252178021 0 -0.22834527844058361 0.44380519953338149 0 -0.22232423192772449 0.43214096094707499 0 -0.2317484290765269 0.43609171960551019 0 -0.22232423192772449 0.43214096094707499 0 -0.2317484290765269 0.43609171960551019 0 -0.2349847375379025 0.42861503750442009 0 -0.22659617960973299 0.42097606252178021 0 -0.2366661631206024 0.41825282599169022 0 -0.2349847375379025 0.42861503750442009 0 -0.22232423192772449 0.43214096094707499 0 -0.22659617960973299 0.42097606252178021 0 -0.2349847375379025 0.42861503750442009 0 -0.21070603970369209 0.41591777083564502 0 -0.22829972575874369 0.4099537173300708 0 -0.22659617960973299 0.42097606252178021 0 -0.21070603970369209 0.41591777083564502 0 -0.22829972575874369 0.4099537173300708 0 -0.22026442535844509 0.39814174018298581 0 -0.22829972575874369 0.4099537173300708 0 -0.23835596372023179 0.40840588003886458 0 -0.2328053339975231 0.40117589586299301 0 -0.22829972575874369 0.4099537173300708 0 -0.22659617960973299 0.42097606252178021 0 -0.2366661631206024 0.41825282599169022 0 -0.2366661631206024 0.41825282599169022 0 -0.23835596372023179 0.40840588003886458 0 -0.2454015548800843 0.41483303658358861 0 -0.22829972575874369 0.4099537173300708 0 -0.2366661631206024 0.41825282599169022 0 -0.23835596372023179 0.40840588003886458 0 -0.25177455709189939 0.41006407045360649 0 -0.2454015548800843 0.41483303658358861 0 -0.24631500994279609 0.4060657092304274 0 -0.23835596372023179 0.40840588003886458 0 -0.2454015548800843 0.41483303658358861 0 -0.24631500994279609 0.4060657092304274 0 -0.25135353745088079 0.40538122757465328 0 -0.25177455709189939 0.41006407045360649 0 -0.24631500994279609 0.4060657092304274 0 -0.2366661631206024 0.41825282599169022 0 -0.2454015548800843 0.41483303658358861 0 -0.2446382873926061 0.42656169270257099 0 -0.25464476882582948 0.42043371933178819 0 -0.2454015548800843 0.41483303658358861 0 -0.2446382873926061 0.42656169270257099 0 -0.25456142618314681 0.43813564254405413 0 -0.24133946839989709 0.43980568043716378 0 -0.2446382873926061 0.42656169270257099 0 -0.24133946839989709 0.43980568043716378 0 -0.2446382873926061 0.42656169270257099 0 -0.2349847375379025 0.42861503750442009 0 -0.24133946839989709 0.43980568043716378 0 -0.2317484290765269 0.43609171960551019 0 -0.2349847375379025 0.42861503750442009 0 -0.2366661631206024 0.41825282599169022 0 -0.2446382873926061 0.42656169270257099 0 -0.2349847375379025 0.42861503750442009 0 -0.24705393830488409 0.38792707471271631 0 -0.2314209924215192 0.37739352126245818 0 -0.22982281101319579 0.38036570953032528 0 -0.24705393830488409 0.38792707471271631 0 -0.2446363452888029 0.39303345088456132 0 -0.22982281101319579 0.38036570953032528 0 -0.24705393830488409 0.38792707471271631 0 -0.2314209924215192 0.37739352126245818 0 -0.24653654808961289 0.37292736348013872 0 -0.24705393830488409 0.38792707471271631 0 -0.2314209924215192 0.37739352126245818 0 -0.2446363452888029 0.39303345088456132 0 -0.22982281101319579 0.38036570953032528 0 -0.2446363452888029 0.39303345088456132 0 -0.23388603238953329 0.39333537526129592 0 -0.22982281101319579 0.38036570953032528 0 -0.2446363452888029 0.39303345088456132 0 -0.2483074533253381 0.40138907884491742 0 -0.24064799462164091 0.40015409523441797 0 -0.25135353745088079 0.40538122757465328 0 -0.24631500994279609 0.4060657092304274 0 -0.2483074533253381 0.40138907884491742 0 -0.24631500994279609 0.4060657092304274 0 -0.2483074533253381 0.40138907884491742 0 -0.24064799462164091 0.40015409523441797 0 -0.23835596372023179 0.40840588003886458 0 -0.24631500994279609 0.4060657092304274 0 -0.24064799462164091 0.40015409523441797 0 -0.23835596372023179 0.40840588003886458 0 -0.24064799462164091 0.40015409523441797 0 -0.2328053339975231 0.40117589586299301 0 -0.24064799462164091 0.40015409523441797 0 -0.23388603238953329 0.39333537526129592 0 -0.2328053339975231 0.40117589586299301 0 -0.2446363452888029 0.39303345088456132 0 -0.24064799462164091 0.40015409523441797 0 -0.23388603238953329 0.39333537526129592 0 -0.23388603238953329 0.39333537526129592 0 -0.2328053339975231 0.40117589586299301 0 -0.22026442535844509 0.39814174018298581 0 -0.22829972575874369 0.4099537173300708 0 -0.2328053339975231 0.40117589586299301 0 -0.22026442535844509 0.39814174018298581 0 -0.23388603238953329 0.39333537526129592 0 -0.22026442535844509 0.39814174018298581 0 -0.22982281101319579 0.38036570953032528 0 -0.22026442535844509 0.39814174018298581 0 -0.22982281101319579 0.38036570953032528 0 -0.21023672033421761 0.38129187764894201 0 -0.22026442535844509 0.39814174018298581 0 -0.22982281101319579 0.38036570953032528 0 -0.2314209924215192 0.37739352126245818 0 -0.22982281101319579 0.38036570953032528 0 -0.21023672033421761 0.38129187764894201 0 -0.2055969040031167 0.40171268223250228 0 -0.19454383859968119 0.38176136775796421 0 -0.21070603970369209 0.41591777083564502 0 -0.22026442535844509 0.39814174018298581 0 -0.2055969040031167 0.40171268223250228 0 -0.22026442535844509 0.39814174018298581 0 -0.21023672033421761 0.38129187764894201 0 -0.2055969040031167 0.40171268223250228 0 -0.2055969040031167 0.40171268223250228 0 -0.19067832280205041 0.39940535807295602 0 -0.19454383859968119 0.38176136775796421 0 -0.19268915961001321 0.41554358287331072 0 -0.2055969040031167 0.40171268223250228 0 -0.19067832280205041 0.39940535807295602 0 -0.19067832280205041 0.39940535807295602 0 -0.19454383859968119 0.38176136775796421 0 -0.17054621651548491 0.38367432954363928 0 -0.19454383859968119 0.38176136775796421 0 -0.17054621651548491 0.38367432954363928 0 -0.1839371325384318 0.36467496268668509 0 -0.17054621651548491 0.38367432954363928 0 -0.1620004308969899 0.39984664001811687 0 -0.15057515780636679 0.3895992240100612 0 -0.17054621651548491 0.38367432954363928 0 -0.1620004308969899 0.39984664001811687 0 -0.17519004586783801 0.40559255777754438 0 -0.19067832280205041 0.39940535807295602 0 -0.17054621651548491 0.38367432954363928 0 -0.17519004586783801 0.40559255777754438 0 -0.19268915961001321 0.41554358287331072 0 -0.17519004586783801 0.40559255777754438 0 -0.17594888150835991 0.42014198432369559 0 -0.19268915961001321 0.41554358287331072 0 -0.19067832280205041 0.39940535807295602 0 -0.17519004586783801 0.40559255777754438 0 -0.174476065348594 0.44612521546905543 0 -0.1840164156669542 0.43294744510755567 0 -0.16437747253365159 0.42992944029959979 0 -0.19268915961001321 0.41554358287331072 0 -0.17594888150835991 0.42014198432369559 0 -0.1840164156669542 0.43294744510755567 0 -0.17594888150835991 0.42014198432369559 0 -0.1840164156669542 0.43294744510755567 0 -0.16437747253365159 0.42992944029959979 0 -0.16437747253365159 0.42992944029959979 0 -0.15927726387412991 0.41494345183354853 0 -0.14735091579000159 0.42769912051895709 0 -0.15859814595808311 0.44297544341723538 0 -0.16437747253365159 0.42992944029959979 0 -0.14735091579000159 0.42769912051895709 0 -0.1620004308969899 0.39984664001811687 0 -0.17519004586783801 0.40559255777754438 0 -0.15927726387412991 0.41494345183354853 0 -0.17519004586783801 0.40559255777754438 0 -0.17594888150835991 0.42014198432369559 0 -0.15927726387412991 0.41494345183354853 0 -0.17594888150835991 0.42014198432369559 0 -0.16437747253365159 0.42992944029959979 0 -0.15927726387412991 0.41494345183354853 0 -0.14735091579000159 0.42769912051895709 0 -0.13353111015310959 0.41884111604198981 0 -0.1419635269455625 0.40412780687801719 0 -0.1620004308969899 0.39984664001811687 0 -0.15927726387412991 0.41494345183354853 0 -0.1419635269455625 0.40412780687801719 0 -0.15927726387412991 0.41494345183354853 0 -0.14735091579000159 0.42769912051895709 0 -0.1419635269455625 0.40412780687801719 0 -0.14735091579000159 0.42769912051895709 0 -0.12549131003263969 0.43394357887995061 0 -0.13353111015310959 0.41884111604198981 0 -0.12549131003263969 0.43394357887995061 0 -0.13353111015310959 0.41884111604198981 0 -0.1187836221401182 0.40954781268373952 0 -0.13353111015310959 0.41884111604198981 0 -0.1419635269455625 0.40412780687801719 0 -0.1187836221401182 0.40954781268373952 0 -0.13102619265169069 0.38719978828045409 0 -0.1419635269455625 0.40412780687801719 0 -0.1187836221401182 0.40954781268373952 0 -0.13102619265169069 0.38719978828045409 0 -0.14561573162589861 0.36982865109271768 0 -0.1243166256956041 0.36893017663585831 0 -0.17054621651548491 0.38367432954363928 0 -0.15057515780636679 0.3895992240100612 0 -0.14561573162589861 0.36982865109271768 0 -0.13102619265169069 0.38719978828045409 0 -0.15057515780636679 0.3895992240100612 0 -0.14561573162589861 0.36982865109271768 0 -0.1620004308969899 0.39984664001811687 0 -0.15057515780636679 0.3895992240100612 0 -0.1419635269455625 0.40412780687801719 0 -0.13102619265169069 0.38719978828045409 0 -0.15057515780636679 0.3895992240100612 0 -0.1419635269455625 0.40412780687801719 0 -0.14660534288920279 0.34989333727823219 0 -0.14561573162589861 0.36982865109271768 0 -0.1310209184129951 0.35256233593402903 0 -0.14660534288920279 0.34989333727823219 0 -0.15309296639680581 0.33400636436339137 0 -0.16338368400299211 0.3565558792789037 0 -0.14660534288920279 0.34989333727823219 0 -0.14561573162589861 0.36982865109271768 0 -0.16338368400299211 0.3565558792789037 0 -0.14561573162589861 0.36982865109271768 0 -0.1310209184129951 0.35256233593402903 0 -0.1243166256956041 0.36893017663585831 0 -0.14660534288920279 0.34989333727823219 0 -0.1310209184129951 0.35256233593402903 0 -0.12917885935540449 0.33548528228844321 0 -0.12917885935540449 0.33548528228844321 0 -0.12747747950422311 0.31727075412957778 0 -0.14307335020385339 0.31673070211801002 0 -0.14307335020385339 0.31673070211801002 0 -0.15309296639680581 0.33400636436339137 0 -0.15851790747784639 0.31498892523436939 0 -0.14660534288920279 0.34989333727823219 0 -0.12917885935540449 0.33548528228844321 0 -0.15309296639680581 0.33400636436339137 0 -0.12917885935540449 0.33548528228844321 0 -0.14307335020385339 0.31673070211801002 0 -0.15309296639680581 0.33400636436339137 0 -0.15309296639680581 0.33400636436339137 0 -0.17087392065117851 0.3316188899291389 0 -0.16338368400299211 0.3565558792789037 0 -0.17087392065117851 0.3316188899291389 0 -0.15851790747784639 0.31498892523436939 0 -0.1729272538655898 0.31343323987401772 0 -0.15309296639680581 0.33400636436339137 0 -0.17087392065117851 0.3316188899291389 0 -0.15851790747784639 0.31498892523436939 0 -0.17087392065117851 0.3316188899291389 0 -0.1729272538655898 0.31343323987401772 0 -0.18521002201246881 0.320469921808262 0 -0.1729272538655898 0.31343323987401772 0 -0.18521002201246881 0.320469921808262 0 -0.18267074911301989 0.30558899924300742 0 -0.17087392065117851 0.3316188899291389 0 -0.18521002201246881 0.320469921808262 0 -0.18678800904941881 0.34356465109516621 0 -0.17087392065117851 0.3316188899291389 0 -0.18678800904941881 0.34356465109516621 0 -0.16338368400299211 0.3565558792789037 0 -0.18678800904941881 0.34356465109516621 0 -0.16338368400299211 0.3565558792789037 0 -0.1839371325384318 0.36467496268668509 0 -0.17054621651548491 0.38367432954363928 0 -0.14561573162589861 0.36982865109271768 0 -0.16338368400299211 0.3565558792789037 0 -0.17054621651548491 0.38367432954363928 0 -0.16338368400299211 0.3565558792789037 0 -0.1839371325384318 0.36467496268668509 0 -0.19454383859968119 0.38176136775796421 0 -0.1839371325384318 0.36467496268668509 0 -0.20817226330326019 0.36172841676808293 0 -0.18678800904941881 0.34356465109516621 0 -0.20817226330326019 0.36172841676808293 0 -0.18678800904941881 0.34356465109516621 0 -0.1839371325384318 0.36467496268668509 0 -0.20817226330326019 0.36172841676808293 0 -0.18678800904941881 0.34356465109516621 0 -0.20817226330326019 0.36172841676808293 0 -0.21093841634322691 0.33416259955401978 0 -0.20817226330326019 0.36172841676808293 0 -0.22908910667128929 0.34184322473430212 0 -0.21093841634322691 0.33416259955401978 0 -0.22982281101319579 0.38036570953032528 0 -0.21023672033421761 0.38129187764894201 0 -0.20817226330326019 0.36172841676808293 0 -0.21023672033421761 0.38129187764894201 0 -0.19454383859968119 0.38176136775796421 0 -0.20817226330326019 0.36172841676808293 0 -0.22982281101319579 0.38036570953032528 0 -0.20817226330326019 0.36172841676808293 0 -0.2314209924215192 0.37739352126245818 0 -0.20817226330326019 0.36172841676808293 0 -0.22628095269366291 0.35985859277100868 0 -0.2314209924215192 0.37739352126245818 0 -0.22628095269366291 0.35985859277100868 0 -0.2437433409425481 0.35447726187156148 0 -0.2314209924215192 0.37739352126245818 0 -0.22982281101319579 0.38036570953032528 0 -0.20817226330326019 0.36172841676808293 0 -0.2314209924215192 0.37739352126245818 0 -0.20817226330326019 0.36172841676808293 0 -0.20817226330326019 0.36172841676808293 0 -0.22628095269366291 0.35985859277100868 0 -0.22908910667128929 0.34184322473430212 0 -0.22628095269366291 0.35985859277100868 0 -0.2437433409425481 0.35447726187156148 0 -0.22908910667128929 0.34184322473430212 0 -0.25399238995849932 0.33541678282744147 0 -0.2437433409425481 0.35447726187156148 0 -0.2437433409425481 0.35447726187156148 0 -0.2450873218768399 0.33309700700908218 0 -0.25689055470175481 0.35643139793928391 0 -0.24354339201488651 0.35765808008395472 0 -0.2437433409425481 0.35447726187156148 0 -0.24354339201488651 0.35765808008395472 0 -0.2437433409425481 0.35447726187156148 0 -0.2314209924215192 0.37739352126245818 0 -0.2437433409425481 0.35447726187156148 0 -0.2314209924215192 0.37739352126245818 0 -0.24354339201488651 0.35765808008395472 0 -0.2437433409425481 0.35447726187156148 0 -0.2314209924215192 0.37739352126245818 0 -0.24354339201488651 0.35765808008395472 0 -0.24653654808961289 0.37292736348013872 0 -0.25168980356281478 0.36611571363862611 0 -0.24354339201488651 0.35765808008395472 0 -0.24653654808961289 0.37292736348013872 0 -0.2450873218768399 0.33309700700908218 0 -0.22759686451833919 0.32360068756918559 0 -0.2464313028111309 0.31171675214660288 0 -0.2450873218768399 0.33309700700908218 0 -0.2464313028111309 0.31171675214660288 0 -0.25088383685196508 0.31287664005578197 0 -0.2450873218768399 0.33309700700908218 0 -0.2464313028111309 0.31171675214660288 0 -0.25399238995849932 0.33541678282744147 0 -0.25088383685196508 0.31287664005578197 0 -0.2450873218768399 0.33309700700908218 0 -0.25399238995849932 0.33541678282744147 0 -0.2437433409425481 0.35447726187156148 0 -0.2450873218768399 0.33309700700908218 0 -0.2437433409425481 0.35447726187156148 0 -0.2450873218768399 0.33309700700908218 0 -0.22908910667128929 0.34184322473430212 0 -0.2450873218768399 0.33309700700908218 0 -0.22908910667128929 0.34184322473430212 0 -0.22759686451833919 0.32360068756918559 0 -0.22908910667128929 0.34184322473430212 0 -0.22759686451833919 0.32360068756918559 0 -0.21093841634322691 0.33416259955401978 0 -0.22759686451833919 0.32360068756918559 0 -0.21149718261379929 0.31625716549662192 0 -0.2225378567937491 0.30452737647448502 0 -0.22759686451833919 0.32360068756918559 0 -0.2225378567937491 0.30452737647448502 0 -0.2464313028111309 0.31171675214660288 0 -0.21149718261379929 0.31625716549662192 0 -0.21093841634322691 0.33416259955401978 0 -0.1984465715370641 0.32444700759322731 0 -0.22759686451833919 0.32360068756918559 0 -0.21149718261379929 0.31625716549662192 0 -0.21093841634322691 0.33416259955401978 0 -0.18521002201246881 0.320469921808262 0 -0.18678800904941881 0.34356465109516621 0 -0.1984465715370641 0.32444700759322731 0 -0.18678800904941881 0.34356465109516621 0 -0.21093841634322691 0.33416259955401978 0 -0.1984465715370641 0.32444700759322731 0 -0.18521002201246881 0.320469921808262 0 -0.1984465715370641 0.32444700759322731 0 -0.19779922766640681 0.30778070001206631 0 -0.21149718261379929 0.31625716549662192 0 -0.1984465715370641 0.32444700759322731 0 -0.19779922766640681 0.30778070001206631 0 -0.18521002201246881 0.320469921808262 0 -0.19779922766640681 0.30778070001206631 0 -0.18267074911301989 0.30558899924300742 0 -0.19779922766640681 0.30778070001206631 0 -0.1993616288887074 0.29528365724281541 0 -0.18223316760775821 0.28968526612755241 0 -0.19779922766640681 0.30778070001206631 0 -0.18223316760775821 0.28968526612755241 0 -0.19779922766640681 0.30778070001206631 0 -0.18223316760775821 0.28968526612755241 0 -0.18267074911301989 0.30558899924300742 0 -0.19779922766640681 0.30778070001206631 0 -0.1993616288887074 0.29528365724281541 0 -0.20850525779073259 0.30282726939806381 0 -0.1993616288887074 0.29528365724281541 0 -0.19984838172538649 0.28164614213162142 0 -0.185231165919126 0.27928730097292059 0 -0.1993616288887074 0.29528365724281541 0 -0.185231165919126 0.27928730097292059 0 -0.1993616288887074 0.29528365724281541 0 -0.185231165919126 0.27928730097292059 0 -0.18223316760775821 0.28968526612755241 0 -0.19984838172538649 0.28164614213162142 0 -0.2113303929910004 0.29028744776433052 0 -0.20882539874453629 0.27390768413356859 0 -0.2113303929910004 0.29028744776433052 0 -0.22766481174347719 0.28343192452554078 0 -0.20882539874453629 0.27390768413356859 0 -0.1993616288887074 0.29528365724281541 0 -0.19984838172538649 0.28164614213162142 0 -0.2113303929910004 0.29028744776433052 0 -0.1993616288887074 0.29528365724281541 0 -0.2113303929910004 0.29028744776433052 0 -0.20850525779073259 0.30282726939806381 0 -0.21149718261379929 0.31625716549662192 0 -0.19779922766640681 0.30778070001206631 0 -0.20850525779073259 0.30282726939806381 0 -0.2113303929910004 0.29028744776433052 0 -0.20850525779073259 0.30282726939806381 0 -0.2225378567937491 0.30452737647448502 0 -0.21149718261379929 0.31625716549662192 0 -0.20850525779073259 0.30282726939806381 0 -0.2225378567937491 0.30452737647448502 0 -0.2225378567937491 0.30452737647448502 0 -0.22766481174347719 0.28343192452554078 0 -0.23610231377344479 0.29750313760768798 0 -0.2113303929910004 0.29028744776433052 0 -0.2225378567937491 0.30452737647448502 0 -0.22766481174347719 0.28343192452554078 0 -0.22766481174347719 0.28343192452554078 0 -0.24777528374542379 0.29033649728412347 0 -0.23610231377344479 0.29750313760768798 0 -0.25088383685196508 0.31287664005578197 0 -0.24777528374542379 0.29033649728412347 0 -0.24777528374542379 0.29033649728412347 0 -0.23610231377344479 0.29750313760768798 0 -0.2464313028111309 0.31171675214660288 0 -0.2225378567937491 0.30452737647448502 0 -0.23610231377344479 0.29750313760768798 0 -0.2464313028111309 0.31171675214660288 0 -0.24777528374542379 0.29033649728412347 0 -0.2464313028111309 0.31171675214660288 0 -0.25088383685196508 0.31287664005578197 0 -0.24777528374542379 0.29033649728412347 0 -0.2464313028111309 0.31171675214660288 0 -0.24410213970983269 0.26370250129127148 0 -0.24042899567423959 0.23706850529841969 0 -0.24410213970983269 0.26370250129127148 0 -0.22008229700458551 0.25207073246709299 0 -0.24042899567423959 0.23706850529841969 0 -0.24962755378818399 0.26087030131514671 0 -0.24410213970983269 0.26370250129127148 0 -0.24042899567423959 0.23706850529841969 0 -0.24777528374542379 0.29033649728412347 0 -0.24962755378818399 0.26087030131514671 0 -0.24777528374542379 0.29033649728412347 0 -0.24962755378818399 0.26087030131514671 0 -0.24410213970983269 0.26370250129127148 0 -0.22766481174347719 0.28343192452554078 0 -0.24777528374542379 0.29033649728412347 0 -0.24410213970983269 0.26370250129127148 0 -0.24777528374542379 0.29033649728412347 0 -0.24410213970983269 0.26370250129127148 0 -0.22766481174347719 0.28343192452554078 0 -0.22364277235382329 0.26778643426462811 0 -0.20882539874453629 0.27390768413356859 0 -0.22766481174347719 0.28343192452554078 0 -0.24410213970983269 0.26370250129127148 0 -0.22364277235382329 0.26778643426462811 0 -0.24410213970983269 0.26370250129127148 0 -0.22364277235382329 0.26778643426462811 0 -0.22008229700458551 0.25207073246709299 0 -0.22008229700458551 0.25207073246709299 0 -0.20277924217631091 0.25963467136747143 0 -0.20729280176342821 0.242855039542341 0 -0.22364277235382329 0.26778643426462811 0 -0.22008229700458551 0.25207073246709299 0 -0.20277924217631091 0.25963467136747143 0 -0.22364277235382329 0.26778643426462811 0 -0.20882539874453629 0.27390768413356859 0 -0.20277924217631091 0.25963467136747143 0 -0.19984838172538649 0.28164614213162142 0 -0.20882539874453629 0.27390768413356859 0 -0.19424806128561251 0.271689060822844 0 -0.20882539874453629 0.27390768413356859 0 -0.19424806128561251 0.271689060822844 0 -0.20277924217631091 0.25963467136747143 0 -0.19424806128561251 0.271689060822844 0 -0.18823824124479699 0.26210097807791499 0 -0.18441015067020841 0.26937256736419551 0 -0.19984838172538649 0.28164614213162142 0 -0.19424806128561251 0.271689060822844 0 -0.185231165919126 0.27928730097292059 0 -0.19424806128561251 0.271689060822844 0 -0.18441015067020841 0.26937256736419551 0 -0.185231165919126 0.27928730097292059 0 -0.20277924217631091 0.25963467136747143 0 -0.19031875884495661 0.2492353464184677 0 -0.20729280176342821 0.242855039542341 0 -0.19424806128561251 0.271689060822844 0 -0.20277924217631091 0.25963467136747143 0 -0.18823824124479699 0.26210097807791499 0 -0.20277924217631091 0.25963467136747143 0 -0.18823824124479699 0.26210097807791499 0 -0.19031875884495661 0.2492353464184677 0 -0.18823824124479699 0.26210097807791499 0 -0.17920891678487141 0.25622321191196601 0 -0.19031875884495661 0.2492353464184677 0 -0.17920891678487141 0.25622321191196601 0 -0.19031875884495661 0.2492353464184677 0 -0.17978483908031029 0.2471032218201 0 -0.18823824124479699 0.26210097807791499 0 -0.1808629226667913 0.26313047139199819 0 -0.17920891678487141 0.25622321191196601 0 -0.18823824124479699 0.26210097807791499 0 -0.1808629226667913 0.26313047139199819 0 -0.18441015067020841 0.26937256736419551 0 -0.1808629226667913 0.26313047139199819 0 -0.17920891678487141 0.25622321191196601 0 -0.1711007029495446 0.26329094470302572 0 -0.1808629226667913 0.26313047139199819 0 -0.1711007029495446 0.26329094470302572 0 -0.18441015067020841 0.26937256736419551 0 -0.17920891678487141 0.25622321191196601 0 -0.1697436319947245 0.25383393025607071 0 -0.1711007029495446 0.26329094470302572 0 -0.17920891678487141 0.25622321191196601 0 -0.17169466826451921 0.24852697597616011 0 -0.17978483908031029 0.2471032218201 0 -0.17920891678487141 0.25622321191196601 0 -0.1697436319947245 0.25383393025607071 0 -0.17169466826451921 0.24852697597616011 0 -0.1711007029495446 0.26329094470302572 0 -0.16666710754910949 0.27158983224303862 0 -0.15110104749046091 0.25349439835852478 0 -0.1697436319947245 0.25383393025607071 0 -0.1711007029495446 0.26329094470302572 0 -0.15697023997996279 0.2472945884331311 0 -0.16666710754910949 0.27158983224303862 0 -0.15110104749046091 0.25349439835852478 0 -0.1711007029495446 0.26329094470302572 0 -0.15697023997996279 0.2472945884331311 0 -0.1711007029495446 0.26329094470302572 0 -0.15110104749046091 0.25349439835852478 0 -0.15697023997996279 0.2472945884331311 0 -0.15901881407255181 0.28003304706428139 0 -0.16666710754910949 0.27158983224303862 0 -0.1506701808138603 0.27101369875117298 0 -0.15901881407255181 0.28003304706428139 0 -0.16666710754910949 0.27158983224303862 0 -0.16809165220744379 0.28168220489628032 0 -0.16666710754910949 0.27158983224303862 0 -0.18223316760775821 0.28968526612755241 0 -0.16666710754910949 0.27158983224303862 0 -0.18223316760775821 0.28968526612755241 0 -0.16809165220744379 0.28168220489628032 0 -0.16666710754910949 0.27158983224303862 0 -0.185231165919126 0.27928730097292059 0 -0.18223316760775821 0.28968526612755241 0 -0.1711007029495446 0.26329094470302572 0 -0.185231165919126 0.27928730097292059 0 -0.1711007029495446 0.26329094470302572 0 -0.16666710754910949 0.27158983224303862 0 -0.185231165919126 0.27928730097292059 0 -0.1711007029495446 0.26329094470302572 0 -0.18441015067020841 0.26937256736419551 0 -0.185231165919126 0.27928730097292059 0 -0.18223316760775821 0.28968526612755241 0 -0.17310996860552871 0.29798664590069041 0 -0.17137691266402599 0.28998979831452742 0 -0.18223316760775821 0.28968526612755241 0 -0.16809165220744379 0.28168220489628032 0 -0.17137691266402599 0.28998979831452742 0 -0.18223316760775821 0.28968526612755241 0 -0.18267074911301989 0.30558899924300742 0 -0.17310996860552871 0.29798664590069041 0 -0.1729272538655898 0.31343323987401772 0 -0.18267074911301989 0.30558899924300742 0 -0.17310996860552871 0.29798664590069041 0 -0.15851790747784639 0.31498892523436939 0 -0.1729272538655898 0.31343323987401772 0 -0.16343477515089891 0.30364287234693199 0 -0.1729272538655898 0.31343323987401772 0 -0.17310996860552871 0.29798664590069041 0 -0.16343477515089891 0.30364287234693199 0 -0.17310996860552871 0.29798664590069041 0 -0.16343477515089891 0.30364287234693199 0 -0.16207286223537329 0.29060507633358679 0 -0.16343477515089891 0.30364287234693199 0 -0.16207286223537329 0.29060507633358679 0 -0.15054588357015589 0.30120047439199582 0 -0.15851790747784639 0.31498892523436939 0 -0.16343477515089891 0.30364287234693199 0 -0.15054588357015589 0.30120047439199582 0 -0.16809165220744379 0.28168220489628032 0 -0.17137691266402599 0.28998979831452742 0 -0.16207286223537329 0.29060507633358679 0 -0.17310996860552871 0.29798664590069041 0 -0.17137691266402599 0.28998979831452742 0 -0.16207286223537329 0.29060507633358679 0 -0.15901881407255181 0.28003304706428139 0 -0.16809165220744379 0.28168220489628032 0 -0.16207286223537329 0.29060507633358679 0 -0.15901881407255181 0.28003304706428139 0 -0.16207286223537329 0.29060507633358679 0 -0.14778744476235281 0.286100508019561 0 -0.14778744476235281 0.286100508019561 0 -0.15054588357015589 0.30120047439199582 0 -0.13349879986614621 0.29903059959138972 0 -0.16207286223537329 0.29060507633358679 0 -0.14778744476235281 0.286100508019561 0 -0.15054588357015589 0.30120047439199582 0 -0.14307335020385339 0.31673070211801002 0 -0.15054588357015589 0.30120047439199582 0 -0.13349879986614621 0.29903059959138972 0 -0.14307335020385339 0.31673070211801002 0 -0.15851790747784639 0.31498892523436939 0 -0.15054588357015589 0.30120047439199582 0 -0.12747747950422311 0.31727075412957778 0 -0.14307335020385339 0.31673070211801002 0 -0.13349879986614621 0.29903059959138972 0 -0.12747747950422311 0.31727075412957778 0 -0.13349879986614621 0.29903059959138972 0 -0.11718887709159211 0.30798009986445352 0 -0.14778744476235281 0.286100508019561 0 -0.13349879986614621 0.29903059959138972 0 -0.1334459136609126 0.27214406339276598 0 -0.13349879986614621 0.29903059959138972 0 -0.1334459136609126 0.27214406339276598 0 -0.1157907798313646 0.29079372842700768 0 -0.1334459136609126 0.27214406339276598 0 -0.13472013682951001 0.25315436466535701 0 -0.15110104749046091 0.25349439835852478 0 -0.1334459136609126 0.27214406339276598 0 -0.13472013682951001 0.25315436466535701 0 -0.1166646777139321 0.24909936445698569 0 -0.1334459136609126 0.27214406339276598 0 -0.15110104749046091 0.25349439835852478 0 -0.1334459136609126 0.27214406339276598 0 -0.15110104749046091 0.25349439835852478 0 -0.1506701808138603 0.27101369875117298 0 -0.16666710754910949 0.27158983224303862 0 -0.15110104749046091 0.25349439835852478 0 -0.1506701808138603 0.27101369875117298 0 -0.15110104749046091 0.25349439835852478 0 -0.15697023997996279 0.2472945884331311 0 -0.14778744476235281 0.286100508019561 0 -0.1334459136609126 0.27214406339276598 0 -0.1506701808138603 0.27101369875117298 0 -0.15901881407255181 0.28003304706428139 0 -0.14778744476235281 0.286100508019561 0 -0.1506701808138603 0.27101369875117298 0 -0.1049236199766692 0.27082289018986172 0 -0.093307328436427472 0.25068604935165562 0 -0.1166646777139321 0.24909936445698569 0 -0.1334459136609126 0.27214406339276598 0 -0.1049236199766692 0.27082289018986172 0 -0.1166646777139321 0.24909936445698569 0 -0.1334459136609126 0.27214406339276598 0 -0.1049236199766692 0.27082289018986172 0 -0.1157907798313646 0.29079372842700768 0 -0.1334459136609126 0.27214406339276598 0 -0.1157907798313646 0.29079372842700768 0 -0.13349879986614621 0.29903059959138972 0 -0.1157907798313646 0.29079372842700768 0 -0.11718887709159211 0.30798009986445352 0 -0.1157907798313646 0.29079372842700768 0 -0.11718887709159211 0.30798009986445352 0 -0.098135646001816665 0.30944339346124922 0 -0.1157907798313646 0.29079372842700768 0 -0.098135646001816665 0.30944339346124922 0 -0.1157907798313646 0.29079372842700768 0 -0.098135646001816665 0.30944339346124922 0 -0.094360245555784983 0.29034191014588662 0 -0.1049236199766692 0.27082289018986172 0 -0.1157907798313646 0.29079372842700768 0 -0.094360245555784983 0.29034191014588662 0 -0.094360245555784983 0.29034191014588662 0 -0.077138945053500385 0.30742809590519449 0 -0.075735552731980321 0.27745732344703178 0 -0.098135646001816665 0.30944339346124922 0 -0.094360245555784983 0.29034191014588662 0 -0.077138945053500385 0.30742809590519449 0 -0.077138945053500385 0.30742809590519449 0 -0.062245089226282628 0.29131297653043531 0 -0.058448648319934571 0.30562202169022767 0 -0.077138945053500385 0.30742809590519449 0 -0.058448648319934571 0.30562202169022767 0 -0.059565407055416422 0.32148664739843152 0 -0.077138945053500385 0.30742809590519449 0 -0.075735552731980321 0.27745732344703178 0 -0.077138945053500385 0.30742809590519449 0 -0.075735552731980321 0.27745732344703178 0 -0.062245089226282628 0.29131297653043531 0 -0.075735552731980321 0.27745732344703178 0 -0.054099634271113708 0.27178179717988382 0 -0.062245089226282628 0.29131297653043531 0 -0.1049236199766692 0.27082289018986172 0 -0.075735552731980321 0.27745732344703178 0 -0.093307328436427472 0.25068604935165562 0 -0.1049236199766692 0.27082289018986172 0 -0.094360245555784983 0.29034191014588662 0 -0.075735552731980321 0.27745732344703178 0 -0.075735552731980321 0.27745732344703178 0 -0.093307328436427472 0.25068604935165562 0 -0.074332160410460257 0.2474865509888691 0 -0.075735552731980321 0.27745732344703178 0 -0.074332160410460257 0.2474865509888691 0 -0.075735552731980321 0.27745732344703178 0 -0.054099634271113708 0.27178179717988382 0 -0.074332160410460257 0.2474865509888691 0 -0.054099634271113708 0.27178179717988382 0 -0.03546391582915024 0.26126494821788498 0 -0.051845203477081381 0.24947589460876871 0 -0.054099634271113708 0.27178179717988382 0 -0.074332160410460257 0.2474865509888691 0 -0.051845203477081381 0.24947589460876871 0 -0.054099634271113708 0.27178179717988382 0 -0.03546391582915024 0.26126494821788498 0 -0.032666933658047237 0.28203172726724379 0 -0.03546391582915024 0.26126494821788498 0 -0.01512477567536797 0.2698968645922632 0 -0.015901484236324839 0.2481028301655612 0 -0.03546391582915024 0.26126494821788498 0 -0.01512477567536797 0.2698968645922632 0 -0.032666933658047237 0.28203172726724379 0 -0.01512477567536797 0.2698968645922632 0 -0.017931766698163661 0.28801453244773928 0 -0.032666933658047237 0.28203172726724379 0 -0.01512477567536797 0.2698968645922632 0 -0.0047550186418006974 0.28485755340765212 0 -0.017931766698163661 0.28801453244773928 0 -0.01512477567536797 0.2698968645922632 0 -0.0047550186418006974 0.28485755340765212 0 0.002755394739617798 0.27045101537396721 0 -0.01512477567536797 0.2698968645922632 0 -0.00086476245743153171 0.25445850891889638 0 0.002755394739617798 0.27045101537396721 0 -0.01512477567536797 0.2698968645922632 0 -0.00086476245743153171 0.25445850891889638 0 -0.015901484236324839 0.2481028301655612 0 -0.0099532448854732641 0.30089613480749627 0 -0.00047949844301839429 0.31304929114188801 0 -0.014340816140490979 0.31819056754243552 0 -0.0099532448854732641 0.30089613480749627 0 -0.00047949844301839429 0.31304929114188801 0 0.004386076792071255 0.29851808445187428 0 -0.0099532448854732641 0.30089613480749627 0 -0.0047550186418006974 0.28485755340765212 0 -0.017931766698163661 0.28801453244773928 0 -0.0099532448854732641 0.30089613480749627 0 -0.0047550186418006974 0.28485755340765212 0 0.004386076792071255 0.29851808445187428 0 -0.017931766698163661 0.28801453244773928 0 -0.027158860630129109 0.30239038216404118 0 -0.032666933658047237 0.28203172726724379 0 -0.0099532448854732641 0.30089613480749627 0 -0.017931766698163661 0.28801453244773928 0 -0.027158860630129109 0.30239038216404118 0 -0.0099532448854732641 0.30089613480749627 0 -0.027158860630129109 0.30239038216404118 0 -0.014340816140490979 0.31819056754243552 0 -0.027158860630129109 0.30239038216404118 0 -0.044004520689716643 0.31237772661734731 0 -0.02924879151382722 0.32227187671737972 0 -0.027158860630129109 0.30239038216404118 0 -0.044004520689716643 0.31237772661734731 0 -0.045802665754884189 0.29427564442983839 0 -0.054099634271113708 0.27178179717988382 0 -0.045802665754884189 0.29427564442983839 0 -0.032666933658047237 0.28203172726724379 0 -0.027158860630129109 0.30239038216404118 0 -0.045802665754884189 0.29427564442983839 0 -0.032666933658047237 0.28203172726724379 0 -0.054099634271113708 0.27178179717988382 0 -0.045802665754884189 0.29427564442983839 0 -0.062245089226282628 0.29131297653043531 0 -0.044004520689716643 0.31237772661734731 0 -0.045802665754884189 0.29427564442983839 0 -0.058448648319934571 0.30562202169022767 0 -0.045802665754884189 0.29427564442983839 0 -0.062245089226282628 0.29131297653043531 0 -0.058448648319934571 0.30562202169022767 0 -0.044004520689716643 0.31237772661734731 0 -0.058448648319934571 0.30562202169022767 0 -0.059565407055416422 0.32148664739843152 0 -0.044004520689716643 0.31237772661734731 0 -0.059565407055416422 0.32148664739843152 0 -0.042643891022633461 0.32883528389707273 0 -0.059565407055416422 0.32148664739843152 0 -0.056564264390901148 0.33784876966853172 0 -0.042643891022633461 0.32883528389707273 0 -0.056564264390901148 0.33784876966853172 0 -0.042340327970951719 0.34346269569932159 0 -0.042643891022633461 0.32883528389707273 0 -0.042340327970951719 0.34346269569932159 0 -0.042643891022633461 0.32883528389707273 0 -0.024815604907403369 0.33951498246533429 0 -0.042643891022633461 0.32883528389707273 0 -0.02924879151382722 0.32227187671737972 0 -0.024815604907403369 0.33951498246533429 0 -0.044004520689716643 0.31237772661734731 0 -0.042643891022633461 0.32883528389707273 0 -0.02924879151382722 0.32227187671737972 0 -0.027158860630129109 0.30239038216404118 0 -0.02924879151382722 0.32227187671737972 0 -0.014340816140490979 0.31819056754243552 0 -0.02924879151382722 0.32227187671737972 0 -0.015906591099254439 0.33024315778304159 0 -0.014340816140490979 0.31819056754243552 0 -0.024815604907403369 0.33951498246533429 0 -0.015906591099254439 0.33024315778304159 0 -0.0074214699121181666 0.34315668455662152 0 -0.02924879151382722 0.32227187671737972 0 -0.024815604907403369 0.33951498246533429 0 -0.015906591099254439 0.33024315778304159 0 -0.015906591099254439 0.33024315778304159 0 -0.0074214699121181666 0.34315668455662152 0 -0.003706273022432469 0.3280816776334371 0 -0.0074214699121181666 0.34315668455662152 0 0.0031259210745794249 0.34613085015479922 0 0.002888216492373542 0.33594177179532603 0 -0.0074214699121181666 0.34315668455662152 0 -0.003706273022432469 0.3280816776334371 0 0.002888216492373542 0.33594177179532603 0 -0.003706273022432469 0.3280816776334371 0 -0.00047949844301839429 0.31304929114188801 0 -0.014340816140490979 0.31819056754243552 0 -0.015906591099254439 0.33024315778304159 0 -0.003706273022432469 0.3280816776334371 0 -0.014340816140490979 0.31819056754243552 0 -0.011278991072699231 0.36801341262987852 0 -0.00010953871085904071 0.36740455511059711 0 0.0050989194780995568 0.38525347321202952 0 -0.011278991072699231 0.36801341262987852 0 -0.003468337841216744 0.35628739804788773 0 -0.014935844409121671 0.35407572535043702 0 -0.011278991072699231 0.36801341262987852 0 -0.00010953871085904071 0.36740455511059711 0 -0.003468337841216744 0.35628739804788773 0 -0.0074214699121181666 0.34315668455662152 0 -0.003468337841216744 0.35628739804788773 0 0.0031259210745794249 0.34613085015479922 0 -0.0074214699121181666 0.34315668455662152 0 -0.003468337841216744 0.35628739804788773 0 -0.014935844409121671 0.35407572535043702 0 -0.024815604907403369 0.33951498246533429 0 -0.014935844409121671 0.35407572535043702 0 -0.028266333341069622 0.35872901943730462 0 -0.024815604907403369 0.33951498246533429 0 -0.0074214699121181666 0.34315668455662152 0 -0.014935844409121671 0.35407572535043702 0 -0.011278991072699231 0.36801341262987852 0 -0.014935844409121671 0.35407572535043702 0 -0.028266333341069622 0.35872901943730462 0 -0.028266333341069622 0.35872901943730462 0 -0.02414161663720811 0.37375777437116942 0 -0.038090051821240478 0.37605060359231712 0 -0.011278991072699231 0.36801341262987852 0 -0.028266333341069622 0.35872901943730462 0 -0.02414161663720811 0.37375777437116942 0 -0.011278991072699231 0.36801341262987852 0 -0.02414161663720811 0.37375777437116942 0 -0.013544938533253991 0.38312459204672528 0 -0.028266333341069622 0.35872901943730462 0 -0.046029723446326408 0.36245246448892438 0 -0.038090051821240478 0.37605060359231712 0 -0.042340327970951719 0.34346269569932159 0 -0.024815604907403369 0.33951498246533429 0 -0.028266333341069622 0.35872901943730462 0 -0.042340327970951719 0.34346269569932159 0 -0.028266333341069622 0.35872901943730462 0 -0.046029723446326408 0.36245246448892438 0 -0.042340327970951719 0.34346269569932159 0 -0.046029723446326408 0.36245246448892438 0 -0.062011147067223667 0.35223333539759938 0 -0.056564264390901148 0.33784876966853172 0 -0.042340327970951719 0.34346269569932159 0 -0.062011147067223667 0.35223333539759938 0 -0.046029723446326408 0.36245246448892438 0 -0.062011147067223667 0.35223333539759938 0 -0.059440757031146582 0.38178666831807928 0 -0.046029723446326408 0.36245246448892438 0 -0.059440757031146582 0.38178666831807928 0 -0.038090051821240478 0.37605060359231712 0 -0.062011147067223667 0.35223333539759938 0 -0.059440757031146582 0.38178666831807928 0 -0.062011147067223667 0.35223333539759938 0 -0.079945729696540513 0.36736964082151968 0 -0.059440757031146582 0.38178666831807928 0 -0.079945729696540513 0.36736964082151968 0 -0.10240176752465049 0.36398761235855898 0 -0.094759743236245919 0.37772474656159488 0 -0.079945729696540513 0.36736964082151968 0 -0.10240176752465049 0.36398761235855898 0 -0.095836728636280788 0.34767838608538909 0 -0.079945729696540513 0.36736964082151968 0 -0.078542337375020449 0.33739886836335709 0 -0.079945729696540513 0.36736964082151968 0 -0.078542337375020449 0.33739886836335709 0 -0.095836728636280788 0.34767838608538909 0 -0.062011147067223667 0.35223333539759938 0 -0.079945729696540513 0.36736964082151968 0 -0.078542337375020449 0.33739886836335709 0 -0.059565407055416422 0.32148664739843152 0 -0.056564264390901148 0.33784876966853172 0 -0.078542337375020449 0.33739886836335709 0 -0.056564264390901148 0.33784876966853172 0 -0.062011147067223667 0.35223333539759938 0 -0.078542337375020449 0.33739886836335709 0 -0.077138945053500385 0.30742809590519449 0 -0.078542337375020449 0.33739886836335709 0 -0.077138945053500385 0.30742809590519449 0 -0.059565407055416422 0.32148664739843152 0 -0.078542337375020449 0.33739886836335709 0 -0.077138945053500385 0.30742809590519449 0 -0.078542337375020449 0.33739886836335709 0 -0.093766928942592809 0.32732982000800298 0 -0.098135646001816665 0.30944339346124922 0 -0.077138945053500385 0.30742809590519449 0 -0.093766928942592809 0.32732982000800298 0 -0.078542337375020449 0.33739886836335709 0 -0.093766928942592809 0.32732982000800298 0 -0.095836728636280788 0.34767838608538909 0 -0.10590382422126179 0.33845276193738177 0 -0.093766928942592809 0.32732982000800298 0 -0.095836728636280788 0.34767838608538909 0 -0.10590382422126179 0.33845276193738177 0 -0.093766928942592809 0.32732982000800298 0 -0.1119419358528152 0.32266035194818471 0 -0.098135646001816665 0.30944339346124922 0 -0.093766928942592809 0.32732982000800298 0 -0.1119419358528152 0.32266035194818471 0 -0.11718887709159211 0.30798009986445352 0 -0.098135646001816665 0.30944339346124922 0 -0.1119419358528152 0.32266035194818471 0 -0.12917885935540449 0.33548528228844321 0 -0.12747747950422311 0.31727075412957778 0 -0.1119419358528152 0.32266035194818471 0 -0.12747747950422311 0.31727075412957778 0 -0.11718887709159211 0.30798009986445352 0 -0.1119419358528152 0.32266035194818471 0 -0.12917885935540449 0.33548528228844321 0 -0.10590382422126179 0.33845276193738177 0 -0.1144597840576186 0.35153161302351432 0 -0.12917885935540449 0.33548528228844321 0 -0.10590382422126179 0.33845276193738177 0 -0.1119419358528152 0.32266035194818471 0 -0.1310209184129951 0.35256233593402903 0 -0.1144597840576186 0.35153161302351432 0 -0.1243166256956041 0.36893017663585831 0 -0.1310209184129951 0.35256233593402903 0 -0.12917885935540449 0.33548528228844321 0 -0.1144597840576186 0.35153161302351432 0 -0.1243166256956041 0.36893017663585831 0 -0.10240176752465049 0.36398761235855898 0 -0.10885592438472361 0.38589153578161178 0 -0.1144597840576186 0.35153161302351432 0 -0.1243166256956041 0.36893017663585831 0 -0.10240176752465049 0.36398761235855898 0 -0.10590382422126179 0.33845276193738177 0 -0.1144597840576186 0.35153161302351432 0 -0.095836728636280788 0.34767838608538909 0 -0.1144597840576186 0.35153161302351432 0 -0.10240176752465049 0.36398761235855898 0 -0.095836728636280788 0.34767838608538909 0 -0.10885592438472361 0.38589153578161178 0 -0.1187836221401182 0.40954781268373952 0 -0.097646388325659542 0.41154709203790341 0 -0.10885592438472361 0.38589153578161178 0 -0.097646388325659542 0.41154709203790341 0 -0.084394034694098299 0.39652882962650948 0 -0.10240176752465049 0.36398761235855898 0 -0.094759743236245919 0.37772474656159488 0 -0.10885592438472361 0.38589153578161178 0 -0.094759743236245919 0.37772474656159488 0 -0.10885592438472361 0.38589153578161178 0 -0.084394034694098299 0.39652882962650948 0 -0.13102619265169069 0.38719978828045409 0 -0.1243166256956041 0.36893017663585831 0 -0.10885592438472361 0.38589153578161178 0 -0.13102619265169069 0.38719978828045409 0 -0.10885592438472361 0.38589153578161178 0 -0.1187836221401182 0.40954781268373952 0 -0.12549131003263969 0.43394357887995061 0 -0.1187836221401182 0.40954781268373952 0 -0.1013243379954777 0.42957906829448589 0 -0.12549131003263969 0.43394357887995061 0 -0.1013243379954777 0.42957906829448589 0 -0.1082623319187932 0.44879588076248877 0 -0.1187836221401182 0.40954781268373952 0 -0.1013243379954777 0.42957906829448589 0 -0.097646388325659542 0.41154709203790341 0 -0.097646388325659542 0.41154709203790341 0 -0.079425860431156098 0.42401213063939103 0 -0.084394034694098299 0.39652882962650948 0 -0.1013243379954777 0.42957906829448589 0 -0.097646388325659542 0.41154709203790341 0 -0.079425860431156098 0.42401213063939103 0 -0.1013243379954777 0.42957906829448589 0 -0.079425860431156098 0.42401213063939103 0 -0.082020057617639183 0.45418445847984878 0 -0.079425860431156098 0.42401213063939103 0 -0.056870366995069477 0.41134000123855929 0 -0.054299976958992392 0.4408933341590392 0 -0.079425860431156098 0.42401213063939103 0 -0.084394034694098299 0.39652882962650948 0 -0.056870366995069477 0.41134000123855929 0 -0.084394034694098299 0.39652882962650948 0 -0.059440757031146582 0.38178666831807928 0 -0.056870366995069477 0.41134000123855929 0 -0.079945729696540513 0.36736964082151968 0 -0.094759743236245919 0.37772474656159488 0 -0.084394034694098299 0.39652882962650948 0 -0.079945729696540513 0.36736964082151968 0 -0.084394034694098299 0.39652882962650948 0 -0.059440757031146582 0.38178666831807928 0 -0.059440757031146582 0.38178666831807928 0 -0.043431419134799969 0.39409435200034793 0 -0.038090051821240478 0.37605060359231712 0 -0.059440757031146582 0.38178666831807928 0 -0.043431419134799969 0.39409435200034793 0 -0.056870366995069477 0.41134000123855929 0 -0.059440757031146582 0.38178666831807928 0 -0.056870366995069477 0.41134000123855929 0 -0.043431419134799969 0.39409435200034793 0 -0.027671285716597979 0.39283513793387043 0 -0.035084634109945327 0.40845934891891339 0 -0.043431419134799969 0.39409435200034793 0 -0.035084634109945327 0.40845934891891339 0 -0.056870366995069477 0.41134000123855929 0 -0.043431419134799969 0.39409435200034793 0 -0.038090051821240478 0.37605060359231712 0 -0.027671285716597979 0.39283513793387043 0 -0.027671285716597979 0.39283513793387043 0 -0.0097317187178641816 0.39576316208667889 0 -0.013544938533253991 0.38312459204672528 0 -0.02414161663720811 0.37375777437116942 0 -0.027671285716597979 0.39283513793387043 0 -0.013544938533253991 0.38312459204672528 0 -0.02414161663720811 0.37375777437116942 0 -0.038090051821240478 0.37605060359231712 0 -0.027671285716597979 0.39283513793387043 0 -0.027671285716597979 0.39283513793387043 0 -0.017944018106968739 0.4081408173707809 0 -0.035084634109945327 0.40845934891891339 0 -0.027671285716597979 0.39283513793387043 0 -0.0097317187178641816 0.39576316208667889 0 -0.017944018106968739 0.4081408173707809 0 -0.0097317187178641816 0.39576316208667889 0 -0.017944018106968739 0.4081408173707809 0 0.00098758436381884453 0.4104430098714662 0 -0.0097317187178641816 0.39576316208667889 0 0.00098758436381884453 0.4104430098714662 0 0.0050989194780995568 0.38525347321202952 0 -0.011278991072699231 0.36801341262987852 0 -0.013544938533253991 0.38312459204672528 0 0.0050989194780995568 0.38525347321202952 0 -0.0097317187178641816 0.39576316208667889 0 -0.013544938533253991 0.38312459204672528 0 0.0050989194780995568 0.38525347321202952 0 -0.003123750750461876 0.435632546530903 0 0.00098758436381884453 0.4104430098714662 0 -0.003123750750461876 0.435632546530903 0 -0.01176964933022716 0.42164999838178963 0 -0.02030193433586467 0.43579538394588507 0 -0.003123750750461876 0.435632546530903 0 -0.01176964933022716 0.42164999838178963 0 0.00098758436381884453 0.4104430098714662 0 -0.01176964933022716 0.42164999838178963 0 -0.017944018106968739 0.4081408173707809 0 0.00098758436381884453 0.4104430098714662 0 -0.017944018106968739 0.4081408173707809 0 -0.02439440513099661 0.41969424703196739 0 -0.035084634109945327 0.40845934891891339 0 -0.01176964933022716 0.42164999838178963 0 -0.017944018106968739 0.4081408173707809 0 -0.02439440513099661 0.41969424703196739 0 -0.01176964933022716 0.42164999838178963 0 -0.02439440513099661 0.41969424703196739 0 -0.02030193433586467 0.43579538394588507 0 -0.02439440513099661 0.41969424703196739 0 -0.02030193433586467 0.43579538394588507 0 -0.037410157838143478 0.42776971123367907 0 -0.037410157838143478 0.42776971123367907 0 -0.035084634109945327 0.40845934891891339 0 -0.056870366995069477 0.41134000123855929 0 -0.02439440513099661 0.41969424703196739 0 -0.037410157838143478 0.42776971123367907 0 -0.035084634109945327 0.40845934891891339 0 -0.056870366995069477 0.41134000123855929 0 -0.054299976958992392 0.4408933341590392 0 -0.037410157838143478 0.42776971123367907 0 -0.056870366995069477 0.41134000123855929 0 -0.054299976958992392 0.4408933341590392 0 -0.054299976958992392 0.4408933341590392 0 -0.051729586922915287 0.47044666707951932 0 -0.054299976958992392 0.4408933341590392 0 -0.03350962949799248 0.45043595210771048 0 -0.051729586922915287 0.47044666707951932 0 -0.03350962949799248 0.45043595210771048 0 -0.028476260312819138 0.47028547005669802 0 -0.051729586922915287 0.47044666707951932 0 -0.037410157838143478 0.42776971123367907 0 -0.054299976958992392 0.4408933341590392 0 -0.03350962949799248 0.45043595210771048 0 -0.02030193433586467 0.43579538394588507 0 -0.037410157838143478 0.42776971123367907 0 -0.03350962949799248 0.45043595210771048 0 -0.02030193433586467 0.43579538394588507 0 -0.03350962949799248 0.45043595210771048 0 -0.0072350858647425836 0.46082208319033968 0 -0.03350962949799248 0.45043595210771048 0 -0.0072350858647425836 0.46082208319033968 0 -0.028476260312819138 0.47028547005669802 0 -0.003123750750461876 0.435632546530903 0 -0.02030193433586467 0.43579538394588507 0 -0.0072350858647425836 0.46082208319033968 0 -0.003123750750461876 0.435632546530903 0 -0.0072350858647425836 0.46082208319033968 0 -0.0040596534037184787 0.48264772043053378 0 -0.025963750435920571 0.50000000000000044 0 -0.011346420979023259 0.4860116198497762 0 -0.0040596534037184787 0.48264772043053378 0 -0.025963750435920571 0.50000000000000044 0 -2.6928171576900969e-05 0.5 0 -0.0040596534037184787 0.48264772043053378 0 -0.025963750435920571 0.50000000000000044 0 -0.0072350858647425836 0.46082208319033968 0 -0.011346420979023259 0.4860116198497762 0 -0.0072350858647425836 0.46082208319033968 0 -0.011346420979023259 0.4860116198497762 0 -0.0040596534037184787 0.48264772043053378 0 -0.0072350858647425836 0.46082208319033968 0 -0.011346420979023259 0.4860116198497762 0 -0.028476260312819138 0.47028547005669802 0 -0.011346420979023259 0.4860116198497762 0 -0.028476260312819138 0.47028547005669802 0 -0.033335043107503237 0.4853487513971988 0 -0.011346420979023259 0.4860116198497762 0 -0.025963750435920571 0.50000000000000044 0 -0.033335043107503237 0.4853487513971988 0 -0.033335043107503237 0.4853487513971988 0 -0.051729586922915287 0.47044666707951932 0 -0.049159196886838237 0.49999999999999922 0 -0.025963750435920571 0.50000000000000044 0 -0.033335043107503237 0.4853487513971988 0 -0.049159196886838237 0.49999999999999922 0 -0.028476260312819138 0.47028547005669802 0 -0.033335043107503237 0.4853487513971988 0 -0.051729586922915287 0.47044666707951932 0 -0.051729586922915287 0.47044666707951932 0 -0.049159196886838237 0.49999999999999922 0 -0.069311840632328717 0.48070798579294022 0 -0.051729586922915287 0.47044666707951932 0 -0.049159196886838237 0.49999999999999922 0 -0.0754687828329621 0.5 0 -0.088181578901288804 0.47890880340533287 0 -0.069311840632328717 0.48070798579294022 0 -0.049159196886838237 0.49999999999999922 0 -0.0754687828329621 0.5 0 -0.069311840632328717 0.48070798579294022 0 -0.0754687828329621 0.5 0 -0.088181578901288804 0.47890880340533287 0 -0.101778368779086 0.5 0 -0.088181578901288804 0.47890880340533287 0 -0.069311840632328717 0.48070798579294022 0 -0.082020057617639183 0.45418445847984878 0 -0.054299976958992392 0.4408933341590392 0 -0.051729586922915287 0.47044666707951932 0 -0.082020057617639183 0.45418445847984878 0 -0.051729586922915287 0.47044666707951932 0 -0.069311840632328717 0.48070798579294022 0 -0.082020057617639183 0.45418445847984878 0 -0.079425860431156098 0.42401213063939103 0 -0.054299976958992392 0.4408933341590392 0 -0.082020057617639183 0.45418445847984878 0 -0.088181578901288804 0.47890880340533287 0 -0.082020057617639183 0.45418445847984878 0 -0.1066172861623392 0.46732762758783108 0 -0.082020057617639183 0.45418445847984878 0 -0.1066172861623392 0.46732762758783108 0 -0.1082623319187932 0.44879588076248877 0 -0.1013243379954777 0.42957906829448589 0 -0.082020057617639183 0.45418445847984878 0 -0.1082623319187932 0.44879588076248877 0 -0.12585866778586999 0.45894467057032751 0 -0.12549131003263969 0.43394357887995061 0 -0.1082623319187932 0.44879588076248877 0 -0.12585866778586999 0.45894467057032751 0 -0.1066172861623392 0.46732762758783108 0 -0.1082623319187932 0.44879588076248877 0 -0.12585215327447319 0.4788759980507391 0 -0.12585866778586999 0.45894467057032751 0 -0.1066172861623392 0.46732762758783108 0 -0.12585215327447319 0.4788759980507391 0 -0.1066172861623392 0.46732762758783108 0 -0.101778368779086 0.5 0 -0.088181578901288804 0.47890880340533287 0 -0.1066172861623392 0.46732762758783108 0 -0.101778368779086 0.5 0 -0.1280879547252097 0.5 0 -0.12585215327447319 0.4788759980507391 0 -0.101778368779086 0.5 0 -0.15959755580972479 0.084178310987390509 0 -0.17585844643910539 0.091512189364117341 0 -0.1630850360195806 0.097965438629696339 0 -0.16969621335058491 0.080491469039413815 0 -0.15959755580972479 0.084178310987390509 0 -0.17585844643910539 0.091512189364117341 0 -0.15959755580972479 0.084178310987390509 0 -0.1630850360195806 0.097965438629696339 0 -0.15044327437043661 0.088186096167462702 0 -0.15959755580972479 0.084178310987390509 0 -0.16144062485291791 0.077831068069168438 0 -0.15593068256943521 0.074684126355267583 0 -0.16969621335058491 0.080491469039413815 0 -0.15959755580972479 0.084178310987390509 0 -0.16144062485291791 0.077831068069168438 0 -0.1642904016101506 0.073024854877467904 0 -0.15583147793091401 0.068237667852645997 0 -0.15593068256943521 0.074684126355267583 0 -0.16144062485291791 0.077831068069168438 0 -0.1642904016101506 0.073024854877467904 0 -0.15593068256943521 0.074684126355267583 0 -0.1636605914677049 0.065702203840382528 0 -0.1642904016101506 0.073024854877467904 0 -0.15583147793091401 0.068237667852645997 0 -0.1636605914677049 0.065702203840382528 0 -0.15583147793091401 0.068237667852645997 0 -0.1567263369593084 0.062348801619730568 0 -0.1636605914677049 0.065702203840382528 0 -0.1605564917933697 0.059693292433383643 0 -0.1567263369593084 0.062348801619730568 0 -0.1636605914677049 0.065702203840382528 0 -0.1790644639049416 0.072808198998443874 0 -0.16495928908662111 0.057594015148772132 0 -0.16969621335058491 0.080491469039413815 0 -0.1642904016101506 0.073024854877467904 0 -0.1790644639049416 0.072808198998443874 0 -0.1636605914677049 0.065702203840382528 0 -0.1642904016101506 0.073024854877467904 0 -0.1790644639049416 0.072808198998443874 0 -0.16969621335058491 0.080491469039413815 0 -0.16144062485291791 0.077831068069168438 0 -0.1642904016101506 0.073024854877467904 0 -0.1790644639049416 0.072808198998443874 0 -0.17941710979146891 0.057721909460366663 0 -0.19592357530150209 0.062313214016805049 0 -0.16969621335058491 0.080491469039413815 0 -0.1790644639049416 0.072808198998443874 0 -0.17585844643910539 0.091512189364117341 0 -0.1790644639049416 0.072808198998443874 0 -0.19192926524191631 0.09438503106877083 0 -0.1790644639049416 0.072808198998443874 0 -0.17585844643910539 0.091512189364117341 0 -0.19192926524191631 0.09438503106877083 0 -0.17585844643910539 0.091512189364117341 0 -0.1737998171564987 0.1084560653346931 0 -0.19084242711415561 0.1093953912954924 0 -0.17585844643910539 0.091512189364117341 0 -0.19084242711415561 0.1093953912954924 0 -0.17585844643910539 0.091512189364117341 0 -0.19084242711415561 0.1093953912954924 0 -0.19192926524191631 0.09438503106877083 0 -0.1737998171564987 0.1084560653346931 0 -0.1812687766166434 0.12380362318642241 0 -0.19084242711415561 0.1093953912954924 0 -0.1812687766166434 0.12380362318642241 0 -0.15671114544408199 0.1203286531459757 0 -0.15845268348224029 0.12802297094882339 0 -0.1737998171564987 0.1084560653346931 0 -0.1812687766166434 0.12380362318642241 0 -0.15671114544408199 0.1203286531459757 0 -0.1812687766166434 0.12380362318642241 0 -0.15671114544408199 0.1203286531459757 0 -0.17585844643910539 0.091512189364117341 0 -0.1737998171564987 0.1084560653346931 0 -0.1630850360195806 0.097965438629696339 0 -0.15671114544408199 0.1203286531459757 0 -0.1630850360195806 0.097965438629696339 0 -0.1498141748421184 0.10332162042626079 0 -0.1737998171564987 0.1084560653346931 0 -0.15671114544408199 0.1203286531459757 0 -0.1630850360195806 0.097965438629696339 0 -0.1498141748421184 0.10332162042626079 0 -0.1406440163006055 0.084471688731503777 0 -0.1498141748421184 0.10332162042626079 0 -0.13762294145774259 0.096748405779360308 0 -0.1406440163006055 0.084471688731503777 0 -0.1630850360195806 0.097965438629696339 0 -0.1498141748421184 0.10332162042626079 0 -0.15044327437043661 0.088186096167462702 0 -0.1498141748421184 0.10332162042626079 0 -0.14121198087177261 0.1082752744601332 0 -0.13762294145774259 0.096748405779360308 0 -0.15671114544408199 0.1203286531459757 0 -0.1321535142715205 0.1168536831055289 0 -0.15671114544408199 0.1203286531459757 0 -0.1498141748421184 0.10332162042626079 0 -0.14121198087177261 0.1082752744601332 0 -0.15671114544408199 0.1203286531459757 0 -0.14121198087177261 0.1082752744601332 0 -0.1321535142715205 0.1168536831055289 0 -0.15671114544408199 0.1203286531459757 0 -0.1321535142715205 0.1168536831055289 0 -0.14318085325170099 0.12743535974639381 0 -0.14121198087177261 0.1082752744601332 0 -0.1321535142715205 0.1168536831055289 0 -0.13091497128709609 0.107442988618835 0 -0.1321535142715205 0.1168536831055289 0 -0.13091497128709609 0.107442988618835 0 -0.12925040267058449 0.1090812213373212 0 -0.12925040267058449 0.1090812213373212 0 -0.12521400950370701 0.092123294682975254 0 -0.13091497128709609 0.107442988618835 0 -0.12854148902822821 0.090720496459719718 0 -0.13762294145774259 0.096748405779360308 0 -0.13091497128709609 0.107442988618835 0 -0.12854148902822821 0.090720496459719718 0 -0.13091497128709609 0.107442988618835 0 -0.12925040267058449 0.1090812213373212 0 -0.12521400950370701 0.092123294682975254 0 -0.13091497128709609 0.107442988618835 0 -0.12521400950370701 0.092123294682975254 0 -0.12854148902822821 0.090720496459719718 0 -0.14121198087177261 0.1082752744601332 0 -0.13762294145774259 0.096748405779360308 0 -0.13091497128709609 0.107442988618835 0 -0.12854148902822821 0.090720496459719718 0 -0.13077368677813231 0.082194545861060536 0 -0.13518943788848331 0.087917855367356593 0 -0.12854148902822821 0.090720496459719718 0 -0.1254225941229038 0.068746160900854683 0 -0.12854148902822821 0.090720496459719718 0 -0.13077368677813231 0.082194545861060536 0 -0.1254225941229038 0.068746160900854683 0 -0.12521400950370701 0.092123294682975254 0 -0.12854148902822821 0.090720496459719718 0 -0.12854148902822821 0.090720496459719718 0 -0.13518943788848331 0.087917855367356593 0 -0.13077368677813231 0.082194545861060536 0 -0.13225146192384779 0.078163800102795292 0 -0.1347146507227672 0.083186972515679053 0 -0.13225146192384779 0.078163800102795292 0 -0.1406440163006055 0.084471688731503777 0 -0.13244798252661241 0.074250851692975101 0 -0.13225146192384779 0.078163800102795292 0 -0.1347146507227672 0.083186972515679053 0 -0.1406440163006055 0.084471688731503777 0 -0.13077368677813231 0.082194545861060536 0 -0.1347146507227672 0.083186972515679053 0 -0.13518943788848331 0.087917855367356593 0 -0.1347146507227672 0.083186972515679053 0 -0.13518943788848331 0.087917855367356593 0 -0.1406440163006055 0.084471688731503777 0 -0.13762294145774259 0.096748405779360308 0 -0.12854148902822821 0.090720496459719718 0 -0.13518943788848331 0.087917855367356593 0 -0.13762294145774259 0.096748405779360308 0 -0.13518943788848331 0.087917855367356593 0 -0.1406440163006055 0.084471688731503777 0 -0.1498141748421184 0.10332162042626079 0 -0.1406440163006055 0.084471688731503777 0 -0.15044327437043661 0.088186096167462702 0 -0.1406440163006055 0.084471688731503777 0 -0.14432336983940139 0.078578781765357542 0 -0.1397207270135728 0.073265326789952123 0 -0.1406440163006055 0.084471688731503777 0 -0.1463141285110624 0.08257446960330668 0 -0.15044327437043661 0.088186096167462702 0 -0.1406440163006055 0.084471688731503777 0 -0.14432336983940139 0.078578781765357542 0 -0.1463141285110624 0.08257446960330668 0 -0.14432336983940139 0.078578781765357542 0 -0.1463141285110624 0.08257446960330668 0 -0.149845853533806 0.079061311748902727 0 -0.1463141285110624 0.08257446960330668 0 -0.149845853533806 0.079061311748902727 0 -0.15044327437043661 0.088186096167462702 0 -0.15959755580972479 0.084178310987390509 0 -0.149845853533806 0.079061311748902727 0 -0.15593068256943521 0.074684126355267583 0 -0.15959755580972479 0.084178310987390509 0 -0.149845853533806 0.079061311748902727 0 -0.15044327437043661 0.088186096167462702 0 -0.1489773437757653 0.068182137942970455 0 -0.15217812150563201 0.064227404120331497 0 -0.15583147793091401 0.068237667852645997 0 -0.1489773437757653 0.068182137942970455 0 -0.15583147793091401 0.068237667852645997 0 -0.1508209848344606 0.073064099844654062 0 -0.1489773437757653 0.068182137942970455 0 -0.15217812150563201 0.064227404120331497 0 -0.14717927454344501 0.064090066655530853 0 -0.15217812150563201 0.064227404120331497 0 -0.14717927454344501 0.064090066655530853 0 -0.15093993510037931 0.059233237957819401 0 -0.15217812150563201 0.064227404120331497 0 -0.15583147793091401 0.068237667852645997 0 -0.1567263369593084 0.062348801619730568 0 -0.15583147793091401 0.068237667852645997 0 -0.15593068256943521 0.074684126355267583 0 -0.1508209848344606 0.073064099844654062 0 -0.149845853533806 0.079061311748902727 0 -0.15593068256943521 0.074684126355267583 0 -0.1508209848344606 0.073064099844654062 0 -0.149845853533806 0.079061311748902727 0 -0.1508209848344606 0.073064099844654062 0 -0.14567944807545721 0.073261838573327104 0 -0.1489773437757653 0.068182137942970455 0 -0.1508209848344606 0.073064099844654062 0 -0.14567944807545721 0.073261838573327104 0 -0.14432336983940139 0.078578781765357542 0 -0.149845853533806 0.079061311748902727 0 -0.14567944807545721 0.073261838573327104 0 -0.14432336983940139 0.078578781765357542 0 -0.14567944807545721 0.073261838573327104 0 -0.1397207270135728 0.073265326789952123 0 -0.14567944807545721 0.073261838573327104 0 -0.1428024337849349 0.06691454381704455 0 -0.1397207270135728 0.073265326789952123 0 -0.1489773437757653 0.068182137942970455 0 -0.14567944807545721 0.073261838573327104 0 -0.1428024337849349 0.06691454381704455 0 -0.1489773437757653 0.068182137942970455 0 -0.1428024337849349 0.06691454381704455 0 -0.14717927454344501 0.064090066655530853 0 -0.1428024337849349 0.06691454381704455 0 -0.14717927454344501 0.064090066655530853 0 -0.14216958858581721 0.060016206066245609 0 -0.1428024337849349 0.06691454381704455 0 -0.13799361951404601 0.063272377952081529 0 -0.14216958858581721 0.060016206066245609 0 -0.1406440163006055 0.084471688731503777 0 -0.13244798252661241 0.074250851692975101 0 -0.13147385775909259 0.065621757036746706 0 -0.1406440163006055 0.084471688731503777 0 -0.1397207270135728 0.073265326789952123 0 -0.13147385775909259 0.065621757036746706 0 -0.1428024337849349 0.06691454381704455 0 -0.13799361951404601 0.063272377952081529 0 -0.13798729052570891 0.067223858603260384 0 -0.1406440163006055 0.084471688731503777 0 -0.13147385775909259 0.065621757036746706 0 -0.13798729052570891 0.067223858603260384 0 -0.1397207270135728 0.073265326789952123 0 -0.13147385775909259 0.065621757036746706 0 -0.1428024337849349 0.06691454381704455 0 -0.13798729052570891 0.067223858603260384 0 -0.1397207270135728 0.073265326789952123 0 -0.13799361951404601 0.063272377952081529 0 -0.13798729052570891 0.067223858603260384 0 -0.13147385775909259 0.065621757036746706 0 -0.13799361951404601 0.063272377952081529 0 -0.13147385775909259 0.065621757036746706 0 -0.13612421747953821 0.059122663602096573 0 -0.13077368677813231 0.082194545861060536 0 -0.13225146192384779 0.078163800102795292 0 -0.1254225941229038 0.068746160900854683 0 -0.13225146192384779 0.078163800102795292 0 -0.13244798252661241 0.074250851692975101 0 -0.1254225941229038 0.068746160900854683 0 -0.13244798252661241 0.074250851692975101 0 -0.1254225941229038 0.068746160900854683 0 -0.13147385775909259 0.065621757036746706 0 -0.13147385775909259 0.065621757036746706 0 -0.13241554768282779 0.052715274364744151 0 -0.1223036992175798 0.046771825341989579 0 -0.13147385775909259 0.065621757036746706 0 -0.1223036992175798 0.046771825341989579 0 -0.1254225941229038 0.068746160900854683 0 -0.13147385775909259 0.065621757036746706 0 -0.1223036992175798 0.046771825341989579 0 -0.13147385775909259 0.065621757036746706 0 -0.13612421747953821 0.059122663602096573 0 -0.13241554768282779 0.052715274364744151 0 -0.13612421747953821 0.059122663602096573 0 -0.13947129161547059 0.053673444244999917 0 -0.13241554768282779 0.052715274364744151 0 -0.13612421747953821 0.059122663602096573 0 -0.13947129161547059 0.053673444244999917 0 -0.14216958858581721 0.060016206066245609 0 -0.13799361951404601 0.063272377952081529 0 -0.13612421747953821 0.059122663602096573 0 -0.14216958858581721 0.060016206066245609 0 -0.13729636915165311 0.047798906740592749 0 -0.13947129161547059 0.053673444244999917 0 -0.14340737516892499 0.048245129965086099 0 -0.13729636915165311 0.047798906740592749 0 -0.13947129161547059 0.053673444244999917 0 -0.13241554768282779 0.052715274364744151 0 -0.13729636915165311 0.047798906740592749 0 -0.13241554768282779 0.052715274364744151 0 -0.13133307386546461 0.045722459128275307 0 -0.13241554768282779 0.052715274364744151 0 -0.13133307386546461 0.045722459128275307 0 -0.1223036992175798 0.046771825341989579 0 -0.12915789987331769 0.03963493444348222 0 -0.13133307386546461 0.045722459128275307 0 -0.1223036992175798 0.046771825341989579 0 -0.12915789987331769 0.03963493444348222 0 -0.1266498071351265 0.032053537492123411 0 -0.1223036992175798 0.046771825341989579 0 -0.12915789987331769 0.03963493444348222 0 -0.13133307386546461 0.045722459128275307 0 -0.13524825732064269 0.041373323429941711 0 -0.12915789987331769 0.03963493444348222 0 -0.1338431549305566 0.033232091891949339 0 -0.13524825732064269 0.041373323429941711 0 -0.12915789987331769 0.03963493444348222 0 -0.1266498071351265 0.032053537492123411 0 -0.1338431549305566 0.033232091891949339 0 -0.1338431549305566 0.033232091891949339 0 -0.143570962998157 0.036727118608798341 0 -0.1409781739946892 0.027128056240030129 0 -0.1338431549305566 0.033232091891949339 0 -0.13524825732064269 0.041373323429941711 0 -0.143570962998157 0.036727118608798341 0 -0.13524825732064269 0.041373323429941711 0 -0.14115775455199869 0.043492119011670431 0 -0.143570962998157 0.036727118608798341 0 -0.13729636915165311 0.047798906740592749 0 -0.13133307386546461 0.045722459128275307 0 -0.13524825732064269 0.041373323429941711 0 -0.13729636915165311 0.047798906740592749 0 -0.13524825732064269 0.041373323429941711 0 -0.14115775455199869 0.043492119011670431 0 -0.13729636915165311 0.047798906740592749 0 -0.14115775455199869 0.043492119011670431 0 -0.14340737516892499 0.048245129965086099 0 -0.14626580812061571 0.043316116313933242 0 -0.143570962998157 0.036727118608798341 0 -0.1549838497381307 0.039819777692187558 0 -0.14115775455199869 0.043492119011670431 0 -0.14626580812061571 0.043316116313933242 0 -0.14340737516892499 0.048245129965086099 0 -0.14115775455199869 0.043492119011670431 0 -0.14626580812061571 0.043316116313933242 0 -0.143570962998157 0.036727118608798341 0 -0.14626580812061571 0.043316116313933242 0 -0.1504303007895465 0.047361476128921609 0 -0.14340737516892499 0.048245129965086099 0 -0.143570962998157 0.036727118608798341 0 -0.1549838497381307 0.039819777692187558 0 -0.15198625115200809 0.026660748601051859 0 -0.1549838497381307 0.039819777692187558 0 -0.1504303007895465 0.047361476128921609 0 -0.15764591476658621 0.048139200706250301 0 -0.14626580812061571 0.043316116313933242 0 -0.1549838497381307 0.039819777692187558 0 -0.1504303007895465 0.047361476128921609 0 -0.1504303007895465 0.047361476128921609 0 -0.15368376048502849 0.052908777460702362 0 -0.15764591476658621 0.048139200706250301 0 -0.1504303007895465 0.047361476128921609 0 -0.15368376048502849 0.052908777460702362 0 -0.1466017264381364 0.053578038646384087 0 -0.15368376048502849 0.052908777460702362 0 -0.15093993510037931 0.059233237957819401 0 -0.15673228037164849 0.057611057978652798 0 -0.15093993510037931 0.059233237957819401 0 -0.1567263369593084 0.062348801619730568 0 -0.15673228037164849 0.057611057978652798 0 -0.15217812150563201 0.064227404120331497 0 -0.15093993510037931 0.059233237957819401 0 -0.1567263369593084 0.062348801619730568 0 -0.15368376048502849 0.052908777460702362 0 -0.15093993510037931 0.059233237957819401 0 -0.1466017264381364 0.053578038646384087 0 -0.15093993510037931 0.059233237957819401 0 -0.14216958858581721 0.060016206066245609 0 -0.1466017264381364 0.053578038646384087 0 -0.14717927454344501 0.064090066655530853 0 -0.15093993510037931 0.059233237957819401 0 -0.14216958858581721 0.060016206066245609 0 -0.13947129161547059 0.053673444244999917 0 -0.14216958858581721 0.060016206066245609 0 -0.1466017264381364 0.053578038646384087 0 -0.13947129161547059 0.053673444244999917 0 -0.14340737516892499 0.048245129965086099 0 -0.1466017264381364 0.053578038646384087 0 -0.1504303007895465 0.047361476128921609 0 -0.14340737516892499 0.048245129965086099 0 -0.1466017264381364 0.053578038646384087 0 -0.13357713014657771 0.001837916871094596 0 -0.13458587759698809 0.01045610627648846 0 -0.14308145814072051 0.0024165038181870099 0 -0.1267834157359943 -0.0026565814049187282 0 -0.13357713014657771 0.001837916871094596 0 -0.12876234116223551 0.0062894663790507184 0 -0.13357713014657771 0.001837916871094596 0 -0.12876234116223551 0.0062894663790507184 0 -0.13458587759698809 0.01045610627648846 0 -0.12519071472699889 0.014101852870310769 0 -0.13458587759698809 0.01045610627648846 0 -0.1316422681067437 0.021261077894833589 0 -0.12876234116223551 0.0062894663790507184 0 -0.12519071472699889 0.014101852870310769 0 -0.13458587759698809 0.01045610627648846 0 -0.13458587759698809 0.01045610627648846 0 -0.14384823278598091 0.01775924420351754 0 -0.14308145814072051 0.0024165038181870099 0 -0.13458587759698809 0.01045610627648846 0 -0.1316422681067437 0.021261077894833589 0 -0.14384823278598091 0.01775924420351754 0 -0.1316422681067437 0.021261077894833589 0 -0.1409781739946892 0.027128056240030129 0 -0.14384823278598091 0.01775924420351754 0 -0.12519071472699889 0.014101852870310769 0 -0.1316422681067437 0.021261077894833589 0 -0.118996745933825 0.02347251473980343 0 -0.1266498071351265 0.032053537492123411 0 -0.1338431549305566 0.033232091891949339 0 -0.1316422681067437 0.021261077894833589 0 -0.1266498071351265 0.032053537492123411 0 -0.1316422681067437 0.021261077894833589 0 -0.118996745933825 0.02347251473980343 0 -0.1338431549305566 0.033232091891949339 0 -0.1316422681067437 0.021261077894833589 0 -0.1409781739946892 0.027128056240030129 0 -0.15198625115200809 0.026660748601051859 0 -0.14384823278598091 0.01775924420351754 0 -0.1565838150956716 0.0095235695578667467 0 -0.143570962998157 0.036727118608798341 0 -0.1409781739946892 0.027128056240030129 0 -0.15198625115200809 0.026660748601051859 0 -0.1409781739946892 0.027128056240030129 0 -0.15198625115200809 0.026660748601051859 0 -0.14384823278598091 0.01775924420351754 0 -0.14384823278598091 0.01775924420351754 0 -0.14308145814072051 0.0024165038181870099 0 -0.14384823278598091 0.01775924420351754 0 -0.14308145814072051 0.0024165038181870099 0 -0.1565838150956716 0.0095235695578667467 0 -0.15050868129767611 -0.0032521095412758839 0 -0.14308145814072051 0.0024165038181870099 0 -0.1565838150956716 0.0095235695578667467 0 -0.1565838150956716 0.0095235695578667467 0 -0.17074772103253419 0.02790154205510767 0 -0.17529577949709821 0.0045717171820992414 0 -0.1615931009109785 -0.0082701906529346041 0 -0.1565838150956716 0.0095235695578667467 0 -0.17529577949709821 0.0045717171820992414 0 -0.15198625115200809 0.026660748601051859 0 -0.1565838150956716 0.0095235695578667467 0 -0.17074772103253419 0.02790154205510767 0 -0.17074772103253419 0.02790154205510767 0 -0.18383447420280799 0.017079327585556262 0 -0.19140960828659559 0.031201998409771291 0 -0.17074772103253419 0.02790154205510767 0 -0.17529577949709821 0.0045717171820992414 0 -0.17074772103253419 0.02790154205510767 0 -0.18383447420280799 0.017079327585556262 0 -0.17529577949709821 0.0045717171820992414 0 -0.18383447420280799 0.017079327585556262 0 -0.17529577949709821 0.0045717171820992414 0 -0.19067196743121351 0.003566433312548245 0 -0.18388618390927811 -0.0073420311000470737 0 -0.17529577949709821 0.0045717171820992414 0 -0.19067196743121351 0.003566433312548245 0 -0.1790644639049416 0.072808198998443874 0 -0.1661996625679687 0.051231366928115828 0 -0.16495928908662111 0.057594015148772132 0 -0.1661996625679687 0.051231366928115828 0 -0.16495928908662111 0.057594015148772132 0 -0.1625389671491641 0.051826789507368611 0 -0.1661996625679687 0.051231366928115828 0 -0.16495928908662111 0.057594015148772132 0 -0.1661996625679687 0.051231366928115828 0 -0.1642561832849273 0.047971765398026923 0 -0.1661996625679687 0.051231366928115828 0 -0.1642561832849273 0.047971765398026923 0 -0.1625389671491641 0.051826789507368611 0 -0.1636605914677049 0.065702203840382528 0 -0.16495928908662111 0.057594015148772132 0 -0.1605564917933697 0.059693292433383643 0 -0.16495928908662111 0.057594015148772132 0 -0.1605564917933697 0.059693292433383643 0 -0.15963378603971731 0.054197599355677827 0 -0.1605564917933697 0.059693292433383643 0 -0.1567263369593084 0.062348801619730568 0 -0.15673228037164849 0.057611057978652798 0 -0.15368376048502849 0.052908777460702362 0 -0.15673228037164849 0.057611057978652798 0 -0.15963378603971731 0.054197599355677827 0 -0.1605564917933697 0.059693292433383643 0 -0.15673228037164849 0.057611057978652798 0 -0.15963378603971731 0.054197599355677827 0 -0.15368376048502849 0.052908777460702362 0 -0.15963378603971731 0.054197599355677827 0 -0.15764591476658621 0.048139200706250301 0 -0.15963378603971731 0.054197599355677827 0 -0.1625389671491641 0.051826789507368611 0 -0.15764591476658621 0.048139200706250301 0 -0.16495928908662111 0.057594015148772132 0 -0.15963378603971731 0.054197599355677827 0 -0.1625389671491641 0.051826789507368611 0 -0.1642561832849273 0.047971765398026923 0 -0.1625389671491641 0.051826789507368611 0 -0.15764591476658621 0.048139200706250301 0 -0.1549838497381307 0.039819777692187558 0 -0.17074772103253419 0.02790154205510767 0 -0.1642561832849273 0.047971765398026923 0 -0.17074772103253419 0.02790154205510767 0 -0.1661996625679687 0.051231366928115828 0 -0.17074772103253419 0.02790154205510767 0 -0.1661996625679687 0.051231366928115828 0 -0.1642561832849273 0.047971765398026923 0 -0.1549838497381307 0.039819777692187558 0 -0.1642561832849273 0.047971765398026923 0 -0.15764591476658621 0.048139200706250301 0 -0.17074772103253419 0.02790154205510767 0 -0.1661996625679687 0.051231366928115828 0 -0.17843558575029039 0.041508486905022499 0 -0.1549838497381307 0.039819777692187558 0 -0.15198625115200809 0.026660748601051859 0 -0.17074772103253419 0.02790154205510767 0 -0.17843558575029039 0.041508486905022499 0 -0.1882007709028963 0.047916127913159613 0 -0.19140960828659559 0.031201998409771291 0 -0.17074772103253419 0.02790154205510767 0 -0.17843558575029039 0.041508486905022499 0 -0.19140960828659559 0.031201998409771291 0 -0.17843558575029039 0.041508486905022499 0 -0.17523305319688351 0.0500388980099837 0 -0.1882007709028963 0.047916127913159613 0 -0.1790644639049416 0.072808198998443874 0 -0.1661996625679687 0.051231366928115828 0 -0.17523305319688351 0.0500388980099837 0 -0.17941710979146891 0.057721909460366663 0 -0.1882007709028963 0.047916127913159613 0 -0.1790644639049416 0.072808198998443874 0 -0.1661996625679687 0.051231366928115828 0 -0.17941710979146891 0.057721909460366663 0 -0.1661996625679687 0.051231366928115828 0 -0.17523305319688351 0.0500388980099837 0 -0.17941710979146891 0.057721909460366663 0 -0.1661996625679687 0.051231366928115828 0 -0.17843558575029039 0.041508486905022499 0 -0.17523305319688351 0.0500388980099837 0 -0.19592357530150209 0.062313214016805049 0 -0.1882007709028963 0.047916127913159613 0 -0.21371114818946821 0.043337185221797317 0 -0.17941710979146891 0.057721909460366663 0 -0.19592357530150209 0.062313214016805049 0 -0.1882007709028963 0.047916127913159613 0 -0.1882007709028963 0.047916127913159613 0 -0.21371114818946821 0.043337185221797317 0 -0.19140960828659559 0.031201998409771291 0 -0.19592357530150209 0.062313214016805049 0 -0.21371114818946821 0.043337185221797317 0 -0.21769910132117989 0.072253864420994268 0 -0.21371114818946821 0.043337185221797317 0 -0.21769910132117989 0.072253864420994268 0 -0.18383447420280799 0.017079327585556262 0 -0.19067196743121351 0.003566433312548245 0 -0.2097231950577565 0.01442050602260039 0 -0.1944627244785779 -0.008584569480343333 0 -0.19067196743121351 0.003566433312548245 0 -0.2097231950577565 0.01442050602260039 0 -0.18383447420280799 0.017079327585556262 0 -0.19140960828659559 0.031201998409771291 0 -0.2097231950577565 0.01442050602260039 0 -0.21371114818946821 0.043337185221797317 0 -0.19140960828659559 0.031201998409771291 0 -0.2097231950577565 0.01442050602260039 0 -0.21371114818946821 0.043337185221797317 0 -0.2097231950577565 0.01442050602260039 0 -0.22367778407376041 0.027229335263516979 0 -0.21371114818946821 0.043337185221797317 0 -0.2097231950577565 0.01442050602260039 0 -0.20573524192604489 -0.014496173176596461 0 -0.2097231950577565 0.01442050602260039 0 -0.22343034677557791 0.0065753505074754252 0 -0.23534665080549211 -0.0082420104063906305 0 -0.22343034677557791 0.0065753505074754252 0 -0.24330282498337019 0.003007537454472953 0 -0.2097231950577565 0.01442050602260039 0 -0.22343034677557791 0.0065753505074754252 0 -0.22367778407376041 0.027229335263516979 0 -0.22343034677557791 0.0065753505074754252 0 -0.22367778407376041 0.027229335263516979 0 -0.23743388492839509 0.017915868357501301 0 -0.22367778407376041 0.027229335263516979 0 -0.23743388492839509 0.017915868357501301 0 -0.2397047388991114 0.04121853486884508 0 -0.25542037218922242 0.013888854862119391 0 -0.23743388492839509 0.017915868357501301 0 -0.2397047388991114 0.04121853486884508 0 -0.22343034677557791 0.0065753505074754252 0 -0.23743388492839509 0.017915868357501301 0 -0.24330282498337019 0.003007537454472953 0 -0.25542037218922242 0.013888854862119391 0 -0.23743388492839509 0.017915868357501301 0 -0.24330282498337019 0.003007537454472953 0 -0.2623524667071454 0.058440434663973591 0 -0.2397047388991114 0.04121853486884508 0 -0.24121248507036511 0.076801683577728888 0 -0.21371114818946821 0.043337185221797317 0 -0.2397047388991114 0.04121853486884508 0 -0.21769910132117989 0.072253864420994268 0 -0.21371114818946821 0.043337185221797317 0 -0.22367778407376041 0.027229335263516979 0 -0.2397047388991114 0.04121853486884508 0 -0.2397047388991114 0.04121853486884508 0 -0.24121248507036511 0.076801683577728888 0 -0.21769910132117989 0.072253864420994268 0 -0.26054839214045789 0.087139929606617511 0 -0.24121248507036511 0.076801683577728888 0 -0.24528315690140501 0.1005867942857518 0 -0.24121248507036511 0.076801683577728888 0 -0.22168705445289161 0.10117054362019109 0 -0.24528315690140501 0.1005867942857518 0 -0.21769910132117989 0.072253864420994268 0 -0.22168705445289161 0.10117054362019109 0 -0.24121248507036511 0.076801683577728888 0 -0.21769910132117989 0.072253864420994268 0 -0.22168705445289161 0.10117054362019109 0 -0.19592357530150209 0.062313214016805049 0 -0.21769910132117989 0.072253864420994268 0 -0.19744885769905759 0.079841998086068566 0 -0.21769910132117989 0.072253864420994268 0 -0.19744885769905759 0.079841998086068566 0 -0.20811344482641261 0.094875284746384903 0 -0.21769910132117989 0.072253864420994268 0 -0.20811344482641261 0.094875284746384903 0 -0.22168705445289161 0.10117054362019109 0 -0.19744885769905759 0.079841998086068566 0 -0.19192926524191631 0.09438503106877083 0 -0.20811344482641261 0.094875284746384903 0 -0.1790644639049416 0.072808198998443874 0 -0.19744885769905759 0.079841998086068566 0 -0.19192926524191631 0.09438503106877083 0 -0.1790644639049416 0.072808198998443874 0 -0.19592357530150209 0.062313214016805049 0 -0.19744885769905759 0.079841998086068566 0 -0.1812687766166434 0.12380362318642241 0 -0.19084242711415561 0.1093953912954924 0 -0.205826407789205 0.12727859322686791 0 -0.19084242711415561 0.1093953912954924 0 -0.205826407789205 0.12727859322686791 0 -0.19084242711415561 0.1093953912954924 0 -0.20479406657889079 0.1159618631390978 0 -0.205826407789205 0.12727859322686791 0 -0.19192926524191631 0.09438503106877083 0 -0.20811344482641261 0.094875284746384903 0 -0.20479406657889079 0.1159618631390978 0 -0.19084242711415561 0.1093953912954924 0 -0.19192926524191631 0.09438503106877083 0 -0.20479406657889079 0.1159618631390978 0 -0.19192926524191631 0.09438503106877083 0 -0.20479406657889079 0.1159618631390978 0 -0.20811344482641261 0.094875284746384903 0 -0.2133794371057802 0.1086799117632916 0 -0.20479406657889079 0.1159618631390978 0 -0.20811344482641261 0.094875284746384903 0 -0.2133794371057802 0.1086799117632916 0 -0.22168705445289161 0.10117054362019109 0 -0.2133794371057802 0.1086799117632916 0 -0.20479406657889079 0.1159618631390978 0 -0.21599775115899111 0.1191984361284958 0 -0.2133794371057802 0.1086799117632916 0 -0.21599775115899111 0.1191984361284958 0 -0.22168705445289161 0.10117054362019109 0 -0.20479406657889079 0.1159618631390978 0 -0.21599775115899111 0.1191984361284958 0 -0.205826407789205 0.12727859322686791 0 -0.23176209852623991 0.1198767065639143 0 -0.22168705445289161 0.10117054362019109 0 -0.2256750075845991 0.13008722281938859 0 -0.22168705445289161 0.10117054362019109 0 -0.2256750075845991 0.13008722281938859 0 -0.21599775115899111 0.1191984361284958 0 -0.22168705445289161 0.10117054362019109 0 -0.2256750075845991 0.13008722281938859 0 -0.23176209852623991 0.1198767065639143 0 -0.22168705445289161 0.10117054362019109 0 -0.23805619056716179 0.11085246844154931 0 -0.22168705445289161 0.10117054362019109 0 -0.24528315690140501 0.1005867942857518 0 -0.23805619056716179 0.11085246844154931 0 -0.24528315690140501 0.1005867942857518 0 -0.23805619056716179 0.11085246844154931 0 -0.24751987864844749 0.1140817531071557 0 -0.23176209852623991 0.1198767065639143 0 -0.24202095334603299 0.1206667246782079 0 -0.23572268816636319 0.12615045233644531 0 -0.23176209852623991 0.1198767065639143 0 -0.24202095334603299 0.1206667246782079 0 -0.23805619056716179 0.11085246844154931 0 -0.24202095334603299 0.1206667246782079 0 -0.23805619056716179 0.11085246844154931 0 -0.24751987864844749 0.1140817531071557 0 -0.24202095334603299 0.1206667246782079 0 -0.24660976010902769 0.1234556603357264 0 -0.24359574599712361 0.12859245432831559 0 -0.24202095334603299 0.1206667246782079 0 -0.24751987864844749 0.1140817531071557 0 -0.24660976010902769 0.1234556603357264 0 -0.25062573814025307 0.1290075630397173 0 -0.25130212163981069 0.1208790083453674 0 -0.24660976010902769 0.1234556603357264 0 -0.25130212163981069 0.1208790083453674 0 -0.24751987864844749 0.1140817531071557 0 -0.24660976010902769 0.1234556603357264 0 -0.25062573814025307 0.1290075630397173 0 -0.24660976010902769 0.1234556603357264 0 -0.24359574599712361 0.12859245432831559 0 -0.2433232208205317 0.13002359016745679 0 -0.23309084781843439 0.13736376266816369 0 -0.24006607756251061 0.14712811793279659 0 -0.24202095334603299 0.1206667246782079 0 -0.2433232208205317 0.13002359016745679 0 -0.24359574599712361 0.12859245432831559 0 -0.2433232208205317 0.13002359016745679 0 -0.24006607756251061 0.14712811793279659 0 -0.24202095334603299 0.1206667246782079 0 -0.2433232208205317 0.13002359016745679 0 -0.25062573814025307 0.1290075630397173 0 -0.2433232208205317 0.13002359016745679 0 -0.24359574599712361 0.12859245432831559 0 -0.2433232208205317 0.13002359016745679 0 -0.24359574599712361 0.12859245432831559 0 -0.2433232208205317 0.13002359016745679 0 -0.23572268816636319 0.12615045233644531 0 -0.23488686346142901 0.13096765816494249 0 -0.2433232208205317 0.13002359016745679 0 -0.23488686346142901 0.13096765816494249 0 -0.23309084781843439 0.13736376266816369 0 -0.24202095334603299 0.1206667246782079 0 -0.2433232208205317 0.13002359016745679 0 -0.23572268816636319 0.12615045233644531 0 -0.23176209852623991 0.1198767065639143 0 -0.22741069704038699 0.13033282748770439 0 -0.2256750075845991 0.13008722281938859 0 -0.23572268816636319 0.12615045233644531 0 -0.23488686346142901 0.13096765816494249 0 -0.22741069704038699 0.13033282748770439 0 -0.23176209852623991 0.1198767065639143 0 -0.23572268816636319 0.12615045233644531 0 -0.22741069704038699 0.13033282748770439 0 -0.22741069704038699 0.13033282748770439 0 -0.23309084781843439 0.13736376266816369 0 -0.2256750075845991 0.13008722281938859 0 -0.23488686346142901 0.13096765816494249 0 -0.22741069704038699 0.13033282748770439 0 -0.23309084781843439 0.13736376266816369 0 -0.22741069704038699 0.13033282748770439 0 -0.2256750075845991 0.13008722281938859 0 -0.22912203509333751 0.15508164611597439 0 -0.22994672944106351 0.16106151125052531 0 -0.2061153807881218 0.15004866448329271 0 -0.23309084781843439 0.13736376266816369 0 -0.2256750075845991 0.13008722281938859 0 -0.22912203509333751 0.15508164611597439 0 -0.23309084781843439 0.13736376266816369 0 -0.22912203509333751 0.15508164611597439 0 -0.24006607756251061 0.14712811793279659 0 -0.2256750075845991 0.13008722281938859 0 -0.22912203509333751 0.15508164611597439 0 -0.2256750075845991 0.13008722281938859 0 -0.22912203509333751 0.15508164611597439 0 -0.21747422144127049 0.1411801196714218 0 -0.22912203509333751 0.15508164611597439 0 -0.21747422144127049 0.1411801196714218 0 -0.22912203509333751 0.15508164611597439 0 -0.24006607756251061 0.14712811793279659 0 -0.2310250690280683 0.15735289438271741 0 -0.22912203509333751 0.15508164611597439 0 -0.2310250690280683 0.15735289438271741 0 -0.2433232208205317 0.13002359016745679 0 -0.24665951183825799 0.15399502990403571 0 -0.24006607756251061 0.14712811793279659 0 -0.23680893430448979 0.16423264569813639 0 -0.25694024300708301 0.14453891949190539 0 -0.2433232208205317 0.13002359016745679 0 -0.24665951183825799 0.15399502990403571 0 -0.24006607756251061 0.14712811793279659 0 -0.23680893430448979 0.16423264569813639 0 -0.2310250690280683 0.15735289438271741 0 -0.24665951183825799 0.15399502990403571 0 -0.24006607756251061 0.14712811793279659 0 -0.23680893430448979 0.16423264569813639 0 -0.2433232208205317 0.13002359016745679 0 -0.24665951183825799 0.15399502990403571 0 -0.24006607756251061 0.14712811793279659 0 -0.24665951183825799 0.15399502990403571 0 -0.2499958028559843 0.17796646964061449 0 -0.24665951183825799 0.15399502990403571 0 -0.23680893430448979 0.16423264569813639 0 -0.2499958028559843 0.17796646964061449 0 -0.23680893430448979 0.16423264569813639 0 -0.233082707603053 0.18380051331271641 0 -0.23680893430448979 0.16423264569813639 0 -0.2499958028559843 0.17796646964061449 0 -0.233082707603053 0.18380051331271641 0 -0.233082707603053 0.18380051331271641 0 -0.23148825369731049 0.1783789839568839 0 -0.22994672944106351 0.16106151125052531 0 -0.233082707603053 0.18380051331271641 0 -0.22994672944106351 0.16106151125052531 0 -0.23148825369731049 0.1783789839568839 0 -0.22255773692999609 0.17044659260303621 0 -0.21010515742963259 0.17338085263679159 0 -0.233082707603053 0.18380051331271641 0 -0.23148825369731049 0.1783789839568839 0 -0.22241503348644659 0.19356008512102371 0 -0.23680893430448979 0.16423264569813639 0 -0.233082707603053 0.18380051331271641 0 -0.22994672944106351 0.16106151125052531 0 -0.23148825369731049 0.1783789839568839 0 -0.22255773692999609 0.17044659260303621 0 -0.22994672944106351 0.16106151125052531 0 -0.22255773692999609 0.17044659260303621 0 -0.22994672944106351 0.16106151125052531 0 -0.2061153807881218 0.15004866448329271 0 -0.22912203509333751 0.15508164611597439 0 -0.22994672944106351 0.16106151125052531 0 -0.22912203509333751 0.15508164611597439 0 -0.22994672944106351 0.16106151125052531 0 -0.2310250690280683 0.15735289438271741 0 -0.23680893430448979 0.16423264569813639 0 -0.22994672944106351 0.16106151125052531 0 -0.2310250690280683 0.15735289438271741 0 -0.23680893430448979 0.16423264569813639 0 -0.22994672944106351 0.16106151125052531 0 -0.21010515742963259 0.17338085263679159 0 -0.19516153305621831 0.16663305950742899 0 -0.2061153807881218 0.15004866448329271 0 -0.22255773692999609 0.17044659260303621 0 -0.21010515742963259 0.17338085263679159 0 -0.2061153807881218 0.15004866448329271 0 -0.23148825369731049 0.1783789839568839 0 -0.21010515742963259 0.17338085263679159 0 -0.20849009924092499 0.19745170678782639 0 -0.21010515742963259 0.17338085263679159 0 -0.1948508426726904 0.18268348555704539 0 -0.20849009924092499 0.19745170678782639 0 -0.21010515742963259 0.17338085263679159 0 -0.1948508426726904 0.18268348555704539 0 -0.19516153305621831 0.16663305950742899 0 -0.1948508426726904 0.18268348555704539 0 -0.19516153305621831 0.16663305950742899 0 -0.18379104765862761 0.17409183435230821 0 -0.19516153305621831 0.16663305950742899 0 -0.2061153807881218 0.15004866448329271 0 -0.18018122385741511 0.15713482900850209 0 -0.2061153807881218 0.15004866448329271 0 -0.18228403213518099 0.139035817716058 0 -0.2061153807881218 0.15004866448329271 0 -0.18228403213518099 0.139035817716058 0 -0.18018122385741511 0.15713482900850209 0 -0.19774598963282539 0.13749867993617279 0 -0.2061153807881218 0.15004866448329271 0 -0.18228403213518099 0.139035817716058 0 -0.1812687766166434 0.12380362318642241 0 -0.19774598963282539 0.13749867993617279 0 -0.205826407789205 0.12727859322686791 0 -0.1812687766166434 0.12380362318642241 0 -0.205826407789205 0.12727859322686791 0 -0.2256750075845991 0.13008722281938859 0 -0.205826407789205 0.12727859322686791 0 -0.2256750075845991 0.13008722281938859 0 -0.205826407789205 0.12727859322686791 0 -0.21747422144127049 0.1411801196714218 0 -0.21599775115899111 0.1191984361284958 0 -0.2256750075845991 0.13008722281938859 0 -0.205826407789205 0.12727859322686791 0 -0.19774598963282539 0.13749867993617279 0 -0.205826407789205 0.12727859322686791 0 -0.21747422144127049 0.1411801196714218 0 -0.205826407789205 0.12727859322686791 0 -0.21747422144127049 0.1411801196714218 0 -0.22994672944106351 0.16106151125052531 0 -0.2061153807881218 0.15004866448329271 0 -0.22912203509333751 0.15508164611597439 0 -0.2061153807881218 0.15004866448329271 0 -0.21747422144127049 0.1411801196714218 0 -0.19774598963282539 0.13749867993617279 0 -0.2061153807881218 0.15004866448329271 0 -0.21747422144127049 0.1411801196714218 0 -0.22008229700458551 0.25207073246709299 0 -0.24042899567423959 0.23706850529841969 0 -0.2244157672040745 0.22931399274896741 0 -0.22008229700458551 0.25207073246709299 0 -0.2244157672040745 0.22931399274896741 0 -0.25147982383094603 0.23140410534617009 0 -0.24962755378818399 0.26087030131514671 0 -0.24042899567423959 0.23706850529841969 0 -0.24042899567423959 0.23706850529841969 0 -0.23675585163864649 0.21043450930556801 0 -0.25147982383094603 0.23140410534617009 0 -0.24042899567423959 0.23706850529841969 0 -0.23675585163864649 0.21043450930556801 0 -0.24042899567423959 0.23706850529841969 0 -0.2244157672040745 0.22931399274896741 0 -0.23675585163864649 0.21043450930556801 0 -0.2244157672040745 0.22931399274896741 0 -0.22874923740356359 0.20655725303084191 0 -0.2244157672040745 0.22931399274896741 0 -0.22874923740356359 0.20655725303084191 0 -0.2132034450757915 0.21493297075311221 0 -0.2244157672040745 0.22931399274896741 0 -0.22874923740356359 0.20655725303084191 0 -0.23675585163864649 0.21043450930556801 0 -0.22874923740356359 0.20655725303084191 0 -0.21821445380168161 0.20312550392320111 0 -0.2132034450757915 0.21493297075311221 0 -0.25333209387370931 0.20193790937719339 0 -0.25147982383094603 0.23140410534617009 0 -0.23675585163864649 0.21043450930556801 0 -0.233082707603053 0.18380051331271641 0 -0.23675585163864649 0.21043450930556801 0 -0.25333209387370931 0.20193790937719339 0 -0.233082707603053 0.18380051331271641 0 -0.23675585163864649 0.21043450930556801 0 -0.25333209387370931 0.20193790937719339 0 -0.2499958028559843 0.17796646964061449 0 -0.233082707603053 0.18380051331271641 0 -0.23148825369731049 0.1783789839568839 0 -0.22241503348644659 0.19356008512102371 0 -0.20849009924092499 0.19745170678782639 0 -0.233082707603053 0.18380051331271641 0 -0.22874923740356359 0.20655725303084191 0 -0.233082707603053 0.18380051331271641 0 -0.22874923740356359 0.20655725303084191 0 -0.22241503348644659 0.19356008512102371 0 -0.233082707603053 0.18380051331271641 0 -0.22874923740356359 0.20655725303084191 0 -0.23675585163864649 0.21043450930556801 0 -0.23148825369731049 0.1783789839568839 0 -0.20849009924092499 0.19745170678782639 0 -0.22874923740356359 0.20655725303084191 0 -0.22241503348644659 0.19356008512102371 0 -0.21821445380168161 0.20312550392320111 0 -0.22241503348644659 0.19356008512102371 0 -0.20849009924092499 0.19745170678782639 0 -0.21821445380168161 0.20312550392320111 0 -0.1948508426726904 0.18268348555704539 0 -0.20849009924092499 0.19745170678782639 0 -0.18840646005368769 0.19755336170365129 0 -0.1948508426726904 0.18268348555704539 0 -0.18840646005368769 0.19755336170365129 0 -0.18034616734119291 0.1870523267124376 0 -0.20849009924092499 0.19745170678782639 0 -0.2132034450757915 0.21493297075311221 0 -0.18549194478453951 0.21652442961876889 0 -0.20849009924092499 0.19745170678782639 0 -0.18840646005368769 0.19755336170365129 0 -0.18549194478453951 0.21652442961876889 0 -0.20849009924092499 0.19745170678782639 0 -0.18549194478453951 0.21652442961876889 0 -0.20849009924092499 0.19745170678782639 0 -0.21821445380168161 0.20312550392320111 0 -0.2132034450757915 0.21493297075311221 0 -0.2244157672040745 0.22931399274896741 0 -0.2132034450757915 0.21493297075311221 0 -0.20381442641223169 0.2283470081569903 0 -0.2244157672040745 0.22931399274896741 0 -0.20381442641223169 0.2283470081569903 0 -0.20729280176342821 0.242855039542341 0 -0.20381442641223169 0.2283470081569903 0 -0.19367085021440261 0.2350290364368002 0 -0.18549194478453951 0.21652442961876889 0 -0.2132034450757915 0.21493297075311221 0 -0.20381442641223169 0.2283470081569903 0 -0.18549194478453951 0.21652442961876889 0 -0.20381442641223169 0.2283470081569903 0 -0.19367085021440261 0.2350290364368002 0 -0.20729280176342821 0.242855039542341 0 -0.19367085021440261 0.2350290364368002 0 -0.19031875884495661 0.2492353464184677 0 -0.20729280176342821 0.242855039542341 0 -0.19367085021440261 0.2350290364368002 0 -0.19031875884495661 0.2492353464184677 0 -0.18215078295905471 0.23728458012097711 0 -0.22008229700458551 0.25207073246709299 0 -0.2244157672040745 0.22931399274896741 0 -0.20729280176342821 0.242855039542341 0 -0.15697023997996279 0.2472945884331311 0 -0.16249379032815381 0.23559715244971149 0 -0.15330098956579469 0.23089722551006531 0 -0.15697023997996279 0.2472945884331311 0 -0.17401816860630809 0.24074447424109291 0 -0.16965801391536001 0.23389209960410601 0 -0.15697023997996279 0.2472945884331311 0 -0.17169466826451921 0.24852697597616011 0 -0.17401816860630809 0.24074447424109291 0 -0.15697023997996279 0.2472945884331311 0 -0.16249379032815381 0.23559715244971149 0 -0.16965801391536001 0.23389209960410601 0 -0.15697023997996279 0.2472945884331311 0 -0.16965801391536001 0.23389209960410601 0 -0.1697436319947245 0.25383393025607071 0 -0.15697023997996279 0.2472945884331311 0 -0.17169466826451921 0.24852697597616011 0 -0.17169466826451921 0.24852697597616011 0 -0.17978483908031029 0.2471032218201 0 -0.17401816860630809 0.24074447424109291 0 -0.19031875884495661 0.2492353464184677 0 -0.17978483908031029 0.2471032218201 0 -0.18215078295905471 0.23728458012097711 0 -0.17978483908031029 0.2471032218201 0 -0.18215078295905471 0.23728458012097711 0 -0.17401816860630809 0.24074447424109291 0 -0.18215078295905471 0.23728458012097711 0 -0.17401816860630809 0.24074447424109291 0 -0.16965801391536001 0.23389209960410601 0 -0.16249379032815381 0.23559715244971149 0 -0.18549194478453951 0.21652442961876889 0 -0.19367085021440261 0.2350290364368002 0 -0.18215078295905471 0.23728458012097711 0 -0.18549194478453951 0.21652442961876889 0 -0.16249379032815381 0.23559715244971149 0 -0.16965801391536001 0.23389209960410601 0 -0.18549194478453951 0.21652442961876889 0 -0.16249379032815381 0.23559715244971149 0 -0.16866955139128359 0.22031731628473619 0 -0.18549194478453951 0.21652442961876889 0 -0.18215078295905471 0.23728458012097711 0 -0.16965801391536001 0.23389209960410601 0 -0.18549194478453951 0.21652442961876889 0 -0.16249379032815381 0.23559715244971149 0 -0.15928779503994039 0.22484574945309879 0 -0.15330098956579469 0.23089722551006531 0 -0.16249379032815381 0.23559715244971149 0 -0.16866955139128359 0.22031731628473619 0 -0.15928779503994039 0.22484574945309879 0 -0.16866955139128359 0.22031731628473619 0 -0.15928779503994039 0.22484574945309879 0 -0.15622754582290149 0.21136567895809419 0 -0.16866955139128359 0.22031731628473619 0 -0.1728532462290909 0.204054859842178 0 -0.15622754582290149 0.21136567895809419 0 -0.16866955139128359 0.22031731628473619 0 -0.1728532462290909 0.204054859842178 0 -0.18549194478453951 0.21652442961876889 0 -0.18840646005368769 0.19755336170365129 0 -0.1728532462290909 0.204054859842178 0 -0.18549194478453951 0.21652442961876889 0 -0.18840646005368769 0.19755336170365129 0 -0.1728532462290909 0.204054859842178 0 -0.18034616734119291 0.1870523267124376 0 -0.1728532462290909 0.204054859842178 0 -0.15464650771494051 0.18956347426221659 0 -0.15622754582290149 0.21136567895809419 0 -0.1728532462290909 0.204054859842178 0 -0.15464650771494051 0.18956347426221659 0 -0.18034616734119291 0.1870523267124376 0 -0.15464650771494051 0.18956347426221659 0 -0.13064893370559341 0.19154607560158449 0 -0.1384860713642273 0.20378456303789769 0 -0.15464650771494051 0.18956347426221659 0 -0.1384860713642273 0.20378456303789769 0 -0.15622754582290149 0.21136567895809419 0 -0.13064893370559341 0.19154607560158449 0 -0.1384860713642273 0.20378456303789769 0 -0.1173830409596499 0.20247999597290089 0 -0.13717664046980649 0.2248872922030159 0 -0.1173830409596499 0.20247999597290089 0 -0.1384860713642273 0.20378456303789769 0 -0.13717664046980649 0.2248872922030159 0 -0.1173830409596499 0.20247999597290089 0 -0.1384860713642273 0.20378456303789769 0 -0.1456166849170113 0.21547471980259419 0 -0.13717664046980649 0.2248872922030159 0 -0.1384860713642273 0.20378456303789769 0 -0.1456166849170113 0.21547471980259419 0 -0.15622754582290149 0.21136567895809419 0 -0.1456166849170113 0.21547471980259419 0 -0.15622754582290149 0.21136567895809419 0 -0.1505764820111099 0.22186134501136909 0 -0.15697023997996279 0.2472945884331311 0 -0.15330098956579469 0.23089722551006531 0 -0.13717664046980649 0.2248872922030159 0 -0.1505764820111099 0.22186134501136909 0 -0.15330098956579469 0.23089722551006531 0 -0.13717664046980649 0.2248872922030159 0 -0.15928779503994039 0.22484574945309879 0 -0.1505764820111099 0.22186134501136909 0 -0.15330098956579469 0.23089722551006531 0 -0.15928779503994039 0.22484574945309879 0 -0.15622754582290149 0.21136567895809419 0 -0.1505764820111099 0.22186134501136909 0 -0.1456166849170113 0.21547471980259419 0 -0.1505764820111099 0.22186134501136909 0 -0.13717664046980649 0.2248872922030159 0 -0.13717664046980649 0.2248872922030159 0 -0.13766890845273419 0.2378796324531513 0 -0.1218519165194759 0.23221930896006079 0 -0.13766890845273419 0.2378796324531513 0 -0.1166646777139321 0.24909936445698569 0 -0.1218519165194759 0.23221930896006079 0 -0.13472013682951001 0.25315436466535701 0 -0.13766890845273419 0.2378796324531513 0 -0.1166646777139321 0.24909936445698569 0 -0.15697023997996279 0.2472945884331311 0 -0.13717664046980649 0.2248872922030159 0 -0.15110104749046091 0.25349439835852478 0 -0.15697023997996279 0.2472945884331311 0 -0.13766890845273419 0.2378796324531513 0 -0.13472013682951001 0.25315436466535701 0 -0.15110104749046091 0.25349439835852478 0 -0.13766890845273419 0.2378796324531513 0 -0.15697023997996279 0.2472945884331311 0 -0.13717664046980649 0.2248872922030159 0 -0.13766890845273419 0.2378796324531513 0 -0.15110104749046091 0.25349439835852478 0 -0.13766890845273419 0.2378796324531513 0 -0.16557696133134789 0.14633890426075249 0 -0.15665454401227891 0.1666613663520827 0 -0.1503123231696239 0.14083953727829621 0 -0.16557696133134789 0.14633890426075249 0 -0.15845268348224029 0.12802297094882339 0 -0.18228403213518099 0.139035817716058 0 -0.15845268348224029 0.12802297094882339 0 -0.18228403213518099 0.139035817716058 0 -0.16557696133134789 0.14633890426075249 0 -0.15845268348224029 0.12802297094882339 0 -0.1503123231696239 0.14083953727829621 0 -0.1812687766166434 0.12380362318642241 0 -0.15845268348224029 0.12802297094882339 0 -0.18228403213518099 0.139035817716058 0 -0.1812687766166434 0.12380362318642241 0 -0.19774598963282539 0.13749867993617279 0 -0.18228403213518099 0.139035817716058 0 -0.16557696133134789 0.14633890426075249 0 -0.18228403213518099 0.139035817716058 0 -0.18018122385741511 0.15713482900850209 0 -0.18018122385741511 0.15713482900850209 0 -0.18379104765862761 0.17409183435230821 0 -0.1684154713656216 0.17695547097612721 0 -0.19516153305621831 0.16663305950742899 0 -0.18018122385741511 0.15713482900850209 0 -0.18379104765862761 0.17409183435230821 0 -0.1948508426726904 0.18268348555704539 0 -0.18034616734119291 0.1870523267124376 0 -0.18379104765862761 0.17409183435230821 0 -0.18034616734119291 0.1870523267124376 0 -0.18379104765862761 0.17409183435230821 0 -0.1684154713656216 0.17695547097612721 0 -0.15464650771494051 0.18956347426221659 0 -0.18034616734119291 0.1870523267124376 0 -0.1684154713656216 0.17695547097612721 0 -0.15464650771494051 0.18956347426221659 0 -0.1684154713656216 0.17695547097612721 0 -0.15665454401227891 0.1666613663520827 0 -0.18018122385741511 0.15713482900850209 0 -0.1684154713656216 0.17695547097612721 0 -0.15665454401227891 0.1666613663520827 0 -0.18018122385741511 0.15713482900850209 0 -0.15665454401227891 0.1666613663520827 0 -0.16557696133134789 0.14633890426075249 0 -0.18018122385741511 0.15713482900850209 0 -0.15665454401227891 0.1666613663520827 0 -0.15665454401227891 0.1666613663520827 0 -0.1331278641671427 0.17618790369566339 0 -0.15665454401227891 0.1666613663520827 0 -0.1331278641671427 0.17618790369566339 0 -0.1335251556610082 0.1498860369829024 0 -0.15464650771494051 0.18956347426221659 0 -0.15665454401227891 0.1666613663520827 0 -0.1331278641671427 0.17618790369566339 0 -0.15464650771494051 0.18956347426221659 0 -0.13064893370559341 0.19154607560158449 0 -0.1331278641671427 0.17618790369566339 0 -0.1331278641671427 0.17618790369566339 0 -0.1335251556610082 0.1498860369829024 0 -0.1167798590075306 0.16955638078463131 0 -0.15665454401227891 0.1666613663520827 0 -0.1335251556610082 0.1498860369829024 0 -0.1503123231696239 0.14083953727829621 0 -0.1335251556610082 0.1498860369829024 0 -0.1503123231696239 0.14083953727829621 0 -0.14318085325170099 0.12743535974639381 0 -0.15845268348224029 0.12802297094882339 0 -0.1503123231696239 0.14083953727829621 0 -0.14318085325170099 0.12743535974639381 0 -0.15671114544408199 0.1203286531459757 0 -0.15845268348224029 0.12802297094882339 0 -0.14318085325170099 0.12743535974639381 0 -0.1335251556610082 0.1498860369829024 0 -0.14318085325170099 0.12743535974639381 0 -0.1190832258571448 0.13271694655639171 0 -0.1321535142715205 0.1168536831055289 0 -0.14318085325170099 0.12743535974639381 0 -0.1190832258571448 0.13271694655639171 0 -0.1190832258571448 0.13271694655639171 0 -0.092112316966028215 0.1342892166630667 0 -0.10759588309895909 0.1133787130650822 0 -0.1190832258571448 0.13271694655639171 0 -0.10593163189365221 0.15445866977537631 0 -0.092112316966028215 0.1342892166630667 0 -0.1335251556610082 0.1498860369829024 0 -0.1190832258571448 0.13271694655639171 0 -0.10593163189365221 0.15445866977537631 0 -0.1335251556610082 0.1498860369829024 0 -0.10593163189365221 0.15445866977537631 0 -0.1167798590075306 0.16955638078463131 0 -0.1331278641671427 0.17618790369566339 0 -0.1167798590075306 0.16955638078463131 0 -0.1096011843220064 0.18571444103924409 0 -0.13064893370559341 0.19154607560158449 0 -0.1331278641671427 0.17618790369566339 0 -0.1096011843220064 0.18571444103924409 0 -0.1331278641671427 0.17618790369566339 0 -0.1096011843220064 0.18571444103924409 0 -0.1096011843220064 0.18571444103924409 0 -0.09811594253789678 0.17201798878643809 0 -0.08685519876222679 0.18688384812050921 0 -0.1167798590075306 0.16955638078463131 0 -0.1096011843220064 0.18571444103924409 0 -0.09811594253789678 0.17201798878643809 0 -0.10593163189365221 0.15445866977537631 0 -0.1167798590075306 0.16955638078463131 0 -0.09811594253789678 0.17201798878643809 0 -0.10593163189365221 0.15445866977537631 0 -0.09811594253789678 0.17201798878643809 0 -0.07997939213492454 0.16517047308963559 0 -0.07997939213492454 0.16517047308963559 0 -0.08685519876222679 0.18688384812050921 0 -0.068498337308734364 0.18598616774826551 0 -0.09811594253789678 0.17201798878643809 0 -0.07997939213492454 0.16517047308963559 0 -0.08685519876222679 0.18688384812050921 0 -0.07997939213492454 0.16517047308963559 0 -0.068498337308734364 0.18598616774826551 0 -0.058528155900559313 0.16903283794563831 0 -0.07997939213492454 0.16517047308963559 0 -0.067721710560731174 0.1433494760465529 0 -0.058528155900559313 0.16903283794563831 0 -0.07997939213492454 0.16517047308963559 0 -0.067721710560731174 0.1433494760465529 0 -0.067721710560731174 0.1433494760465529 0 -0.074584077109923652 0.1272677286844309 0 -0.055464028986537781 0.12152847900347021 0 -0.067721710560731174 0.1433494760465529 0 -0.074584077109923652 0.1272677286844309 0 -0.092112316966028215 0.1342892166630667 0 -0.07997939213492454 0.16517047308963559 0 -0.067721710560731174 0.1433494760465529 0 -0.092112316966028215 0.1342892166630667 0 -0.10593163189365221 0.15445866977537631 0 -0.07997939213492454 0.16517047308963559 0 -0.092112316966028215 0.1342892166630667 0 -0.093307328436427472 0.25068604935165562 0 -0.1166646777139321 0.24909936445698569 0 -0.1041716732715269 0.23096000081885551 0 -0.093307328436427472 0.25068604935165562 0 -0.1041716732715269 0.23096000081885551 0 -0.084016286513995994 0.2282901662083297 0 -0.1166646777139321 0.24909936445698569 0 -0.1218519165194759 0.23221930896006079 0 -0.1041716732715269 0.23096000081885551 0 -0.13717664046980649 0.2248872922030159 0 -0.1218519165194759 0.23221930896006079 0 -0.11592152988351009 0.22082789747415091 0 -0.1218519165194759 0.23221930896006079 0 -0.11592152988351009 0.22082789747415091 0 -0.1041716732715269 0.23096000081885551 0 -0.11592152988351009 0.22082789747415091 0 -0.1041716732715269 0.23096000081885551 0 -0.099024378197091173 0.21359288941592139 0 -0.1041716732715269 0.23096000081885551 0 -0.099024378197091173 0.21359288941592139 0 -0.084016286513995994 0.2282901662083297 0 -0.099024378197091173 0.21359288941592139 0 -0.1173830409596499 0.20247999597290089 0 -0.098578438101855681 0.1974906309237337 0 -0.11592152988351009 0.22082789747415091 0 -0.099024378197091173 0.21359288941592139 0 -0.1173830409596499 0.20247999597290089 0 -0.13717664046980649 0.2248872922030159 0 -0.11592152988351009 0.22082789747415091 0 -0.1173830409596499 0.20247999597290089 0 -0.13064893370559341 0.19154607560158449 0 -0.1096011843220064 0.18571444103924409 0 -0.1173830409596499 0.20247999597290089 0 -0.1096011843220064 0.18571444103924409 0 -0.1173830409596499 0.20247999597290089 0 -0.098578438101855681 0.1974906309237337 0 -0.1096011843220064 0.18571444103924409 0 -0.08685519876222679 0.18688384812050921 0 -0.098578438101855681 0.1974906309237337 0 -0.08685519876222679 0.18688384812050921 0 -0.098578438101855681 0.1974906309237337 0 -0.078434109121188922 0.20595574815684631 0 -0.068498337308734364 0.18598616774826551 0 -0.078434109121188922 0.20595574815684631 0 -0.055929084048001378 0.20650579483998391 0 -0.08685519876222679 0.18688384812050921 0 -0.068498337308734364 0.18598616774826551 0 -0.078434109121188922 0.20595574815684631 0 -0.078434109121188922 0.20595574815684631 0 -0.059903889775396763 0.22708718975426781 0 -0.055929084048001378 0.20650579483998391 0 -0.099024378197091173 0.21359288941592139 0 -0.098578438101855681 0.1974906309237337 0 -0.078434109121188922 0.20595574815684631 0 -0.099024378197091173 0.21359288941592139 0 -0.078434109121188922 0.20595574815684631 0 -0.084016286513995994 0.2282901662083297 0 -0.078434109121188922 0.20595574815684631 0 -0.084016286513995994 0.2282901662083297 0 -0.059903889775396763 0.22708718975426781 0 -0.084016286513995994 0.2282901662083297 0 -0.074332160410460257 0.2474865509888691 0 -0.059903889775396763 0.22708718975426781 0 -0.093307328436427472 0.25068604935165562 0 -0.084016286513995994 0.2282901662083297 0 -0.074332160410460257 0.2474865509888691 0 -0.03546391582915024 0.26126494821788498 0 -0.034446019561119368 0.2355491900204735 0 -0.051845203477081381 0.24947589460876871 0 -0.074332160410460257 0.2474865509888691 0 -0.051845203477081381 0.24947589460876871 0 -0.059903889775396763 0.22708718975426781 0 -0.034446019561119368 0.2355491900204735 0 -0.051845203477081381 0.24947589460876871 0 -0.059903889775396763 0.22708718975426781 0 -0.034446019561119368 0.2355491900204735 0 -0.059903889775396763 0.22708718975426781 0 -0.041120981897071918 0.21765198466926439 0 -0.034446019561119368 0.2355491900204735 0 -0.041120981897071918 0.21765198466926439 0 -0.022915024843160131 0.21764464795355981 0 -0.041120981897071918 0.21765198466926439 0 -0.055929084048001378 0.20650579483998391 0 -0.033265017370707278 0.20006824190681041 0 -0.041120981897071918 0.21765198466926439 0 -0.033265017370707278 0.20006824190681041 0 -0.022915024843160131 0.21764464795355981 0 -0.059903889775396763 0.22708718975426781 0 -0.041120981897071918 0.21765198466926439 0 -0.055929084048001378 0.20650579483998391 0 -0.068498337308734364 0.18598616774826551 0 -0.055929084048001378 0.20650579483998391 0 -0.050707206823960543 0.1893775216198732 0 -0.050707206823960543 0.1893775216198732 0 -0.033265017370707278 0.20006824190681041 0 -0.032376737469686737 0.1828364714863587 0 -0.055929084048001378 0.20650579483998391 0 -0.050707206823960543 0.1893775216198732 0 -0.033265017370707278 0.20006824190681041 0 -0.033265017370707278 0.20006824190681041 0 -0.032376737469686737 0.1828364714863587 0 -0.01946264833552741 0.18702618225850701 0 -0.033265017370707278 0.20006824190681041 0 -0.012630770939358301 0.2013245853400579 0 -0.01946264833552741 0.18702618225850701 0 -0.0084057238225411189 0.18853426110143401 0 -0.012630770939358301 0.2013245853400579 0 -0.01946264833552741 0.18702618225850701 0 -0.0084057238225411189 0.18853426110143401 0 -0.012630770939358301 0.2013245853400579 0 0.01163086560451463 0.20543144749788381 0 -0.012630770939358301 0.2013245853400579 0 -0.0020824451475201619 0.22034032605051659 0 0.01163086560451463 0.20543144749788381 0 -0.012630770939358301 0.2013245853400579 0 -0.022915024843160131 0.21764464795355981 0 -0.0020824451475201619 0.22034032605051659 0 -0.033265017370707278 0.20006824190681041 0 -0.012630770939358301 0.2013245853400579 0 -0.022915024843160131 0.21764464795355981 0 -0.034446019561119368 0.2355491900204735 0 -0.022915024843160131 0.21764464795355981 0 -0.01394491414318379 0.23093355973423599 0 -0.0020824451475201619 0.22034032605051659 0 -0.01394491414318379 0.23093355973423599 0 0.001513002895634853 0.23827743262301671 0 -0.022915024843160131 0.21764464795355981 0 -0.0020824451475201619 0.22034032605051659 0 -0.01394491414318379 0.23093355973423599 0 -0.00086476245743153171 0.25445850891889638 0 -0.015901484236324839 0.2481028301655612 0 0.001513002895634853 0.23827743262301671 0 -0.01394491414318379 0.23093355973423599 0 -0.015901484236324839 0.2481028301655612 0 0.001513002895634853 0.23827743262301671 0 -0.034446019561119368 0.2355491900204735 0 -0.01394491414318379 0.23093355973423599 0 -0.015901484236324839 0.2481028301655612 0 -0.03546391582915024 0.26126494821788498 0 -0.034446019561119368 0.2355491900204735 0 -0.015901484236324839 0.2481028301655612 0 -0.038458882628790179 0.14661125851110859 0 -0.037852542597924393 0.1621341124964461 0 -0.023172174977586758 0.14595039470192109 0 -0.038458882628790179 0.14661125851110859 0 -0.034384628223899323 0.13041512900960869 0 -0.023172174977586758 0.14595039470192109 0 -0.038458882628790179 0.14661125851110859 0 -0.04944054168777505 0.13939545502094799 0 -0.050718695451551547 0.15288497003371501 0 -0.038458882628790179 0.14661125851110859 0 -0.050718695451551547 0.15288497003371501 0 -0.037852542597924393 0.1621341124964461 0 -0.034384628223899323 0.13041512900960869 0 -0.055464028986537781 0.12152847900347021 0 -0.038458882628790179 0.14661125851110859 0 -0.034384628223899323 0.13041512900960869 0 -0.04944054168777505 0.13939545502094799 0 -0.034384628223899323 0.13041512900960869 0 -0.04944054168777505 0.13939545502094799 0 -0.055464028986537781 0.12152847900347021 0 -0.067721710560731174 0.1433494760465529 0 -0.055464028986537781 0.12152847900347021 0 -0.067721710560731174 0.1433494760465529 0 -0.04944054168777505 0.13939545502094799 0 -0.055464028986537781 0.12152847900347021 0 -0.067721710560731174 0.1433494760465529 0 -0.050718695451551547 0.15288497003371501 0 -0.058528155900559313 0.16903283794563831 0 -0.067721710560731174 0.1433494760465529 0 -0.04944054168777505 0.13939545502094799 0 -0.050718695451551547 0.15288497003371501 0 -0.050718695451551547 0.15288497003371501 0 -0.058528155900559313 0.16903283794563831 0 -0.037852542597924393 0.1621341124964461 0 -0.050707206823960543 0.1893775216198732 0 -0.058528155900559313 0.16903283794563831 0 -0.04326447415265347 0.1762349286543845 0 -0.068498337308734364 0.18598616774826551 0 -0.050707206823960543 0.1893775216198732 0 -0.058528155900559313 0.16903283794563831 0 -0.050707206823960543 0.1893775216198732 0 -0.04326447415265347 0.1762349286543845 0 -0.032376737469686737 0.1828364714863587 0 -0.04326447415265347 0.1762349286543845 0 -0.031336553250413027 0.17218067190926339 0 -0.032376737469686737 0.1828364714863587 0 -0.058528155900559313 0.16903283794563831 0 -0.04326447415265347 0.1762349286543845 0 -0.037852542597924393 0.1621341124964461 0 -0.04326447415265347 0.1762349286543845 0 -0.031336553250413027 0.17218067190926339 0 -0.037852542597924393 0.1621341124964461 0 -0.037852542597924393 0.1621341124964461 0 -0.021242701599119011 0.1639134080730201 0 -0.023172174977586758 0.14595039470192109 0 -0.031336553250413027 0.17218067190926339 0 -0.037852542597924393 0.1621341124964461 0 -0.021242701599119011 0.1639134080730201 0 -0.031336553250413027 0.17218067190926339 0 -0.021242701599119011 0.1639134080730201 0 -0.021946310432681571 0.1757844388361075 0 -0.021242701599119011 0.1639134080730201 0 -0.021946310432681571 0.1757844388361075 0 -0.00875625087587102 0.1752309117836385 0 -0.032376737469686737 0.1828364714863587 0 -0.021946310432681571 0.1757844388361075 0 -0.01946264833552741 0.18702618225850701 0 -0.031336553250413027 0.17218067190926339 0 -0.032376737469686737 0.1828364714863587 0 -0.021946310432681571 0.1757844388361075 0 -0.021946310432681571 0.1757844388361075 0 -0.01946264833552741 0.18702618225850701 0 -0.00875625087587102 0.1752309117836385 0 -0.0084057238225411189 0.18853426110143401 0 -0.01946264833552741 0.18702618225850701 0 -0.00875625087587102 0.1752309117836385 0 -0.00875625087587102 0.1752309117836385 0 0.0025848787479034788 0.16950287271148931 0 0.001793176579978791 0.17998531947887711 0 -0.0084057238225411189 0.18853426110143401 0 -0.00875625087587102 0.1752309117836385 0 0.001793176579978791 0.17998531947887711 0 -0.00875625087587102 0.1752309117836385 0 -0.0068210809946663868 0.1547065466563233 0 -0.021242701599119011 0.1639134080730201 0 -0.00875625087587102 0.1752309117836385 0 -0.0068210809946663868 0.1547065466563233 0 -0.00875625087587102 0.1752309117836385 0 -0.0068210809946663868 0.1547065466563233 0 0.0025848787479034788 0.16950287271148931 0 -0.0068210809946663868 0.1547065466563233 0 -0.023172174977586758 0.14595039470192109 0 -0.0048859111134644823 0.13418218152900799 0 -0.0068210809946663868 0.1547065466563233 0 -0.0048859111134644823 0.13418218152900799 0 0.0083964321985330621 0.15833810241627999 0 -0.0068210809946663868 0.1547065466563233 0 -0.0048859111134644823 0.13418218152900799 0 -0.021242701599119011 0.1639134080730201 0 -0.0068210809946663868 0.1547065466563233 0 -0.023172174977586758 0.14595039470192109 0 -0.034384628223899323 0.13041512900960869 0 -0.023172174977586758 0.14595039470192109 0 -0.022517275464968241 0.12502544996104559 0 -0.023172174977586758 0.14595039470192109 0 -0.022517275464968241 0.12502544996104559 0 -0.0048859111134644823 0.13418218152900799 0 -0.022517275464968241 0.12502544996104559 0 -0.0048859111134644823 0.13418218152900799 0 -0.015744957932625168 0.1144333864773263 0 -0.0048859111134644823 0.13418218152900799 0 -0.0027283207398177481 0.1112988300186621 0 -0.015744957932625168 0.1144333864773263 0 -0.0048859111134644823 0.13418218152900799 0 -0.0027283207398177481 0.1112988300186621 0 -0.0048859111134644823 0.13418218152900799 0 -0.015744957932625168 0.1144333864773263 0 -0.0091650973858481491 0.1092624310882752 0 -0.015875584330959029 0.1061170433737039 0 -0.015744957932625168 0.1144333864773263 0 -0.0027283207398177481 0.1112988300186621 0 -0.0091650973858481491 0.1092624310882752 0 -0.015744957932625168 0.1144333864773263 0 -0.0027283207398177481 0.1112988300186621 0 -0.0091650973858481491 0.1092624310882752 0 -0.0027283207398177481 0.1112988300186621 0 -0.00099188174605262941 0.091542484201397795 0 -0.0027283207398177481 0.1112988300186621 0 -0.0091650973858481491 0.1092624310882752 0 -0.00099188174605262941 0.091542484201397795 0 -0.02232598206618509 0.1007386508358324 0 -0.00099188174605262941 0.091542484201397795 0 -0.0091650973858481491 0.1092624310882752 0 -0.015875584330959029 0.1061170433737039 0 -0.00099188174605262941 0.091542484201397795 0 -0.015875584330959029 0.1061170433737039 0 -0.02232598206618509 0.1007386508358324 0 -0.00099188174605262941 0.091542484201397795 0 -0.015875584330959029 0.1061170433737039 0 -0.02232598206618509 0.1007386508358324 0 -0.022974923671888661 0.1117096618463925 0 -0.02232598206618509 0.1007386508358324 0 -0.022974923671888661 0.1117096618463925 0 -0.032764803792881728 0.11378514820674419 0 -0.034384628223899323 0.13041512900960869 0 -0.022517275464968241 0.12502544996104559 0 -0.032764803792881728 0.11378514820674419 0 -0.022517275464968241 0.12502544996104559 0 -0.022974923671888661 0.1117096618463925 0 -0.032764803792881728 0.11378514820674419 0 -0.022517275464968241 0.12502544996104559 0 -0.015744957932625168 0.1144333864773263 0 -0.022974923671888661 0.1117096618463925 0 -0.015875584330959029 0.1061170433737039 0 -0.015744957932625168 0.1144333864773263 0 -0.022974923671888661 0.1117096618463925 0 -0.003035127288852954 0.076409820205214501 0 -0.013163178525772491 0.085034670683219016 0 -0.019826747276029309 0.071888662154804356 0 -0.003035127288852954 0.076409820205214501 0 -0.011386178397956191 0.054275743328616399 0 0.0051777680653156714 0.064022599137691316 0 -0.003035127288852954 0.076409820205214501 0 -0.019826747276029309 0.071888662154804356 0 -0.011386178397956191 0.054275743328616399 0 -0.003035127288852954 0.076409820205214501 0 -0.013163178525772491 0.085034670683219016 0 0.0047653747149208892 0.089060791091408742 0 -0.013163178525772491 0.085034670683219016 0 -0.00099188174605262941 0.091542484201397795 0 0.0047653747149208892 0.089060791091408742 0 -0.02232598206618509 0.1007386508358324 0 -0.013163178525772491 0.085034670683219016 0 -0.00099188174605262941 0.091542484201397795 0 -0.02232598206618509 0.1007386508358324 0 -0.013163178525772491 0.085034670683219016 0 -0.0265822841990099 0.083812651062443982 0 -0.02232598206618509 0.1007386508358324 0 -0.0265822841990099 0.083812651062443982 0 -0.038648054847481253 0.091592857022764956 0 -0.013163178525772491 0.085034670683219016 0 -0.0265822841990099 0.083812651062443982 0 -0.019826747276029309 0.071888662154804356 0 -0.0265822841990099 0.083812651062443982 0 -0.019826747276029309 0.071888662154804356 0 -0.038947458279581383 0.06980841461559914 0 -0.019826747276029309 0.071888662154804356 0 -0.038947458279581383 0.06980841461559914 0 -0.03227920074971518 0.050182972800496543 0 -0.0265822841990099 0.083812651062443982 0 -0.038947458279581383 0.06980841461559914 0 -0.038648054847481253 0.091592857022764956 0 -0.038947458279581383 0.06980841461559914 0 -0.038648054847481253 0.091592857022764956 0 -0.051868685752512869 0.078644022472940597 0 -0.051868685752512869 0.078644022472940597 0 -0.051868430026822732 0.094579406124193161 0 -0.064370036824128049 0.086087948632850797 0 -0.038648054847481253 0.091592857022764956 0 -0.051868685752512869 0.078644022472940597 0 -0.051868430026822732 0.094579406124193161 0 -0.051868430026822732 0.094579406124193161 0 -0.061526361232963143 0.097886893305520764 0 -0.064370036824128049 0.086087948632850797 0 -0.038947458279581383 0.06980841461559914 0 -0.051868685752512869 0.078644022472940597 0 -0.058367460703562739 0.059119997852446017 0 -0.051868685752512869 0.078644022472940597 0 -0.071384472249123032 0.071002208864972605 0 -0.058367460703562739 0.059119997852446017 0 -0.034384628223899323 0.13041512900960869 0 -0.049417338847290812 0.11241651058025599 0 -0.055464028986537781 0.12152847900347021 0 -0.034384628223899323 0.13041512900960869 0 -0.032764803792881728 0.11378514820674419 0 -0.049417338847290812 0.11241651058025599 0 -0.02232598206618509 0.1007386508358324 0 -0.038648054847481253 0.091592857022764956 0 -0.047056041917009538 0.1065606680131176 0 -0.02232598206618509 0.1007386508358324 0 -0.049417338847290812 0.11241651058025599 0 -0.02232598206618509 0.1007386508358324 0 -0.047056041917009538 0.1065606680131176 0 -0.049417338847290812 0.11241651058025599 0 -0.02232598206618509 0.1007386508358324 0 -0.032764803792881728 0.11378514820674419 0 -0.049417338847290812 0.11241651058025599 0 -0.038648054847481253 0.091592857022764956 0 -0.047056041917009538 0.1065606680131176 0 -0.051868430026822732 0.094579406124193161 0 -0.038648054847481253 0.091592857022764956 0 -0.047056041917009538 0.1065606680131176 0 -0.05121506483947591 0.10540067752367049 0 -0.061526361232963143 0.097886893305520764 0 -0.067126658382936771 0.107652210274153 0 -0.047056041917009538 0.1065606680131176 0 -0.05121506483947591 0.10540067752367049 0 -0.051868430026822732 0.094579406124193161 0 -0.05121506483947591 0.10540067752367049 0 -0.067126658382936771 0.107652210274153 0 -0.05121506483947591 0.10540067752367049 0 -0.051868430026822732 0.094579406124193161 0 -0.061526361232963143 0.097886893305520764 0 -0.047056041917009538 0.1065606680131176 0 -0.05121506483947591 0.10540067752367049 0 -0.055464028986537781 0.12152847900347021 0 -0.05121506483947591 0.10540067752367049 0 -0.055464028986537781 0.12152847900347021 0 -0.067126658382936771 0.107652210274153 0 -0.047056041917009538 0.1065606680131176 0 -0.049417338847290812 0.11241651058025599 0 -0.055464028986537781 0.12152847900347021 0 -0.047056041917009538 0.1065606680131176 0 -0.055464028986537781 0.12152847900347021 0 -0.055464028986537781 0.12152847900347021 0 -0.083038251926397771 0.1099037430246345 0 -0.067126658382936771 0.107652210274153 0 -0.074584077109923652 0.1272677286844309 0 -0.055464028986537781 0.12152847900347021 0 -0.083038251926397771 0.1099037430246345 0 -0.055464028986537781 0.12152847900347021 0 -0.083038251926397771 0.1099037430246345 0 -0.074584077109923652 0.1272677286844309 0 -0.092112316966028215 0.1342892166630667 0 -0.083038251926397771 0.1099037430246345 0 -0.083038251926397771 0.1099037430246345 0 -0.072379193693475868 0.097174230546474782 0 -0.084489815305001228 0.087260370642692681 0 -0.083038251926397771 0.1099037430246345 0 -0.084489815305001228 0.087260370642692681 0 -0.1041261307150515 0.1010135188538029 0 -0.083038251926397771 0.1099037430246345 0 -0.1041261307150515 0.1010135188538029 0 -0.083038251926397771 0.1099037430246345 0 -0.067126658382936771 0.107652210274153 0 -0.083038251926397771 0.1099037430246345 0 -0.072379193693475868 0.097174230546474782 0 -0.067126658382936771 0.107652210274153 0 -0.061526361232963143 0.097886893305520764 0 -0.072379193693475868 0.097174230546474782 0 -0.067126658382936771 0.107652210274153 0 -0.061526361232963143 0.097886893305520764 0 -0.072379193693475868 0.097174230546474782 0 -0.064370036824128049 0.086087948632850797 0 -0.051868685752512869 0.078644022472940597 0 -0.064370036824128049 0.086087948632850797 0 -0.071384472249123032 0.071002208864972605 0 -0.072379193693475868 0.097174230546474782 0 -0.064370036824128049 0.086087948632850797 0 -0.084489815305001228 0.087260370642692681 0 -0.064370036824128049 0.086087948632850797 0 -0.071384472249123032 0.071002208864972605 0 -0.084489815305001228 0.087260370642692681 0 -0.071384472249123032 0.071002208864972605 0 -0.092168962332423721 0.067831224642473015 0 -0.077942303078585434 0.051076540920440068 0 -0.071384472249123032 0.071002208864972605 0 -0.092168962332423721 0.067831224642473015 0 -0.084489815305001228 0.087260370642692681 0 -0.084489815305001228 0.087260370642692681 0 -0.1051436555286426 0.083453453146451986 0 -0.1041261307150515 0.1010135188538029 0 -0.092168962332423721 0.067831224642473015 0 -0.084489815305001228 0.087260370642692681 0 -0.1051436555286426 0.083453453146451986 0 -0.092168962332423721 0.067831224642473015 0 -0.1051436555286426 0.083453453146451986 0 -0.1197193597870289 0.069038856910316179 0 -0.12854148902822821 0.090720496459719718 0 -0.1254225941229038 0.068746160900854683 0 -0.1197193597870289 0.069038856910316179 0 -0.12521400950370701 0.092123294682975254 0 -0.1051436555286426 0.083453453146451986 0 -0.1197193597870289 0.069038856910316179 0 -0.12521400950370701 0.092123294682975254 0 -0.1197193597870289 0.069038856910316179 0 -0.12521400950370701 0.092123294682975254 0 -0.12854148902822821 0.090720496459719718 0 -0.1197193597870289 0.069038856910316179 0 -0.12521400950370701 0.092123294682975254 0 -0.1051436555286426 0.083453453146451986 0 -0.1041261307150515 0.1010135188538029 0 -0.12521400950370701 0.092123294682975254 0 -0.1041261307150515 0.1010135188538029 0 -0.12925040267058449 0.1090812213373212 0 -0.1173611794797168 0.1029517990336716 0 -0.10759588309895909 0.1133787130650822 0 -0.12925040267058449 0.1090812213373212 0 -0.12521400950370701 0.092123294682975254 0 -0.1173611794797168 0.1029517990336716 0 -0.12521400950370701 0.092123294682975254 0 -0.1173611794797168 0.1029517990336716 0 -0.1041261307150515 0.1010135188538029 0 -0.1173611794797168 0.1029517990336716 0 -0.10759588309895909 0.1133787130650822 0 -0.1041261307150515 0.1010135188538029 0 -0.1321535142715205 0.1168536831055289 0 -0.1190832258571448 0.13271694655639171 0 -0.10759588309895909 0.1133787130650822 0 -0.1321535142715205 0.1168536831055289 0 -0.10759588309895909 0.1133787130650822 0 -0.1321535142715205 0.1168536831055289 0 -0.12925040267058449 0.1090812213373212 0 -0.10759588309895909 0.1133787130650822 0 -0.083038251926397771 0.1099037430246345 0 -0.10759588309895909 0.1133787130650822 0 -0.092112316966028215 0.1342892166630667 0 -0.083038251926397771 0.1099037430246345 0 -0.10759588309895909 0.1133787130650822 0 -0.083038251926397771 0.1099037430246345 0 -0.10759588309895909 0.1133787130650822 0 -0.1041261307150515 0.1010135188538029 0 -0.10873006035367171 0.02286998136499829 0 -0.094509922019120923 0.015016078684504939 0 -0.084830098546317456 0.030613361025225039 0 -0.1032354106369943 -0.00021445640766098919 0 -0.10873006035367171 0.02286998136499829 0 -0.094509922019120923 0.015016078684504939 0 -0.1032354106369943 -0.00021445640766098919 0 -0.10873006035367171 0.02286998136499829 0 -0.1032354106369943 -0.00021445640766098919 0 -0.094509922019120923 0.015016078684504939 0 -0.08860203887846485 0.0020081847372806711 0 -0.1032354106369943 -0.00021445640766098919 0 -0.116307348182752 0.014346146832091081 0 -0.119440435482564 0.0034978936377945791 0 -0.1032354106369943 -0.00021445640766098919 0 -0.10873006035367171 0.02286998136499829 0 -0.116307348182752 0.014346146832091081 0 -0.1032354106369943 -0.00021445640766098919 0 -0.116307348182752 0.014346146832091081 0 -0.1267834157359943 -0.0026565814049187282 0 -0.12876234116223551 0.0062894663790507184 0 -0.119440435482564 0.0034978936377945791 0 -0.12876234116223551 0.0062894663790507184 0 -0.12519071472699889 0.014101852870310769 0 -0.119440435482564 0.0034978936377945791 0 -0.12519071472699889 0.014101852870310769 0 -0.116307348182752 0.014346146832091081 0 -0.119440435482564 0.0034978936377945791 0 -0.10873006035367171 0.02286998136499829 0 -0.1104731758786047 0.022453319195844219 0 -0.1142247100703503 0.045954419137657243 0 -0.12519071472699889 0.014101852870310769 0 -0.116307348182752 0.014346146832091081 0 -0.118996745933825 0.02347251473980343 0 -0.1104731758786047 0.022453319195844219 0 -0.118996745933825 0.02347251473980343 0 -0.1223036992175798 0.046771825341989579 0 -0.10873006035367171 0.02286998136499829 0 -0.116307348182752 0.014346146832091081 0 -0.1104731758786047 0.022453319195844219 0 -0.116307348182752 0.014346146832091081 0 -0.1104731758786047 0.022453319195844219 0 -0.118996745933825 0.02347251473980343 0 -0.1266498071351265 0.032053537492123411 0 -0.118996745933825 0.02347251473980343 0 -0.1223036992175798 0.046771825341989579 0 -0.1104731758786047 0.022453319195844219 0 -0.1223036992175798 0.046771825341989579 0 -0.1104731758786047 0.022453319195844219 0 -0.1142247100703503 0.045954419137657243 0 -0.1223036992175798 0.046771825341989579 0 -0.118996745933825 0.02347251473980343 0 -0.1223036992175798 0.046771825341989579 0 -0.10873006035367171 0.02286998136499829 0 -0.1142247100703503 0.045954419137657243 0 -0.1197193597870289 0.069038856910316179 0 -0.1142247100703503 0.045954419137657243 0 -0.1223036992175798 0.046771825341989579 0 -0.1197193597870289 0.069038856910316179 0 -0.1142247100703503 0.045954419137657243 0 -0.1254225941229038 0.068746160900854683 0 -0.1223036992175798 0.046771825341989579 0 -0.1197193597870289 0.069038856910316179 0 -0.1142247100703503 0.045954419137657243 0 -0.096469893187734121 0.050090716967113771 0 -0.1254225941229038 0.068746160900854683 0 -0.1197193597870289 0.069038856910316179 0 -0.1223036992175798 0.046771825341989579 0 -0.092168962332423721 0.067831224642473015 0 -0.1197193597870289 0.069038856910316179 0 -0.096469893187734121 0.050090716967113771 0 -0.10873006035367171 0.02286998136499829 0 -0.1142247100703503 0.045954419137657243 0 -0.096469893187734121 0.050090716967113771 0 -0.10873006035367171 0.02286998136499829 0 -0.096469893187734121 0.050090716967113771 0 -0.084830098546317456 0.030613361025225039 0 -0.096469893187734121 0.050090716967113771 0 -0.077942303078585434 0.051076540920440068 0 -0.084830098546317456 0.030613361025225039 0 -0.092168962332423721 0.067831224642473015 0 -0.096469893187734121 0.050090716967113771 0 -0.077942303078585434 0.051076540920440068 0 -0.077942303078585434 0.051076540920440068 0 -0.058367460703562739 0.059119997852446017 0 -0.062163379014735128 0.037914456883777113 0 -0.071384472249123032 0.071002208864972605 0 -0.077942303078585434 0.051076540920440068 0 -0.058367460703562739 0.059119997852446017 0 -0.077942303078585434 0.051076540920440068 0 -0.084830098546317456 0.030613361025225039 0 -0.062163379014735128 0.037914456883777113 0 -0.065947523744300629 0.01670680837377864 0 -0.084830098546317456 0.030613361025225039 0 -0.062163379014735128 0.037914456883777113 0 -0.065947523744300629 0.01670680837377864 0 -0.084830098546317456 0.030613361025225039 0 -0.082107873429294195 0.01374414988743387 0 -0.065947523744300629 0.01670680837377864 0 -0.062163379014735128 0.037914456883777113 0 -0.094509922019120923 0.015016078684504939 0 -0.084830098546317456 0.030613361025225039 0 -0.082107873429294195 0.01374414988743387 0 -0.094509922019120923 0.015016078684504939 0 -0.08860203887846485 0.0020081847372806711 0 -0.082107873429294195 0.01374414988743387 0 -0.08860203887846485 0.0020081847372806711 0 -0.082107873429294195 0.01374414988743387 0 -0.075598923906003951 0.003113988946536814 0 -0.065947523744300629 0.01670680837377864 0 -0.082107873429294195 0.01374414988743387 0 -0.075598923906003951 0.003113988946536814 0 -0.069241940666184471 -0.0016292626576147871 0 -0.065947523744300629 0.01670680837377864 0 -0.075598923906003951 0.003113988946536814 0 -0.069241940666184471 -0.0016292626576147871 0 -0.065947523744300629 0.01670680837377864 0 -0.065947523744300629 0.01670680837377864 0 -0.075598923906003951 0.003113988946536814 0 -0.069241940666184471 -0.0016292626576147871 0 -0.045215917027402193 0.011652523540130339 0 -0.069241940666184471 -0.0016292626576147871 0 -0.065947523744300629 0.01670680837377864 0 -0.045215917027402193 0.011652523540130339 0 -0.069241940666184471 -0.0016292626576147871 0 -0.050904770718203977 -0.0065393892505411066 0 -0.045215917027402193 0.011652523540130339 0 -0.053912569656802821 0.02459803908062241 0 -0.045215917027402193 0.011652523540130339 0 -0.042323458840773362 0.03211836752480357 0 -0.065947523744300629 0.01670680837377864 0 -0.053912569656802821 0.02459803908062241 0 -0.062163379014735128 0.037914456883777113 0 -0.065947523744300629 0.01670680837377864 0 -0.053912569656802821 0.02459803908062241 0 -0.045215917027402193 0.011652523540130339 0 -0.045215917027402193 0.011652523540130339 0 -0.021189893388619239 0.024934309737873969 0 -0.045215917027402193 0.011652523540130339 0 -0.042323458840773362 0.03211836752480357 0 -0.021189893388619239 0.024934309737873969 0 -0.035419323475875557 -0.0059051719180527916 0 -0.045215917027402193 0.011652523540130339 0 -0.01923735432516601 0.0039612367865925167 0 -0.058367460703562739 0.059119997852446017 0 -0.062163379014735128 0.037914456883777113 0 -0.058367460703562739 0.059119997852446017 0 -0.062163379014735128 0.037914456883777113 0 -0.046816191517673557 0.049828841935424473 0 -0.038947458279581383 0.06980841461559914 0 -0.058367460703562739 0.059119997852446017 0 -0.046816191517673557 0.049828841935424473 0 -0.053912569656802821 0.02459803908062241 0 -0.062163379014735128 0.037914456883777113 0 -0.042323458840773362 0.03211836752480357 0 -0.062163379014735128 0.037914456883777113 0 -0.042323458840773362 0.03211836752480357 0 -0.046816191517673557 0.049828841935424473 0 -0.042323458840773362 0.03211836752480357 0 -0.03227920074971518 0.050182972800496543 0 -0.021189893388619239 0.024934309737873969 0 -0.042323458840773362 0.03211836752480357 0 -0.046816191517673557 0.049828841935424473 0 -0.03227920074971518 0.050182972800496543 0 -0.038947458279581383 0.06980841461559914 0 -0.046816191517673557 0.049828841935424473 0 -0.03227920074971518 0.050182972800496543 0 -0.019826747276029309 0.071888662154804356 0 -0.03227920074971518 0.050182972800496543 0 -0.011386178397956191 0.054275743328616399 0 -0.03227920074971518 0.050182972800496543 0 -0.011386178397956191 0.054275743328616399 0 -0.021189893388619239 0.024934309737873969 0 -0.011386178397956191 0.054275743328616399 0 -0.021189893388619239 0.024934309737873969 0 0.0028361302501638259 0.038216095935617658 0 -0.021189893388619239 0.024934309737873969 0 0.0028361302501638259 0.038216095935617658 0 -0.011386178397956191 0.054275743328616399 0 0.0028361302501638259 0.038216095935617658 0 0.0051777680653156714 0.064022599137691316 0 -0.045215917027402193 0.011652523540130339 0 -0.01923735432516601 0.0039612367865925167 0 -0.021189893388619239 0.024934309737873969 0 -0.021189893388619239 0.024934309737873969 0 0.001394510555122653 0.016748752812818749 0 0.0028361302501638259 0.038216095935617658 0 -0.01923735432516601 0.0039612367865925167 0 0.001394510555122653 0.016748752812818749 0 0.0029913831872387482 -0.0052912084592871226 0 -0.01923735432516601 0.0039612367865925167 0 -0.021189893388619239 0.024934309737873969 0 0.001394510555122653 0.016748752812818749 0 0.001394510555122653 0.016748752812818749 0 0.02076612650089784 0.0082996566370284637 0 0.0029913831872387482 -0.0052912084592871226 0 0.001394510555122653 0.016748752812818749 0 0.02295351587523849 0.02832607766333544 0 0.02076612650089784 0.0082996566370284637 0 0.001394510555122653 0.016748752812818749 0 0.02295351587523849 0.02832607766333544 0 0.0028361302501638259 0.038216095935617658 0 0.02295351587523849 0.02832607766333544 0 0.02076612650089784 0.0082996566370284637 0 0.041588967299923271 0.017257149643817919 0 0.0028361302501638259 0.038216095935617658 0 0.02686215388894686 0.051497882133361317 0 0.0051777680653156714 0.064022599137691316 0 0.0028361302501638259 0.038216095935617658 0 0.02686215388894686 0.051497882133361317 0 0.02295351587523849 0.02832607766333544 0 0.02686215388894686 0.051497882133361317 0 0.040770659363233173 0.034467497996713288 0 0.02295351587523849 0.02832607766333544 0 0.0028361302501638259 0.038216095935617658 0 0.02686215388894686 0.051497882133361317 0 0.02686215388894686 0.051497882133361317 0 0.048514489605557098 0.047173504773382197 0 0.050888177527729922 0.064779668331105017 0 0.02686215388894686 0.051497882133361317 0 0.050888177527729922 0.064779668331105017 0 0.02686215388894686 0.051497882133361317 0 0.040770659363233173 0.034467497996713288 0 0.048514489605557098 0.047173504773382197 0 0.040770659363233173 0.034467497996713288 0 0.048514489605557098 0.047173504773382197 0 0.065610046974298356 0.033244132347540409 0 0.048514489605557098 0.047173504773382197 0 0.058790551279368268 0.052953604845247408 0 0.065610046974298356 0.033244132347540409 0 0.058790551279368268 0.052953604845247408 0 0.067186822188930559 0.059571783873947667 0 0.050888177527729922 0.064779668331105017 0 0.048514489605557098 0.047173504773382197 0 0.058790551279368268 0.052953604845247408 0 0.050888177527729922 0.064779668331105017 0 0.041588967299923271 0.017257149643817919 0 0.060050954720937057 0.0064664561173888302 0 0.037869521298495842 -0.0024130821824058812 0 0.02076612650089784 0.0082996566370284637 0 0.041588967299923271 0.017257149643817919 0 0.037869521298495842 -0.0024130821824058812 0 0.02295351587523849 0.02832607766333544 0 0.040770659363233173 0.034467497996713288 0 0.041588967299923271 0.017257149643817919 0 0.041588967299923271 0.017257149643817919 0 0.060050954720937057 0.0064664561173888302 0 0.065610046974298356 0.033244132347540409 0 0.040770659363233173 0.034467497996713288 0 0.041588967299923271 0.017257149643817919 0 0.065610046974298356 0.033244132347540409 0 0.041588967299923271 0.017257149643817919 0 0.065610046974298356 0.033244132347540409 0 0.060050954720937057 0.0064664561173888302 0 0.076182375243076667 0.01733186743879735 0 0.071413030970577329 -0.0087908899577248817 0 0.076182375243076667 0.01733186743879735 0 0.073970768157536865 -0.00054468278966517819 0 0.071413030970577329 -0.0087908899577248817 0 0.076182375243076667 0.01733186743879735 0 0.071413030970577329 -0.0087908899577248817 0 0.099018903114472673 0.01401963472780658 0 0.092067821462080798 -0.00033441177277885892 0 0.073970768157536865 -0.00054468278966517819 0 0.099018903114472673 0.01401963472780658 0 0.073970768157536865 -0.00054468278966517819 0 0.076182375243076667 0.01733186743879735 0 0.099018903114472673 0.01401963472780658 0 0.073970768157536865 -0.00054468278966517819 0 0.083436587489724726 0.02470805624949873 0 0.076182375243076667 0.01733186743879735 0 0.08095171951557506 0.043454624835319762 0 0.076182375243076667 0.01733186743879735 0 0.08095171951557506 0.043454624835319762 0 0.083436587489724726 0.02470805624949873 0 0.076182375243076667 0.01733186743879735 0 0.099018903114472673 0.01401963472780658 0 0.060050954720937057 0.0064664561173888302 0 0.076182375243076667 0.01733186743879735 0 0.065610046974298356 0.033244132347540409 0 0.060050954720937057 0.0064664561173888302 0 0.065610046974298356 0.033244132347540409 0 0.076182375243076667 0.01733186743879735 0 0.065610046974298356 0.033244132347540409 0 0.08095171951557506 0.043454624835319762 0 0.065610046974298356 0.033244132347540409 0 0.069332775459548787 0.051176199945538993 0 0.058790551279368268 0.052953604845247408 0 0.065610046974298356 0.033244132347540409 0 0.069332775459548787 0.051176199945538993 0 0.065610046974298356 0.033244132347540409 0 0.069332775459548787 0.051176199945538993 0 0.08095171951557506 0.043454624835319762 0 0.065610046974298356 0.033244132347540409 0 0.08095171951557506 0.043454624835319762 0 0.069332775459548787 0.051176199945538993 0 0.084804403585996266 0.064556630802335466 0 0.073055503944793265 0.069108267543538687 0 0.069332775459548787 0.051176199945538993 0 0.073055503944793265 0.069108267543538687 0 0.067186822188930559 0.059571783873947667 0 0.069332775459548787 0.051176199945538993 0 0.073055503944793265 0.069108267543538687 0 0.058790551279368268 0.052953604845247408 0 0.067186822188930559 0.059571783873947667 0 0.069332775459548787 0.051176199945538993 0 0.08095171951557506 0.043454624835319762 0 0.084804403585996266 0.064556630802335466 0 0.069332775459548787 0.051176199945538993 0 0.08095171951557506 0.043454624835319762 0 0.084804403585996266 0.064556630802335466 0 0.095386868097821945 0.053061789618851572 0 0.096677562210499168 0.069030579129249106 0 0.084804403585996266 0.064556630802335466 0 0.08095171951557506 0.043454624835319762 0 0.095386868097821945 0.053061789618851572 0 0.084804403585996266 0.064556630802335466 0 0.08095171951557506 0.043454624835319762 0 0.095386868097821945 0.053061789618851572 0 0.083436587489724726 0.02470805624949873 0 0.08095171951557506 0.043454624835319762 0 0.091275562097269919 0.040776835589408908 0 0.083436587489724726 0.02470805624949873 0 0.091275562097269919 0.040776835589408908 0 0.10532707328595831 0.041882871653965058 0 0.08095171951557506 0.043454624835319762 0 0.091275562097269919 0.040776835589408908 0 0.095386868097821945 0.053061789618851572 0 0.083436587489724726 0.02470805624949873 0 0.10532707328595831 0.041882871653965058 0 0.099682767888764484 0.027640441658703281 0 0.083436587489724726 0.02470805624949873 0 0.10532707328595831 0.041882871653965058 0 0.091275562097269919 0.040776835589408908 0 0.10532707328595831 0.041882871653965058 0 0.095386868097821945 0.053061789618851572 0 0.10532707328595831 0.041882871653965058 0 0.10972781368369031 0.030589770507792501 0 0.099682767888764484 0.027640441658703281 0 0.10532707328595831 0.041882871653965058 0 0.095386868097821945 0.053061789618851572 0 0.10982201668006911 0.062668954402382793 0 0.095386868097821945 0.053061789618851572 0 0.10982201668006911 0.062668954402382793 0 0.096677562210499168 0.069030579129249106 0 0.095386868097821945 0.053061789618851572 0 0.10982201668006911 0.062668954402382793 0 0.10532707328595831 0.041882871653965058 0 0.1272175590821919 0.059057687058431327 0 0.10532707328595831 0.041882871653965058 0 0.1205432860578472 0.040821952253209247 0 0.1272175590821919 0.059057687058431327 0 0.10532707328595831 0.041882871653965058 0 0.10982201668006911 0.062668954402382793 0 0.1272175590821919 0.059057687058431327 0 0.10532707328595831 0.041882871653965058 0 0.1205432860578472 0.040821952253209247 0 0.10972781368369031 0.030589770507792501 0 0.1205432860578472 0.040821952253209247 0 0.12406703807140849 0.028583952245278339 0 0.10972781368369031 0.030589770507792501 0 0.12406703807140849 0.028583952245278339 0 0.10972781368369031 0.030589770507792501 0 0.099018903114472673 0.01401963472780658 0 0.12406703807140849 0.028583952245278339 0 0.1140697973221475 0.0085122026699586285 0 0.099018903114472673 0.01401963472780658 0 0.12406703807140849 0.028583952245278339 0 0.099018903114472673 0.01401963472780658 0 0.1140697973221475 0.0085122026699586285 0 0.12869539122038509 0.002219350835908105 0 0.1129183536867734 -0.0060336046019931373 0 0.12406703807140849 0.028583952245278339 0 0.1140697973221475 0.0085122026699586285 0 0.12869539122038509 0.002219350835908105 0 0.1140697973221475 0.0085122026699586285 0 0.1037614036936796 0.0018051551888032739 0 0.1129183536867734 -0.0060336046019931373 0 0.1140697973221475 0.0085122026699586285 0 0.1037614036936796 0.0018051551888032739 0 0.099018903114472673 0.01401963472780658 0 0.1037614036936796 0.0018051551888032739 0 0.099018903114472673 0.01401963472780658 0 0.092067821462080798 -0.00033441177277885892 0 0.10972781368369031 0.030589770507792501 0 0.099018903114472673 0.01401963472780658 0 0.099682767888764484 0.027640441658703281 0 0.083436587489724726 0.02470805624949873 0 0.099018903114472673 0.01401963472780658 0 0.099682767888764484 0.027640441658703281 0 0.095761154657429126 0.106004469490852 0 0.1085620844884278 0.096662284986989921 0 0.1147176577497226 0.1132000534107224 0 0.095761154657429126 0.106004469490852 0 0.1085620844884278 0.096662284986989921 0 0.088657087656411629 0.085658636769352148 0 0.095761154657429126 0.106004469490852 0 0.1147176577497226 0.1132000534107224 0 0.1110746194707164 0.130888525773349 0 0.095761154657429126 0.106004469490852 0 0.1110746194707164 0.130888525773349 0 0.095761154657429126 0.106004469490852 0 0.09722263756003785 0.1201217950412881 0 0.1110746194707164 0.130888525773349 0 0.1147176577497226 0.1132000534107224 0 0.12846708132044771 0.1076659332046209 0 0.1297233488115922 0.1247790535978003 0 0.1147176577497226 0.1132000534107224 0 0.1110746194707164 0.130888525773349 0 0.1297233488115922 0.1247790535978003 0 0.1085620844884278 0.096662284986989921 0 0.1239127955032252 0.093967289632607087 0 0.12846708132044771 0.1076659332046209 0 0.1085620844884278 0.096662284986989921 0 0.12846708132044771 0.1076659332046209 0 0.1085620844884278 0.096662284986989921 0 0.1147176577497226 0.1132000534107224 0 0.12846708132044771 0.1076659332046209 0 0.1085620844884278 0.096662284986989921 0 0.1225748144035738 0.08002933421490481 0 0.104717435032192 0.079206884053324475 0 0.1085620844884278 0.096662284986989921 0 0.1239127955032252 0.093967289632607087 0 0.1225748144035738 0.08002933421490481 0 0.1225748144035738 0.08002933421490481 0 0.10982201668006911 0.062668954402382793 0 0.1272175590821919 0.059057687058431327 0 0.1225748144035738 0.08002933421490481 0 0.10982201668006911 0.062668954402382793 0 0.104717435032192 0.079206884053324475 0 0.10982201668006911 0.062668954402382793 0 0.096677562210499168 0.069030579129249106 0 0.104717435032192 0.079206884053324475 0 0.096677562210499168 0.069030579129249106 0 0.104717435032192 0.079206884053324475 0 0.088657087656411629 0.085658636769352148 0 0.1085620844884278 0.096662284986989921 0 0.088657087656411629 0.085658636769352148 0 0.1085620844884278 0.096662284986989921 0 0.104717435032192 0.079206884053324475 0 0.088657087656411629 0.085658636769352148 0 0.095761154657429126 0.106004469490852 0 0.088657087656411629 0.085658636769352148 0 0.080447689844141468 0.081120413208355252 0 0.080447689844141468 0.081120413208355252 0 0.074914201166512984 0.078061454528848717 0 0.080661813567136115 0.105747216330557 0 0.095761154657429126 0.106004469490852 0 0.080447689844141468 0.081120413208355252 0 0.088657087656411629 0.085658636769352148 0 0.080447689844141468 0.081120413208355252 0 0.088657087656411629 0.085658636769352148 0 0.080447689844141468 0.081120413208355252 0 0.081741171257838363 0.075110987080894809 0 0.088657087656411629 0.085658636769352148 0 0.084804403585996266 0.064556630802335466 0 0.096677562210499168 0.069030579129249106 0 0.088657087656411629 0.085658636769352148 0 0.084804403585996266 0.064556630802335466 0 0.088657087656411629 0.085658636769352148 0 0.081741171257838363 0.075110987080894809 0 0.084804403585996266 0.064556630802335466 0 0.080447689844141468 0.081120413208355252 0 0.081741171257838363 0.075110987080894809 0 0.073055503944793265 0.069108267543538687 0 0.081741171257838363 0.075110987080894809 0 0.084804403585996266 0.064556630802335466 0 0.073055503944793265 0.069108267543538687 0 0.073055503944793265 0.069108267543538687 0 0.074914201166512984 0.078061454528848717 0 0.050888177527729922 0.064779668331105017 0 0.074914201166512984 0.078061454528848717 0 0.050888177527729922 0.064779668331105017 0 0.067186822188930559 0.059571783873947667 0 0.073055503944793265 0.069108267543538687 0 0.050888177527729922 0.064779668331105017 0 0.073055503944793265 0.069108267543538687 0 0.074914201166512984 0.078061454528848717 0 0.080447689844141468 0.081120413208355252 0 0.073055503944793265 0.069108267543538687 0 0.074914201166512984 0.078061454528848717 0 0.080447689844141468 0.081120413208355252 0 0.073055503944793265 0.069108267543538687 0 0.067186822188930559 0.059571783873947667 0 0.073055503944793265 0.069108267543538687 0 0.074914201166512984 0.078061454528848717 0 0.080661813567136115 0.105747216330557 0 0.074914201166512984 0.078061454528848717 0 0.080661813567136115 0.105747216330557 0 0.056878449070108743 0.082315368657813429 0 0.080447689844141468 0.081120413208355252 0 0.074914201166512984 0.078061454528848717 0 0.080661813567136115 0.105747216330557 0 0.059943259069549851 0.116284125873699 0 0.047872846764668082 0.099872898742206298 0 0.095761154657429126 0.106004469490852 0 0.080447689844141468 0.081120413208355252 0 0.080661813567136115 0.105747216330557 0 0.09722263756003785 0.1201217950412881 0 0.080661813567136115 0.105747216330557 0 0.093232084927357864 0.12737578809229799 0 0.080661813567136115 0.105747216330557 0 0.086409425967759246 0.1334329781322651 0 0.095761154657429126 0.106004469490852 0 0.09722263756003785 0.1201217950412881 0 0.080661813567136115 0.105747216330557 0 0.080661813567136115 0.105747216330557 0 0.086409425967759246 0.1334329781322651 0 0.093232084927357864 0.12737578809229799 0 0.080661813567136115 0.105747216330557 0 0.059943259069549851 0.116284125873699 0 0.067288689715800709 0.13345006704948739 0 0.080661813567136115 0.105747216330557 0 0.086409425967759246 0.1334329781322651 0 0.067288689715800709 0.13345006704948739 0 0.080661813567136115 0.105747216330557 0 0.047872846764668082 0.099872898742206298 0 0.056878449070108743 0.082315368657813429 0 0.059943259069549851 0.116284125873699 0 0.047872846764668082 0.099872898742206298 0 0.043949686230594497 0.12606632137254559 0 0.047872846764668082 0.099872898742206298 0 0.031648836016073663 0.10689025044842621 0 0.022190949976015052 0.092222797409059878 0 0.02061068274538843 0.1186825756956038 0 0.043949686230594497 0.12606632137254559 0 0.047872846764668082 0.099872898742206298 0 0.031648836016073663 0.10689025044842621 0 0.043949686230594497 0.12606632137254559 0 0.031648836016073663 0.10689025044842621 0 0.02061068274538843 0.1186825756956038 0 0.043949686230594497 0.12606632137254559 0 0.074914201166512984 0.078061454528848717 0 0.050888177527729922 0.064779668331105017 0 0.056878449070108743 0.082315368657813429 0 0.047872846764668082 0.099872898742206298 0 0.031856731496026837 0.07738293134698504 0 0.022190949976015052 0.092222797409059878 0 0.047872846764668082 0.099872898742206298 0 0.056878449070108743 0.082315368657813429 0 0.031856731496026837 0.07738293134698504 0 0.050888177527729922 0.064779668331105017 0 0.056878449070108743 0.082315368657813429 0 0.031856731496026837 0.07738293134698504 0 0.02686215388894686 0.051497882133361317 0 0.050888177527729922 0.064779668331105017 0 0.031856731496026837 0.07738293134698504 0 0.02686215388894686 0.051497882133361317 0 0.01536671916643822 0.075561596789910493 0 0.0051777680653156714 0.064022599137691316 0 0.02686215388894686 0.051497882133361317 0 0.031856731496026837 0.07738293134698504 0 0.01536671916643822 0.075561596789910493 0 0.031856731496026837 0.07738293134698504 0 0.0047653747149208892 0.089060791091408742 0 0.031856731496026837 0.07738293134698504 0 0.0047653747149208892 0.089060791091408742 0 0.01536671916643822 0.075561596789910493 0 0.031856731496026837 0.07738293134698504 0 0.022190949976015052 0.092222797409059878 0 0.0047653747149208892 0.089060791091408742 0 0.022190949976015052 0.092222797409059878 0 0.0047653747149208892 0.089060791091408742 0 0.0073259130733282583 0.097710713458034379 0 -0.00099188174605262941 0.091542484201397795 0 0.0047653747149208892 0.089060791091408742 0 0.0073259130733282583 0.097710713458034379 0 -0.00099188174605262941 0.091542484201397795 0 0.0047653747149208892 0.089060791091408742 0 -0.003035127288852954 0.076409820205214501 0 0.0047653747149208892 0.089060791091408742 0 0.0055686836644554564 0.076263701806056267 0 0.0047653747149208892 0.089060791091408742 0 0.01536671916643822 0.075561596789910493 0 0.0055686836644554564 0.076263701806056267 0 0.01536671916643822 0.075561596789910493 0 0.0055686836644554564 0.076263701806056267 0 0.0051777680653156714 0.064022599137691316 0 -0.003035127288852954 0.076409820205214501 0 0.0055686836644554564 0.076263701806056267 0 0.0051777680653156714 0.064022599137691316 0 0.031648836016073663 0.10689025044842621 0 0.02061068274538843 0.1186825756956038 0 0.013289797058211509 0.1041882169511016 0 0.031648836016073663 0.10689025044842621 0 0.022190949976015052 0.092222797409059878 0 0.013289797058211509 0.1041882169511016 0 -0.0027283207398177481 0.1112988300186621 0 -0.00099188174605262941 0.091542484201397795 0 0.0073259130733282583 0.097710713458034379 0 -0.0027283207398177481 0.1112988300186621 0 0.013289797058211509 0.1041882169511016 0 0.0073259130733282583 0.097710713458034379 0 0.022190949976015052 0.092222797409059878 0 0.013289797058211509 0.1041882169511016 0 0.0073259130733282583 0.097710713458034379 0 -0.0027283207398177481 0.1112988300186621 0 0.02061068274538843 0.1186825756956038 0 0.013289797058211509 0.1041882169511016 0 -0.0048859111134644823 0.13418218152900799 0 -0.0027283207398177481 0.1112988300186621 0 0.0087719837297385375 0.1259271669624536 0 -0.0027283207398177481 0.1112988300186621 0 0.02061068274538843 0.1186825756956038 0 -0.0027283207398177481 0.1112988300186621 0 0.02061068274538843 0.1186825756956038 0 0.0087719837297385375 0.1259271669624536 0 -0.0048859111134644823 0.13418218152900799 0 0.0087719837297385375 0.1259271669624536 0 0.022091484026847959 0.13954508060654039 0 0.02061068274538843 0.1186825756956038 0 0.0087719837297385375 0.1259271669624536 0 0.022091484026847959 0.13954508060654039 0 0.02061068274538843 0.1186825756956038 0 0.022091484026847959 0.13954508060654039 0 0.043949686230594497 0.12606632137254559 0 0.022091484026847959 0.13954508060654039 0 0.021683077009990941 0.15544613661528231 0 0.0083964321985330621 0.15833810241627999 0 0.022091484026847959 0.13954508060654039 0 0.021683077009990941 0.15544613661528231 0 0.032626333892008363 0.15530848069790659 0 -0.0048859111134644823 0.13418218152900799 0 0.0083964321985330621 0.15833810241627999 0 -0.0048859111134644823 0.13418218152900799 0 0.022091484026847959 0.13954508060654039 0 0.0083964321985330621 0.15833810241627999 0 -0.0068210809946663868 0.1547065466563233 0 0.0025848787479034788 0.16950287271148931 0 0.0083964321985330621 0.15833810241627999 0 0.0025848787479034788 0.16950287271148931 0 0.0083964321985330621 0.15833810241627999 0 0.021678775510532568 0.1824940233035508 0 0.0083964321985330621 0.15833810241627999 0 0.021678775510532568 0.1824940233035508 0 0.0025848787479034788 0.16950287271148931 0 0.001793176579978791 0.17998531947887711 0 0.021678775510532568 0.1824940233035508 0 0.021678775510532568 0.1824940233035508 0 0.027454151497857428 0.16723490151904449 0 0.042278016523786252 0.18165665121113089 0 0.021683077009990941 0.15544613661528231 0 0.0083964321985330621 0.15833810241627999 0 0.027454151497857428 0.16723490151904449 0 0.0083964321985330621 0.15833810241627999 0 0.021678775510532568 0.1824940233035508 0 0.027454151497857428 0.16723490151904449 0 0.021683077009990941 0.15544613661528231 0 0.027454151497857428 0.16723490151904449 0 0.032626333892008363 0.15530848069790659 0 0.027454151497857428 0.16723490151904449 0 0.046465149219854077 0.16476965831832591 0 0.042278016523786252 0.18165665121113089 0 0.027454151497857428 0.16723490151904449 0 0.046465149219854077 0.16476965831832591 0 0.032626333892008363 0.15530848069790659 0 0.042278016523786252 0.18165665121113089 0 0.057196665305723288 0.19109739004841869 0 0.066136829304172279 0.1739313221124841 0 0.046465149219854077 0.16476965831832591 0 0.042278016523786252 0.18165665121113089 0 0.066136829304172279 0.1739313221124841 0 0.046465149219854077 0.16476965831832591 0 0.060196856149307469 0.1599499706034356 0 0.048169709840508092 0.1454073398766754 0 0.046465149219854077 0.16476965831832591 0 0.060196856149307469 0.1599499706034356 0 0.066136829304172279 0.1739313221124841 0 0.048169709840508092 0.1454073398766754 0 0.067288689715800709 0.13345006704948739 0 0.063563982840015548 0.14777188914250769 0 0.060196856149307469 0.1599499706034356 0 0.048169709840508092 0.1454073398766754 0 0.063563982840015548 0.14777188914250769 0 0.059943259069549851 0.116284125873699 0 0.043949686230594497 0.12606632137254559 0 0.067288689715800709 0.13345006704948739 0 0.043949686230594497 0.12606632137254559 0 0.067288689715800709 0.13345006704948739 0 0.048169709840508092 0.1454073398766754 0 0.043949686230594497 0.12606632137254559 0 0.067288689715800709 0.13345006704948739 0 0.022091484026847959 0.13954508060654039 0 0.048169709840508092 0.1454073398766754 0 0.043949686230594497 0.12606632137254559 0 0.046465149219854077 0.16476965831832591 0 0.048169709840508092 0.1454073398766754 0 0.032626333892008363 0.15530848069790659 0 0.022091484026847959 0.13954508060654039 0 0.048169709840508092 0.1454073398766754 0 0.032626333892008363 0.15530848069790659 0 0.021468554629050458 0.23087757551689039 0 0.014429959116253031 0.25575914870240468 0 0.031306243653586238 0.25632370353589701 0 0.021468554629050458 0.23087757551689039 0 0.031306243653586238 0.25632370353589701 0 0.021468554629050458 0.23087757551689039 0 0.038160487077975022 0.24795670232510389 0 0.031306243653586238 0.25632370353589701 0 -0.00086476245743153171 0.25445850891889638 0 0.001513002895634853 0.23827743262301671 0 0.014429959116253031 0.25575914870240468 0 0.001513002895634853 0.23827743262301671 0 0.021468554629050458 0.23087757551689039 0 0.014429959116253031 0.25575914870240468 0 -0.0020824451475201619 0.22034032605051659 0 0.001513002895634853 0.23827743262301671 0 0.021468554629050458 0.23087757551689039 0 -0.0020824451475201619 0.22034032605051659 0 0.021468554629050458 0.23087757551689039 0 0.01163086560451463 0.20543144749788381 0 0.021468554629050458 0.23087757551689039 0 0.034961118822532153 0.2066499441908218 0 0.034865753804484853 0.234480420542581 0 0.021468554629050458 0.23087757551689039 0 0.01163086560451463 0.20543144749788381 0 0.021468554629050458 0.23087757551689039 0 0.01163086560451463 0.20543144749788381 0 0.034961118822532153 0.2066499441908218 0 0.001793176579978791 0.17998531947887711 0 0.01163086560451463 0.20543144749788381 0 -0.0084057238225411189 0.18853426110143401 0 0.001793176579978791 0.17998531947887711 0 0.01163086560451463 0.20543144749788381 0 0.001793176579978791 0.17998531947887711 0 0.021678775510532568 0.1824940233035508 0 0.01163086560451463 0.20543144749788381 0 0.021678775510532568 0.1824940233035508 0 0.034961118822532153 0.2066499441908218 0 0.021678775510532568 0.1824940233035508 0 0.01163086560451463 0.20543144749788381 0 0.034961118822532153 0.2066499441908218 0 0.021678775510532568 0.1824940233035508 0 0.042278016523786252 0.18165665121113089 0 0.034961118822532153 0.2066499441908218 0 0.042278016523786252 0.18165665121113089 0 0.057196665305723288 0.19109739004841869 0 0.034961118822532153 0.2066499441908218 0 0.057196665305723288 0.19109739004841869 0 0.061745105441412332 0.20783997598041659 0 0.034961118822532153 0.2066499441908218 0 0.061745105441412332 0.20783997598041659 0 0.034961118822532153 0.2066499441908218 0 0.04824346213453154 0.23080586507809289 0 0.034961118822532153 0.2066499441908218 0 0.04824346213453154 0.23080586507809289 0 0.034961118822532153 0.2066499441908218 0 0.04824346213453154 0.23080586507809289 0 0.034865753804484853 0.234480420542581 0 0.061745105441412332 0.20783997598041659 0 0.04824346213453154 0.23080586507809289 0 0.061745105441412332 0.20783997598041659 0 0.04824346213453154 0.23080586507809289 0 0.063420322169517929 0.2276556139624287 0 0.04824346213453154 0.23080586507809289 0 0.052804401603492937 0.2391006132558729 0 0.063420322169517929 0.2276556139624287 0 0.052804401603492937 0.2391006132558729 0 0.038160487077975022 0.24795670232510389 0 0.054762220648861562 0.25103742831865761 0 0.052804401603492937 0.2391006132558729 0 0.073232241622510824 0.23916667884285861 0 0.054762220648861562 0.25103742831865761 0 0.04824346213453154 0.23080586507809289 0 0.052804401603492937 0.2391006132558729 0 0.04824346213453154 0.23080586507809289 0 0.034865753804484853 0.234480420542581 0 0.038160487077975022 0.24795670232510389 0 0.04824346213453154 0.23080586507809289 0 0.052804401603492937 0.2391006132558729 0 0.038160487077975022 0.24795670232510389 0 0.021468554629050458 0.23087757551689039 0 0.034865753804484853 0.234480420542581 0 0.038160487077975022 0.24795670232510389 0 0.04824346213453154 0.23080586507809289 0 0.038160487077975022 0.24795670232510389 0 0.073232241622510824 0.23916667884285861 0 0.099693301234586182 0.2331139238212758 0 0.088218080968415949 0.25581349114205748 0 0.052804401603492937 0.2391006132558729 0 0.073232241622510824 0.23916667884285861 0 0.063420322169517929 0.2276556139624287 0 0.073232241622510824 0.23916667884285861 0 0.063420322169517929 0.2276556139624287 0 0.078544815493756193 0.2265229812375312 0 0.063420322169517929 0.2276556139624287 0 0.078544815493756193 0.2265229812375312 0 0.074239591320157006 0.21739971713618669 0 0.085390707878804206 0.21939272009874761 0 0.078544815493756193 0.2265229812375312 0 0.099693301234586182 0.2331139238212758 0 0.073232241622510824 0.23916667884285861 0 0.078544815493756193 0.2265229812375312 0 0.099693301234586182 0.2331139238212758 0 0.085390707878804206 0.21939272009874761 0 0.091537086757633918 0.21167295215006651 0 0.099693301234586182 0.2331139238212758 0 0.085390707878804206 0.21939272009874761 0 0.078544815493756193 0.2265229812375312 0 0.074239591320157006 0.21739971713618669 0 0.085390707878804206 0.21939272009874761 0 0.091537086757633918 0.21167295215006651 0 0.082938744587887886 0.20825402614867711 0 0.091537086757633918 0.21167295215006651 0 0.087707270989657499 0.20160517234618841 0 0.091537086757633918 0.21167295215006651 0 0.082938744587887886 0.20825402614867711 0 0.087707270989657499 0.20160517234618841 0 0.091537086757633918 0.21167295215006651 0 0.082938744587887886 0.20825402614867711 0 0.085390707878804206 0.21939272009874761 0 0.082938744587887886 0.20825402614867711 0 0.074239591320157006 0.21739971713618669 0 0.061745105441412332 0.20783997598041659 0 0.063420322169517929 0.2276556139624287 0 0.074239591320157006 0.21739971713618669 0 0.061745105441412332 0.20783997598041659 0 0.082938744587887886 0.20825402614867711 0 0.074239591320157006 0.21739971713618669 0 0.057196665305723288 0.19109739004841869 0 0.061745105441412332 0.20783997598041659 0 0.075246748748293221 0.1848740868827404 0 0.061745105441412332 0.20783997598041659 0 0.082938744587887886 0.20825402614867711 0 0.075246748748293221 0.1848740868827404 0 0.061745105441412332 0.20783997598041659 0 0.075246748748293221 0.1848740868827404 0 0.087707270989657499 0.20160517234618841 0 0.097904650769005522 0.1888045017356815 0 0.075246748748293221 0.1848740868827404 0 0.082938744587887886 0.20825402614867711 0 0.087707270989657499 0.20160517234618841 0 0.075246748748293221 0.1848740868827404 0 0.091537086757633918 0.21167295215006651 0 0.087707270989657499 0.20160517234618841 0 0.097904650769005522 0.1888045017356815 0 0.097904650769005522 0.1888045017356815 0 0.11854613779199499 0.20005913394347921 0 0.11005380424872881 0.17735567284990111 0 0.097904650769005522 0.1888045017356815 0 0.1036522631696306 0.2164902635373894 0 0.097904650769005522 0.1888045017356815 0 0.11854613779199499 0.20005913394347921 0 0.1036522631696306 0.2164902635373894 0 0.11854613779199499 0.20005913394347921 0 0.1036522631696306 0.2164902635373894 0 0.1214257659997692 0.22355747367651821 0 0.11854613779199499 0.20005913394347921 0 0.1214257659997692 0.22355747367651821 0 0.132033540969684 0.2121691892086251 0 0.091537086757633918 0.21167295215006651 0 0.097904650769005522 0.1888045017356815 0 0.1036522631696306 0.2164902635373894 0 0.091537086757633918 0.21167295215006651 0 0.1036522631696306 0.2164902635373894 0 0.1036522631696306 0.2164902635373894 0 0.1077700855092453 0.23632546474615931 0 0.091537086757633918 0.21167295215006651 0 0.1036522631696306 0.2164902635373894 0 0.099693301234586182 0.2331139238212758 0 0.091537086757633918 0.21167295215006651 0 0.099693301234586182 0.2331139238212758 0 0.1036522631696306 0.2164902635373894 0 0.099693301234586182 0.2331139238212758 0 0.1077700855092453 0.23632546474615931 0 0.1214257659997692 0.22355747367651821 0 0.12211117754279691 0.24191114690147031 0 0.1077700855092453 0.23632546474615931 0 0.1036522631696306 0.2164902635373894 0 0.1214257659997692 0.22355747367651821 0 0.1036522631696306 0.2164902635373894 0 0.1214257659997692 0.22355747367651821 0 0.1077700855092453 0.23632546474615931 0 0.12211117754279691 0.24191114690147031 0 0.1077700855092453 0.23632546474615931 0 0.11188790784886191 0.25616066595492859 0 0.1077700855092453 0.23632546474615931 0 0.11188790784886191 0.25616066595492859 0 0.099693301234586182 0.2331139238212758 0 0.1077700855092453 0.23632546474615931 0 0.1078495157115377 0.25455489549248528 0 0.099693301234586182 0.2331139238212758 0 0.1078495157115377 0.25455489549248528 0 0.1077700855092453 0.23632546474615931 0 0.11188790784886191 0.25616066595492859 0 0.1078495157115377 0.25455489549248528 0 0.099693301234586182 0.2331139238212758 0 0.088218080968415949 0.25581349114205748 0 0.1078495157115377 0.25455489549248528 0 0.082455727745563034 0.15408881251728429 0 0.086409425967759246 0.1334329781322651 0 0.074521771562223907 0.14653710521394839 0 0.086409425967759246 0.1334329781322651 0 0.092157038368382377 0.1611187399339733 0 0.093766044826469816 0.13655895260268 0 0.082455727745563034 0.15408881251728429 0 0.086409425967759246 0.1334329781322651 0 0.092157038368382377 0.1611187399339733 0 0.086409425967759246 0.1334329781322651 0 0.092157038368382377 0.1611187399339733 0 0.086409425967759246 0.1334329781322651 0 0.093232084927357864 0.12737578809229799 0 0.093766044826469816 0.13655895260268 0 0.086409425967759246 0.1334329781322651 0 0.067288689715800709 0.13345006704948739 0 0.074521771562223907 0.14653710521394839 0 0.067288689715800709 0.13345006704948739 0 0.063563982840015548 0.14777188914250769 0 0.074521771562223907 0.14653710521394839 0 0.082455727745563034 0.15408881251728429 0 0.074521771562223907 0.14653710521394839 0 0.071147611216419215 0.15789328441085471 0 0.063563982840015548 0.14777188914250769 0 0.074521771562223907 0.14653710521394839 0 0.071147611216419215 0.15789328441085471 0 0.060196856149307469 0.1599499706034356 0 0.063563982840015548 0.14777188914250769 0 0.071147611216419215 0.15789328441085471 0 0.076747061813924392 0.16653914074168549 0 0.071147611216419215 0.15789328441085471 0 0.066136829304172279 0.1739313221124841 0 0.060196856149307469 0.1599499706034356 0 0.071147611216419215 0.15789328441085471 0 0.066136829304172279 0.1739313221124841 0 0.082455727745563034 0.15408881251728429 0 0.076747061813924392 0.16653914074168549 0 0.071147611216419215 0.15789328441085471 0 0.076747061813924392 0.16653914074168549 0 0.075246748748293221 0.1848740868827404 0 0.066136829304172279 0.1739313221124841 0 0.057196665305723288 0.19109739004841869 0 0.075246748748293221 0.1848740868827404 0 0.066136829304172279 0.1739313221124841 0 0.075246748748293221 0.1848740868827404 0 0.088514207485213811 0.1741763815843648 0 0.088748392055174166 0.1619081977850641 0 0.097904650769005522 0.1888045017356815 0 0.088514207485213811 0.1741763815843648 0 0.092157038368382377 0.1611187399339733 0 0.075246748748293221 0.1848740868827404 0 0.088748392055174166 0.1619081977850641 0 0.097904650769005522 0.1888045017356815 0 0.075246748748293221 0.1848740868827404 0 0.088514207485213811 0.1741763815843648 0 0.076747061813924392 0.16653914074168549 0 0.075246748748293221 0.1848740868827404 0 0.088748392055174166 0.1619081977850641 0 0.082455727745563034 0.15408881251728429 0 0.076747061813924392 0.16653914074168549 0 0.088748392055174166 0.1619081977850641 0 0.088514207485213811 0.1741763815843648 0 0.088748392055174166 0.1619081977850641 0 0.092157038368382377 0.1611187399339733 0 0.082455727745563034 0.15408881251728429 0 0.088748392055174166 0.1619081977850641 0 0.092157038368382377 0.1611187399339733 0 0.092157038368382377 0.1611187399339733 0 0.11005380424872881 0.17735567284990111 0 0.1170667569374403 0.16320807281460889 0 0.092157038368382377 0.1611187399339733 0 0.1170667569374403 0.16320807281460889 0 0.1035106356655533 0.1495299581356091 0 0.097904650769005522 0.1888045017356815 0 0.092157038368382377 0.1611187399339733 0 0.097904650769005522 0.1888045017356815 0 0.092157038368382377 0.1611187399339733 0 0.11005380424872881 0.17735567284990111 0 0.11854613779199499 0.20005913394347921 0 0.11005380424872881 0.17735567284990111 0 0.1252355542183228 0.18295970168097159 0 0.11005380424872881 0.17735567284990111 0 0.1170667569374403 0.16320807281460889 0 0.1252355542183228 0.18295970168097159 0 0.1170667569374403 0.16320807281460889 0 0.13018238258062109 0.16643239517872821 0 0.1252355542183228 0.18295970168097159 0 0.1170667569374403 0.16320807281460889 0 0.1191511772100351 0.1510848492122463 0 0.13038245582619129 0.15548683111807071 0 0.1170667569374403 0.16320807281460889 0 0.1191511772100351 0.1510848492122463 0 0.1035106356655533 0.1495299581356091 0 0.1191511772100351 0.1510848492122463 0 0.1035106356655533 0.1495299581356091 0 0.1169955930832775 0.14050998260356951 0 0.1191511772100351 0.1510848492122463 0 0.1169955930832775 0.14050998260356951 0 0.1294143236802896 0.14121205938884629 0 0.092157038368382377 0.1611187399339733 0 0.1035106356655533 0.1495299581356091 0 0.093766044826469816 0.13655895260268 0 0.1035106356655533 0.1495299581356091 0 0.1041237994947698 0.1389234521201741 0 0.1169955930832775 0.14050998260356951 0 0.1035106356655533 0.1495299581356091 0 0.093766044826469816 0.13655895260268 0 0.1041237994947698 0.1389234521201741 0 0.093232084927357864 0.12737578809229799 0 0.093766044826469816 0.13655895260268 0 0.1110746194707164 0.130888525773349 0 0.093766044826469816 0.13655895260268 0 0.1041237994947698 0.1389234521201741 0 0.1110746194707164 0.130888525773349 0 0.09722263756003785 0.1201217950412881 0 0.093232084927357864 0.12737578809229799 0 0.1110746194707164 0.130888525773349 0 0.093766044826469816 0.13655895260268 0 0.1110746194707164 0.130888525773349 0 0.1110746194707164 0.130888525773349 0 0.1169955930832775 0.14050998260356951 0 0.1297233488115922 0.1247790535978003 0 0.1110746194707164 0.130888525773349 0 0.1297233488115922 0.1247790535978003 0 0.1110746194707164 0.130888525773349 0 0.1169955930832775 0.14050998260356951 0 0.1041237994947698 0.1389234521201741 0 0.1110746194707164 0.130888525773349 0 0.1169955930832775 0.14050998260356951 0 0.1400489574351699 0.13316698217305259 0 0.1297233488115922 0.1247790535978003 0 0.14837207815246789 0.1186695814222517 0 0.1169955930832775 0.14050998260356951 0 0.1294143236802896 0.14121205938884629 0 0.1297233488115922 0.1247790535978003 0 0.1400489574351699 0.13316698217305259 0 0.1294143236802896 0.14121205938884629 0 0.1297233488115922 0.1247790535978003 0 0.1400489574351699 0.13316698217305259 0 0.13946731248321681 0.14396201138248829 0 0.1294143236802896 0.14121205938884629 0 0.1400489574351699 0.13316698217305259 0 0.15326772404828301 0.1372122050738768 0 0.14837207815246789 0.1186695814222517 0 0.1400489574351699 0.13316698217305259 0 0.15326772404828301 0.1372122050738768 0 0.13946731248321681 0.14396201138248829 0 0.15326772404828301 0.1372122050738768 0 0.14663915531479979 0.15387398831644161 0 0.15962986839682741 0.15092942148533209 0 0.15326772404828301 0.1372122050738768 0 0.14663915531479979 0.15387398831644161 0 0.13946731248321681 0.14396201138248829 0 0.14663915531479979 0.15387398831644161 0 0.1556147777591686 0.16234344852944979 0 0.15962986839682741 0.15092942148533209 0 0.14663915531479979 0.15387398831644161 0 0.13946731248321681 0.14396201138248829 0 0.13038245582619129 0.15548683111807071 0 0.13946731248321681 0.14396201138248829 0 0.1294143236802896 0.14121205938884629 0 0.13038245582619129 0.15548683111807071 0 0.1191511772100351 0.1510848492122463 0 0.1294143236802896 0.14121205938884629 0 0.13038245582619129 0.15548683111807071 0 0.1170667569374403 0.16320807281460889 0 0.13038245582619129 0.15548683111807071 0 0.13018238258062109 0.16643239517872821 0 0.14663915531479979 0.15387398831644161 0 0.13038245582619129 0.15548683111807071 0 0.1408045968941484 0.1640220017884664 0 0.13018238258062109 0.16643239517872821 0 0.13542392390408581 0.17598057185140931 0 0.1408045968941484 0.1640220017884664 0 0.13038245582619129 0.15548683111807071 0 0.13018238258062109 0.16643239517872821 0 0.1408045968941484 0.1640220017884664 0 0.13018238258062109 0.16643239517872821 0 0.1252355542183228 0.18295970168097159 0 0.13542392390408581 0.17598057185140931 0 0.13542392390408581 0.17598057185140931 0 0.14822591859173809 0.1731401543128023 0 0.13386294486444131 0.1910318616769188 0 0.1252355542183228 0.18295970168097159 0 0.13542392390408581 0.17598057185140931 0 0.13386294486444131 0.1910318616769188 0 0.14822591859173809 0.1731401543128023 0 0.14847142356206611 0.1715767018600855 0 0.14822591859173809 0.1731401543128023 0 0.15163693879457579 0.1707171597092432 0 0.15873142760863551 0.17457651750217629 0 0.14663915531479979 0.15387398831644161 0 0.1408045968941484 0.1640220017884664 0 0.1481532535305442 0.16423193540273059 0 0.13542392390408581 0.17598057185140931 0 0.14822591859173809 0.1731401543128023 0 0.1408045968941484 0.1640220017884664 0 0.14822591859173809 0.1731401543128023 0 0.1408045968941484 0.1640220017884664 0 0.14847142356206611 0.1715767018600855 0 0.14822591859173809 0.1731401543128023 0 0.1408045968941484 0.1640220017884664 0 0.1408045968941484 0.1640220017884664 0 0.1481532535305442 0.16423193540273059 0 0.14847142356206611 0.1715767018600855 0 0.1481532535305442 0.16423193540273059 0 0.15137481075170139 0.16757804394522499 0 0.1556147777591686 0.16234344852944979 0 0.1481532535305442 0.16423193540273059 0 0.15137481075170139 0.16757804394522499 0 0.14847142356206611 0.1715767018600855 0 0.15137481075170139 0.16757804394522499 0 0.14847142356206611 0.1715767018600855 0 0.15163693879457579 0.1707171597092432 0 0.14822591859173809 0.1731401543128023 0 0.14847142356206611 0.1715767018600855 0 0.15163693879457579 0.1707171597092432 0 0.15137481075170139 0.16757804394522499 0 0.15163693879457579 0.1707171597092432 0 0.15557785288125919 0.16852198095891741 0 0.15163693879457579 0.1707171597092432 0 0.15557785288125919 0.16852198095891741 0 0.15873142760863551 0.17457651750217629 0 0.15137481075170139 0.16757804394522499 0 0.15557785288125919 0.16852198095891741 0 0.1556147777591686 0.16234344852944979 0 0.14663915531479979 0.15387398831644161 0 0.1481532535305442 0.16423193540273059 0 0.1556147777591686 0.16234344852944979 0 0.1556147777591686 0.16234344852944979 0 0.1666347339386666 0.15972949389467581 0 0.15962986839682741 0.15092942148533209 0 0.1556147777591686 0.16234344852944979 0 0.16172390812114909 0.16728479695135601 0 0.1666347339386666 0.15972949389467581 0 0.15557785288125919 0.16852198095891741 0 0.1556147777591686 0.16234344852944979 0 0.16172390812114909 0.16728479695135601 0 0.16172390812114909 0.16728479695135601 0 0.15873142760863551 0.17457651750217629 0 0.17001504542169171 0.17220362834228359 0 0.15557785288125919 0.16852198095891741 0 0.16172390812114909 0.16728479695135601 0 0.15873142760863551 0.17457651750217629 0 0.16172390812114909 0.16728479695135601 0 0.1666347339386666 0.15972949389467581 0 0.17001504542169171 0.17220362834228359 0 0.15873142760863551 0.17457651750217629 0 0.17001504542169171 0.17220362834228359 0 0.16658790025786999 0.19570046854028161 0 0.14822591859173809 0.1731401543128023 0 0.16658790025786999 0.19570046854028161 0 0.14822591859173809 0.1731401543128023 0 0.15873142760863551 0.17457651750217629 0 0.16658790025786999 0.19570046854028161 0 0.17001504542169171 0.17220362834228359 0 0.1857976981310033 0.17866911582706579 0 0.16658790025786999 0.19570046854028161 0 0.17001504542169171 0.17220362834228359 0 0.1857976981310033 0.17866911582706579 0 0.1806176388342341 0.15985885667985411 0 0.1666347339386666 0.15972949389467581 0 0.17001504542169171 0.17220362834228359 0 0.1806176388342341 0.15985885667985411 0 0.1806176388342341 0.15985885667985411 0 0.17220716509892889 0.14575681137977889 0 0.1908343707260011 0.1421430908096869 0 0.1666347339386666 0.15972949389467581 0 0.1806176388342341 0.15985885667985411 0 0.17220716509892889 0.14575681137977889 0 0.17220716509892889 0.14575681137977889 0 0.16960322443923451 0.13040633611596941 0 0.1908343707260011 0.1421430908096869 0 0.16960322443923451 0.13040633611596941 0 0.1908343707260011 0.1421430908096869 0 0.16960322443923451 0.13040633611596941 0 0.1908343707260011 0.1421430908096869 0 0.18747885201403669 0.1246225718883746 0 0.15326772404828301 0.1372122050738768 0 0.17220716509892889 0.14575681137977889 0 0.16960322443923451 0.13040633611596941 0 0.15326772404828301 0.1372122050738768 0 0.16960322443923451 0.13040633611596941 0 0.14837207815246789 0.1186695814222517 0 0.15326772404828301 0.1372122050738768 0 0.17220716509892889 0.14575681137977889 0 0.15962986839682741 0.15092942148533209 0 0.1666347339386666 0.15972949389467581 0 0.17220716509892889 0.14575681137977889 0 0.15962986839682741 0.15092942148533209 0 0.13662136877128961 0.24704155783701209 0 0.13919926882990749 0.23062468381564821 0 0.15315320407289379 0.25143692855392119 0 0.13919926882990749 0.23062468381564821 0 0.16727987371768049 0.24179026763288269 0 0.13919926882990749 0.23062468381564821 0 0.16727987371768049 0.24179026763288269 0 0.15315320407289379 0.25143692855392119 0 0.13662136877128961 0.24704155783701209 0 0.13919926882990749 0.23062468381564821 0 0.12211117754279691 0.24191114690147031 0 0.13662136877128961 0.24704155783701209 0 0.13919926882990749 0.23062468381564821 0 0.12211117754279691 0.24191114690147031 0 0.13662136877128961 0.24704155783701209 0 0.12654854198029711 0.25664805847424449 0 0.1214257659997692 0.22355747367651821 0 0.13919926882990749 0.23062468381564821 0 0.1214257659997692 0.22355747367651821 0 0.12211117754279691 0.24191114690147031 0 0.13919926882990749 0.23062468381564821 0 0.1214257659997692 0.22355747367651821 0 0.13919926882990749 0.23062468381564821 0 0.132033540969684 0.2121691892086251 0 0.13919926882990749 0.23062468381564821 0 0.16013557895953759 0.21861531447658741 0 0.16727987371768049 0.24179026763288269 0 0.13919926882990749 0.23062468381564821 0 0.14371259371082201 0.2018824190642251 0 0.16013557895953759 0.21861531447658741 0 0.13919926882990749 0.23062468381564821 0 0.14371259371082201 0.2018824190642251 0 0.13919926882990749 0.23062468381564821 0 0.132033540969684 0.2121691892086251 0 0.14371259371082201 0.2018824190642251 0 0.11854613779199499 0.20005913394347921 0 0.132033540969684 0.2121691892086251 0 0.13386294486444131 0.1910318616769188 0 0.132033540969684 0.2121691892086251 0 0.13386294486444131 0.1910318616769188 0 0.14371259371082201 0.2018824190642251 0 0.11854613779199499 0.20005913394347921 0 0.1252355542183228 0.18295970168097159 0 0.13386294486444131 0.1910318616769188 0 0.14822591859173809 0.1731401543128023 0 0.14371259371082201 0.2018824190642251 0 0.14822591859173809 0.1731401543128023 0 0.14371259371082201 0.2018824190642251 0 0.16658790025786999 0.19570046854028161 0 0.14822591859173809 0.1731401543128023 0 0.13386294486444131 0.1910318616769188 0 0.14371259371082201 0.2018824190642251 0 0.1857976981310033 0.17866911582706579 0 0.16658790025786999 0.19570046854028161 0 0.18755690692391791 0.19851169857648099 0 0.16658790025786999 0.19570046854028161 0 0.1849498819240015 0.2182607827677612 0 0.16658790025786999 0.19570046854028161 0 0.1849498819240015 0.2182607827677612 0 0.18755690692391791 0.19851169857648099 0 0.14371259371082201 0.2018824190642251 0 0.16658790025786999 0.19570046854028161 0 0.16013557895953759 0.21861531447658741 0 0.16658790025786999 0.19570046854028161 0 0.1849498819240015 0.2182607827677612 0 0.16013557895953759 0.21861531447658741 0 0.1849498819240015 0.2182607827677612 0 0.16727987371768049 0.24179026763288269 0 0.18829363027604831 0.250961673238912 0 0.1849498819240015 0.2182607827677612 0 0.16013557895953759 0.21861531447658741 0 0.16727987371768049 0.24179026763288269 0 0.1849498819240015 0.2182607827677612 0 0.20331186359013301 0.24082109699524071 0 0.18829363027604831 0.250961673238912 0 0.20331186359013301 0.24082109699524071 0 0.2277523719436961 0.23180434364907981 0 0.22152166851701249 0.25652559775186567 0 0.1849498819240015 0.2182607827677612 0 0.20331186359013301 0.24082109699524071 0 0.1849498819240015 0.2182607827677612 0 0.20331186359013301 0.24082109699524071 0 0.20666649130505529 0.21408843403314459 0 0.20331186359013301 0.24082109699524071 0 0.20666649130505529 0.21408843403314459 0 0.2277523719436961 0.23180434364907981 0 0.20666649130505529 0.21408843403314459 0 0.20637485024776481 0.19197656928893489 0 0.22695200236452631 0.2052840227508039 0 0.1849498819240015 0.2182607827677612 0 0.20666649130505529 0.21408843403314459 0 0.18755690692391791 0.19851169857648099 0 0.1857976981310033 0.17866911582706579 0 0.18755690692391791 0.19851169857648099 0 0.20637485024776481 0.19197656928893489 0 0.20666649130505529 0.21408843403314459 0 0.18755690692391791 0.19851169857648099 0 0.20637485024776481 0.19197656928893489 0 0.20637485024776481 0.19197656928893489 0 0.22695200236452631 0.2052840227508039 0 0.20637485024776481 0.19197656928893489 0 0.22308147421621879 0.1915002184579645 0 0.22695200236452631 0.2052840227508039 0 0.22308147421621879 0.1915002184579645 0 0.23964843663544541 0.19347058462254491 0 0.23583844855903691 0.18099005306331281 0 0.22308147421621879 0.1915002184579645 0 0.23964843663544541 0.19347058462254491 0 0.22695200236452631 0.2052840227508039 0 0.23964843663544541 0.19347058462254491 0 0.24752915448128771 0.21859147621267291 0 0.2588047481494174 0.19151691038237789 0 0.24752915448128771 0.21859147621267291 0 0.22695200236452631 0.2052840227508039 0 0.23964843663544541 0.19347058462254491 0 0.24752915448128771 0.21859147621267291 0 0.22695200236452631 0.2052840227508039 0 0.24752915448128771 0.21859147621267291 0 0.22695200236452631 0.2052840227508039 0 0.2277523719436961 0.23180434364907981 0 0.20666649130505529 0.21408843403314459 0 0.22695200236452631 0.2052840227508039 0 0.2277523719436961 0.23180434364907981 0 0.24752915448128771 0.21859147621267291 0 0.2277523719436961 0.23180434364907981 0 0.25107959658486639 0.2365254663968768 0 0.2277523719436961 0.23180434364907981 0 0.2382202682677608 0.24987136550520039 0 0.25107959658486639 0.2365254663968768 0 0.2382202682677608 0.24987136550520039 0 0.25444540126316278 0.25175855520636897 0 0.25107959658486639 0.2365254663968768 0 0.2277523719436961 0.23180434364907981 0 0.2382202682677608 0.24987136550520039 0 0.22152166851701249 0.25652559775186567 0 0.2120655170127678 0.15387984550340439 0 0.20607850037422459 0.1364001314990563 0 0.22210976092333701 0.133508115665433 0 0.20607850037422459 0.1364001314990563 0 0.22210976092333701 0.133508115665433 0 0.20507268417377841 0.1201411830660757 0 0.22210976092333701 0.133508115665433 0 0.20507268417377841 0.1201411830660757 0 0.20607850037422459 0.1364001314990563 0 0.20507268417377841 0.1201411830660757 0 0.18747885201403669 0.1246225718883746 0 0.20607850037422459 0.1364001314990563 0 0.1908343707260011 0.1421430908096869 0 0.18747885201403669 0.1246225718883746 0 0.2120655170127678 0.15387984550340439 0 0.20607850037422459 0.1364001314990563 0 0.1908343707260011 0.1421430908096869 0 0.1806176388342341 0.15985885667985411 0 0.1908343707260011 0.1421430908096869 0 0.19702440651793429 0.16425352517916411 0 0.2120655170127678 0.15387984550340439 0 0.1908343707260011 0.1421430908096869 0 0.2120655170127678 0.15387984550340439 0 0.1908343707260011 0.1421430908096869 0 0.19702440651793429 0.16425352517916411 0 0.1857976981310033 0.17866911582706579 0 0.1806176388342341 0.15985885667985411 0 0.19702440651793429 0.16425352517916411 0 0.1857976981310033 0.17866911582706579 0 0.20637485024776481 0.19197656928893489 0 0.2010821010855422 0.1770760799030632 0 0.1857976981310033 0.17866911582706579 0 0.20637485024776481 0.19197656928893489 0 0.1857976981310033 0.17866911582706579 0 0.19702440651793429 0.16425352517916411 0 0.2010821010855422 0.1770760799030632 0 0.20637485024776481 0.19197656928893489 0 0.22308147421621879 0.1915002184579645 0 0.2151314494454665 0.17340510931708791 0 0.20637485024776481 0.19197656928893489 0 0.2010821010855422 0.1770760799030632 0 0.2151314494454665 0.17340510931708791 0 0.2120655170127678 0.15387984550340439 0 0.19702440651793429 0.16425352517916411 0 0.2151314494454665 0.17340510931708791 0 0.19702440651793429 0.16425352517916411 0 0.2010821010855422 0.1770760799030632 0 0.2151314494454665 0.17340510931708791 0 0.2120655170127678 0.15387984550340439 0 0.2151314494454665 0.17340510931708791 0 0.23329666329953361 0.16561660019712321 0 0.2120655170127678 0.15387984550340439 0 0.23329666329953361 0.16561660019712321 0 0.2368021212900964 0.15673434302918479 0 0.2120655170127678 0.15387984550340439 0 0.23329666329953361 0.16561660019712321 0 0.22308147421621879 0.1915002184579645 0 0.2151314494454665 0.17340510931708791 0 0.23329666329953361 0.16561660019712321 0 0.22308147421621879 0.1915002184579645 0 0.23329666329953361 0.16561660019712321 0 0.22308147421621879 0.1915002184579645 0 0.23329666329953361 0.16561660019712321 0 0.23583844855903691 0.18099005306331281 0 0.23964843663544541 0.19347058462254491 0 0.24732722008495439 0.17337280897561649 0 0.2588047481494174 0.19151691038237789 0 0.23964843663544541 0.19347058462254491 0 0.23583844855903691 0.18099005306331281 0 0.24732722008495439 0.17337280897561649 0 0.23329666329953361 0.16561660019712321 0 0.23583844855903691 0.18099005306331281 0 0.24732722008495439 0.17337280897561649 0 0.24732722008495439 0.17337280897561649 0 0.2368021212900964 0.15673434302918479 0 0.24732722008495439 0.17337280897561649 0 0.2368021212900964 0.15673434302918479 0 0.2457774495435478 0.16110322538626889 0 0.23329666329953361 0.16561660019712321 0 0.24732722008495439 0.17337280897561649 0 0.2368021212900964 0.15673434302918479 0 0.23329666329953361 0.16561660019712321 0 0.2368021212900964 0.15673434302918479 0 0.23329666329953361 0.16561660019712321 0 0.24732722008495439 0.17337280897561649 0 0.24732722008495439 0.17337280897561649 0 0.24935793312848609 0.1682376363615565 0 0.2457774495435478 0.16110322538626889 0 0.2457774495435478 0.16110322538626889 0 0.24032757198822879 0.1478014276104265 0 0.25507240122598079 0.15936991095455749 0 0.24032757198822879 0.1478014276104265 0 0.25507240122598079 0.15936991095455749 0 0.2368021212900964 0.15673434302918479 0 0.2457774495435478 0.16110322538626889 0 0.24032757198822879 0.1478014276104265 0 0.2368021212900964 0.15673434302918479 0 0.24032757198822879 0.1478014276104265 0 0.2368021212900964 0.15673434302918479 0 0.24032757198822879 0.1478014276104265 0 0.22210976092333701 0.133508115665433 0 0.2120655170127678 0.15387984550340439 0 0.2368021212900964 0.15673434302918479 0 0.22210976092333701 0.133508115665433 0 0.24032757198822879 0.1478014276104265 0 0.22210976092333701 0.133508115665433 0 0.2368021212900964 0.15673434302918479 0 0.22210976092333701 0.133508115665433 0 0.24032757198822879 0.1478014276104265 0 0.25134453292116388 0.1198862506267229 0 0.25701456527999161 0.14463384931756959 0 0.24032757198822879 0.1478014276104265 0 0.22210976092333701 0.133508115665433 0 0.25134453292116388 0.1198862506267229 0 0.24032757198822879 0.1478014276104265 0 0.25134453292116388 0.1198862506267229 0 0.2296288395714336 0.11080245274363 0 0.23942410030379571 0.090766949842815886 0 0.25134453292116388 0.1198862506267229 0 0.2296288395714336 0.11080245274363 0 0.21648670675349019 0.089562826042607346 0 0.23942410030379571 0.090766949842815886 0 0.22210976092333701 0.133508115665433 0 0.2296288395714336 0.11080245274363 0 0.20782953706325641 0.1109334089539256 0 0.22210976092333701 0.133508115665433 0 0.2296288395714336 0.11080245274363 0 0.25134453292116388 0.1198862506267229 0 0.22210976092333701 0.133508115665433 0 0.20782953706325641 0.1109334089539256 0 0.22210976092333701 0.133508115665433 0 0.20782953706325641 0.1109334089539256 0 0.20507268417377841 0.1201411830660757 0 0.2296288395714336 0.11080245274363 0 0.20782953706325641 0.1109334089539256 0 0.21648670675349019 0.089562826042607346 0 0.20782953706325641 0.1109334089539256 0 0.19354931320318411 0.088358702242412906 0 0.21648670675349019 0.089562826042607346 0 0.20782953706325641 0.1109334089539256 0 0.18803560742421871 0.1067742504667198 0 0.18921615201247041 0.097483726309848279 0 0.20782953706325641 0.1109334089539256 0 0.18921615201247041 0.097483726309848279 0 0.19354931320318411 0.088358702242412906 0 0.20782953706325641 0.1109334089539256 0 0.19354931320318411 0.088358702242412906 0 0.20507268417377841 0.1201411830660757 0 0.18803560742421871 0.1067742504667198 0 0.20782953706325641 0.1109334089539256 0 0.20507268417377841 0.1201411830660757 0 0.18803560742421871 0.1067742504667198 0 0.20507268417377841 0.1201411830660757 0 0.18803560742421871 0.1067742504667198 0 0.18747885201403669 0.1246225718883746 0 0.19390234193708281 0.070057024008310695 0 0.19055783632230899 0.083629664807042703 0 0.20921228774967091 0.074304346343640332 0 0.19390234193708281 0.070057024008310695 0 0.20921228774967091 0.074304346343640332 0 0.1991012066300841 0.058776484766658157 0 0.1887699562791165 0.062695134853888779 0 0.19390234193708281 0.070057024008310695 0 0.1991012066300841 0.058776484766658157 0 0.1887699562791165 0.062695134853888779 0 0.19390234193708281 0.070057024008310695 0 0.18236057215379359 0.070671126043632945 0 0.19390234193708281 0.070057024008310695 0 0.19055783632230899 0.083629664807042703 0 0.18236057215379359 0.070671126043632945 0 0.19055783632230899 0.083629664807042703 0 0.19354931320318411 0.088358702242412906 0 0.20921228774967091 0.074304346343640332 0 0.19055783632230899 0.083629664807042703 0 0.20921228774967091 0.074304346343640332 0 0.19055783632230899 0.083629664807042703 0 0.19354931320318411 0.088358702242412906 0 0.18566777169704099 0.087944952018814554 0 0.18921615201247041 0.097483726309848279 0 0.19354931320318411 0.088358702242412906 0 0.18566777169704099 0.087944952018814554 0 0.19354931320318411 0.088358702242412906 0 0.18566777169704099 0.087944952018814554 0 0.19055783632230899 0.083629664807042703 0 0.19354931320318411 0.088358702242412906 0 0.19354931320318411 0.088358702242412906 0 0.21648670675349019 0.089562826042607346 0 0.21648670675349019 0.089562826042607346 0 0.20921228774967091 0.074304346343640332 0 0.2284791322980938 0.080188361528708271 0 0.19354931320318411 0.088358702242412906 0 0.21648670675349019 0.089562826042607346 0 0.20921228774967091 0.074304346343640332 0 0.20921228774967091 0.074304346343640332 0 0.22786673917703279 0.064979027880237877 0 0.21497972193061521 0.054017003518715558 0 0.20921228774967091 0.074304346343640332 0 0.22786673917703279 0.064979027880237877 0 0.20921228774967091 0.074304346343640332 0 0.22786673917703279 0.064979027880237877 0 0.2284791322980938 0.080188361528708271 0 0.21648670675349019 0.089562826042607346 0 0.23942410030379571 0.090766949842815886 0 0.21648670675349019 0.089562826042607346 0 0.2284791322980938 0.080188361528708271 0 0.23942410030379571 0.090766949842815886 0 0.2284791322980938 0.080188361528708271 0 0.23942410030379571 0.090766949842815886 0 0.24830316683739459 0.072908673739454255 0 0.22786673917703279 0.064979027880237877 0 0.2284791322980938 0.080188361528708271 0 0.24830316683739459 0.072908673739454255 0 0.22786673917703279 0.064979027880237877 0 0.24830316683739459 0.072908673739454255 0 0.24652119060439481 0.055653709416835388 0 0.22786673917703279 0.064979027880237877 0 0.24652119060439481 0.055653709416835388 0 0.24652119060439481 0.055653709416835388 0 0.2416838059484307 0.037814910533120583 0 0.2321681165056354 0.050262616066394337 0 0.22786673917703279 0.064979027880237877 0 0.24652119060439481 0.055653709416835388 0 0.2321681165056354 0.050262616066394337 0 0.2416838059484307 0.037814910533120583 0 0.22344390453417751 0.037065505813618303 0 0.2321681165056354 0.050262616066394337 0 0.2416838059484307 0.037814910533120583 0 0.22344390453417751 0.037065505813618303 0 0.23254198883508209 0.025349655873777951 0 0.22344390453417751 0.037065505813618303 0 0.2321681165056354 0.050262616066394337 0 0.21497972193061521 0.054017003518715558 0 0.22786673917703279 0.064979027880237877 0 0.2321681165056354 0.050262616066394337 0 0.21497972193061521 0.054017003518715558 0 0.22914471171673431 0.0072058749996883973 0 0.25664898171853662 0.0056114648194218507 0 0.24820666495033469 -0.010671503176887811 0 0.22914471171673431 0.0072058749996883973 0 0.25086627767031322 0.022580105788253649 0 0.25664898171853662 0.0056114648194218507 0 0.23254198883508209 0.025349655873777951 0 0.22914471171673431 0.0072058749996883973 0 0.25086627767031322 0.022580105788253649 0 0.2416838059484307 0.037814910533120583 0 0.23254198883508209 0.025349655873777951 0 0.25086627767031322 0.022580105788253649 0 0.23254198883508209 0.025349655873777951 0 0.22914471171673431 0.0072058749996883973 0 0.21757124430575481 0.02208188223420884 0 0.22344390453417751 0.037065505813618303 0 0.23254198883508209 0.025349655873777951 0 0.21757124430575481 0.02208188223420884 0 0.22914471171673431 0.0072058749996883973 0 0.2013280742979803 0.01493609490047443 0 0.20457007160887039 -0.0088418504407955512 0 0.22914471171673431 0.0072058749996883973 0 0.21757124430575481 0.02208188223420884 0 0.2013280742979803 0.01493609490047443 0 0.21757124430575481 0.02208188223420884 0 0.2013280742979803 0.01493609490047443 0 0.1980860769870903 0.038714040241744352 0 0.2013280742979803 0.01493609490047443 0 0.1980860769870903 0.038714040241744352 0 0.1866449782588343 0.032288214714437671 0 0.2013280742979803 0.01493609490047443 0 0.1866449782588343 0.032288214714437671 0 0.18219663552368309 0.02082502954403807 0 0.2013280742979803 0.01493609490047443 0 0.1980860769870903 0.038714040241744352 0 0.2013280742979803 0.01493609490047443 0 0.20457007160887039 -0.0088418504407955512 0 0.19105429982604319 -0.0049549345427246441 0 0.2013280742979803 0.01493609490047443 0 0.18107755721158111 0.0054153016410935758 0 0.18219663552368309 0.02082502954403807 0 0.2013280742979803 0.01493609490047443 0 0.20457007160887039 -0.0088418504407955512 0 0.2013280742979803 0.01493609490047443 0 0.18107755721158111 0.0054153016410935758 0 0.19105429982604319 -0.0049549345427246441 0 0.20921228774967091 0.074304346343640332 0 0.21497972193061521 0.054017003518715558 0 0.1991012066300841 0.058776484766658157 0 0.21497972193061521 0.054017003518715558 0 0.1980860769870903 0.038714040241744352 0 0.1991012066300841 0.058776484766658157 0 0.22344390453417751 0.037065505813618303 0 0.21757124430575481 0.02208188223420884 0 0.1980860769870903 0.038714040241744352 0 0.22344390453417751 0.037065505813618303 0 0.21497972193061521 0.054017003518715558 0 0.1980860769870903 0.038714040241744352 0 0.1980860769870903 0.038714040241744352 0 0.1827081780235055 0.04337318822908251 0 0.1866449782588343 0.032288214714437671 0 0.1980860769870903 0.038714040241744352 0 0.18795561500837921 0.052771549010747799 0 0.1827081780235055 0.04337318822908251 0 0.1980860769870903 0.038714040241744352 0 0.18795561500837921 0.052771549010747799 0 0.1991012066300841 0.058776484766658157 0 0.1887699562791165 0.062695134853888779 0 0.18795561500837921 0.052771549010747799 0 0.1991012066300841 0.058776484766658157 0 0.18795561500837921 0.052771549010747799 0 0.1788329028193098 0.060427738007319091 0 0.1802353693111689 0.052642707965793983 0 0.1887699562791165 0.062695134853888779 0 0.18795561500837921 0.052771549010747799 0 0.1788329028193098 0.060427738007319091 0 0.1788329028193098 0.060427738007319091 0 0.1741633079852791 0.057712587280222813 0 0.1788329028193098 0.060427738007319091 0 0.1741633079852791 0.057712587280222813 0 0.1802353693111689 0.052642707965793983 0 0.1741633079852791 0.057712587280222813 0 0.1802353693111689 0.052642707965793983 0 0.16851817580674139 0.048788553278599052 0 0.1802353693111689 0.052642707965793983 0 0.1827081780235055 0.04337318822908251 0 0.16851817580674139 0.048788553278599052 0 0.18795561500837921 0.052771549010747799 0 0.1802353693111689 0.052642707965793983 0 0.1827081780235055 0.04337318822908251 0 0.1827081780235055 0.04337318822908251 0 0.17365650052550921 0.033053709537851417 0 0.16851817580674139 0.048788553278599052 0 0.1827081780235055 0.04337318822908251 0 0.1866449782588343 0.032288214714437671 0 0.17365650052550921 0.033053709537851417 0 0.17365650052550921 0.033053709537851417 0 0.1623967045403325 0.038083143416928963 0 0.16851817580674139 0.048788553278599052 0 0.1623967045403325 0.038083143416928963 0 0.16851817580674139 0.048788553278599052 0 0.14911517302834409 0.043148269762749998 0 0.17365650052550921 0.033053709537851417 0 0.1623967045403325 0.038083143416928963 0 0.15701412967901479 0.028262941549290019 0 0.1741633079852791 0.057712587280222813 0 0.16851817580674139 0.048788553278599052 0 0.14911517302834409 0.043148269762749998 0 0.1741633079852791 0.057712587280222813 0 0.14911517302834409 0.043148269762749998 0 0.1741633079852791 0.057712587280222813 0 0.15745878620328749 0.057620094872164893 0 0.1670672687363069 0.063351455495768053 0 0.1741633079852791 0.057712587280222813 0 0.15745878620328749 0.057620094872164893 0 0.14911517302834409 0.043148269762749998 0 0.1741633079852791 0.057712587280222813 0 0.16851817580674139 0.048788553278599052 0 0.18107755721158111 0.0054153016410935758 0 0.18219663552368309 0.02082502954403807 0 0.16882085792813389 0.01722322473378763 0 0.17365650052550921 0.033053709537851417 0 0.18219663552368309 0.02082502954403807 0 0.16882085792813389 0.01722322473378763 0 0.1866449782588343 0.032288214714437671 0 0.17365650052550921 0.033053709537851417 0 0.18219663552368309 0.02082502954403807 0 0.15701412967901479 0.028262941549290019 0 0.16882085792813389 0.01722322473378763 0 0.1527441677386496 0.01167276314454979 0 0.17365650052550921 0.033053709537851417 0 0.15701412967901479 0.028262941549290019 0 0.16882085792813389 0.01722322473378763 0 0.18107755721158111 0.0054153016410935758 0 0.16882085792813389 0.01722322473378763 0 0.16506726594281801 -0.00051261721513644809 0 0.16882085792813389 0.01722322473378763 0 0.1527441677386496 0.01167276314454979 0 0.16506726594281801 -0.00051261721513644809 0 0.1527441677386496 0.01167276314454979 0 0.14854857140159661 -0.0069737994963625129 0 0.16506726594281801 -0.00051261721513644809 0 0.1527441677386496 0.01167276314454979 0 0.14127080817823279 0.0033430821113621962 0 0.14854857140159661 -0.0069737994963625129 0 0.1527441677386496 0.01167276314454979 0 0.14127080817823279 0.0033430821113621962 0 0.1389379977585454 0.02739555242676529 0 0.15701412967901479 0.028262941549290019 0 0.1527441677386496 0.01167276314454979 0 0.1389379977585454 0.02739555242676529 0 0.12406703807140849 0.028583952245278339 0 0.1389379977585454 0.02739555242676529 0 0.12869539122038509 0.002219350835908105 0 0.1389379977585454 0.02739555242676529 0 0.12869539122038509 0.002219350835908105 0 0.14127080817823279 0.0033430821113621962 0 0.1389379977585454 0.02739555242676529 0 0.12869539122038509 0.002219350835908105 0 0.14361116307540481 0.056138520092214511 0 0.14911517302834409 0.043148269762749998 0 0.13291084386303931 0.045550076282376693 0 0.15745878620328749 0.057620094872164893 0 0.14361116307540481 0.056138520092214511 0 0.14911517302834409 0.043148269762749998 0 0.15701412967901479 0.028262941549290019 0 0.1389379977585454 0.02739555242676529 0 0.14911517302834409 0.043148269762749998 0 0.1623967045403325 0.038083143416928963 0 0.15701412967901479 0.028262941549290019 0 0.14911517302834409 0.043148269762749998 0 0.12406703807140849 0.028583952245278339 0 0.1389379977585454 0.02739555242676529 0 0.14911517302834409 0.043148269762749998 0 0.12406703807140849 0.028583952245278339 0 0.14911517302834409 0.043148269762749998 0 0.13291084386303931 0.045550076282376693 0 0.12406703807140849 0.028583952245278339 0 0.14911517302834409 0.043148269762749998 0 0.1205432860578472 0.040821952253209247 0 0.12406703807140849 0.028583952245278339 0 0.13291084386303931 0.045550076282376693 0 0.14361116307540481 0.056138520092214511 0 0.13291084386303931 0.045550076282376693 0 0.1272175590821919 0.059057687058431327 0 0.1205432860578472 0.040821952253209247 0 0.13291084386303931 0.045550076282376693 0 0.1272175590821919 0.059057687058431327 0 0.14361116307540481 0.056138520092214511 0 0.1272175590821919 0.059057687058431327 0 0.14910804487842541 0.076232502462897589 0 0.1272175590821919 0.059057687058431327 0 0.14910804487842541 0.076232502462897589 0 0.1225748144035738 0.08002933421490481 0 0.1272175590821919 0.059057687058431327 0 0.14910804487842541 0.076232502462897589 0 0.15745878620328749 0.057620094872164893 0 0.14361116307540481 0.056138520092214511 0 0.14910804487842541 0.076232502462897589 0 0.14910804487842541 0.076232502462897589 0 0.1360472018004516 0.091511606123912737 0 0.15603362768824 0.1008882393335182 0 0.1225748144035738 0.08002933421490481 0 0.14910804487842541 0.076232502462897589 0 0.1360472018004516 0.091511606123912737 0 0.1239127955032252 0.093967289632607087 0 0.1225748144035738 0.08002933421490481 0 0.1360472018004516 0.091511606123912737 0 0.1360472018004516 0.091511606123912737 0 0.12846708132044771 0.1076659332046209 0 0.14106872470182111 0.1083691607996722 0 0.1239127955032252 0.093967289632607087 0 0.1360472018004516 0.091511606123912737 0 0.12846708132044771 0.1076659332046209 0 0.12846708132044771 0.1076659332046209 0 0.14837207815246789 0.1186695814222517 0 0.1297233488115922 0.1247790535978003 0 0.14837207815246789 0.1186695814222517 0 0.12846708132044771 0.1076659332046209 0 0.1297233488115922 0.1247790535978003 0 0.14837207815246789 0.1186695814222517 0 0.12846708132044771 0.1076659332046209 0 0.14837207815246789 0.1186695814222517 0 0.14106872470182111 0.1083691607996722 0 0.14837207815246789 0.1186695814222517 0 0.14106872470182111 0.1083691607996722 0 0.15603362768824 0.1008882393335182 0 0.1360472018004516 0.091511606123912737 0 0.14106872470182111 0.1083691607996722 0 0.15603362768824 0.1008882393335182 0 0.14106872470182111 0.1083691607996722 0 0.15603362768824 0.1008882393335182 0 0.15603362768824 0.1008882393335182 0 0.17099853067465881 0.093407317867364142 0 0.15603362768824 0.1008882393335182 0 0.1701495407434768 0.11153511132931079 0 0.17099853067465881 0.093407317867364142 0 0.14837207815246789 0.1186695814222517 0 0.1701495407434768 0.11153511132931079 0 0.16960322443923451 0.13040633611596941 0 0.14837207815246789 0.1186695814222517 0 0.16960322443923451 0.13040633611596941 0 0.14837207815246789 0.1186695814222517 0 0.1701495407434768 0.11153511132931079 0 0.14837207815246789 0.1186695814222517 0 0.15603362768824 0.1008882393335182 0 0.1701495407434768 0.11153511132931079 0 0.16960322443923451 0.13040633611596941 0 0.1701495407434768 0.11153511132931079 0 0.18747885201403669 0.1246225718883746 0 0.18803560742421871 0.1067742504667198 0 0.1701495407434768 0.11153511132931079 0 0.18747885201403669 0.1246225718883746 0 0.18803560742421871 0.1067742504667198 0 0.18921615201247041 0.097483726309848279 0 0.17099853067465881 0.093407317867364142 0 0.18803560742421871 0.1067742504667198 0 0.1701495407434768 0.11153511132931079 0 0.17099853067465881 0.093407317867364142 0 0.18803560742421871 0.1067742504667198 0 0.17099853067465881 0.093407317867364142 0 0.19055783632230899 0.083629664807042703 0 0.17099853067465881 0.093407317867364142 0 0.19055783632230899 0.083629664807042703 0 0.1771997663440113 0.079965757371601928 0 0.17099853067465881 0.093407317867364142 0 0.18921615201247041 0.097483726309848279 0 0.18566777169704099 0.087944952018814554 0 0.17099853067465881 0.093407317867364142 0 0.19055783632230899 0.083629664807042703 0 0.18566777169704099 0.087944952018814554 0 0.17099853067465881 0.093407317867364142 0 0.19055783632230899 0.083629664807042703 0 0.1771997663440113 0.079965757371601928 0 0.18236057215379359 0.070671126043632945 0 0.19055783632230899 0.083629664807042703 0 0.18236057215379359 0.070671126043632945 0 0.1887699562791165 0.062695134853888779 0 0.1788329028193098 0.060427738007319091 0 0.18236057215379359 0.070671126043632945 0 0.1741633079852791 0.057712587280222813 0 0.18236057215379359 0.070671126043632945 0 0.1741633079852791 0.057712587280222813 0 0.18236057215379359 0.070671126043632945 0 0.1731622436197269 0.068123045265524679 0 0.1788329028193098 0.060427738007319091 0 0.1741633079852791 0.057712587280222813 0 0.18236057215379359 0.070671126043632945 0 0.1771997663440113 0.079965757371601928 0 0.1731622436197269 0.068123045265524679 0 0.16553235415045101 0.072244290693238733 0 0.1771997663440113 0.079965757371601928 0 0.18236057215379359 0.070671126043632945 0 0.1731622436197269 0.068123045265524679 0 0.15745878620328749 0.057620094872164893 0 0.14910804487842541 0.076232502462897589 0 0.16553235415045101 0.072244290693238733 0 0.1731622436197269 0.068123045265524679 0 0.16553235415045101 0.072244290693238733 0 0.1670672687363069 0.063351455495768053 0 0.1741633079852791 0.057712587280222813 0 0.1731622436197269 0.068123045265524679 0 0.1670672687363069 0.063351455495768053 0 0.15745878620328749 0.057620094872164893 0 0.16553235415045101 0.072244290693238733 0 0.1670672687363069 0.063351455495768053 0 0.14910804487842541 0.076232502462897589 0 0.15603362768824 0.1008882393335182 0 0.17099853067465881 0.093407317867364142 0 0.1771997663440113 0.079965757371601928 0 0.16553235415045101 0.072244290693238733 0 0.17099853067465881 0.093407317867364142 0 0.14910804487842541 0.076232502462897589 0 0.17099853067465881 0.093407317867364142 0 0.14910804487842541 0.076232502462897589 0 0.16553235415045101 0.072244290693238733 0 0.17099853067465881 0.093407317867364142 0 0.1062898314726156 0.48537807171257602 0 0.1044103005474027 0.46529985903004728 0 0.085998841841127605 0.46794488945245061 0 0.1062898314726156 0.48537807171257602 0 0.098536068082589634 0.50000000000000466 0 0.11648848736447209 0.5 0 0.1062898314726156 0.48537807171257602 0 0.098536068082589634 0.50000000000000466 0 0.080269808833877826 0.48537225678750162 0 0.1062898314726156 0.48537807171257602 0 0.11648848736447209 0.5 0 0.13230985411135349 0.48538388663765097 0 0.1062898314726156 0.48537807171257602 0 0.13230985411135349 0.48538388663765097 0 0.1062898314726156 0.48537807171257602 0 0.11930231010123341 0.47434052006543481 0 0.13230985411135349 0.48538388663765097 0 0.1062898314726156 0.48537807171257602 0 0.11930231010123341 0.47434052006543481 0 0.1044103005474027 0.46529985903004728 0 0.11930231010123341 0.47434052006543481 0 0.1139895893674269 0.45012470654971998 0 0.1044103005474027 0.46529985903004728 0 0.11930231010123341 0.47434052006543481 0 0.1139895893674269 0.45012470654971998 0 0.1286150856976378 0.46004281545544362 0 0.1139895893674269 0.45012470654971998 0 0.1249203172839221 0.43470174427323621 0 0.1286150856976378 0.46004281545544362 0 0.1139895893674269 0.45012470654971998 0 0.095408854196065984 0.44975531735127933 0 0.100167107640893 0.42753459636640989 0 0.1139895893674269 0.45012470654971998 0 0.095408854196065984 0.44975531735127933 0 0.1044103005474027 0.46529985903004728 0 0.095408854196065984 0.44975531735127933 0 0.1044103005474027 0.46529985903004728 0 0.085998841841127605 0.46794488945245061 0 0.095408854196065984 0.44975531735127933 0 0.085998841841127605 0.46794488945245061 0 0.08028136680177958 0.45180947542904781 0 0.095408854196065984 0.44975531735127933 0 0.083894466787360067 0.43751348150487041 0 0.100167107640893 0.42753459636640989 0 0.095408854196065984 0.44975531735127933 0 0.08028136680177958 0.45180947542904781 0 0.083894466787360067 0.43751348150487041 0 0.08028136680177958 0.45180947542904781 0 0.066945654094546808 0.44360895908271691 0 0.067591378643239289 0.45967267214745139 0 0.08028136680177958 0.45180947542904781 0 0.083894466787360067 0.43751348150487041 0 0.066945654094546808 0.44360895908271691 0 0.066945654094546808 0.44360895908271691 0 0.067591378643239289 0.45967267214745139 0 0.067591378643239289 0.45967267214745139 0 0.06823710319193263 0.47573638521218592 0 0.062336090956497003 0.46430849222352633 0 0.085998841841127605 0.46794488945245061 0 0.067591378643239289 0.45967267214745139 0 0.06823710319193263 0.47573638521218592 0 0.067591378643239289 0.45967267214745139 0 0.06823710319193263 0.47573638521218592 0 0.066945654094546808 0.44360895908271691 0 0.062336090956497003 0.46430849222352633 0 0.066945654094546808 0.44360895908271691 0 0.067591378643239289 0.45967267214745139 0 0.062336090956497003 0.46430849222352633 0 0.085998841841127605 0.46794488945245061 0 0.08028136680177958 0.45180947542904781 0 0.067591378643239289 0.45967267214745139 0 0.06823710319193263 0.47573638521218592 0 0.068624338589525574 0.48536965427104878 0 0.06823710319193263 0.47573638521218592 0 0.080269808833877826 0.48537225678750162 0 0.06823710319193263 0.47573638521218592 0 0.080269808833877826 0.48537225678750162 0 0.068624338589525574 0.48536965427104878 0 0.085998841841127605 0.46794488945245061 0 0.06823710319193263 0.47573638521218592 0 0.080269808833877826 0.48537225678750162 0 0.1062898314726156 0.48537807171257602 0 0.085998841841127605 0.46794488945245061 0 0.080269808833877826 0.48537225678750162 0 0.098536068082589634 0.50000000000000466 0 0.080269808833877826 0.48537225678750162 0 0.1062898314726156 0.48537807171257602 0 0.080269808833877826 0.48537225678750162 0 0.098536068082589634 0.50000000000000466 0 0.077813471918210322 0.49262181282254708 0 0.069212445047538554 0.49999999999999978 0 0.098536068082589634 0.50000000000000466 0 0.080269808833877826 0.48537225678750162 0 0.077813471918210322 0.49262181282254708 0 0.077813471918210322 0.49262181282254708 0 0.068624338589525574 0.48536965427104878 0 0.069212445047538554 0.49999999999999978 0 0.080269808833877826 0.48537225678750162 0 0.068624338589525574 0.48536965427104878 0 0.080269808833877826 0.48537225678750162 0 0.077813471918210322 0.49262181282254708 0 0.068624338589525574 0.48536965427104878 0 0.068624338589525574 0.48536965427104878 0 0.069212445047538554 0.49999999999999978 0 0.058386807308845608 0.49310817276098018 0 0.068624338589525574 0.48536965427104878 0 0.069212445047538554 0.49999999999999978 0 0.068624338589525574 0.48536965427104878 0 0.045565849193752513 0.48536450118605923 0 0.068624338589525574 0.48536965427104878 0 0.058386807308845608 0.49310817276098018 0 0.045565849193752513 0.48536450118605923 0 0.069212445047538554 0.49999999999999978 0 0.058386807308845608 0.49310817276098018 0 0.047561169570152613 0.5 0 0.058386807308845608 0.49310817276098018 0 0.047561169570152613 0.5 0 0.045565849193752513 0.48536450118605923 0 0.06823710319193263 0.47573638521218592 0 0.045565849193752513 0.48536450118605923 0 0.046563173649778952 0.45837975671853293 0 0.06823710319193263 0.47573638521218592 0 0.068624338589525574 0.48536965427104878 0 0.045565849193752513 0.48536450118605923 0 0.045565849193752513 0.48536450118605923 0 0.02250735979797942 0.48535934810106618 0 0.029262430442233239 0.47321565616268862 0 0.045565849193752513 0.48536450118605923 0 0.046563173649778952 0.45837975671853293 0 0.033000298150930273 0.46376183095490181 0 0.045565849193752513 0.48536450118605923 0 0.029262430442233239 0.47321565616268862 0 0.033000298150930273 0.46376183095490181 0 0.047561169570152613 0.5 0 0.03577162921160474 0.49306415621819449 0 0.02590989409276662 0.5 0 0.045565849193752513 0.48536450118605923 0 0.02250735979797942 0.48535934810106618 0 0.045565849193752513 0.48536450118605923 0 0.03577162921160474 0.49306415621819449 0 0.02250735979797942 0.48535934810106618 0 0.047561169570152613 0.5 0 0.045565849193752513 0.48536450118605923 0 0.03577162921160474 0.49306415621819449 0 0.03577162921160474 0.49306415621819449 0 0.02590989409276662 0.5 0 0.02250735979797942 0.48535934810106618 0 0.02590989409276662 0.5 0 0.02250735979797942 0.48535934810106618 0 0.02590989409276662 0.5 0 0.02250735979797942 0.48535934810106618 0 0.01154720226286042 0.48535689873752208 0 0.02250735979797942 0.48535934810106618 0 0.01154720226286042 0.48535689873752208 0 0.02250735979797942 0.48535934810106618 0 0.029262430442233239 0.47321565616268862 0 0.017844443628482219 0.46529544086106572 0 0.02250735979797942 0.48535934810106618 0 0.017844443628482219 0.46529544086106572 0 0.02250735979797942 0.48535934810106618 0 0.01154720226286042 0.48535689873752208 0 0.017844443628482219 0.46529544086106572 0 -0.0040596534037184787 0.48264772043053378 0 0.017844443628482219 0.46529544086106572 0 -0.0040596534037184787 0.48264772043053378 0 0.01154720226286042 0.48535689873752208 0 0.017844443628482219 0.46529544086106572 0 -0.0072350858647425836 0.46082208319033968 0 -0.0040596534037184787 0.48264772043053378 0 0.017844443628482219 0.46529544086106572 0 -2.6928171576900969e-05 0.5 0 -0.0040596534037184787 0.48264772043053378 0 0.01154720226286042 0.48535689873752208 0 -2.6928171576900969e-05 0.5 0 0.02590989409276662 0.5 0 0.01154720226286042 0.48535689873752208 0 0.013573552288731449 0.4469183642510669 0 0.019930975205575081 0.44294138304333319 0 0.0093026609489811479 0.42854128764106802 0 -0.003123750750461876 0.435632546530903 0 -0.0072350858647425836 0.46082208319033968 0 0.013573552288731449 0.4469183642510669 0 0.013573552288731449 0.4469183642510669 0 0.0093026609489811479 0.42854128764106802 0 -0.0072350858647425836 0.46082208319033968 0 0.013573552288731449 0.4469183642510669 0 0.017844443628482219 0.46529544086106572 0 0.013573552288731449 0.4469183642510669 0 0.017844443628482219 0.46529544086106572 0 0.013573552288731449 0.4469183642510669 0 0.022521280778798679 0.4534418863206387 0 0.017844443628482219 0.46529544086106572 0 0.022521280778798679 0.4534418863206387 0 0.017844443628482219 0.46529544086106572 0 0.02416508632798248 0.46028826987295551 0 0.017844443628482219 0.46529544086106572 0 0.02416508632798248 0.46028826987295551 0 0.029262430442233239 0.47321565616268862 0 0.017844443628482219 0.46529544086106572 0 0.02416508632798248 0.46028826987295551 0 0.029262430442233239 0.47321565616268862 0 0.02416508632798248 0.46028826987295551 0 0.033000298150930273 0.46376183095490181 0 0.022521280778798679 0.4534418863206387 0 0.02992396851303579 0.45188091546853609 0 0.033000298150930273 0.46376183095490181 0 0.022521280778798679 0.4534418863206387 0 0.02416508632798248 0.46028826987295551 0 0.033000298150930273 0.46376183095490181 0 0.022521280778798679 0.4534418863206387 0 0.02992396851303579 0.45188091546853609 0 0.019930975205575081 0.44294138304333319 0 0.013573552288731449 0.4469183642510669 0 0.022521280778798679 0.4534418863206387 0 0.019930975205575081 0.44294138304333319 0 0.019930975205575081 0.44294138304333319 0 0.02488924410762338 0.44102312822488232 0 0.0093026609489811479 0.42854128764106802 0 0.02992396851303579 0.45188091546853609 0 0.019930975205575081 0.44294138304333319 0 0.02488924410762338 0.44102312822488232 0 0.02488924410762338 0.44102312822488232 0 0.04638081721446817 0.43962707142572838 0 0.046563173649778952 0.45837975671853293 0 0.02488924410762338 0.44102312822488232 0 0.046563173649778952 0.45837975671853293 0 0.02992396851303579 0.45188091546853609 0 0.02488924410762338 0.44102312822488232 0 0.046563173649778952 0.45837975671853293 0 0.02992396851303579 0.45188091546853609 0 0.046563173649778952 0.45837975671853293 0 0.033000298150930273 0.46376183095490181 0 0.046563173649778952 0.45837975671853293 0 0.062336090956497003 0.46430849222352633 0 0.056059939062482203 0.44871525828262232 0 0.06823710319193263 0.47573638521218592 0 0.046563173649778952 0.45837975671853293 0 0.06823710319193263 0.47573638521218592 0 0.046563173649778952 0.45837975671853293 0 0.062336090956497003 0.46430849222352633 0 0.066945654094546808 0.44360895908271691 0 0.062336090956497003 0.46430849222352633 0 0.056059939062482203 0.44871525828262232 0 0.04638081721446817 0.43962707142572838 0 0.046563173649778952 0.45837975671853293 0 0.056059939062482203 0.44871525828262232 0 0.04638081721446817 0.43962707142572838 0 0.056059939062482203 0.44871525828262232 0 0.057948254101455501 0.4378037972186396 0 0.066945654094546808 0.44360895908271691 0 0.056059939062482203 0.44871525828262232 0 0.057948254101455501 0.4378037972186396 0 0.057948254101455501 0.4378037972186396 0 0.053664558676899732 0.42636907594623108 0 0.066438890867551809 0.43100219186796368 0 0.053664558676899732 0.42636907594623108 0 0.06049837413220284 0.41579340855927699 0 0.066438890867551809 0.43100219186796368 0 0.04638081721446817 0.43962707142572838 0 0.057948254101455501 0.4378037972186396 0 0.053664558676899732 0.42636907594623108 0 0.06049837413220284 0.41579340855927699 0 0.048412133220522569 0.4127453550991298 0 0.061840935572437312 0.40158308739985121 0 0.053664558676899732 0.42636907594623108 0 0.06049837413220284 0.41579340855927699 0 0.048412133220522569 0.4127453550991298 0 0.053664558676899732 0.42636907594623108 0 0.048412133220522569 0.4127453550991298 0 0.038932867129223662 0.42250965938367002 0 0.048412133220522569 0.4127453550991298 0 0.038932867129223662 0.42250965938367002 0 0.036106329322936323 0.4004051518354233 0 0.038932867129223662 0.42250965938367002 0 0.023411452249003942 0.41192547896548593 0 0.036106329322936323 0.4004051518354233 0 0.02488924410762338 0.44102312822488232 0 0.04638081721446817 0.43962707142572838 0 0.038932867129223662 0.42250965938367002 0 0.04638081721446817 0.43962707142572838 0 0.053664558676899732 0.42636907594623108 0 0.038932867129223662 0.42250965938367002 0 0.02488924410762338 0.44102312822488232 0 0.038932867129223662 0.42250965938367002 0 0.023411452249003942 0.41192547896548593 0 0.02488924410762338 0.44102312822488232 0 0.023411452249003942 0.41192547896548593 0 0.02488924410762338 0.44102312822488232 0 0.023411452249003942 0.41192547896548593 0 0.0093026609489811479 0.42854128764106802 0 0.02488924410762338 0.44102312822488232 0 0.0093026609489811479 0.42854128764106802 0 0.01039266455257625 0.41490253926327952 0 0.00098758436381884453 0.4104430098714662 0 0.0116907207859931 0.39925964671664799 0 0.023411452249003942 0.41192547896548593 0 0.01039266455257625 0.41490253926327952 0 0.0087285972638417343 0.42607116806142842 0 0.01039266455257625 0.41490253926327952 0 0.00098758436381884453 0.4104430098714662 0 0.0071449681002236504 0.42681339270136898 0 0.023411452249003942 0.41192547896548593 0 0.01039266455257625 0.41490253926327952 0 0.0116907207859931 0.39925964671664799 0 0.023411452249003942 0.41192547896548593 0 0.0087285972638417343 0.42607116806142842 0 0.0093026609489811479 0.42854128764106802 0 -0.003123750750461876 0.435632546530903 0 0.00098758436381884453 0.4104430098714662 0 0.0071449681002236504 0.42681339270136898 0 -0.003123750750461876 0.435632546530903 0 0.013573552288731449 0.4469183642510669 0 0.0093026609489811479 0.42854128764106802 0 -0.003123750750461876 0.435632546530903 0 0.0071449681002236504 0.42681339270136898 0 0.0093026609489811479 0.42854128764106802 0 0.01039266455257625 0.41490253926327952 0 0.0071449681002236504 0.42681339270136898 0 0.0087285972638417343 0.42607116806142842 0 0.0087285972638417343 0.42607116806142842 0 0.0093026609489811479 0.42854128764106802 0 0.0071449681002236504 0.42681339270136898 0 0.0087285972638417343 0.42607116806142842 0 0.0093026609489811479 0.42854128764106802 0 0.0071449681002236504 0.42681339270136898 0 0.0093026609489811479 0.42854128764106802 0 0.0050989194780995568 0.38525347321202952 0 0.0116907207859931 0.39925964671664799 0 0.021933660390386241 0.38282782970608942 0 0.0050989194780995568 0.38525347321202952 0 0.021933660390386241 0.38282782970608942 0 0.0092102545923802553 0.36006393655259289 0 0.00098758436381884453 0.4104430098714662 0 0.0050989194780995568 0.38525347321202952 0 0.0116907207859931 0.39925964671664799 0 0.00098758436381884453 0.4104430098714662 0 0.0050989194780995568 0.38525347321202952 0 0.023411452249003942 0.41192547896548593 0 0.0116907207859931 0.39925964671664799 0 0.021933660390386241 0.38282782970608942 0 0.023411452249003942 0.41192547896548593 0 0.021933660390386241 0.38282782970608942 0 0.036106329322936323 0.4004051518354233 0 0.023411452249003942 0.41192547896548593 0 0.021933660390386241 0.38282782970608942 0 0.021933660390386241 0.38282782970608942 0 0.037487641641053941 0.38200749665060157 0 0.032725019024084513 0.36600660887934028 0 0.037487641641053941 0.38200749665060157 0 0.048709391054542223 0.39151810695894801 0 0.047963808413320402 0.36927978587320742 0 0.021933660390386241 0.38282782970608942 0 0.037487641641053941 0.38200749665060157 0 0.036106329322936323 0.4004051518354233 0 0.048412133220522569 0.4127453550991298 0 0.036106329322936323 0.4004051518354233 0 0.048709391054542223 0.39151810695894801 0 0.037487641641053941 0.38200749665060157 0 0.036106329322936323 0.4004051518354233 0 0.048709391054542223 0.39151810695894801 0 0.048412133220522569 0.4127453550991298 0 0.048709391054542223 0.39151810695894801 0 0.061840935572437312 0.40158308739985121 0 0.048709391054542223 0.39151810695894801 0 0.061840935572437312 0.40158308739985121 0 0.062526110248270733 0.38150785968846279 0 0.048709391054542223 0.39151810695894801 0 0.062526110248270733 0.38150785968846279 0 0.047963808413320402 0.36927978587320742 0 0.062526110248270733 0.38150785968846279 0 0.078804575664841142 0.39035572603069041 0 0.084734036449988476 0.36372910950467741 0 0.078804575664841142 0.39035572603069041 0 0.10294784555364089 0.38634157957497162 0 0.084734036449988476 0.36372910950467741 0 0.078804575664841142 0.39035572603069041 0 0.084734036449988476 0.36372910950467741 0 0.078804575664841142 0.39035572603069041 0 0.072875114879693781 0.41698234255670358 0 0.094114507021504798 0.40620293523265238 0 0.078804575664841142 0.39035572603069041 0 0.10294784555364089 0.38634157957497162 0 0.094114507021504798 0.40620293523265238 0 0.078804575664841142 0.39035572603069041 0 0.072875114879693781 0.41698234255670358 0 0.061840935572437312 0.40158308739985121 0 0.078804575664841142 0.39035572603069041 0 0.072875114879693781 0.41698234255670358 0 0.061840935572437312 0.40158308739985121 0 0.062526110248270733 0.38150785968846279 0 0.078804575664841142 0.39035572603069041 0 0.06049837413220284 0.41579340855927699 0 0.061840935572437312 0.40158308739985121 0 0.072875114879693781 0.41698234255670358 0 0.06049837413220284 0.41579340855927699 0 0.072875114879693781 0.41698234255670358 0 0.066438890867551809 0.43100219186796368 0 0.083894466787360067 0.43751348150487041 0 0.066945654094546808 0.44360895908271691 0 0.072875114879693781 0.41698234255670358 0 0.066945654094546808 0.44360895908271691 0 0.072875114879693781 0.41698234255670358 0 0.066945654094546808 0.44360895908271691 0 0.072875114879693781 0.41698234255670358 0 0.066438890867551809 0.43100219186796368 0 0.066945654094546808 0.44360895908271691 0 0.057948254101455501 0.4378037972186396 0 0.066438890867551809 0.43100219186796368 0 0.066945654094546808 0.44360895908271691 0 0.066438890867551809 0.43100219186796368 0 0.083894466787360067 0.43751348150487041 0 0.072875114879693781 0.41698234255670358 0 0.100167107640893 0.42753459636640989 0 0.072875114879693781 0.41698234255670358 0 0.100167107640893 0.42753459636640989 0 0.094114507021504798 0.40620293523265238 0 0.100167107640893 0.42753459636640989 0 0.11577789136845509 0.40980043163448621 0 0.094114507021504798 0.40620293523265238 0 0.100167107640893 0.42753459636640989 0 0.1249203172839221 0.43470174427323621 0 0.11577789136845509 0.40980043163448621 0 0.1139895893674269 0.45012470654971998 0 0.100167107640893 0.42753459636640989 0 0.1249203172839221 0.43470174427323621 0 0.11577789136845509 0.40980043163448621 0 0.10294784555364089 0.38634157957497162 0 0.12575658920963431 0.39533872230207828 0 0.10294784555364089 0.38634157957497162 0 0.12613376155385059 0.37850422339303108 0 0.12575658920963431 0.39533872230207828 0 0.10294784555364089 0.38634157957497162 0 0.1100850381989833 0.37073822646245391 0 0.12613376155385059 0.37850422339303108 0 0.11577789136845509 0.40980043163448621 0 0.10294784555364089 0.38634157957497162 0 0.094114507021504798 0.40620293523265238 0 0.1099607370479614 0.35415977216450112 0 0.090663497235135365 0.33710249297866413 0 0.084734036449988476 0.36372910950467741 0 0.1100850381989833 0.37073822646245391 0 0.1099607370479614 0.35415977216450112 0 0.084734036449988476 0.36372910950467741 0 0.10294784555364089 0.38634157957497162 0 0.1100850381989833 0.37073822646245391 0 0.084734036449988476 0.36372910950467741 0 0.11983378070683651 0.36550187280998098 0 0.1100850381989833 0.37073822646245391 0 0.1099607370479614 0.35415977216450112 0 0.11983378070683651 0.36550187280998098 0 0.1099607370479614 0.35415977216450112 0 0.1331555860265525 0.35860526921993757 0 0.11983378070683651 0.36550187280998098 0 0.1100850381989833 0.37073822646245391 0 0.12613376155385059 0.37850422339303108 0 0.1099607370479614 0.35415977216450112 0 0.1177890594294294 0.34309148566188941 0 0.1331555860265525 0.35860526921993757 0 0.1177890594294294 0.34309148566188941 0 0.12662936879825931 0.32716903395308761 0 0.12989247741240559 0.34288715158651267 0 0.1177890594294294 0.34309148566188941 0 0.10864643301669499 0.33213576346586771 0 0.12662936879825931 0.32716903395308761 0 0.10864643301669499 0.33213576346586771 0 0.12662936879825931 0.32716903395308761 0 0.1099607370479614 0.35415977216450112 0 0.1177890594294294 0.34309148566188941 0 0.10864643301669499 0.33213576346586771 0 0.1136953010825871 0.3171470635063714 0 0.1213175494933694 0.30158245055839272 0 0.12662936879825931 0.32716903395308761 0 0.1136953010825871 0.3171470635063714 0 0.10864643301669499 0.33213576346586771 0 0.12662936879825931 0.32716903395308761 0 0.1213175494933694 0.30158245055839272 0 0.12662936879825931 0.32716903395308761 0 0.096125095904857891 0.3125768407031751 0 0.10864643301669499 0.33213576346586771 0 0.090663497235135365 0.33710249297866413 0 0.1136953010825871 0.3171470635063714 0 0.096125095904857891 0.3125768407031751 0 0.10864643301669499 0.33213576346586771 0 0.10864643301669499 0.33213576346586771 0 0.090663497235135365 0.33710249297866413 0 0.1099607370479614 0.35415977216450112 0 0.10864643301669499 0.33213576346586771 0 0.090663497235135365 0.33710249297866413 0 0.087475545600001273 0.33798297732581972 0 0.090663497235135365 0.33710249297866413 0 0.082096496206209249 0.33383621936358598 0 0.087475545600001273 0.33798297732581972 0 0.090663497235135365 0.33710249297866413 0 0.082096496206209249 0.33383621936358598 0 0.08224037270804728 0.32359404843337392 0 0.072936563226675077 0.33093653774017961 0 0.090663497235135365 0.33710249297866413 0 0.082096496206209249 0.33383621936358598 0 0.08224037270804728 0.32359404843337392 0 0.087475545600001273 0.33798297732581972 0 0.082096496206209249 0.33383621936358598 0 0.077166502261186737 0.33956504033989221 0 0.087475545600001273 0.33798297732581972 0 0.077166502261186737 0.33956504033989221 0 0.076450313898004663 0.34964147696982051 0 0.096125095904857891 0.3125768407031751 0 0.090663497235135365 0.33710249297866413 0 0.08224037270804728 0.32359404843337392 0 0.096125095904857891 0.3125768407031751 0 0.08224037270804728 0.32359404843337392 0 0.079766428029295997 0.30714815456914679 0 0.096125095904857891 0.3125768407031751 0 0.090663497235135365 0.33710249297866413 0 0.08224037270804728 0.32359404843337392 0 0.07030406757371975 0.31720090127141481 0 0.079766428029295997 0.30714815456914679 0 0.08224037270804728 0.32359404843337392 0 0.07030406757371975 0.31720090127141481 0 0.072936563226675077 0.33093653774017961 0 0.07030406757371975 0.31720090127141481 0 0.072936563226675077 0.33093653774017961 0 0.059987903981774733 0.32714913951712649 0 0.07030406757371975 0.31720090127141481 0 0.059987903981774733 0.32714913951712649 0 0.057849022899645691 0.31230722253069038 0 0.072936563226675077 0.33093653774017961 0 0.065057510778559355 0.34319686830145291 0 0.059987903981774733 0.32714913951712649 0 0.077166502261186737 0.33956504033989221 0 0.072936563226675077 0.33093653774017961 0 0.065057510778559355 0.34319686830145291 0 0.082096496206209249 0.33383621936358598 0 0.077166502261186737 0.33956504033989221 0 0.072936563226675077 0.33093653774017961 0 0.076450313898004663 0.34964147696982051 0 0.084734036449988476 0.36372910950467741 0 0.065453865034281244 0.3607641066790207 0 0.065057510778559355 0.34319686830145291 0 0.076450313898004663 0.34964147696982051 0 0.065453865034281244 0.3607641066790207 0 0.077166502261186737 0.33956504033989221 0 0.065057510778559355 0.34319686830145291 0 0.076450313898004663 0.34964147696982051 0 0.087475545600001273 0.33798297732581972 0 0.090663497235135365 0.33710249297866413 0 0.084734036449988476 0.36372910950467741 0 0.087475545600001273 0.33798297732581972 0 0.076450313898004663 0.34964147696982051 0 0.084734036449988476 0.36372910950467741 0 0.090663497235135365 0.33710249297866413 0 0.084734036449988476 0.36372910950467741 0 0.062526110248270733 0.38150785968846279 0 0.084734036449988476 0.36372910950467741 0 0.065453865034281244 0.3607641066790207 0 0.065453865034281244 0.3607641066790207 0 0.047963808413320402 0.36927978587320742 0 0.053710931457174718 0.35324468989876701 0 0.062526110248270733 0.38150785968846279 0 0.065453865034281244 0.3607641066790207 0 0.047963808413320402 0.36927978587320742 0 0.047963808413320402 0.36927978587320742 0 0.053710931457174718 0.35324468989876701 0 0.040387525288303333 0.35042138353270041 0 0.065057510778559355 0.34319686830145291 0 0.065453865034281244 0.3607641066790207 0 0.053710931457174718 0.35324468989876701 0 0.065057510778559355 0.34319686830145291 0 0.053710931457174718 0.35324468989876701 0 0.046344233428075123 0.33700928251545531 0 0.040387525288303333 0.35042138353270041 0 0.032725019024084513 0.36600660887934028 0 0.03031726161914939 0.35001306628921691 0 0.053710931457174718 0.35324468989876701 0 0.040387525288303333 0.35042138353270041 0 0.046344233428075123 0.33700928251545531 0 0.040387525288303333 0.35042138353270041 0 0.03031726161914939 0.35001306628921691 0 0.0294689614433001 0.33946975190706441 0 0.047963808413320402 0.36927978587320742 0 0.040387525288303333 0.35042138353270041 0 0.032725019024084513 0.36600660887934028 0 0.037487641641053941 0.38200749665060157 0 0.047963808413320402 0.36927978587320742 0 0.032725019024084513 0.36600660887934028 0 0.021933660390386241 0.38282782970608942 0 0.032725019024084513 0.36600660887934028 0 0.020455868531768558 0.35373018044669302 0 0.021933660390386241 0.38282782970608942 0 0.020455868531768558 0.35373018044669302 0 0.0092102545923802553 0.36006393655259289 0 0.021933660390386241 0.38282782970608942 0 0.020455868531768558 0.35373018044669302 0 0.032725019024084513 0.36600660887934028 0 0.03031726161914939 0.35001306628921691 0 0.020455868531768558 0.35373018044669302 0 0.03031726161914939 0.35001306628921691 0 0.020455868531768558 0.35373018044669302 0 0.0294689614433001 0.33946975190706441 0 0.0092102545923802553 0.36006393655259289 0 0.013321589706660961 0.3348743998931562 0 0.020455868531768558 0.35373018044669302 0 0.0092102545923802553 0.36006393655259289 0 0.013321589706660961 0.3348743998931562 0 0.0031259210745794249 0.34613085015479922 0 0.0092102545923802553 0.36006393655259289 0 0.013321589706660961 0.3348743998931562 0 -0.003468337841216744 0.35628739804788773 0 0.0031259210745794249 0.34613085015479922 0 0.0092102545923802553 0.36006393655259289 0 0.0050989194780995568 0.38525347321202952 0 0.0092102545923802553 0.36006393655259289 0 -0.00010953871085904071 0.36740455511059711 0 0.0050989194780995568 0.38525347321202952 0 0.0092102545923802553 0.36006393655259289 0 -0.00010953871085904071 0.36740455511059711 0 -0.003468337841216744 0.35628739804788773 0 0.0092102545923802553 0.36006393655259289 0 0.0074519033935021694 0.32394476644713482 0 0.013321589706660961 0.3348743998931562 0 0.018978076673150868 0.32463253118729662 0 0.0074519033935021694 0.32394476644713482 0 0.018978076673150868 0.32463253118729662 0 0.01311057543353164 0.31122268957946281 0 -0.00047949844301839429 0.31304929114188801 0 0.0074519033935021694 0.32394476644713482 0 0.01311057543353164 0.31122268957946281 0 -0.003706273022432469 0.3280816776334371 0 -0.00047949844301839429 0.31304929114188801 0 0.0074519033935021694 0.32394476644713482 0 -0.003706273022432469 0.3280816776334371 0 0.0074519033935021694 0.32394476644713482 0 0.002888216492373542 0.33594177179532603 0 0.0031259210745794249 0.34613085015479922 0 0.002888216492373542 0.33594177179532603 0 0.013321589706660961 0.3348743998931562 0 0.0074519033935021694 0.32394476644713482 0 0.002888216492373542 0.33594177179532603 0 0.013321589706660961 0.3348743998931562 0 0.020455868531768558 0.35373018044669302 0 0.0294689614433001 0.33946975190706441 0 0.018978076673150868 0.32463253118729662 0 0.020455868531768558 0.35373018044669302 0 0.018978076673150868 0.32463253118729662 0 0.020455868531768558 0.35373018044669302 0 0.013321589706660961 0.3348743998931562 0 0.018978076673150868 0.32463253118729662 0 0.0294689614433001 0.33946975190706441 0 0.030754907233593441 0.32718836736199441 0 0.018978076673150868 0.32463253118729662 0 0.030754907233593441 0.32718836736199441 0 0.018978076673150868 0.32463253118729662 0 0.026674505431109479 0.31338970774805031 0 0.018978076673150868 0.32463253118729662 0 0.026674505431109479 0.31338970774805031 0 0.01311057543353164 0.31122268957946281 0 0.030754907233593441 0.32718836736199441 0 0.026674505431109479 0.31338970774805031 0 0.041777199146003453 0.32231649733100037 0 0.0294689614433001 0.33946975190706441 0 0.030754907233593441 0.32718836736199441 0 0.046344233428075123 0.33700928251545531 0 0.040387525288303333 0.35042138353270041 0 0.0294689614433001 0.33946975190706441 0 0.046344233428075123 0.33700928251545531 0 0.030754907233593441 0.32718836736199441 0 0.041777199146003453 0.32231649733100037 0 0.046344233428075123 0.33700928251545531 0 0.041777199146003453 0.32231649733100037 0 0.046344233428075123 0.33700928251545531 0 0.059987903981774733 0.32714913951712649 0 0.065057510778559355 0.34319686830145291 0 0.046344233428075123 0.33700928251545531 0 0.059987903981774733 0.32714913951712649 0 0.041777199146003453 0.32231649733100037 0 0.059987903981774733 0.32714913951712649 0 0.057849022899645691 0.31230722253069038 0 0.057849022899645691 0.31230722253069038 0 0.052262213304839239 0.2945998911682865 0 0.06601781655328888 0.30238430089102281 0 0.041777199146003453 0.32231649733100037 0 0.057849022899645691 0.31230722253069038 0 0.052262213304839239 0.2945998911682865 0 0.041777199146003453 0.32231649733100037 0 0.052262213304839239 0.2945998911682865 0 0.052262213304839239 0.2945998911682865 0 0.041143932678121997 0.28176983155490343 0 0.034490777693576037 0.29913390503712523 0 0.041143932678121997 0.28176983155490343 0 0.034490777693576037 0.29913390503712523 0 0.025531077385079419 0.28458246205901228 0 0.026674505431109479 0.31338970774805031 0 0.041777199146003453 0.32231649733100037 0 0.034490777693576037 0.29913390503712523 0 0.041777199146003453 0.32231649733100037 0 0.052262213304839239 0.2945998911682865 0 0.034490777693576037 0.29913390503712523 0 0.026674505431109479 0.31338970774805031 0 0.019555738216302649 0.2981450403614988 0 0.01311057543353164 0.31122268957946281 0 0.026674505431109479 0.31338970774805031 0 0.034490777693576037 0.29913390503712523 0 0.019555738216302649 0.2981450403614988 0 0.034490777693576037 0.29913390503712523 0 0.019555738216302649 0.2981450403614988 0 0.025531077385079419 0.28458246205901228 0 0.019555738216302649 0.2981450403614988 0 0.025531077385079419 0.28458246205901228 0 0.01088243826518826 0.28535253412909412 0 -0.0047550186418006974 0.28485755340765212 0 0.01088243826518826 0.28535253412909412 0 0.004386076792071255 0.29851808445187428 0 0.019555738216302649 0.2981450403614988 0 0.01088243826518826 0.28535253412909412 0 0.004386076792071255 0.29851808445187428 0 -0.00047949844301839429 0.31304929114188801 0 0.004386076792071255 0.29851808445187428 0 0.01311057543353164 0.31122268957946281 0 0.019555738216302649 0.2981450403614988 0 0.004386076792071255 0.29851808445187428 0 0.01311057543353164 0.31122268957946281 0 -0.00086476245743153171 0.25445850891889638 0 0.014429959116253031 0.25575914870240468 0 0.002755394739617798 0.27045101537396721 0 0.014429959116253031 0.25575914870240468 0 0.002755394739617798 0.27045101537396721 0 0.017765489389742602 0.27234182589288031 0 -0.0047550186418006974 0.28485755340765212 0 0.01088243826518826 0.28535253412909412 0 0.002755394739617798 0.27045101537396721 0 0.01088243826518826 0.28535253412909412 0 0.002755394739617798 0.27045101537396721 0 0.017765489389742602 0.27234182589288031 0 0.017765489389742602 0.27234182589288031 0 0.027945049997830901 0.27171107673711498 0 0.023188824434403781 0.26385866557187632 0 0.025531077385079419 0.28458246205901228 0 0.01088243826518826 0.28535253412909412 0 0.017765489389742602 0.27234182589288031 0 0.025531077385079419 0.28458246205901228 0 0.017765489389742602 0.27234182589288031 0 0.027945049997830901 0.27171107673711498 0 0.014429959116253031 0.25575914870240468 0 0.023188824434403781 0.26385866557187632 0 0.031306243653586238 0.25632370353589701 0 0.027945049997830901 0.27171107673711498 0 0.023188824434403781 0.26385866557187632 0 0.031306243653586238 0.25632370353589701 0 0.014429959116253031 0.25575914870240468 0 0.017765489389742602 0.27234182589288031 0 0.023188824434403781 0.26385866557187632 0 0.038160487077975022 0.24795670232510389 0 0.046866745476653981 0.26207986216388007 0 0.054762220648861562 0.25103742831865761 0 0.038160487077975022 0.24795670232510389 0 0.031306243653586238 0.25632370353589701 0 0.046866745476653981 0.26207986216388007 0 0.041143932678121997 0.28176983155490343 0 0.031306243653586238 0.25632370353589701 0 0.046866745476653981 0.26207986216388007 0 0.041143932678121997 0.28176983155490343 0 0.027945049997830901 0.27171107673711498 0 0.031306243653586238 0.25632370353589701 0 0.041143932678121997 0.28176983155490343 0 0.031306243653586238 0.25632370353589701 0 0.041143932678121997 0.28176983155490343 0 0.025531077385079419 0.28458246205901228 0 0.027945049997830901 0.27171107673711498 0 0.041143932678121997 0.28176983155490343 0 0.046866745476653981 0.26207986216388007 0 0.062747227463675032 0.26688328500557251 0 0.052262213304839239 0.2945998911682865 0 0.062747227463675032 0.26688328500557251 0 0.052262213304839239 0.2945998911682865 0 0.041143932678121997 0.28176983155490343 0 0.062747227463675032 0.26688328500557251 0 0.046866745476653981 0.26207986216388007 0 0.054762220648861562 0.25103742831865761 0 0.062747227463675032 0.26688328500557251 0 0.073232241622510824 0.23916667884285861 0 0.088218080968415949 0.25581349114205748 0 0.062747227463675032 0.26688328500557251 0 0.073232241622510824 0.23916667884285861 0 0.062747227463675032 0.26688328500557251 0 0.073232241622510824 0.23916667884285861 0 0.054762220648861562 0.25103742831865761 0 0.062747227463675032 0.26688328500557251 0 0.088218080968415949 0.25581349114205748 0 0.085784568958612001 0.27631018552294739 0 0.062747227463675032 0.26688328500557251 0 0.088218080968415949 0.25581349114205748 0 0.085784568958612001 0.27631018552294739 0 0.099888918080324823 0.27014512554977482 0 0.085784568958612001 0.27631018552294739 0 0.062747227463675032 0.26688328500557251 0 0.072962291658849918 0.28991490746804011 0 0.052262213304839239 0.2945998911682865 0 0.072962291658849918 0.28991490746804011 0 0.06601781655328888 0.30238430089102281 0 0.052262213304839239 0.2945998911682865 0 0.062747227463675032 0.26688328500557251 0 0.072962291658849918 0.28991490746804011 0 0.072962291658849918 0.28991490746804011 0 0.06601781655328888 0.30238430089102281 0 0.079766428029295997 0.30714815456914679 0 0.07030406757371975 0.31720090127141481 0 0.057849022899645691 0.31230722253069038 0 0.06601781655328888 0.30238430089102281 0 0.07030406757371975 0.31720090127141481 0 0.06601781655328888 0.30238430089102281 0 0.079766428029295997 0.30714815456914679 0 0.096125095904857891 0.3125768407031751 0 0.079766428029295997 0.30714815456914679 0 0.087245015825239164 0.29480025533819898 0 0.072962291658849918 0.28991490746804011 0 0.079766428029295997 0.30714815456914679 0 0.087245015825239164 0.29480025533819898 0 0.085784568958612001 0.27631018552294739 0 0.087245015825239164 0.29480025533819898 0 0.10158669457458 0.28805118842768579 0 0.085784568958612001 0.27631018552294739 0 0.072962291658849918 0.28991490746804011 0 0.087245015825239164 0.29480025533819898 0 0.096125095904857891 0.3125768407031751 0 0.10158669457458 0.28805118842768579 0 0.1213175494933694 0.30158245055839272 0 0.096125095904857891 0.3125768407031751 0 0.10158669457458 0.28805118842768579 0 0.096125095904857891 0.3125768407031751 0 0.087245015825239164 0.29480025533819898 0 0.10158669457458 0.28805118842768579 0 0.1213175494933694 0.30158245055839272 0 0.12531858385032879 0.30047739987790711 0 0.12662936879825931 0.32716903395308761 0 0.1136953010825871 0.3171470635063714 0 0.096125095904857891 0.3125768407031751 0 0.1213175494933694 0.30158245055839272 0 0.1213175494933694 0.30158245055839272 0 0.11600573018848399 0.27599586716369701 0 0.12531858385032879 0.30047739987790711 0 0.10158669457458 0.28805118842768579 0 0.1213175494933694 0.30158245055839272 0 0.11600573018848399 0.27599586716369701 0 0.1213175494933694 0.30158245055839272 0 0.11600573018848399 0.27599586716369701 0 0.11600573018848399 0.27599586716369701 0 0.12531858385032879 0.30047739987790711 0 0.11600573018848399 0.27599586716369701 0 0.11188790784886191 0.25616066595492859 0 0.11600573018848399 0.27599586716369701 0 0.11188790784886191 0.25616066595492859 0 0.1250678662534328 0.26838756907791672 0 0.11188790784886191 0.25616066595492859 0 0.12654854198029711 0.25664805847424449 0 0.1250678662534328 0.26838756907791672 0 0.11600573018848399 0.27599586716369701 0 0.11188790784886191 0.25616066595492859 0 0.1078495157115377 0.25455489549248528 0 0.11600573018848399 0.27599586716369701 0 0.1078495157115377 0.25455489549248528 0 0.12211117754279691 0.24191114690147031 0 0.11188790784886191 0.25616066595492859 0 0.12654854198029711 0.25664805847424449 0 0.088218080968415949 0.25581349114205748 0 0.1078495157115377 0.25455489549248528 0 0.099888918080324823 0.27014512554977482 0 0.11600573018848399 0.27599586716369701 0 0.1078495157115377 0.25455489549248528 0 0.099888918080324823 0.27014512554977482 0 0.085784568958612001 0.27631018552294739 0 0.10158669457458 0.28805118842768579 0 0.099888918080324823 0.27014512554977482 0 0.10158669457458 0.28805118842768579 0 0.11600573018848399 0.27599586716369701 0 0.099888918080324823 0.27014512554977482 0 0.14851416593409131 0.28028791940847281 0 0.1542063646768253 0.26851064270523428 0 0.135457960597828 0.27404923396877878 0 0.14851416593409131 0.28028791940847281 0 0.1542063646768253 0.26851064270523428 0 0.1635496739893815 0.272518036741002 0 0.13662136877128961 0.24704155783701209 0 0.1542063646768253 0.26851064270523428 0 0.15315320407289379 0.25143692855392119 0 0.13662136877128961 0.24704155783701209 0 0.1542063646768253 0.26851064270523428 0 0.12654854198029711 0.25664805847424449 0 0.1542063646768253 0.26851064270523428 0 0.12654854198029711 0.25664805847424449 0 0.11600573018848399 0.27599586716369701 0 0.135457960597828 0.27404923396877878 0 0.13672004442875149 0.28906423500356843 0 0.11600573018848399 0.27599586716369701 0 0.1250678662534328 0.26838756907791672 0 0.135457960597828 0.27404923396877878 0 0.12654854198029711 0.25664805847424449 0 0.1250678662534328 0.26838756907791672 0 0.135457960597828 0.27404923396877878 0 0.1542063646768253 0.26851064270523428 0 0.12654854198029711 0.25664805847424449 0 0.135457960597828 0.27404923396877878 0 0.14851416593409131 0.28028791940847281 0 0.135457960597828 0.27404923396877878 0 0.13672004442875149 0.28906423500356843 0 0.11600573018848399 0.27599586716369701 0 0.13672004442875149 0.28906423500356843 0 0.12531858385032879 0.30047739987790711 0 0.13672004442875149 0.28906423500356843 0 0.1402188911640205 0.30632121123035488 0 0.12531858385032879 0.30047739987790711 0 0.1402188911640205 0.30632121123035488 0 0.12531858385032879 0.30047739987790711 0 0.13463143751216849 0.32495893259211911 0 0.1548049348377622 0.29725377837219852 0 0.1461512325314851 0.32177726600559109 0 0.13672004442875149 0.28906423500356843 0 0.1402188911640205 0.30632121123035488 0 0.1548049348377622 0.29725377837219852 0 0.1402188911640205 0.30632121123035488 0 0.1548049348377622 0.29725377837219852 0 0.1461512325314851 0.32177726600559109 0 0.14851416593409131 0.28028791940847281 0 0.1548049348377622 0.29725377837219852 0 0.1635496739893815 0.272518036741002 0 0.14851416593409131 0.28028791940847281 0 0.13672004442875149 0.28906423500356843 0 0.1548049348377622 0.29725377837219852 0 0.1548049348377622 0.29725377837219852 0 0.16904956148376221 0.28696803017390632 0 0.1635496739893815 0.272518036741002 0 0.1548049348377622 0.29725377837219852 0 0.1635496739893815 0.272518036741002 0 0.1548049348377622 0.29725377837219852 0 0.16904956148376221 0.28696803017390632 0 0.1760704865798931 0.29751482464839679 0 0.1548049348377622 0.29725377837219852 0 0.16862448218393089 0.31557035109175008 0 0.1461512325314851 0.32177726600559109 0 0.1548049348377622 0.29725377837219852 0 0.1760704865798931 0.29751482464839679 0 0.16862448218393089 0.31557035109175008 0 0.1760704865798931 0.29751482464839679 0 0.19416157417823021 0.29658318993950311 0 0.1910977318363766 0.30936343617790829 0 0.1760704865798931 0.29751482464839679 0 0.1910977318363766 0.30936343617790829 0 0.16862448218393089 0.31557035109175008 0 0.1910977318363766 0.30936343617790829 0 0.16862448218393089 0.31557035109175008 0 0.1760704865798931 0.29751482464839679 0 0.18186418737335361 0.28037322693622402 0 0.19416157417823021 0.29658318993950311 0 0.16904956148376221 0.28696803017390632 0 0.1760704865798931 0.29751482464839679 0 0.18186418737335361 0.28037322693622402 0 0.18186418737335361 0.28037322693622402 0 0.1635496739893815 0.272518036741002 0 0.18186418737335361 0.28037322693622402 0 0.1635496739893815 0.272518036741002 0 0.17370606089125171 0.26224670873517641 0 0.18186418737335361 0.28037322693622402 0 0.17370606089125171 0.26224670873517641 0 0.19471003957901331 0.27325247972430788 0 0.16904956148376221 0.28696803017390632 0 0.18186418737335361 0.28037322693622402 0 0.1635496739893815 0.272518036741002 0 0.1542063646768253 0.26851064270523428 0 0.1635496739893815 0.272518036741002 0 0.17370606089125171 0.26224670873517641 0 0.1542063646768253 0.26851064270523428 0 0.1635496739893815 0.272518036741002 0 0.16727987371768049 0.24179026763288269 0 0.15315320407289379 0.25143692855392119 0 0.17370606089125171 0.26224670873517641 0 0.1542063646768253 0.26851064270523428 0 0.15315320407289379 0.25143692855392119 0 0.17370606089125171 0.26224670873517641 0 0.17370606089125171 0.26224670873517641 0 0.18829363027604831 0.250961673238912 0 0.19471003957901331 0.27325247972430788 0 0.16727987371768049 0.24179026763288269 0 0.17370606089125171 0.26224670873517641 0 0.18829363027604831 0.250961673238912 0 0.18829363027604831 0.250961673238912 0 0.19471003957901331 0.27325247972430788 0 0.20536509716899951 0.26547287096163907 0 0.20331186359013301 0.24082109699524071 0 0.18829363027604831 0.250961673238912 0 0.20536509716899951 0.26547287096163907 0 0.19471003957901331 0.27325247972430788 0 0.2084557362100396 0.27880258902716809 0 0.20536509716899951 0.26547287096163907 0 0.2084557362100396 0.27880258902716809 0 0.20536509716899951 0.26547287096163907 0 0.22130508806090179 0.27672693174663809 0 0.20536509716899951 0.26547287096163907 0 0.22152166851701249 0.25652559775186567 0 0.22130508806090179 0.27672693174663809 0 0.20331186359013301 0.24082109699524071 0 0.20536509716899951 0.26547287096163907 0 0.22152166851701249 0.25652559775186567 0 0.2382202682677608 0.24987136550520039 0 0.22152166851701249 0.25652559775186567 0 0.2420421461839064 0.2669531671384977 0 0.22130508806090179 0.27672693174663809 0 0.2420421461839064 0.2669531671384977 0 0.2376581688134202 0.28801498093757599 0 0.22152166851701249 0.25652559775186567 0 0.22130508806090179 0.27672693174663809 0 0.2420421461839064 0.2669531671384977 0 0.2420421461839064 0.2669531671384977 0 0.2376581688134202 0.28801498093757599 0 0.25410680245693168 0.27971439088681033 0 0.2382202682677608 0.24987136550520039 0 0.2420421461839064 0.2669531671384977 0 0.25444540126316278 0.25175855520636897 0 0.24648522543192869 0.30474403682909801 0 0.2376581688134202 0.28801498093757599 0 0.25410680245693168 0.27971439088681033 0 0.24648522543192869 0.30474403682909801 0 0.2376581688134202 0.28801498093757599 0 0.22593665412006661 0.29721321154305042 0 0.22130508806090179 0.27672693174663809 0 0.22593665412006661 0.29721321154305042 0 0.20952201006988169 0.29223581116721359 0 0.22130508806090179 0.27672693174663809 0 0.2376581688134202 0.28801498093757599 0 0.22593665412006661 0.29721321154305042 0 0.24648522543192869 0.30474403682909801 0 0.22593665412006661 0.29721321154305042 0 0.22986989383929829 0.31768748496124349 0 0.22593665412006661 0.29721321154305042 0 0.21357098148882209 0.30315652126406639 0 0.22986989383929829 0.31768748496124349 0 0.21357098148882209 0.30315652126406639 0 0.20952201006988169 0.29223581116721359 0 0.19416157417823021 0.29658318993950311 0 0.21357098148882209 0.30315652126406639 0 0.1910977318363766 0.30936343617790829 0 0.20643207499893601 0.32497093071351502 0 0.22593665412006661 0.29721321154305042 0 0.21357098148882209 0.30315652126406639 0 0.20952201006988169 0.29223581116721359 0 0.19471003957901331 0.27325247972430788 0 0.2084557362100396 0.27880258902716809 0 0.20952201006988169 0.29223581116721359 0 0.2084557362100396 0.27880258902716809 0 0.22130508806090179 0.27672693174663809 0 0.20952201006988169 0.29223581116721359 0 0.18186418737335361 0.28037322693622402 0 0.20952201006988169 0.29223581116721359 0 0.19416157417823021 0.29658318993950311 0 0.18186418737335361 0.28037322693622402 0 0.20952201006988169 0.29223581116721359 0 0.18186418737335361 0.28037322693622402 0 0.19471003957901331 0.27325247972430788 0 0.20952201006988169 0.29223581116721359 0 0.21357098148882209 0.30315652126406639 0 0.1910977318363766 0.30936343617790829 0 0.21357098148882209 0.30315652126406639 0 0.19416157417823021 0.29658318993950311 0 0.1910977318363766 0.30936343617790829 0 0.1910977318363766 0.30936343617790829 0 0.20643207499893601 0.32497093071351502 0 0.1856945299613228 0.33204033253426818 0 0.20643207499893601 0.32497093071351502 0 0.19843150246828459 0.34738976976807262 0 0.1856945299613228 0.33204033253426818 0 0.20643207499893601 0.32497093071351502 0 0.22209665114028851 0.34074615423273669 0 0.19843150246828459 0.34738976976807262 0 0.21357098148882209 0.30315652126406639 0 0.20643207499893601 0.32497093071351502 0 0.22986989383929829 0.31768748496124349 0 0.20643207499893601 0.32497093071351502 0 0.22986989383929829 0.31768748496124349 0 0.22209665114028851 0.34074615423273669 0 0.22986989383929829 0.31768748496124349 0 0.22209665114028851 0.34074615423273669 0 0.22986989383929829 0.31768748496124349 0 0.22209665114028851 0.34074615423273669 0 0.23843723915671319 0.34292457767081541 0 0.23843723915671319 0.34292457767081541 0 0.2483727893259863 0.33788647683227852 0 0.2460033787186312 0.32690602786200629 0 0.22986989383929829 0.31768748496124349 0 0.23843723915671319 0.34292457767081541 0 0.2460033787186312 0.32690602786200629 0 0.23843723915671319 0.34292457767081541 0 0.2483727893259863 0.33788647683227852 0 0.25103816627446301 0.34731886263972311 0 0.24648522543192869 0.30474403682909801 0 0.22986989383929829 0.31768748496124349 0 0.2460033787186312 0.32690602786200629 0 0.244980201338591 0.36730237241125618 0 0.24523347810792709 0.35610720783631972 0 0.23540970501051831 0.35745820420895608 0 0.244980201338591 0.36730237241125618 0 0.23540970501051831 0.35745820420895608 0 0.23437342384462539 0.37027431482020351 0 0.24137776258769869 0.37349824455408359 0 0.244980201338591 0.36730237241125618 0 0.23437342384462539 0.37027431482020351 0 0.24137776258769869 0.37349824455408359 0 0.23437342384462539 0.37027431482020351 0 0.23897001126681569 0.38021434935351739 0 0.244980201338591 0.36730237241125618 0 0.24721820277203579 0.37733550336364768 0 0.25400802697851438 0.37324681326254577 0 0.24137776258769869 0.37349824455408359 0 0.244980201338591 0.36730237241125618 0 0.24721820277203579 0.37733550336364768 0 0.244980201338591 0.36730237241125618 0 0.24523347810792709 0.35610720783631972 0 0.25579799251658891 0.36196979364631959 0 0.23843723915671319 0.34292457767081541 0 0.24523347810792709 0.35610720783631972 0 0.25103816627446301 0.34731886263972311 0 0.23843723915671319 0.34292457767081541 0 0.24523347810792709 0.35610720783631972 0 0.23540970501051831 0.35745820420895608 0 0.22209665114028851 0.34074615423273669 0 0.23843723915671319 0.34292457767081541 0 0.23540970501051831 0.35745820420895608 0 0.22209665114028851 0.34074615423273669 0 0.23540970501051831 0.35745820420895608 0 0.22585906817366649 0.36191877821759122 0 0.22209665114028851 0.34074615423273669 0 0.22585906817366649 0.36191877821759122 0 0.2143234084412787 0.36380482350422988 0 0.22585906817366649 0.36191877821759122 0 0.22413666506389229 0.37282210176715352 0 0.2143234084412787 0.36380482350422988 0 0.22413666506389229 0.37282210176715352 0 0.2143234084412787 0.36380482350422988 0 0.21884597373587289 0.38139032844788079 0 0.23540970501051831 0.35745820420895608 0 0.22585906817366649 0.36191877821759122 0 0.23437342384462539 0.37027431482020351 0 0.22585906817366649 0.36191877821759122 0 0.23437342384462539 0.37027431482020351 0 0.22413666506389229 0.37282210176715352 0 0.2143234084412787 0.36380482350422988 0 0.19843150246828459 0.34738976976807262 0 0.20249083410527671 0.36712663127189782 0 0.2143234084412787 0.36380482350422988 0 0.20249083410527671 0.36712663127189782 0 0.20655016574226889 0.38686349277572307 0 0.22209665114028851 0.34074615423273669 0 0.2143234084412787 0.36380482350422988 0 0.22209665114028851 0.34074615423273669 0 0.2143234084412787 0.36380482350422988 0 0.19843150246828459 0.34738976976807262 0 0.19843150246828459 0.34738976976807262 0 0.19193470139977159 0.36067739485510969 0 0.1824493710536223 0.35267626430830812 0 0.19843150246828459 0.34738976976807262 0 0.1824493710536223 0.35267626430830812 0 0.1856945299613228 0.33204033253426818 0 0.19843150246828459 0.34738976976807262 0 0.19193470139977159 0.36067739485510969 0 0.20249083410527671 0.36712663127189782 0 0.19843150246828459 0.34738976976807262 0 0.20249083410527671 0.36712663127189782 0 0.19193470139977159 0.36067739485510969 0 0.20249083410527671 0.36712663127189782 0 0.19443571165879439 0.37831936706025843 0 0.19193470139977159 0.36067739485510969 0 0.18358331952384321 0.36926048541846951 0 0.19443571165879439 0.37831936706025843 0 0.19193470139977159 0.36067739485510969 0 0.18358331952384321 0.36926048541846951 0 0.1824493710536223 0.35267626430830812 0 0.18358331952384321 0.36926048541846951 0 0.16813658081105029 0.36406985119979712 0 0.1779252353585781 0.3803735226757764 0 0.18358331952384321 0.36926048541846951 0 0.16813658081105029 0.36406985119979712 0 0.1824493710536223 0.35267626430830812 0 0.16813658081105029 0.36406985119979712 0 0.15177285829179871 0.36945382556047213 0 0.152104780954846 0.35157051460121391 0 0.16813658081105029 0.36406985119979712 0 0.15177285829179871 0.36945382556047213 0 0.16253303761197849 0.38342846695947519 0 0.16813658081105029 0.36406985119979712 0 0.1672866065620183 0.34202230819742979 0 0.152104780954846 0.35157051460121391 0 0.16813658081105029 0.36406985119979712 0 0.1824493710536223 0.35267626430830812 0 0.1672866065620183 0.34202230819742979 0 0.1824493710536223 0.35267626430830812 0 0.1856945299613228 0.33204033253426818 0 0.1672866065620183 0.34202230819742979 0 0.1856945299613228 0.33204033253426818 0 0.16862448218393089 0.31557035109175008 0 0.1672866065620183 0.34202230819742979 0 0.1910977318363766 0.30936343617790829 0 0.1856945299613228 0.33204033253426818 0 0.16862448218393089 0.31557035109175008 0 0.16862448218393089 0.31557035109175008 0 0.1461512325314851 0.32177726600559109 0 0.1672866065620183 0.34202230819742979 0 0.15359426278670479 0.33408314695664643 0 0.152104780954846 0.35157051460121391 0 0.16862448218393089 0.31557035109175008 0 0.1672866065620183 0.34202230819742979 0 0.15359426278670479 0.33408314695664643 0 0.1461512325314851 0.32177726600559109 0 0.13965340927901951 0.34019126761276458 0 0.1461512325314851 0.32177726600559109 0 0.13965340927901951 0.34019126761276458 0 0.13757136183838489 0.33025302173951021 0 0.15359426278670479 0.33408314695664643 0 0.1461512325314851 0.32177726600559109 0 0.13965340927901951 0.34019126761276458 0 0.15359426278670479 0.33408314695664643 0 0.13965340927901951 0.34019126761276458 0 0.152104780954846 0.35157051460121391 0 0.16862448218393089 0.31557035109175008 0 0.15359426278670479 0.33408314695664643 0 0.1461512325314851 0.32177726600559109 0 0.1402188911640205 0.30632121123035488 0 0.1461512325314851 0.32177726600559109 0 0.13463143751216849 0.32495893259211911 0 0.12531858385032879 0.30047739987790711 0 0.13463143751216849 0.32495893259211911 0 0.12662936879825931 0.32716903395308761 0 0.12531858385032879 0.30047739987790711 0 0.13463143751216849 0.32495893259211911 0 0.1461512325314851 0.32177726600559109 0 0.13463143751216849 0.32495893259211911 0 0.1461512325314851 0.32177726600559109 0 0.13463143751216849 0.32495893259211911 0 0.13757136183838489 0.33025302173951021 0 0.13463143751216849 0.32495893259211911 0 0.13757136183838489 0.33025302173951021 0 0.13466467252571701 0.32872815954401818 0 0.13463143751216849 0.32495893259211911 0 0.13466467252571701 0.32872815954401818 0 0.13274778153766131 0.32846659058909189 0 0.13463143751216849 0.32495893259211911 0 0.12662936879825931 0.32716903395308761 0 0.13274778153766131 0.32846659058909189 0 0.13463143751216849 0.32495893259211911 0 0.12662936879825931 0.32716903395308761 0 0.12662936879825931 0.32716903395308761 0 0.12989247741240559 0.34288715158651267 0 0.12662936879825931 0.32716903395308761 0 0.13209439906721751 0.33356387741587612 0 0.12989247741240559 0.34288715158651267 0 0.13965340927901951 0.34019126761276458 0 0.1358419999915261 0.3348747639510678 0 0.12989247741240559 0.34288715158651267 0 0.13965340927901951 0.34019126761276458 0 0.13757136183838489 0.33025302173951021 0 0.1358419999915261 0.3348747639510678 0 0.13432995664737921 0.33125309907554901 0 0.13209439906721751 0.33356387741587612 0 0.13274778153766131 0.32846659058909189 0 0.13757136183838489 0.33025302173951021 0 0.13432995664737921 0.33125309907554901 0 0.13466467252571701 0.32872815954401818 0 0.13432995664737921 0.33125309907554901 0 0.13466467252571701 0.32872815954401818 0 0.13274778153766131 0.32846659058909189 0 0.13757136183838489 0.33025302173951021 0 0.13432995664737921 0.33125309907554901 0 0.1358419999915261 0.3348747639510678 0 0.13432995664737921 0.33125309907554901 0 0.1358419999915261 0.3348747639510678 0 0.13209439906721751 0.33356387741587612 0 0.12662936879825931 0.32716903395308761 0 0.13209439906721751 0.33356387741587612 0 0.13274778153766131 0.32846659058909189 0 0.1358419999915261 0.3348747639510678 0 0.13209439906721751 0.33356387741587612 0 0.12989247741240559 0.34288715158651267 0 0.13965340927901951 0.34019126761276458 0 0.12989247741240559 0.34288715158651267 0 0.1331555860265525 0.35860526921993757 0 0.12989247741240559 0.34288715158651267 0 0.1331555860265525 0.35860526921993757 0 0.13965340927901951 0.34019126761276458 0 0.1331555860265525 0.35860526921993757 0 0.1177890594294294 0.34309148566188941 0 0.12989247741240559 0.34288715158651267 0 0.1331555860265525 0.35860526921993757 0 0.1331555860265525 0.35860526921993757 0 0.12613376155385059 0.37850422339303108 0 0.13902634453292509 0.38688421537594692 0 0.1331555860265525 0.35860526921993757 0 0.13902634453292509 0.38688421537594692 0 0.1331555860265525 0.35860526921993757 0 0.12613376155385059 0.37850422339303108 0 0.11983378070683651 0.36550187280998098 0 0.1331555860265525 0.35860526921993757 0 0.12613376155385059 0.37850422339303108 0 0.1331555860265525 0.35860526921993757 0 0.15177285829179871 0.36945382556047213 0 0.152104780954846 0.35157051460121391 0 0.1331555860265525 0.35860526921993757 0 0.15177285829179871 0.36945382556047213 0 0.13902634453292509 0.38688421537594692 0 0.13965340927901951 0.34019126761276458 0 0.1331555860265525 0.35860526921993757 0 0.152104780954846 0.35157051460121391 0 0.13902634453292509 0.38688421537594692 0 0.14489710303929951 0.41516316153195582 0 0.13902634453292509 0.38688421537594692 0 0.14489710303929951 0.41516316153195582 0 0.16357581588760781 0.4039607867257527 0 0.13902634453292509 0.38688421537594692 0 0.16357581588760781 0.4039607867257527 0 0.16253303761197849 0.38342846695947519 0 0.15177285829179871 0.36945382556047213 0 0.13902634453292509 0.38688421537594692 0 0.16253303761197849 0.38342846695947519 0 0.12613376155385059 0.37850422339303108 0 0.13902634453292509 0.38688421537594692 0 0.12575658920963431 0.39533872230207828 0 0.13902634453292509 0.38688421537594692 0 0.12575658920963431 0.39533872230207828 0 0.14489710303929951 0.41516316153195582 0 0.1249203172839221 0.43470174427323621 0 0.11577789136845509 0.40980043163448621 0 0.14489710303929951 0.41516316153195582 0 0.11577789136845509 0.40980043163448621 0 0.12575658920963431 0.39533872230207828 0 0.14489710303929951 0.41516316153195582 0 0.1249203172839221 0.43470174427323621 0 0.14489710303929951 0.41516316153195582 0 0.15076786154567379 0.44344210768796488 0 0.14489710303929951 0.41516316153195582 0 0.1637365151794071 0.423314054147862 0 0.15076786154567379 0.44344210768796488 0 0.14489710303929951 0.41516316153195582 0 0.15076786154567379 0.44344210768796488 0 0.1637365151794071 0.423314054147862 0 0.17905799175220641 0.41775374484244221 0 0.16357581588760781 0.4039607867257527 0 0.14489710303929951 0.41516316153195582 0 0.1637365151794071 0.423314054147862 0 0.16357581588760781 0.4039607867257527 0 0.1637365151794071 0.423314054147862 0 0.1734237646626122 0.43699015204085839 0 0.15076786154567379 0.44344210768796488 0 0.1734237646626122 0.43699015204085839 0 0.17905799175220641 0.41775374484244221 0 0.1927581415120522 0.42777637014535708 0 0.1637365151794071 0.423314054147862 0 0.1734237646626122 0.43699015204085839 0 0.17905799175220641 0.41775374484244221 0 0.17905799175220641 0.41775374484244221 0 0.17972640825738351 0.40330836713753587 0 0.16357581588760781 0.4039607867257527 0 0.17905799175220641 0.41775374484244221 0 0.19016064172352831 0.40755210067862158 0 0.1927581415120522 0.42777637014535708 0 0.17905799175220641 0.41775374484244221 0 0.17972640825738351 0.40330836713753587 0 0.19016064172352831 0.40755210067862158 0 0.17972640825738351 0.40330836713753587 0 0.18600902606230399 0.39740997905735492 0 0.19016064172352831 0.40755210067862158 0 0.17972640825738351 0.40330836713753587 0 0.17664619163467721 0.39253127445031633 0 0.16357581588760781 0.4039607867257527 0 0.18600902606230399 0.39740997905735492 0 0.17664619163467721 0.39253127445031633 0 0.18649144193346451 0.3887012032931077 0 0.17972640825738351 0.40330836713753587 0 0.18600902606230399 0.39740997905735492 0 0.17664619163467721 0.39253127445031633 0 0.17664619163467721 0.39253127445031633 0 0.16357581588760781 0.4039607867257527 0 0.16253303761197849 0.38342846695947519 0 0.16813658081105029 0.36406985119979712 0 0.16253303761197849 0.38342846695947519 0 0.1779252353585781 0.3803735226757764 0 0.18358331952384321 0.36926048541846951 0 0.1779252353585781 0.3803735226757764 0 0.19443571165879439 0.37831936706025843 0 0.1779252353585781 0.3803735226757764 0 0.18649144193346451 0.3887012032931077 0 0.19443571165879439 0.37831936706025843 0 0.17664619163467721 0.39253127445031633 0 0.16253303761197849 0.38342846695947519 0 0.1779252353585781 0.3803735226757764 0 0.17664619163467721 0.39253127445031633 0 0.1779252353585781 0.3803735226757764 0 0.18649144193346451 0.3887012032931077 0 0.20249083410527671 0.36712663127189782 0 0.19443571165879439 0.37831936706025843 0 0.20655016574226889 0.38686349277572307 0 0.18649144193346451 0.3887012032931077 0 0.19443571165879439 0.37831936706025843 0 0.19764082903296981 0.38775593027255928 0 0.19764082903296981 0.38775593027255928 0 0.2030859967973522 0.3971396579611487 0 0.20655016574226889 0.38686349277572307 0 0.19443571165879439 0.37831936706025843 0 0.19764082903296981 0.38775593027255928 0 0.20655016574226889 0.38686349277572307 0 0.18649144193346451 0.3887012032931077 0 0.19702044676246649 0.39495694972719297 0 0.2030859967973522 0.3971396579611487 0 0.18649144193346451 0.3887012032931077 0 0.19764082903296981 0.38775593027255928 0 0.2030859967973522 0.3971396579611487 0 0.18649144193346451 0.3887012032931077 0 0.2030859967973522 0.3971396579611487 0 0.18600902606230399 0.39740997905735492 0 0.19702044676246649 0.39495694972719297 0 0.19016064172352831 0.40755210067862158 0 0.18600902606230399 0.39740997905735492 0 0.18649144193346451 0.3887012032931077 0 0.19702044676246649 0.39495694972719297 0 0.19702044676246649 0.39495694972719297 0 0.2008738426228934 0.4037018268604764 0 0.19702044676246649 0.39495694972719297 0 0.2008738426228934 0.4037018268604764 0 0.19016064172352831 0.40755210067862158 0 0.19702044676246649 0.39495694972719297 0 0.2030859967973522 0.3971396579611487 0 0.2008738426228934 0.4037018268604764 0 0.2030859967973522 0.3971396579611487 0 0.2008738426228934 0.4037018268604764 0 0.2030859967973522 0.3971396579611487 0 0.2008738426228934 0.4037018268604764 0 0.20931517666979929 0.40030724229249931 0 0.2030859967973522 0.3971396579611487 0 0.20931517666979929 0.40030724229249931 0 0.2030859967973522 0.3971396579611487 0 0.20931517666979929 0.40030724229249931 0 0.20655016574226889 0.38686349277572307 0 0.20931517666979929 0.40030724229249931 0 0.21512994396949489 0.39156142785090892 0 0.20655016574226889 0.38686349277572307 0 0.2030859967973522 0.3971396579611487 0 0.20655016574226889 0.38686349277572307 0 0.20931517666979929 0.40030724229249931 0 0.20655016574226889 0.38686349277572307 0 0.20931517666979929 0.40030724229249931 0 0.21512994396949489 0.39156142785090892 0 0.22239336576093671 0.39670281095884358 0 0.20931517666979929 0.40030724229249931 0 0.22435289545534221 0.40795403422656029 0 0.20931517666979929 0.40030724229249931 0 0.22239336576093671 0.39670281095884358 0 0.22435289545534221 0.40795403422656029 0 0.2143234084412787 0.36380482350422988 0 0.20655016574226889 0.38686349277572307 0 0.21884597373587289 0.38139032844788079 0 0.20249083410527671 0.36712663127189782 0 0.20655016574226889 0.38686349277572307 0 0.2143234084412787 0.36380482350422988 0 0.20655016574226889 0.38686349277572307 0 0.21512994396949489 0.39156142785090892 0 0.20655016574226889 0.38686349277572307 0 0.21884597373587289 0.38139032844788079 0 0.22413666506389229 0.37282210176715352 0 0.21884597373587289 0.38139032844788079 0 0.23019653325392439 0.38351756857438207 0 0.23437342384462539 0.37027431482020351 0 0.22413666506389229 0.37282210176715352 0 0.23019653325392439 0.38351756857438207 0 0.23019653325392439 0.38351756857438207 0 0.22318490145602679 0.38974274346239068 0 0.2297419692443162 0.39199368379449279 0 0.23019653325392439 0.38351756857438207 0 0.2297419692443162 0.39199368379449279 0 0.23740562876207719 0.39066130385616388 0 0.21512994396949489 0.39156142785090892 0 0.21884597373587289 0.38139032844788079 0 0.22318490145602679 0.38974274346239068 0 0.21884597373587289 0.38139032844788079 0 0.23019653325392439 0.38351756857438207 0 0.22318490145602679 0.38974274346239068 0 0.21512994396949489 0.39156142785090892 0 0.22318490145602679 0.38974274346239068 0 0.22239336576093671 0.39670281095884358 0 0.22318490145602679 0.38974274346239068 0 0.22239336576093671 0.39670281095884358 0 0.2297419692443162 0.39199368379449279 0 0.22239336576093671 0.39670281095884358 0 0.23187370008169941 0.39847713991713851 0 0.22435289545534221 0.40795403422656029 0 0.23187370008169941 0.39847713991713851 0 0.23511759929543119 0.4035974077492932 0 0.22435289545534221 0.40795403422656029 0 0.23187370008169941 0.39847713991713851 0 0.2297419692443162 0.39199368379449279 0 0.23740562876207719 0.39066130385616388 0 0.22239336576093671 0.39670281095884358 0 0.23187370008169941 0.39847713991713851 0 0.2297419692443162 0.39199368379449279 0 0.23187370008169941 0.39847713991713851 0 0.23740562876207719 0.39066130385616388 0 0.2389039352054089 0.3982632547778332 0 0.23740562876207719 0.39066130385616388 0 0.2389039352054089 0.3982632547778332 0 0.24559191965963331 0.39582467248170339 0 0.23187370008169941 0.39847713991713851 0 0.2389039352054089 0.3982632547778332 0 0.23511759929543119 0.4035974077492932 0 0.2389039352054089 0.3982632547778332 0 0.23511759929543119 0.4035974077492932 0 0.24257100362570741 0.40357592004773318 0 0.23511759929543119 0.4035974077492932 0 0.24257100362570741 0.40357592004773318 0 0.2377485240035295 0.40977441571771761 0 0.2490711373868145 0.40328311896619079 0 0.24559191965963331 0.39582467248170339 0 0.25459202495693589 0.39819399382433779 0 0.24257100362570741 0.40357592004773318 0 0.2490711373868145 0.40328311896619079 0 0.24559191965963331 0.39582467248170339 0 0.2389039352054089 0.3982632547778332 0 0.24257100362570741 0.40357592004773318 0 0.24559191965963331 0.39582467248170339 0 0.24257100362570741 0.40357592004773318 0 0.2490711373868145 0.40328311896619079 0 0.247070238505155 0.41089193091972381 0 0.24559191965963331 0.39582467248170339 0 0.2458394057721659 0.38664992363107781 0 0.25155158363037378 0.39136922505643812 0 0.23740562876207719 0.39066130385616388 0 0.24559191965963331 0.39582467248170339 0 0.2458394057721659 0.38664992363107781 0 0.24137776258769869 0.37349824455408359 0 0.24721820277203579 0.37733550336364768 0 0.23897001126681569 0.38021434935351739 0 0.2458394057721659 0.38664992363107781 0 0.24721820277203579 0.37733550336364768 0 0.2543907927861988 0.38365968106877452 0 0.2458394057721659 0.38664992363107781 0 0.24721820277203579 0.37733550336364768 0 0.23897001126681569 0.38021434935351739 0 0.23437342384462539 0.37027431482020351 0 0.23019653325392439 0.38351756857438207 0 0.23897001126681569 0.38021434935351739 0 0.23019653325392439 0.38351756857438207 0 0.23740562876207719 0.39066130385616388 0 0.23897001126681569 0.38021434935351739 0 0.23740562876207719 0.39066130385616388 0 0.2458394057721659 0.38664992363107781 0 0.23897001126681569 0.38021434935351739 0 0.23939061424088551 0.41560082616062022 0 0.24660560673526891 0.44120082466157329 0 0.23690230324905029 0.43206095369221192 0 0.23939061424088551 0.41560082616062022 0 0.23343183684410371 0.42460369467437847 0 0.23939061424088551 0.41560082616062022 0 0.24660560673526891 0.44120082466157329 0 0.258596460033858 0.42536714170295359 0 0.23690230324905029 0.43206095369221192 0 0.23939061424088551 0.41560082616062022 0 0.24660560673526891 0.44120082466157329 0 0.247070238505155 0.41089193091972381 0 0.23939061424088551 0.41560082616062022 0 0.258596460033858 0.42536714170295359 0 0.23939061424088551 0.41560082616062022 0 0.258596460033858 0.42536714170295359 0 0.24257100362570741 0.40357592004773318 0 0.247070238505155 0.41089193091972381 0 0.2377485240035295 0.40977441571771761 0 0.247070238505155 0.41089193091972381 0 0.2377485240035295 0.40977441571771761 0 0.23939061424088551 0.41560082616062022 0 0.2377485240035295 0.40977441571771761 0 0.23939061424088551 0.41560082616062022 0 0.23939061424088551 0.41560082616062022 0 0.22831860360958661 0.41898022984794181 0 0.22435289545534221 0.40795403422656029 0 0.23939061424088551 0.41560082616062022 0 0.22831860360958661 0.41898022984794181 0 0.23343183684410371 0.42460369467437847 0 0.2377485240035295 0.40977441571771761 0 0.23939061424088551 0.41560082616062022 0 0.22435289545534221 0.40795403422656029 0 0.23511759929543119 0.4035974077492932 0 0.2377485240035295 0.40977441571771761 0 0.22435289545534221 0.40795403422656029 0 0.23939061424088551 0.41560082616062022 0 0.22435289545534221 0.40795403422656029 0 0.22831860360958661 0.41898022984794181 0 0.22435289545534221 0.40795403422656029 0 0.213664174517152 0.42145248881816078 0 0.22725582123695409 0.43000863765031039 0 0.213664174517152 0.42145248881816078 0 0.21801317236450421 0.44259773534382241 0 0.22831860360958661 0.41898022984794181 0 0.22725582123695409 0.43000863765031039 0 0.213664174517152 0.42145248881816078 0 0.23690230324905029 0.43206095369221192 0 0.23343183684410371 0.42460369467437847 0 0.22725582123695409 0.43000863765031039 0 0.22831860360958661 0.41898022984794181 0 0.23343183684410371 0.42460369467437847 0 0.22725582123695409 0.43000863765031039 0 0.23690230324905029 0.43206095369221192 0 0.22725582123695409 0.43000863765031039 0 0.23014049358846131 0.44002865661469798 0 0.2094435074936985 0.42314978110214951 0 0.20189031545207761 0.44033807657813318 0 0.21801317236450421 0.44259773534382241 0 0.2094435074936985 0.42314978110214951 0 0.213664174517152 0.42145248881816078 0 0.21801317236450421 0.44259773534382241 0 0.2094435074936985 0.42314978110214951 0 0.21801317236450421 0.44259773534382241 0 0.213664174517152 0.42145248881816078 0 0.21801317236450421 0.44259773534382241 0 0.2008738426228934 0.4037018268604764 0 0.20931517666979929 0.40030724229249931 0 0.213664174517152 0.42145248881816078 0 0.2008738426228934 0.4037018268604764 0 0.2094435074936985 0.42314978110214951 0 0.213664174517152 0.42145248881816078 0 0.20931517666979929 0.40030724229249931 0 0.213664174517152 0.42145248881816078 0 0.2008738426228934 0.4037018268604764 0 0.2094435074936985 0.42314978110214951 0 0.20931517666979929 0.40030724229249931 0 0.22435289545534221 0.40795403422656029 0 0.213664174517152 0.42145248881816078 0 0.2008738426228934 0.4037018268604764 0 0.1927581415120522 0.42777637014535708 0 0.2008738426228934 0.4037018268604764 0 0.2094435074936985 0.42314978110214951 0 0.1927581415120522 0.42777637014535708 0 0.2008738426228934 0.4037018268604764 0 0.19016064172352831 0.40755210067862158 0 0.1927581415120522 0.42777637014535708 0 0.2094435074936985 0.42314978110214951 0 0.1927581415120522 0.42777637014535708 0 0.20189031545207761 0.44033807657813318 0 0.20189031545207761 0.44033807657813318 0 0.20459431548892301 0.45631558286909929 0 0.18464244040121031 0.45185091343023759 0 0.1927581415120522 0.42777637014535708 0 0.18464244040121031 0.45185091343023759 0 0.1927581415120522 0.42777637014535708 0 0.20189031545207761 0.44033807657813318 0 0.18464244040121031 0.45185091343023759 0 0.1905225891135168 0.46828130765734438 0 0.20459431548892301 0.45631558286909929 0 0.18464244040121031 0.45185091343023759 0 0.1905225891135168 0.46828130765734438 0 0.20459431548892301 0.45631558286909929 0 0.20300042735490259 0.48033379116680502 0 0.20459431548892301 0.45631558286909929 0 0.21563624228664049 0.46859865990518301 0 0.2208186513118171 0.45623824427155513 0 0.20459431548892301 0.45631558286909929 0 0.21563624228664049 0.46859865990518301 0 0.20300042735490259 0.48033379116680502 0 0.20189031545207761 0.44033807657813318 0 0.20459431548892301 0.45631558286909929 0 0.21801317236450421 0.44259773534382241 0 0.20459431548892301 0.45631558286909929 0 0.21801317236450421 0.44259773534382241 0 0.2208186513118171 0.45623824427155513 0 0.22725582123695409 0.43000863765031039 0 0.21801317236450421 0.44259773534382241 0 0.23014049358846131 0.44002865661469798 0 0.21801317236450421 0.44259773534382241 0 0.23014049358846131 0.44002865661469798 0 0.2327460431198643 0.45083685110227723 0 0.21801317236450421 0.44259773534382241 0 0.2208186513118171 0.45623824427155513 0 0.21801317236450421 0.44259773534382241 0 0.2208186513118171 0.45623824427155513 0 0.22888466643854219 0.46726944917136859 0 0.21801317236450421 0.44259773534382241 0 0.22888466643854219 0.46726944917136859 0 0.21801317236450421 0.44259773534382241 0 0.2327460431198643 0.45083685110227723 0 0.22888466643854219 0.46726944917136859 0 0.2327460431198643 0.45083685110227723 0 0.22888466643854219 0.46726944917136859 0 0.24028707342940059 0.46472890762431529 0 0.21563624228664049 0.46859865990518301 0 0.2208186513118171 0.45623824427155513 0 0.22888466643854219 0.46726944917136859 0 0.24028707342940059 0.46472890762431529 0 0.24660560673526891 0.44120082466157329 0 0.25382059922965239 0.46680082316252641 0 0.2327460431198643 0.45083685110227723 0 0.24028707342940059 0.46472890762431529 0 0.24660560673526891 0.44120082466157329 0 0.23014049358846131 0.44002865661469798 0 0.2327460431198643 0.45083685110227723 0 0.24660560673526891 0.44120082466157329 0 0.23690230324905029 0.43206095369221192 0 0.23014049358846131 0.44002865661469798 0 0.24660560673526891 0.44120082466157329 0 0.24197658002327829 0.5 0 0.24615438603033929 0.48277815576469629 0 0.23502973354372139 0.47951248976776678 0 0.24197658002327829 0.5 0 0.24615438603033929 0.48277815576469629 0 0.2610355917240359 0.49240082166347932 0 0.24028707342940059 0.46472890762431529 0 0.24615438603033929 0.48277815576469629 0 0.23502973354372139 0.47951248976776678 0 0.24028707342940059 0.46472890762431529 0 0.24615438603033929 0.48277815576469629 0 0.25382059922965239 0.46680082316252641 0 0.22888466643854219 0.46726944917136859 0 0.24028707342940059 0.46472890762431529 0 0.23502973354372139 0.47951248976776678 0 0.22888466643854219 0.46726944917136859 0 0.23502973354372139 0.47951248976776678 0 0.22088315083901741 0.48283623204708698 0 0.21563624228664049 0.46859865990518301 0 0.22888466643854219 0.46726944917136859 0 0.22088315083901741 0.48283623204708698 0 0.24197658002327829 0.5 0 0.22088315083901741 0.48283623204708698 0 0.21745473274202781 0.5 0 0.24197658002327829 0.5 0 0.23502973354372139 0.47951248976776678 0 0.22088315083901741 0.48283623204708698 0 0.22088315083901741 0.48283623204708698 0 0.21745473274202781 0.5 0 0.20300042735490259 0.48033379116680502 0 0.21745473274202781 0.5 0 0.20300042735490259 0.48033379116680502 0 0.19293288546077739 0.5 0 0.21563624228664049 0.46859865990518301 0 0.22088315083901741 0.48283623204708698 0 0.20300042735490259 0.48033379116680502 0 0.1905225891135168 0.46828130765734438 0 0.20300042735490259 0.48033379116680502 0 0.1806719618201521 0.49072804309529328 0 0.20300042735490259 0.48033379116680502 0 0.19293288546077739 0.5 0 0.1806719618201521 0.49072804309529328 0 0.1806719618201521 0.49072804309529328 0 0.16841103817952691 0.49999999999999889 0 0.17652673929036841 0.47592545671511821 0 0.16841103817952691 0.49999999999999889 0 0.17652673929036841 0.47592545671511821 0 0.19293288546077739 0.5 0 0.1806719618201521 0.49072804309529328 0 0.16841103817952691 0.49999999999999889 0 0.1625093785584191 0.49999999999998329 0 0.16841103817952691 0.49999999999999889 0 0.17652673929036841 0.47592545671511821 0 0.1625093785584191 0.49999999999998329 0 0.15811305703643549 0.48538965310810228 0 0.15663862005204801 0.47172105384397373 0 0.1625093785584191 0.49999999999998329 0 0.15663862005204801 0.47172105384397373 0 0.1625093785584191 0.49999999999998329 0 0.15663862005204801 0.47172105384397373 0 0.17652673929036841 0.47592545671511821 0 0.1905225891135168 0.46828130765734438 0 0.1806719618201521 0.49072804309529328 0 0.17652673929036841 0.47592545671511821 0 0.1905225891135168 0.46828130765734438 0 0.17652673929036841 0.47592545671511821 0 0.18464244040121031 0.45185091343023759 0 0.17652673929036841 0.47592545671511821 0 0.18464244040121031 0.45185091343023759 0 0.16957963758512351 0.45780372199128688 0 0.17652673929036841 0.47592545671511821 0 0.18464244040121031 0.45185091343023759 0 0.1734237646626122 0.43699015204085839 0 0.1927581415120522 0.42777637014535708 0 0.18464244040121031 0.45185091343023759 0 0.1734237646626122 0.43699015204085839 0 0.18464244040121031 0.45185091343023759 0 0.16957963758512351 0.45780372199128688 0 0.1734237646626122 0.43699015204085839 0 0.16957963758512351 0.45780372199128688 0 0.15076786154567379 0.44344210768796488 0 0.15663862005204801 0.47172105384397373 0 0.16957963758512351 0.45780372199128688 0 0.15076786154567379 0.44344210768796488 0 0.15663862005204801 0.47172105384397373 0 0.17652673929036841 0.47592545671511821 0 0.16957963758512351 0.45780372199128688 0 0.15663862005204801 0.47172105384397373 0 0.15076786154567379 0.44344210768796488 0 0.15663862005204801 0.47172105384397373 0 0.15076786154567379 0.44344210768796488 0 0.14038275388478191 0.4712669578912656 0 0.1249203172839221 0.43470174427323621 0 0.1286150856976378 0.46004281545544362 0 0.1249203172839221 0.43470174427323621 0 0.15076786154567379 0.44344210768796488 0 0.1286150856976378 0.46004281545544362 0 0.15076786154567379 0.44344210768796488 0 0.1286150856976378 0.46004281545544362 0 0.14038275388478191 0.4712669578912656 0 0.11930231010123341 0.47434052006543481 0 0.1286150856976378 0.46004281545544362 0 0.13230985411135349 0.48538388663765097 0 0.1286150856976378 0.46004281545544362 0 0.14038275388478191 0.4712669578912656 0 0.13230985411135349 0.48538388663765097 0 0.1286150856976378 0.46004281545544362 0 0.13230985411135349 0.48538388663765097 0 0.11648848736447209 0.5 0 0.13230985411135349 0.48538388663765097 0 0.13444090664635461 0.49999999999999922 0 0.13230985411135349 0.48538388663765097 0 0.13444090664635461 0.49999999999999922 0 0.1625093785584191 0.49999999999998329 0 0.15811305703643549 0.48538965310810228 0 0.13444090664635461 0.49999999999999922 0 0.15811305703643549 0.48538965310810228 0 0.13230985411135349 0.48538388663765097 0 0.13444090664635461 0.49999999999999922 0 0.15811305703643549 0.48538965310810228 0 0.13230985411135349 0.48538388663765097 0 0.15811305703643549 0.48538965310810228 0 0.15663862005204801 0.47172105384397373 0 0.14038275388478191 0.4712669578912656 0 0.15811305703643549 0.48538965310810228 0 0.14038275388478191 0.4712669578912656 0 0.13230985411135349 0.48538388663765097 0 0.36664168209876541 0.47825291915327017 0 0.34290499170874572 0.48281738767440358 0 0.34078351541395091 0.46902638007637709 0 0.35377356207445149 0.50000000000000067 0 0.36664168209876541 0.47825291915327017 0 0.34290499170874572 0.48281738767440358 0 0.35377356207445149 0.50000000000000067 0 0.36664168209876541 0.47825291915327017 0 0.38072605722137909 0.49999999999999872 0 0.36664168209876541 0.47825291915327017 0 0.38072605722137909 0.49999999999999872 0 0.36664168209876541 0.47825291915327017 0 0.35255730697615062 0.45650583830654229 0 0.35687507965904169 0.45191421181619718 0 0.37957300368078878 0.46794280787746129 0 0.35687507965904169 0.45191421181619718 0 0.37679823720245231 0.43072743227356131 0 0.37957300368078878 0.46794280787746129 0 0.36664168209876541 0.47825291915327017 0 0.35687507965904169 0.45191421181619718 0 0.37957300368078878 0.46794280787746129 0 0.35687507965904169 0.45191421181619718 0 0.37679823720245231 0.43072743227356131 0 0.35773623194294302 0.43862668461665572 0 0.35687507965904169 0.45191421181619718 0 0.37679823720245231 0.43072743227356131 0 0.35255730697615062 0.45650583830654229 0 0.33619836121955587 0.45453675525277842 0 0.34343828735863913 0.44242555038901121 0 0.35773623194294302 0.43862668461665572 0 0.35687507965904169 0.45191421181619718 0 0.34343828735863913 0.44242555038901121 0 0.35687507965904169 0.45191421181619718 0 0.35255730697615062 0.45650583830654229 0 0.34343828735863913 0.44242555038901121 0 0.35255730697615062 0.45650583830654229 0 0.34343828735863913 0.44242555038901121 0 0.35687507965904169 0.45191421181619718 0 0.34343828735863913 0.44242555038901121 0 0.36664168209876541 0.47825291915327017 0 0.35687507965904169 0.45191421181619718 0 0.35255730697615062 0.45650583830654229 0 0.36664168209876541 0.47825291915327017 0 0.35255730697615062 0.45650583830654229 0 0.34078351541395091 0.46902638007637709 0 0.35687507965904169 0.45191421181619718 0 0.35255730697615062 0.45650583830654229 0 0.35255730697615062 0.45650583830654229 0 0.34078351541395091 0.46902638007637709 0 0.35255730697615062 0.45650583830654229 0 0.33619836121955587 0.45453675525277842 0 0.34078351541395091 0.46902638007637709 0 0.33619836121955587 0.45453675525277842 0 0.3270109082139156 0.46787125917769778 0 0.34078351541395091 0.46902638007637709 0 0.33619836121955587 0.45453675525277842 0 0.31992756461828648 0.45600343474003008 0 0.33347258473638891 0.43538806882701059 0 0.33619836121955587 0.45453675525277842 0 0.34343828735863913 0.44242555038901121 0 0.33347258473638891 0.43538806882701059 0 0.34343828735863913 0.44242555038901121 0 0.33347258473638891 0.43538806882701059 0 0.31992756461828648 0.45600343474003008 0 0.33347258473638891 0.43538806882701059 0 0.31992756461828648 0.45600343474003008 0 0.32025150268859759 0.43582149868884429 0 0.33347258473638891 0.43538806882701059 0 0.31992756461828648 0.45600343474003008 0 0.31016531305605483 0.44103696282739641 0 0.32025150268859759 0.43582149868884429 0 0.31992756461828648 0.45600343474003008 0 0.30638254450017749 0.47661880065304518 0 0.31992756461828648 0.45600343474003008 0 0.3270109082139156 0.46787125917769778 0 0.30638254450017749 0.47661880065304518 0 0.33619836121955587 0.45453675525277842 0 0.31992756461828648 0.45600343474003008 0 0.3270109082139156 0.46787125917769778 0 0.32900972385175142 0.48154692184621189 0 0.33007805328731449 0.48830940032652292 0 0.30638254450017749 0.47661880065304518 0 0.33007805328731449 0.48830940032652292 0 0.30638254450017749 0.47661880065304518 0 0.3270109082139156 0.46787125917769778 0 0.32900972385175142 0.48154692184621189 0 0.30638254450017749 0.47661880065304518 0 0.3270109082139156 0.46787125917769778 0 0.32900972385175142 0.48154692184621189 0 0.34078351541395091 0.46902638007637709 0 0.32900972385175142 0.48154692184621189 0 0.34078351541395091 0.46902638007637709 0 0.32900972385175142 0.48154692184621189 0 0.34290499170874572 0.48281738767440358 0 0.33007805328731449 0.48830940032652292 0 0.32900972385175142 0.48154692184621189 0 0.34290499170874572 0.48281738767440358 0 0.34078351541395091 0.46902638007637709 0 0.35377356207445149 0.50000000000000067 0 0.33007805328731449 0.48830940032652292 0 0.35377356207445149 0.50000000000000067 0 0.33285579957822747 0.5 0 0.33007805328731449 0.48830940032652292 0 0.35377356207445149 0.50000000000000067 0 0.34290499170874572 0.48281738767440358 0 0.33007805328731449 0.48830940032652292 0 0.33285579957822747 0.5 0 0.33007805328731449 0.48830940032652292 0 0.31193803708200341 0.5 0 0.33007805328731449 0.48830940032652292 0 0.31193803708200341 0.5 0 0.30638254450017749 0.47661880065304518 0 0.31193803708200341 0.5 0 0.30638254450017749 0.47661880065304518 0 0.29102027458577939 0.50000000000000044 0 0.30638254450017749 0.47661880065304518 0 0.29102027458577939 0.50000000000000044 0 0.30638254450017749 0.47661880065304518 0 0.29394158412238269 0.47048083211913599 0 0.30638254450017749 0.47661880065304518 0 0.29394158412238269 0.47048083211913599 0 0.28549795001921291 0.48117509162184469 0 0.29394158412238269 0.47048083211913599 0 0.28549795001921291 0.48117509162184469 0 0.28244283491765948 0.46669292746114571 0 0.30638254450017749 0.47661880065304518 0 0.28549795001921291 0.48117509162184469 0 0.29102027458577939 0.50000000000000044 0 0.28549795001921291 0.48117509162184469 0 0.29102027458577939 0.50000000000000044 0 0.27415854655621891 0.48873022711255037 0 0.29102027458577939 0.50000000000000044 0 0.26649842730452888 0.5 0 0.27415854655621891 0.48873022711255037 0 0.26649842730452888 0.5 0 0.27415854655621891 0.48873022711255037 0 0.2610355917240359 0.49240082166347932 0 0.27415854655621891 0.48873022711255037 0 0.26623718535596391 0.47734173198647811 0 0.2610355917240359 0.49240082166347932 0 0.28549795001921291 0.48117509162184469 0 0.27415854655621891 0.48873022711255037 0 0.2749278248234181 0.47643288217514063 0 0.28549795001921291 0.48117509162184469 0 0.2749278248234181 0.47643288217514063 0 0.28244283491765948 0.46669292746114571 0 0.2749278248234181 0.47643288217514063 0 0.27027912301482898 0.46446958503802338 0 0.28244283491765948 0.46669292746114571 0 0.2749278248234181 0.47643288217514063 0 0.26623718535596391 0.47734173198647811 0 0.27027912301482898 0.46446958503802338 0 0.27415854655621891 0.48873022711255037 0 0.2749278248234181 0.47643288217514063 0 0.26623718535596391 0.47734173198647811 0 0.26623718535596391 0.47734173198647811 0 0.2610355917240359 0.49240082166347932 0 0.25382059922965239 0.46680082316252641 0 0.24615438603033929 0.48277815576469629 0 0.2610355917240359 0.49240082166347932 0 0.25382059922965239 0.46680082316252641 0 0.26623718535596391 0.47734173198647811 0 0.25382059922965239 0.46680082316252641 0 0.27027912301482898 0.46446958503802338 0 0.2610355917240359 0.49240082166347932 0 0.25382059922965239 0.46680082316252641 0 0.24197658002327829 0.5 0 0.26649842730452888 0.5 0 0.2610355917240359 0.49240082166347932 0 0.24660560673526891 0.44120082466157329 0 0.26404494714776922 0.44719932829055481 0 0.25382059922965239 0.46680082316252641 0 0.24660560673526891 0.44120082466157329 0 0.26404494714776922 0.44719932829055481 0 0.258596460033858 0.42536714170295359 0 0.24660560673526891 0.44120082466157329 0 0.25382059922965239 0.46680082316252641 0 0.26404494714776922 0.44719932829055481 0 0.25382059922965239 0.46680082316252641 0 0.27027912301482898 0.46446958503802338 0 0.26404494714776922 0.44719932829055481 0 0.27027912301482898 0.46446958503802338 0 0.28020134661451129 0.45234981715229472 0 0.27027912301482898 0.46446958503802338 0 0.28020134661451129 0.45234981715229472 0 0.28244283491765948 0.46669292746114571 0 0.26404494714776922 0.44719932829055481 0 0.28020134661451129 0.45234981715229472 0 0.27780230582683041 0.4351334572452874 0 0.29700815161980287 0.44489977278762111 0 0.27780230582683041 0.4351334572452874 0 0.28020134661451129 0.45234981715229472 0 0.29210489554532332 0.45791421716777903 0 0.29700815161980287 0.44489977278762111 0 0.28020134661451129 0.45234981715229472 0 0.29700815161980287 0.44489977278762111 0 0.27780230582683041 0.4351334572452874 0 0.28020134661451129 0.45234981715229472 0 0.28244283491765948 0.46669292746114571 0 0.29210489554532332 0.45791421716777903 0 0.29394158412238269 0.47048083211913599 0 0.29210489554532332 0.45791421716777903 0 0.30337834956610771 0.45773580650116591 0 0.29394158412238269 0.47048083211913599 0 0.28244283491765948 0.46669292746114571 0 0.29210489554532332 0.45791421716777903 0 0.30638254450017749 0.47661880065304518 0 0.29394158412238269 0.47048083211913599 0 0.30337834956610771 0.45773580650116591 0 0.31992756461828648 0.45600343474003008 0 0.30638254450017749 0.47661880065304518 0 0.30337834956610771 0.45773580650116591 0 0.29210489554532332 0.45791421716777903 0 0.30337834956610771 0.45773580650116591 0 0.29700815161980287 0.44489977278762111 0 0.30337834956610771 0.45773580650116591 0 0.29700815161980287 0.44489977278762111 0 0.31016531305605483 0.44103696282739641 0 0.31992756461828648 0.45600343474003008 0 0.30337834956610771 0.45773580650116591 0 0.31016531305605483 0.44103696282739641 0 0.29700815161980287 0.44489977278762111 0 0.31016531305605483 0.44103696282739641 0 0.2972667899361342 0.43171641878146849 0 0.31016531305605483 0.44103696282739641 0 0.3104970187859436 0.43101024509381081 0 0.2972667899361342 0.43171641878146849 0 0.3104970187859436 0.43101024509381081 0 0.30555099314295858 0.42410934702255049 0 0.31725455603771191 0.42393538131814201 0 0.30555099314295858 0.42410934702255049 0 0.2972667899361342 0.43171641878146849 0 0.29759957208165488 0.41984582482813138 0 0.3104970187859436 0.43101024509381081 0 0.30555099314295858 0.42410934702255049 0 0.2972667899361342 0.43171641878146849 0 0.30555099314295858 0.42410934702255049 0 0.30103652733903591 0.41248269380927199 0 0.31725455603771191 0.42393538131814201 0 0.30103652733903591 0.41248269380927199 0 0.3123325725497616 0.39922703736525839 0 0.31725455603771191 0.42393538131814201 0 0.30103652733903591 0.41248269380927199 0 0.31725455603771191 0.42393538131814201 0 0.30555099314295858 0.42410934702255049 0 0.29759957208165488 0.41984582482813138 0 0.30103652733903591 0.41248269380927199 0 0.29759957208165488 0.41984582482813138 0 0.29645693772176551 0.40924872439289611 0 0.30555099314295858 0.42410934702255049 0 0.30103652733903591 0.41248269380927199 0 0.29759957208165488 0.41984582482813138 0 0.30103652733903591 0.41248269380927199 0 0.29645693772176551 0.40924872439289611 0 0.30103652733903591 0.41248269380927199 0 0.29645693772176551 0.40924872439289611 0 0.2951790458024981 0.39739720872942658 0 0.30103652733903591 0.41248269380927199 0 0.29645693772176551 0.40924872439289611 0 0.29759957208165488 0.41984582482813138 0 0.29645693772176551 0.40924872439289611 0 0.28935545025557508 0.41274290629244881 0 0.29234682810229501 0.40634628772975029 0 0.28935545025557508 0.41274290629244881 0 0.28755409834946499 0.40620921864495452 0 0.29234682810229501 0.40634628772975029 0 0.29645693772176551 0.40924872439289611 0 0.28935545025557508 0.41274290629244881 0 0.29234682810229501 0.40634628772975029 0 0.29645693772176551 0.40924872439289611 0 0.29759957208165488 0.41984582482813138 0 0.28935545025557508 0.41274290629244881 0 0.28964017057165342 0.42255666716930818 0 0.28935545025557508 0.41274290629244881 0 0.28964017057165342 0.42255666716930818 0 0.28044188996997271 0.4185561191282261 0 0.28935545025557508 0.41274290629244881 0 0.2820067566606283 0.4073507017793031 0 0.28044188996997271 0.4185561191282261 0 0.28935545025557508 0.41274290629244881 0 0.2820067566606283 0.4073507017793031 0 0.28755409834946499 0.40620921864495452 0 0.29700815161980287 0.44489977278762111 0 0.2972667899361342 0.43171641878146849 0 0.27780230582683041 0.4351334572452874 0 0.28964017057165342 0.42255666716930818 0 0.27780230582683041 0.4351334572452874 0 0.28044188996997271 0.4185561191282261 0 0.2972667899361342 0.43171641878146849 0 0.28964017057165342 0.42255666716930818 0 0.27780230582683041 0.4351334572452874 0 0.2972667899361342 0.43171641878146849 0 0.29759957208165488 0.41984582482813138 0 0.28964017057165342 0.42255666716930818 0 0.26404494714776922 0.44719932829055481 0 0.27780230582683041 0.4351334572452874 0 0.258596460033858 0.42536714170295359 0 0.27780230582683041 0.4351334572452874 0 0.28044188996997271 0.4185561191282261 0 0.27039755819294697 0.42073228185733558 0 0.27780230582683041 0.4351334572452874 0 0.258596460033858 0.42536714170295359 0 0.27780230582683041 0.4351334572452874 0 0.27039755819294697 0.42073228185733558 0 0.258596460033858 0.42536714170295359 0 0.28044188996997271 0.4185561191282261 0 0.27242422266233901 0.40958952122572501 0 0.27039755819294697 0.42073228185733558 0 0.2820067566606283 0.4073507017793031 0 0.27242422266233901 0.40958952122572501 0 0.27631154706633132 0.40377595315260678 0 0.2820067566606283 0.4073507017793031 0 0.28044188996997271 0.4185561191282261 0 0.27242422266233901 0.40958952122572501 0 0.27242422266233901 0.40958952122572501 0 0.26380716414091648 0.41362036002303171 0 0.263101885900624 0.40402789788949628 0 0.27242422266233901 0.40958952122572501 0 0.27039755819294697 0.42073228185733558 0 0.26380716414091648 0.41362036002303171 0 0.26380716414091648 0.41362036002303171 0 0.25451569391481482 0.40838495743964809 0 0.258596460033858 0.42536714170295359 0 0.27039755819294697 0.42073228185733558 0 0.26380716414091648 0.41362036002303171 0 0.258596460033858 0.42536714170295359 0 0.247070238505155 0.41089193091972381 0 0.25451569391481482 0.40838495743964809 0 0.258596460033858 0.42536714170295359 0 0.26380716414091648 0.41362036002303171 0 0.25451569391481482 0.40838495743964809 0 0.263101885900624 0.40402789788949628 0 0.2490711373868145 0.40328311896619079 0 0.247070238505155 0.41089193091972381 0 0.25451569391481482 0.40838495743964809 0 0.263214952880098 0.38413475385926182 0 0.2543907927861988 0.38365968106877452 0 0.25864715834382668 0.39069696899361078 0 0.263214952880098 0.38413475385926182 0 0.25864715834382668 0.39069696899361078 0 0.26677266282676171 0.38987707439970709 0 0.263214952880098 0.38413475385926182 0 0.26021703736392338 0.37819569717877338 0 0.2543907927861988 0.38365968106877452 0 0.263214952880098 0.38413475385926182 0 0.26021703736392338 0.37819569717877338 0 0.26768916320259278 0.37603775013983443 0 0.26021703736392338 0.37819569717877338 0 0.26768916320259278 0.37603775013983443 0 0.26144393509374908 0.3710178319065035 0 0.24721820277203579 0.37733550336364768 0 0.2543907927861988 0.38365968106877452 0 0.25400802697851438 0.37324681326254577 0 0.26021703736392338 0.37819569717877338 0 0.2543907927861988 0.38365968106877452 0 0.25400802697851438 0.37324681326254577 0 0.2458394057721659 0.38664992363107781 0 0.2543907927861988 0.38365968106877452 0 0.25155158363037378 0.39136922505643812 0 0.2543907927861988 0.38365968106877452 0 0.25155158363037378 0.39136922505643812 0 0.25864715834382668 0.39069696899361078 0 0.24559191965963331 0.39582467248170339 0 0.25155158363037378 0.39136922505643812 0 0.25459202495693589 0.39819399382433779 0 0.25155158363037378 0.39136922505643812 0 0.25459202495693589 0.39819399382433779 0 0.25864715834382668 0.39069696899361078 0 0.25451569391481482 0.40838495743964809 0 0.25459202495693589 0.39819399382433779 0 0.263101885900624 0.40402789788949628 0 0.2490711373868145 0.40328311896619079 0 0.25451569391481482 0.40838495743964809 0 0.25459202495693589 0.39819399382433779 0 0.25459202495693589 0.39819399382433779 0 0.263101885900624 0.40402789788949628 0 0.26417046664233829 0.39539612632657412 0 0.25459202495693589 0.39819399382433779 0 0.26417046664233829 0.39539612632657412 0 0.25864715834382668 0.39069696899361078 0 0.26417046664233829 0.39539612632657412 0 0.25864715834382668 0.39069696899361078 0 0.26677266282676171 0.38987707439970709 0 0.26417046664233829 0.39539612632657412 0 0.27230913660012468 0.39256172038705012 0 0.26677266282676171 0.38987707439970709 0 0.26417046664233829 0.39539612632657412 0 0.27230913660012468 0.39256172038705012 0 0.27119334435192871 0.40076722878070081 0 0.27242422266233901 0.40958952122572501 0 0.27119334435192871 0.40076722878070081 0 0.27631154706633132 0.40377595315260678 0 0.27242422266233901 0.40958952122572501 0 0.263101885900624 0.40402789788949628 0 0.27119334435192871 0.40076722878070081 0 0.263101885900624 0.40402789788949628 0 0.26417046664233829 0.39539612632657412 0 0.27119334435192871 0.40076722878070081 0 0.27119334435192871 0.40076722878070081 0 0.27631154706633132 0.40377595315260678 0 0.27962186459042931 0.39739636082469848 0 0.2820067566606283 0.4073507017793031 0 0.27631154706633132 0.40377595315260678 0 0.27962186459042931 0.39739636082469848 0 0.27230913660012468 0.39256172038705012 0 0.27119334435192871 0.40076722878070081 0 0.27962186459042931 0.39739636082469848 0 0.27230913660012468 0.39256172038705012 0 0.27962186459042931 0.39739636082469848 0 0.27890584774593108 0.38865976363506433 0 0.27890584774593108 0.38865976363506433 0 0.27242290128608221 0.38432626437848749 0 0.28014224515384772 0.3805209599525754 0 0.27230913660012468 0.39256172038705012 0 0.27890584774593108 0.38865976363506433 0 0.27242290128608221 0.38432626437848749 0 0.27230913660012468 0.39256172038705012 0 0.26677266282676171 0.38987707439970709 0 0.27242290128608221 0.38432626437848749 0 0.263214952880098 0.38413475385926182 0 0.26677266282676171 0.38987707439970709 0 0.27242290128608221 0.38432626437848749 0 0.27242290128608221 0.38432626437848749 0 0.26768916320259278 0.37603775013983443 0 0.27465863403082758 0.37687877841281842 0 0.263214952880098 0.38413475385926182 0 0.27242290128608221 0.38432626437848749 0 0.26768916320259278 0.37603775013983443 0 0.27242290128608221 0.38432626437848749 0 0.27465863403082758 0.37687877841281842 0 0.28014224515384772 0.3805209599525754 0 0.27465863403082758 0.37687877841281842 0 0.28014224515384772 0.3805209599525754 0 0.27760803503462572 0.37312420166631027 0 0.2951790458024981 0.39739720872942658 0 0.28619755205258252 0.37426607479176721 0 0.28014224515384772 0.3805209599525754 0 0.28529897900162399 0.38677291992318369 0 0.28619755205258252 0.37426607479176721 0 0.29297500304462332 0.37695631942252539 0 0.2951790458024981 0.39739720872942658 0 0.30155176641825537 0.37787123374044113 0 0.29297500304462332 0.37695631942252539 0 0.2951790458024981 0.39739720872942658 0 0.29297500304462332 0.37695631942252539 0 0.2951790458024981 0.39739720872942658 0 0.28619755205258252 0.37426607479176721 0 0.28529897900162399 0.38677291992318369 0 0.2951790458024981 0.39739720872942658 0 0.28619755205258252 0.37426607479176721 0 0.28014224515384772 0.3805209599525754 0 0.28619755205258252 0.37426607479176721 0 0.27760803503462572 0.37312420166631027 0 0.27890584774593108 0.38865976363506433 0 0.28014224515384772 0.3805209599525754 0 0.28529897900162399 0.38677291992318369 0 0.27890584774593108 0.38865976363506433 0 0.28529897900162399 0.38677291992318369 0 0.28528121163785952 0.39401687025827481 0 0.2820067566606283 0.4073507017793031 0 0.27962186459042931 0.39739636082469848 0 0.28740032104881569 0.39985809817900059 0 0.2820067566606283 0.4073507017793031 0 0.28755409834946499 0.40620921864495452 0 0.28740032104881569 0.39985809817900059 0 0.27962186459042931 0.39739636082469848 0 0.27890584774593108 0.38865976363506433 0 0.28528121163785952 0.39401687025827481 0 0.28529897900162399 0.38677291992318369 0 0.28528121163785952 0.39401687025827481 0 0.2951790458024981 0.39739720872942658 0 0.27962186459042931 0.39739636082469848 0 0.28740032104881569 0.39985809817900059 0 0.28528121163785952 0.39401687025827481 0 0.28740032104881569 0.39985809817900059 0 0.28528121163785952 0.39401687025827481 0 0.2951790458024981 0.39739720872942658 0 0.29645693772176551 0.40924872439289611 0 0.2951790458024981 0.39739720872942658 0 0.29234682810229501 0.40634628772975029 0 0.29645693772176551 0.40924872439289611 0 0.2951790458024981 0.39739720872942658 0 0.29234682810229501 0.40634628772975029 0 0.28740032104881569 0.39985809817900059 0 0.2951790458024981 0.39739720872942658 0 0.29234682810229501 0.40634628772975029 0 0.28755409834946499 0.40620921864495452 0 0.28740032104881569 0.39985809817900059 0 0.2951790458024981 0.39739720872942658 0 0.3123325725497616 0.39922703736525839 0 0.30155176641825537 0.37787123374044113 0 0.30103652733903591 0.41248269380927199 0 0.2951790458024981 0.39739720872942658 0 0.3123325725497616 0.39922703736525839 0 0.30103652733903591 0.41248269380927199 0 0.2951790458024981 0.39739720872942658 0 0.3123325725497616 0.39922703736525839 0 0.30155176641825537 0.37787123374044113 0 0.31985727556018068 0.38234154841986628 0 0.3123325725497616 0.39922703736525839 0 0.30155176641825537 0.37787123374044113 0 0.30155176641825537 0.37787123374044113 0 0.31985727556018068 0.38234154841986628 0 0.31195292303499927 0.37068776317154378 0 0.31985727556018068 0.38234154841986628 0 0.34238682224966199 0.38805526002523982 0 0.33487212728351351 0.37444957434749682 0 0.31985727556018068 0.38234154841986628 0 0.34238682224966199 0.38805526002523982 0 0.32994354700739581 0.39850562627172598 0 0.34238682224966199 0.38805526002523982 0 0.341853382107981 0.40230187724921318 0 0.32994354700739581 0.39850562627172598 0 0.32994354700739581 0.39850562627172598 0 0.32453213966135558 0.40833136266112441 0 0.33337532654510971 0.40990156497197577 0 0.341853382107981 0.40230187724921318 0 0.32994354700739581 0.39850562627172598 0 0.33337532654510971 0.40990156497197577 0 0.3123325725497616 0.39922703736525839 0 0.31985727556018068 0.38234154841986628 0 0.32994354700739581 0.39850562627172598 0 0.3123325725497616 0.39922703736525839 0 0.32994354700739581 0.39850562627172598 0 0.32453213966135558 0.40833136266112441 0 0.3123325725497616 0.39922703736525839 0 0.32311337868126772 0.42058284099007581 0 0.3123325725497616 0.39922703736525839 0 0.32311337868126772 0.42058284099007581 0 0.31725455603771191 0.42393538131814201 0 0.3123325725497616 0.39922703736525839 0 0.32311337868126772 0.42058284099007581 0 0.32453213966135558 0.40833136266112441 0 0.32311337868126772 0.42058284099007581 0 0.32746559688881111 0.41467577756075008 0 0.32453213966135558 0.40833136266112441 0 0.32311337868126772 0.42058284099007581 0 0.32746559688881111 0.41467577756075008 0 0.32884154266751109 0.41988734161982427 0 0.32025150268859759 0.43582149868884429 0 0.31725455603771191 0.42393538131814201 0 0.33347258473638891 0.43538806882701059 0 0.32311337868126772 0.42058284099007581 0 0.31725455603771191 0.42393538131814201 0 0.33347258473638891 0.43538806882701059 0 0.31725455603771191 0.42393538131814201 0 0.33347258473638891 0.43538806882701059 0 0.3104970187859436 0.43101024509381081 0 0.32025150268859759 0.43582149868884429 0 0.31725455603771191 0.42393538131814201 0 0.31016531305605483 0.44103696282739641 0 0.3104970187859436 0.43101024509381081 0 0.32025150268859759 0.43582149868884429 0 0.33619600569767688 0.43124305322995571 0 0.34658574014513732 0.41542999606902631 0 0.33619600569767688 0.43124305322995571 0 0.32884154266751109 0.41988734161982427 0 0.34658574014513732 0.41542999606902631 0 0.33347258473638891 0.43538806882701059 0 0.33619600569767688 0.43124305322995571 0 0.32311337868126772 0.42058284099007581 0 0.33347258473638891 0.43538806882701059 0 0.32884154266751109 0.41988734161982427 0 0.33347258473638891 0.43538806882701059 0 0.33619600569767688 0.43124305322995571 0 0.32884154266751109 0.41988734161982427 0 0.33619600569767688 0.43124305322995571 0 0.32884154266751109 0.41988734161982427 0 0.34343828735863913 0.44242555038901121 0 0.33347258473638891 0.43538806882701059 0 0.33619600569767688 0.43124305322995571 0 0.34343828735863913 0.44242555038901121 0 0.33619600569767688 0.43124305322995571 0 0.33337532654510971 0.40990156497197577 0 0.32884154266751109 0.41988734161982427 0 0.34658574014513732 0.41542999606902631 0 0.32746559688881111 0.41467577756075008 0 0.32453213966135558 0.40833136266112441 0 0.33337532654510971 0.40990156497197577 0 0.32746559688881111 0.41467577756075008 0 0.33337532654510971 0.40990156497197577 0 0.32884154266751109 0.41988734161982427 0 0.341853382107981 0.40230187724921318 0 0.33337532654510971 0.40990156497197577 0 0.34658574014513732 0.41542999606902631 0 0.34658574014513732 0.41542999606902631 0 0.36178337054939252 0.41529699101315781 0 0.35697547459260009 0.39961693890809818 0 0.34658574014513732 0.41542999606902631 0 0.35697547459260009 0.39961693890809818 0 0.34658574014513732 0.41542999606902631 0 0.35383332355163849 0.42943954398785339 0 0.36178337054939252 0.41529699101315781 0 0.33619600569767688 0.43124305322995571 0 0.34658574014513732 0.41542999606902631 0 0.35383332355163849 0.42943954398785339 0 0.34343828735863913 0.44242555038901121 0 0.33619600569767688 0.43124305322995571 0 0.35383332355163849 0.42943954398785339 0 0.35773623194294302 0.43862668461665572 0 0.34343828735863913 0.44242555038901121 0 0.35383332355163849 0.42943954398785339 0 0.35773623194294302 0.43862668461665572 0 0.35383332355163849 0.42943954398785339 0 0.37679823720245231 0.43072743227356131 0 0.35383332355163849 0.42943954398785339 0 0.36178337054939252 0.41529699101315781 0 0.37679823720245231 0.43072743227356131 0 0.36178337054939252 0.41529699101315781 0 0.37469307111402661 0.4037041701685542 0 0.37679823720245231 0.43072743227356131 0 0.37469307111402661 0.4037041701685542 0 0.35697547459260009 0.39961693890809818 0 0.38091650492936541 0.38455569761320157 0 0.36178337054939252 0.41529699101315781 0 0.37469307111402661 0.4037041701685542 0 0.35697547459260009 0.39961693890809818 0 0.35564365627336442 0.37849675143461131 0 0.35697547459260009 0.39961693890809818 0 0.38091650492936541 0.38455569761320157 0 0.34238682224966199 0.38805526002523982 0 0.35564365627336442 0.37849675143461131 0 0.33487212728351351 0.37444957434749682 0 0.34238682224966199 0.38805526002523982 0 0.35564365627336442 0.37849675143461131 0 0.35697547459260009 0.39961693890809818 0 0.34238682224966199 0.38805526002523982 0 0.341853382107981 0.40230187724921318 0 0.35697547459260009 0.39961693890809818 0 0.341853382107981 0.40230187724921318 0 0.34658574014513732 0.41542999606902631 0 0.35697547459260009 0.39961693890809818 0 0.36511161511286833 0.35957074249547788 0 0.3493067252963713 0.33458578737775441 0 0.36511161511286833 0.35957074249547788 0 0.35442491499760859 0.3398351418551836 0 0.3493067252963713 0.33458578737775441 0 0.36511161511286833 0.35957074249547788 0 0.3493067252963713 0.33458578737775441 0 0.34277229157726657 0.35822019846197761 0 0.35564365627336442 0.37849675143461131 0 0.36511161511286833 0.35957074249547788 0 0.34277229157726657 0.35822019846197761 0 0.35564365627336442 0.37849675143461131 0 0.34277229157726657 0.35822019846197761 0 0.33487212728351351 0.37444957434749682 0 0.36511161511286833 0.35957074249547788 0 0.38091650492936541 0.38455569761320157 0 0.35564365627336442 0.37849675143461131 0 0.36511161511286833 0.35957074249547788 0 0.38091650492936541 0.38455569761320157 0 0.36511161511286833 0.35957074249547788 0 0.3680217707526674 0.34681917669097778 0 0.37898580562215478 0.34834699925771168 0 0.36511161511286833 0.35957074249547788 0 0.3680217707526674 0.34681917669097778 0 0.35442491499760859 0.3398351418551836 0 0.3680217707526674 0.34681917669097778 0 0.37034381261662302 0.34287964466133353 0 0.37898580562215478 0.34834699925771168 0 0.37034381261662302 0.34287964466133353 0 0.35442491499760859 0.3398351418551836 0 0.37994275909406089 0.33651726084146089 0 0.37329813251097949 0.33351056758012182 0 0.36904392552396542 0.33145176725645298 0 0.35442491499760859 0.3398351418551836 0 0.37329813251097949 0.33351056758012182 0 0.35442491499760859 0.3398351418551836 0 0.38189082604309438 0.33517715749148402 0 0.35442491499760859 0.3398351418551836 0 0.38189082604309438 0.33517715749148402 0 0.37994275909406089 0.33651726084146089 0 0.3680217707526674 0.34681917669097778 0 0.37034381261662302 0.34287964466133353 0 0.35442491499760859 0.3398351418551836 0 0.35442491499760859 0.3398351418551836 0 0.38189082604309438 0.33517715749148402 0 0.37329813251097949 0.33351056758012182 0 0.36904392552396542 0.33145176725645298 0 0.37507363504334079 0.33104044787222492 0 0.36904392552396542 0.33145176725645298 0 0.37482520563358068 0.32791521167312832 0 0.37507363504334079 0.33104044787222492 0 0.36904392552396542 0.33145176725645298 0 0.37482520563358068 0.32791521167312832 0 0.36933449693776232 0.32556239071376952 0 0.36904392552396542 0.33145176725645298 0 0.36324586562687711 0.32987968359516873 0 0.36933449693776232 0.32556239071376952 0 0.36904392552396542 0.33145176725645298 0 0.36324586562687711 0.32987968359516873 0 0.35442491499760859 0.3398351418551836 0 0.37468942596683208 0.31374646967734732 0 0.36979450958219612 0.32030001403820552 0 0.36634378513966159 0.31306317000299172 0 0.37468942596683208 0.31374646967734732 0 0.36979450958219612 0.32030001403820552 0 0.37468646450948012 0.32254658311145301 0 0.36979450958219612 0.32030001403820552 0 0.37468646450948012 0.32254658311145301 0 0.36933449693776232 0.32556239071376952 0 0.37468646450948012 0.32254658311145301 0 0.37482520563358068 0.32791521167312832 0 0.36933449693776232 0.32556239071376952 0 0.36324586562687711 0.32987968359516873 0 0.36933449693776232 0.32556239071376952 0 0.36229109231298567 0.32260202413767708 0 0.36324586562687711 0.32987968359516873 0 0.36229109231298567 0.32260202413767708 0 0.35629576204157021 0.32951032418156051 0 0.36979450958219612 0.32030001403820552 0 0.36933449693776232 0.32556239071376952 0 0.36229109231298567 0.32260202413767708 0 0.36979450958219612 0.32030001403820552 0 0.36440801048991339 0.31783081495497978 0 0.36634378513966159 0.31306317000299172 0 0.36979450958219612 0.32030001403820552 0 0.36229109231298567 0.32260202413767708 0 0.36440801048991339 0.31783081495497978 0 0.36229109231298567 0.32260202413767708 0 0.36440801048991339 0.31783081495497978 0 0.35920265492481013 0.31535805164104469 0 0.36440801048991339 0.31783081495497978 0 0.36634378513966159 0.31306317000299172 0 0.35920265492481013 0.31535805164104469 0 0.35204808323363129 0.32080672683017669 0 0.33350183547987428 0.30960083226003082 0 0.35022789059686787 0.31093813229071571 0 0.35204808323363129 0.32080672683017669 0 0.3493067252963713 0.33458578737775441 0 0.33350183547987428 0.30960083226003082 0 0.36229109231298567 0.32260202413767708 0 0.35920265492481013 0.31535805164104469 0 0.35204808323363129 0.32080672683017669 0 0.35920265492481013 0.31535805164104469 0 0.35204808323363129 0.32080672683017669 0 0.35022789059686787 0.31093813229071571 0 0.36229109231298567 0.32260202413767708 0 0.35204808323363129 0.32080672683017669 0 0.35629576204157021 0.32951032418156051 0 0.35204808323363129 0.32080672683017669 0 0.35629576204157021 0.32951032418156051 0 0.3493067252963713 0.33458578737775441 0 0.36324586562687711 0.32987968359516873 0 0.35442491499760859 0.3398351418551836 0 0.35629576204157021 0.32951032418156051 0 0.35442491499760859 0.3398351418551836 0 0.35629576204157021 0.32951032418156051 0 0.3493067252963713 0.33458578737775441 0 0.3493067252963713 0.33458578737775441 0 0.32370483847687209 0.32710555742130942 0 0.32306916681894648 0.3455021313864674 0 0.32370483847687209 0.32710555742130942 0 0.3020494542551424 0.31258645712945388 0 0.33350183547987428 0.30960083226003082 0 0.3493067252963713 0.33458578737775441 0 0.32370483847687209 0.32710555742130942 0 0.33350183547987428 0.30960083226003082 0 0.3493067252963713 0.33458578737775441 0 0.33350183547987428 0.30960083226003082 0 0.32370483847687209 0.32710555742130942 0 0.32306916681894648 0.3455021313864674 0 0.30769416134954231 0.3337123504654671 0 0.32306916681894648 0.3455021313864674 0 0.32460448771260447 0.36265306961498878 0 0.3094689791930747 0.35878686560058548 0 0.3493067252963713 0.33458578737775441 0 0.32306916681894648 0.3455021313864674 0 0.34277229157726657 0.35822019846197761 0 0.32306916681894648 0.3455021313864674 0 0.34277229157726657 0.35822019846197761 0 0.32460448771260447 0.36265306961498878 0 0.34277229157726657 0.35822019846197761 0 0.33487212728351351 0.37444957434749682 0 0.32460448771260447 0.36265306961498878 0 0.31985727556018068 0.38234154841986628 0 0.33487212728351351 0.37444957434749682 0 0.32460448771260447 0.36265306961498878 0 0.31985727556018068 0.38234154841986628 0 0.32460448771260447 0.36265306961498878 0 0.31195292303499927 0.37068776317154378 0 0.32460448771260447 0.36265306961498878 0 0.31195292303499927 0.37068776317154378 0 0.3094689791930747 0.35878686560058548 0 0.30155176641825537 0.37787123374044113 0 0.3034361572332695 0.36596532315704872 0 0.29077096028674859 0.35651543011562398 0 0.3034361572332695 0.36596532315704872 0 0.3094689791930747 0.35878686560058548 0 0.29077096028674859 0.35651543011562398 0 0.30155176641825537 0.37787123374044113 0 0.31195292303499927 0.37068776317154378 0 0.3034361572332695 0.36596532315704872 0 0.31195292303499927 0.37068776317154378 0 0.3034361572332695 0.36596532315704872 0 0.3094689791930747 0.35878686560058548 0 0.3094689791930747 0.35878686560058548 0 0.302505842644062 0.34722625734584739 0 0.29077096028674859 0.35651543011562398 0 0.32306916681894648 0.3455021313864674 0 0.3094689791930747 0.35878686560058548 0 0.302505842644062 0.34722625734584739 0 0.29077096028674859 0.35651543011562398 0 0.28249938812516417 0.34013019244447379 0 0.302505842644062 0.34722625734584739 0 0.29077096028674859 0.35651543011562398 0 0.28906049880761348 0.34065214723067461 0 0.29077096028674859 0.35651543011562398 0 0.28906049880761348 0.34065214723067461 0 0.29077096028674859 0.35651543011562398 0 0.27721605830266732 0.35113494085410751 0 0.28249938812516417 0.34013019244447379 0 0.29077096028674859 0.35651543011562398 0 0.28249938812516417 0.34013019244447379 0 0.28906049880761348 0.34065214723067461 0 0.29077096028674859 0.35651543011562398 0 0.28619755205258252 0.37426607479176721 0 0.27721605830266732 0.35113494085410751 0 0.30155176641825537 0.37787123374044113 0 0.29077096028674859 0.35651543011562398 0 0.29297500304462332 0.37695631942252539 0 0.30155176641825537 0.37787123374044113 0 0.29077096028674859 0.35651543011562398 0 0.28619755205258252 0.37426607479176721 0 0.27721605830266732 0.35113494085410751 0 0.29297500304462332 0.37695631942252539 0 0.29077096028674859 0.35651543011562398 0 0.28619755205258252 0.37426607479176721 0 0.29297500304462332 0.37695631942252539 0 0.29077096028674859 0.35651543011562398 0 0.27760803503462572 0.37312420166631027 0 0.27291012278683491 0.37073899870337829 0 0.27413162114903611 0.36321619647101211 0 0.28619755205258252 0.37426607479176721 0 0.27413162114903611 0.36321619647101211 0 0.27721605830266732 0.35113494085410751 0 0.28619755205258252 0.37426607479176721 0 0.27760803503462572 0.37312420166631027 0 0.27413162114903611 0.36321619647101211 0 0.27465863403082758 0.37687877841281842 0 0.27760803503462572 0.37312420166631027 0 0.27291012278683491 0.37073899870337829 0 0.26768916320259278 0.37603775013983443 0 0.26807222776617923 0.36622734199073431 0 0.26144393509374908 0.3710178319065035 0 0.26768916320259278 0.37603775013983443 0 0.27291012278683491 0.37073899870337829 0 0.26807222776617923 0.36622734199073431 0 0.26768916320259278 0.37603775013983443 0 0.27465863403082758 0.37687877841281842 0 0.27291012278683491 0.37073899870337829 0 0.26807222776617923 0.36622734199073431 0 0.27413162114903611 0.36321619647101211 0 0.26534912608726069 0.35751078835088318 0 0.27291012278683491 0.37073899870337829 0 0.26807222776617923 0.36622734199073431 0 0.27413162114903611 0.36321619647101211 0 0.27721605830266732 0.35113494085410751 0 0.26888334688578031 0.35122307318506141 0 0.26604789499451797 0.34216212070529622 0 0.27413162114903611 0.36321619647101211 0 0.26888334688578031 0.35122307318506141 0 0.26534912608726069 0.35751078835088318 0 0.27413162114903611 0.36321619647101211 0 0.27721605830266732 0.35113494085410751 0 0.26888334688578031 0.35122307318506141 0 0.26534912608726069 0.35751078835088318 0 0.26068821109604562 0.34939682724443732 0 0.25579799251658891 0.36196979364631959 0 0.26888334688578031 0.35122307318506141 0 0.26534912608726069 0.35751078835088318 0 0.26068821109604562 0.34939682724443732 0 0.26888334688578031 0.35122307318506141 0 0.26068821109604562 0.34939682724443732 0 0.26604789499451797 0.34216212070529622 0 0.26068821109604562 0.34939682724443732 0 0.25103816627446301 0.34731886263972311 0 0.25701273981766237 0.33619632493934032 0 0.26068821109604562 0.34939682724443732 0 0.25103816627446301 0.34731886263972311 0 0.25579799251658891 0.36196979364631959 0 0.24523347810792709 0.35610720783631972 0 0.25103816627446301 0.34731886263972311 0 0.25579799251658891 0.36196979364631959 0 0.244980201338591 0.36730237241125618 0 0.25579799251658891 0.36196979364631959 0 0.25400802697851438 0.37324681326254577 0 0.25579799251658891 0.36196979364631959 0 0.25400802697851438 0.37324681326254577 0 0.26144393509374908 0.3710178319065035 0 0.26021703736392338 0.37819569717877338 0 0.25400802697851438 0.37324681326254577 0 0.26144393509374908 0.3710178319065035 0 0.26807222776617923 0.36622734199073431 0 0.26534912608726069 0.35751078835088318 0 0.25579799251658891 0.36196979364631959 0 0.26807222776617923 0.36622734199073431 0 0.25579799251658891 0.36196979364631959 0 0.26144393509374908 0.3710178319065035 0 0.24648522543192869 0.30474403682909801 0 0.2460033787186312 0.32690602786200629 0 0.25795223702547659 0.32077978941612062 0 0.25795223702547659 0.32077978941612062 0 0.27124744726192418 0.31718152658864063 0 0.26331582443984902 0.30938456988020019 0 0.2460033787186312 0.32690602786200629 0 0.25795223702547659 0.32077978941612062 0 0.25701273981766237 0.33619632493934032 0 0.2483727893259863 0.33788647683227852 0 0.2460033787186312 0.32690602786200629 0 0.25701273981766237 0.33619632493934032 0 0.2483727893259863 0.33788647683227852 0 0.25103816627446301 0.34731886263972311 0 0.25701273981766237 0.33619632493934032 0 0.26068821109604562 0.34939682724443732 0 0.25701273981766237 0.33619632493934032 0 0.26604789499451797 0.34216212070529622 0 0.25701273981766237 0.33619632493934032 0 0.26604789499451797 0.34216212070529622 0 0.26823456455275207 0.32800380691644782 0 0.25795223702547659 0.32077978941612062 0 0.25701273981766237 0.33619632493934032 0 0.26823456455275207 0.32800380691644782 0 0.27422781596357909 0.32374495477332399 0 0.26823456455275207 0.32800380691644782 0 0.28249938812516417 0.34013019244447379 0 0.27422781596357909 0.32374495477332399 0 0.28249938812516417 0.34013019244447379 0 0.27721605830266732 0.35113494085410751 0 0.26823456455275207 0.32800380691644782 0 0.28249938812516417 0.34013019244447379 0 0.27721605830266732 0.35113494085410751 0 0.26604789499451797 0.34216212070529622 0 0.26823456455275207 0.32800380691644782 0 0.27721605830266732 0.35113494085410751 0 0.26823456455275207 0.32800380691644782 0 0.27422781596357909 0.32374495477332399 0 0.28196986953600528 0.31611444412815898 0 0.28735003732847919 0.32478886434572513 0 0.27422781596357909 0.32374495477332399 0 0.26823456455275207 0.32800380691644782 0 0.27124744726192418 0.31718152658864063 0 0.25795223702547659 0.32077978941612062 0 0.26823456455275207 0.32800380691644782 0 0.27124744726192418 0.31718152658864063 0 0.27422781596357909 0.32374495477332399 0 0.27124744726192418 0.31718152658864063 0 0.28196986953600528 0.31611444412815898 0 0.27124744726192418 0.31718152658864063 0 0.28196986953600528 0.31611444412815898 0 0.28229995194356999 0.30527291911580112 0 0.28196986953600528 0.31611444412815898 0 0.28735003732847919 0.32478886434572513 0 0.3020494542551424 0.31258645712945388 0 0.28735003732847919 0.32478886434572513 0 0.29616503060309862 0.33114513074738222 0 0.3020494542551424 0.31258645712945388 0 0.28735003732847919 0.32478886434572513 0 0.28906049880761348 0.34065214723067461 0 0.28735003732847919 0.32478886434572513 0 0.28906049880761348 0.34065214723067461 0 0.29616503060309862 0.33114513074738222 0 0.27422781596357909 0.32374495477332399 0 0.28735003732847919 0.32478886434572513 0 0.28249938812516417 0.34013019244447379 0 0.28735003732847919 0.32478886434572513 0 0.28249938812516417 0.34013019244447379 0 0.28906049880761348 0.34065214723067461 0 0.28906049880761348 0.34065214723067461 0 0.29616503060309862 0.33114513074738222 0 0.29885638335107911 0.3381839714473428 0 0.302505842644062 0.34722625734584739 0 0.28906049880761348 0.34065214723067461 0 0.29885638335107911 0.3381839714473428 0 0.32306916681894648 0.3455021313864674 0 0.302505842644062 0.34722625734584739 0 0.30769416134954231 0.3337123504654671 0 0.302505842644062 0.34722625734584739 0 0.29885638335107911 0.3381839714473428 0 0.30769416134954231 0.3337123504654671 0 0.29616503060309862 0.33114513074738222 0 0.29885638335107911 0.3381839714473428 0 0.30769416134954231 0.3337123504654671 0 0.32370483847687209 0.32710555742130942 0 0.30769416134954231 0.3337123504654671 0 0.3020494542551424 0.31258645712945388 0 0.29616503060309862 0.33114513074738222 0 0.30769416134954231 0.3337123504654671 0 0.3020494542551424 0.31258645712945388 0 0.3020494542551424 0.31258645712945388 0 0.28846525762645919 0.28237169315323901 0 0.31769694566337708 0.28461587714230702 0 0.3020494542551424 0.31258645712945388 0 0.28846525762645919 0.28237169315323901 0 0.28229995194356999 0.30527291911580112 0 0.28196986953600528 0.31611444412815898 0 0.3020494542551424 0.31258645712945388 0 0.28229995194356999 0.30527291911580112 0 0.28229995194356999 0.30527291911580112 0 0.2654153007552939 0.29426001600796831 0 0.26331582443984902 0.30938456988020019 0 0.27124744726192418 0.31718152658864063 0 0.28229995194356999 0.30527291911580112 0 0.26331582443984902 0.30938456988020019 0 0.28846525762645919 0.28237169315323901 0 0.28229995194356999 0.30527291911580112 0 0.2654153007552939 0.29426001600796831 0 0.24648522543192869 0.30474403682909801 0 0.2654153007552939 0.29426001600796831 0 0.25410680245693168 0.27971439088681033 0 0.24648522543192869 0.30474403682909801 0 0.25795223702547659 0.32077978941612062 0 0.26331582443984902 0.30938456988020019 0 0.24648522543192869 0.30474403682909801 0 0.2654153007552939 0.29426001600796831 0 0.26331582443984902 0.30938456988020019 0 0.2420421461839064 0.2669531671384977 0 0.25444540126316278 0.25175855520636897 0 0.26703762590815522 0.26606034793502459 0 0.25444540126316278 0.25175855520636897 0 0.26703762590815522 0.26606034793502459 0 0.26865995106101642 0.23786067986208109 0 0.2420421461839064 0.2669531671384977 0 0.25410680245693168 0.27971439088681033 0 0.26703762590815522 0.26606034793502459 0 0.2654153007552939 0.29426001600796831 0 0.25410680245693168 0.27971439088681033 0 0.26703762590815522 0.26606034793502459 0 0.2654153007552939 0.29426001600796831 0 0.26703762590815522 0.26606034793502459 0 0.28846525762645919 0.28237169315323901 0 0.26703762590815522 0.26606034793502459 0 0.28286546901279602 0.2541753127175353 0 0.28846525762645919 0.28237169315323901 0 0.2654153007552939 0.29426001600796831 0 0.26703762590815522 0.26606034793502459 0 0.26703762590815522 0.26606034793502459 0 0.26865995106101642 0.23786067986208109 0 0.26703762590815522 0.26606034793502459 0 0.28286546901279602 0.2541753127175353 0 0.26865995106101642 0.23786067986208109 0 0.28846525762645919 0.28237169315323901 0 0.28286546901279602 0.2541753127175353 0 0.30189205584688011 0.25963092202458321 0 0.28846525762645919 0.28237169315323901 0 0.30189205584688011 0.25963092202458321 0 0.31769694566337708 0.28461587714230702 0 0.30189205584688011 0.25963092202458321 0 0.31157072399365621 0.26050280826396088 0 0.31831303569394492 0.28265434953863211 0 0.30189205584688011 0.25963092202458321 0 0.31769694566337708 0.28461587714230702 0 0.30189205584688011 0.25963092202458321 0 0.31157072399365621 0.26050280826396088 0 0.30482841229336738 0.2383512669892898 0 0.32295172191333288 0.25486780088420963 0 0.34057765869050649 0.25802325432773521 0 0.31933187964179099 0.2371114900211779 0 0.31157072399365621 0.26050280826396088 0 0.32295172191333288 0.25486780088420963 0 0.31480198050771557 0.2478617752562236 0 0.31157072399365621 0.26050280826396088 0 0.32295172191333288 0.25486780088420963 0 0.32595548262716328 0.26789374919392062 0 0.32295172191333288 0.25486780088420963 0 0.34057765869050649 0.25802325432773521 0 0.32595548262716328 0.26789374919392062 0 0.34057765869050649 0.25802325432773521 0 0.33492104401723161 0.27313764046425082 0 0.34566589167634321 0.27632983368734299 0 0.33492104401723161 0.27313764046425082 0 0.33128594766888192 0.28536499557764777 0 0.34566589167634321 0.27632983368734299 0 0.34057765869050649 0.25802325432773521 0 0.33492104401723161 0.27313764046425082 0 0.32595548262716328 0.26789374919392062 0 0.33492104401723161 0.27313764046425082 0 0.32779221225039251 0.27730296517088981 0 0.32595548262716328 0.26789374919392062 0 0.33492104401723161 0.27313764046425082 0 0.32779221225039251 0.27730296517088981 0 0.33128594766888192 0.28536499557764777 0 0.32779221225039251 0.27730296517088981 0 0.32595548262716328 0.26789374919392062 0 0.31831303569394492 0.28265434953863211 0 0.31157072399365621 0.26050280826396088 0 0.32595548262716328 0.26789374919392062 0 0.31831303569394492 0.28265434953863211 0 0.31157072399365621 0.26050280826396088 0 0.31831303569394492 0.28265434953863211 0 0.30189205584688011 0.25963092202458321 0 0.31769694566337708 0.28461587714230702 0 0.31831303569394492 0.28265434953863211 0 0.31769694566337708 0.28461587714230702 0 0.33350183547987428 0.30960083226003082 0 0.33128594766888192 0.28536499557764777 0 0.3020494542551424 0.31258645712945388 0 0.31769694566337708 0.28461587714230702 0 0.33350183547987428 0.30960083226003082 0 0.32779221225039251 0.27730296517088981 0 0.31831303569394492 0.28265434953863211 0 0.33128594766888192 0.28536499557764777 0 0.31769694566337708 0.28461587714230702 0 0.31831303569394492 0.28265434953863211 0 0.33128594766888192 0.28536499557764777 0 0.31769694566337708 0.28461587714230702 0 0.33350183547987428 0.30960083226003082 0 0.33350183547987428 0.30960083226003082 0 0.3442421229588426 0.29398375969296298 0 0.34832196775926982 0.3030323811035428 0 0.33350183547987428 0.30960083226003082 0 0.33128594766888192 0.28536499557764777 0 0.3442421229588426 0.29398375969296298 0 0.33128594766888192 0.28536499557764777 0 0.3442421229588426 0.29398375969296298 0 0.35902803127152572 0.28602713352368092 0 0.33128594766888192 0.28536499557764777 0 0.35902803127152572 0.28602713352368092 0 0.34566589167634321 0.27632983368734299 0 0.33128594766888192 0.28536499557764777 0 0.35902803127152572 0.28602713352368092 0 0.3442421229588426 0.29398375969296298 0 0.35586802905462839 0.29646142972835582 0 0.35902803127152572 0.28602713352368092 0 0.35586802905462839 0.29646142972835582 0 0.35902803127152572 0.28602713352368092 0 0.36292585745445388 0.29403748406014463 0 0.33350183547987428 0.30960083226003082 0 0.35022789059686787 0.31093813229071571 0 0.34832196775926982 0.3030323811035428 0 0.3442421229588426 0.29398375969296298 0 0.35586802905462839 0.29646142972835582 0 0.34832196775926982 0.3030323811035428 0 0.35586802905462839 0.29646142972835582 0 0.34832196775926982 0.3030323811035428 0 0.35884544402305452 0.30673069148380983 0 0.35920265492481013 0.31535805164104469 0 0.35022789059686787 0.31093813229071571 0 0.35884544402305452 0.30673069148380983 0 0.35022789059686787 0.31093813229071571 0 0.34832196775926982 0.3030323811035428 0 0.35884544402305452 0.30673069148380983 0 0.36634378513966159 0.31306317000299172 0 0.35884544402305452 0.30673069148380983 0 0.37094633449803038 0.30494160921983471 0 0.36634378513966159 0.31306317000299172 0 0.35920265492481013 0.31535805164104469 0 0.35884544402305452 0.30673069148380983 0 0.35586802905462839 0.29646142972835582 0 0.35884544402305452 0.30673069148380983 0 0.36397532926866732 0.29896922236204171 0 0.35884544402305452 0.30673069148380983 0 0.36397532926866732 0.29896922236204171 0 0.37094633449803038 0.30494160921983471 0 0.36397532926866732 0.29896922236204171 0 0.37094633449803038 0.30494160921983471 0 0.37283204022299432 0.29469215062649978 0 0.37468942596683208 0.31374646967734732 0 0.36634378513966159 0.31306317000299172 0 0.37094633449803038 0.30494160921983471 0 0.35902803127152572 0.28602713352368092 0 0.38677011487416962 0.28668927146971412 0 0.35902803127152572 0.28602713352368092 0 0.37423063499829889 0.27561899900605408 0 0.38677011487416962 0.28668927146971412 0 0.35902803127152572 0.28602713352368092 0 0.37283204022299432 0.29469215062649978 0 0.38677011487416962 0.28668927146971412 0 0.36397532926866732 0.29896922236204171 0 0.36292585745445388 0.29403748406014463 0 0.37283204022299432 0.29469215062649978 0 0.35586802905462839 0.29646142972835582 0 0.36397532926866732 0.29896922236204171 0 0.36292585745445388 0.29403748406014463 0 0.35902803127152572 0.28602713352368092 0 0.36292585745445388 0.29403748406014463 0 0.37283204022299432 0.29469215062649978 0 0.36182343773922221 0.27893501863429282 0 0.36888267446906531 0.26871100467362891 0 0.36096040083936881 0.25856339386989252 0 0.37423063499829889 0.27561899900605408 0 0.36182343773922221 0.27893501863429282 0 0.36888267446906531 0.26871100467362891 0 0.35902803127152572 0.28602713352368092 0 0.37423063499829889 0.27561899900605408 0 0.36182343773922221 0.27893501863429282 0 0.37423063499829889 0.27561899900605408 0 0.36888267446906531 0.26871100467362891 0 0.37851622429937148 0.26172660718427598 0 0.36888267446906531 0.26871100467362891 0 0.36096040083936881 0.25856339386989252 0 0.37851622429937148 0.26172660718427598 0 0.36096040083936881 0.25856339386989252 0 0.37851622429937148 0.26172660718427598 0 0.37692826582088329 0.2449998410245251 0 0.34057765869050649 0.25802325432773521 0 0.36096040083936881 0.25856339386989252 0 0.3486195408250311 0.23778695413278009 0 0.34057765869050649 0.25802325432773521 0 0.36182343773922221 0.27893501863429282 0 0.36096040083936881 0.25856339386989252 0 0.34057765869050649 0.25802325432773521 0 0.36182343773922221 0.27893501863429282 0 0.35902803127152572 0.28602713352368092 0 0.36182343773922221 0.27893501863429282 0 0.34566589167634321 0.27632983368734299 0 0.34057765869050649 0.25802325432773521 0 0.36182343773922221 0.27893501863429282 0 0.34566589167634321 0.27632983368734299 0 0.39289395225977658 0.2713417388681677 0 0.41451219847681359 0.28735140941574733 0 0.40930003003062038 0.26433724347865423 0 0.39403451087938568 0.25232690265456059 0 0.40930003003062038 0.26433724347865423 0 0.41211135859945858 0.23859957228918491 0 0.39289395225977658 0.2713417388681677 0 0.39403451087938568 0.25232690265456059 0 0.40930003003062038 0.26433724347865423 0 0.39403451087938568 0.25232690265456059 0 0.37851622429937148 0.26172660718427598 0 0.37692826582088329 0.2449998410245251 0 0.39289395225977658 0.2713417388681677 0 0.39403451087938568 0.25232690265456059 0 0.37851622429937148 0.26172660718427598 0 0.37423063499829889 0.27561899900605408 0 0.39289395225977658 0.2713417388681677 0 0.37851622429937148 0.26172660718427598 0 0.37423063499829889 0.27561899900605408 0 0.39289395225977658 0.2713417388681677 0 0.38677011487416962 0.28668927146971412 0 0.38677011487416962 0.28668927146971412 0 0.38160744320187379 0.30343426112010757 0 0.39525518076027533 0.29957073849760069 0 0.37283204022299432 0.29469215062649978 0 0.38677011487416962 0.28668927146971412 0 0.38160744320187379 0.30343426112010757 0 0.37468942596683208 0.31374646967734732 0 0.37094633449803038 0.30494160921983471 0 0.38160744320187379 0.30343426112010757 0 0.37468942596683208 0.31374646967734732 0 0.38160744320187379 0.30343426112010757 0 0.38326804585601632 0.31418673981577899 0 0.37094633449803038 0.30494160921983471 0 0.37283204022299432 0.29469215062649978 0 0.38160744320187379 0.30343426112010757 0 0.38160744320187379 0.30343426112010757 0 0.3928006403135752 0.31252555936857213 0 0.38326804585601632 0.31418673981577899 0 0.38160744320187379 0.30343426112010757 0 0.39525518076027533 0.29957073849760069 0 0.3928006403135752 0.31252555936857213 0 0.39525518076027533 0.29957073849760069 0 0.40476198149526638 0.30894791851966358 0 0.41451219847681359 0.28735140941574733 0 0.39525518076027533 0.29957073849760069 0 0.40476198149526638 0.30894791851966358 0 0.3928006403135752 0.31252555936857213 0 0.38677011487416962 0.28668927146971412 0 0.41451219847681359 0.28735140941574733 0 0.39289395225977658 0.2713417388681677 0 0.38677011487416962 0.28668927146971412 0 0.41451219847681359 0.28735140941574733 0 0.38677011487416962 0.28668927146971412 0 0.39525518076027533 0.29957073849760069 0 0.41451219847681359 0.28735140941574733 0 0.40476198149526638 0.30894791851966358 0 0.42674007626924548 0.30093116591541252 0 0.42079231481466578 0.31740455364187581 0 0.40476198149526638 0.30894791851966358 0 0.41451219847681359 0.28735140941574733 0 0.42674007626924548 0.30093116591541252 0 0.42674007626924548 0.30093116591541252 0 0.43547946024697409 0.31610916107935949 0 0.42079231481466578 0.31740455364187581 0 0.42674007626924548 0.30093116591541252 0 0.44214425533435597 0.29259692108837593 0 0.43547946024697409 0.31610916107935949 0 0.42674007626924548 0.30093116591541252 0 0.43020325090214317 0.2800970030387922 0 0.44214425533435597 0.29259692108837593 0 0.41451219847681359 0.28735140941574733 0 0.42674007626924548 0.30093116591541252 0 0.43020325090214317 0.2800970030387922 0 0.43020325090214317 0.2800970030387922 0 0.40930003003062038 0.26433724347865423 0 0.42881036932591698 0.26049773150289751 0 0.43020325090214317 0.2800970030387922 0 0.42881036932591698 0.26049773150289751 0 0.44880905042173791 0.26908468109739231 0 0.41451219847681359 0.28735140941574733 0 0.43020325090214317 0.2800970030387922 0 0.40930003003062038 0.26433724347865423 0 0.40930003003062038 0.26433724347865423 0 0.42881036932591698 0.26049773150289751 0 0.41211135859945858 0.23859957228918491 0 0.42881036932591698 0.26049773150289751 0 0.44172146682776492 0.25431021510112339 0 0.43379260205428782 0.2420860066977962 0 0.42881036932591698 0.26049773150289751 0 0.44172146682776492 0.25431021510112339 0 0.44880905042173791 0.26908468109739231 0 0.44172146682776492 0.25431021510112339 0 0.44880905042173791 0.26908468109739231 0 0.45547384550911679 0.24557244110640769 0 0.44880905042173791 0.26908468109739231 0 0.45547384550911679 0.24557244110640769 0 0.44880905042173791 0.26908468109739231 0 0.44214425533435597 0.29259692108837593 0 0.43020325090214317 0.2800970030387922 0 0.44880905042173791 0.26908468109739231 0 0.44214425533435597 0.29259692108837593 0 0.44880905042173791 0.26908468109739231 0 0.46322881921194359 0.27501169468731201 0 0.44214425533435597 0.29259692108837593 0 0.44880905042173791 0.26908468109739231 0 0.46322881921194359 0.27501169468731201 0 0.45978196869434879 0.26236043550722687 0 0.46322881921194359 0.27501169468731201 0 0.45978196869434879 0.26236043550722687 0 0.47003806060666142 0.25987385333938617 0 0.45978196869434879 0.26236043550722687 0 0.46408427701748561 0.25440272181502671 0 0.45547384550911679 0.24557244110640769 0 0.44880905042173791 0.26908468109739231 0 0.45978196869434879 0.26236043550722687 0 0.45547384550911679 0.24557244110640769 0 0.45978196869434879 0.26236043550722687 0 0.46408427701748561 0.25440272181502671 0 0.47003806060666142 0.25987385333938617 0 0.46408427701748561 0.25440272181502671 0 0.47003806060666142 0.25987385333938617 0 0.47161077686298242 0.24816732699654209 0 0.47003806060666142 0.25987385333938617 0 0.48479612761319513 0.26076513460741702 0 0.47161077686298242 0.24816732699654209 0 0.47003806060666142 0.25987385333938617 0 0.47161077686298242 0.24816732699654209 0 0.47003806060666142 0.25987385333938617 0 0.47832939243866768 0.27263885186166092 0 0.48479612761319513 0.26076513460741702 0 0.46322881921194359 0.27501169468731201 0 0.47832939243866768 0.27263885186166092 0 0.47189555383156939 0.28970737413077002 0 0.46322881921194359 0.27501169468731201 0 0.47003806060666142 0.25987385333938617 0 0.47832939243866768 0.27263885186166092 0 0.47832939243866768 0.27263885186166092 0 0.5 0.27952752396211378 0 0.47189555383156939 0.28970737413077002 0 0.47832939243866768 0.27263885186166092 0 0.5 0.27952752396211378 0 0.48479612761319513 0.26076513460741702 0 0.50000000000000133 0.25273243252588418 0 0.48479612761319513 0.26076513460741702 0 0.47161077686298242 0.24816732699654209 0 0.5 0.27952752396211378 0 0.50000000000000133 0.25273243252588418 0 0.48479612761319513 0.26076513460741702 0 0.50000000000000133 0.25273243252588418 0 0.47161077686298242 0.24816732699654209 0 0.5 0.27952752396211378 0 0.5 0.30632261539834349 0 0.47189555383156939 0.28970737413077002 0 0.47189555383156939 0.28970737413077002 0 0.48009427883803779 0.31245884807392382 0 0.46409439738356351 0.30521749313538371 0 0.5 0.30632261539834349 0 0.47189555383156939 0.28970737413077002 0 0.48009427883803779 0.31245884807392382 0 0.46409439738356351 0.30521749313538371 0 0.45072164870380832 0.31115093408847622 0 0.46340958021555129 0.3209450505774753 0 0.47189555383156939 0.28970737413077002 0 0.46409439738356351 0.30521749313538371 0 0.44214425533435597 0.29259692108837593 0 0.46322881921194359 0.27501169468731201 0 0.47189555383156939 0.28970737413077002 0 0.44214425533435597 0.29259692108837593 0 0.46409439738356351 0.30521749313538371 0 0.44214425533435597 0.29259692108837593 0 0.45072164870380832 0.31115093408847622 0 0.44214425533435597 0.29259692108837593 0 0.43547946024697409 0.31610916107935949 0 0.44214425533435597 0.29259692108837593 0 0.45072164870380832 0.31115093408847622 0 0.43547946024697409 0.31610916107935949 0 0.44248479562082632 0.32490093682069893 0 0.44538609342785601 0.31865368623037088 0 0.43547946024697409 0.31610916107935949 0 0.45072164870380832 0.31115093408847622 0 0.44538609342785601 0.31865368623037088 0 0.43547946024697409 0.31610916107935949 0 0.44248479562082632 0.32490093682069893 0 0.43547946024697409 0.31610916107935949 0 0.43682264813406613 0.32586118876408632 0 0.44248479562082632 0.32490093682069893 0 0.43682264813406613 0.32586118876408632 0 0.44248479562082632 0.32490093682069893 0 0.45285846913981498 0.32245371293294911 0 0.44538609342785601 0.31865368623037088 0 0.45072164870380832 0.31115093408847622 0 0.45285846913981498 0.32245371293294911 0 0.44538609342785601 0.31865368623037088 0 0.44079984123829918 0.33707086967600253 0 0.46358164960813031 0.33997762085518352 0 0.43682264813406613 0.32586118876408632 0 0.46358164960813031 0.33997762085518352 0 0.43682264813406613 0.32586118876408632 0 0.44079984123829918 0.33707086967600253 0 0.46358164960813031 0.33997762085518352 0 0.44261518205203199 0.34583245486650721 0 0.44248479562082632 0.32490093682069893 0 0.45285846913981498 0.32245371293294911 0 0.46358164960813031 0.33997762085518352 0 0.44248479562082632 0.32490093682069893 0 0.46358164960813031 0.33997762085518352 0 0.43682264813406613 0.32586118876408632 0 0.44079984123829918 0.33707086967600253 0 0.44261518205203199 0.34583245486650721 0 0.42995036479937693 0.3419143081821151 0 0.46358164960813031 0.33997762085518352 0 0.46340958021555129 0.3209450505774753 0 0.47751163107996569 0.33033461991529828 0 0.46358164960813031 0.33997762085518352 0 0.46340958021555129 0.3209450505774753 0 0.45285846913981498 0.32245371293294911 0 0.46358164960813031 0.33997762085518352 0 0.46340958021555129 0.3209450505774753 0 0.45072164870380832 0.31115093408847622 0 0.45285846913981498 0.32245371293294911 0 0.46340958021555129 0.3209450505774753 0 0.48009427883803779 0.31245884807392382 0 0.46409439738356351 0.30521749313538371 0 0.46340958021555129 0.3209450505774753 0 0.48009427883803779 0.31245884807392382 0 0.46340958021555129 0.3209450505774753 0 0.47751163107996569 0.33033461991529828 0 0.46358164960813031 0.33997762085518352 0 0.47751163107996569 0.33033461991529828 0 0.47741710416152477 0.34727637058026828 0 0.46358164960813031 0.33997762085518352 0 0.47741710416152477 0.34727637058026828 0 0.47751163107996569 0.33033461991529828 0 0.5 0.33311770683457309 0 0.47741710416152477 0.34727637058026828 0 0.5 0.30632261539834349 0 0.48009427883803779 0.31245884807392382 0 0.5 0.33311770683457309 0 0.48009427883803779 0.31245884807392382 0 0.47751163107996569 0.33033461991529828 0 0.5 0.33311770683457309 0 0.5 0.35991279827080269 0 0.47782889937599682 0.36327114119592269 0 0.48193378174846307 0.3791552019355604 0 0.5 0.35991279827080269 0 0.47741710416152477 0.34727637058026828 0 0.47782889937599682 0.36327114119592269 0 0.5 0.33311770683457309 0 0.5 0.35991279827080269 0 0.47741710416152477 0.34727637058026828 0 0.47741710416152477 0.34727637058026828 0 0.47782889937599682 0.36327114119592269 0 0.46372460655253128 0.35579006750963399 0 0.47782889937599682 0.36327114119592269 0 0.46386756349693181 0.37160251416408452 0 0.48193378174846307 0.3791552019355604 0 0.46386756349693181 0.37160251416408452 0 0.46372460655253128 0.35579006750963399 0 0.47782889937599682 0.36327114119592269 0 0.46386756349693181 0.37160251416408452 0 0.46372460655253128 0.35579006750963399 0 0.46386756349693181 0.37160251416408452 0 0.44288636239621348 0.36283120083343051 0 0.46386756349693181 0.37160251416408452 0 0.46372460655253128 0.35579006750963399 0 0.44288636239621348 0.36283120083343051 0 0.46358164960813031 0.33997762085518352 0 0.45378775608296701 0.35020839559249872 0 0.44261518205203199 0.34583245486650721 0 0.46358164960813031 0.33997762085518352 0 0.46372460655253128 0.35579006750963399 0 0.45378775608296701 0.35020839559249872 0 0.46372460655253128 0.35579006750963399 0 0.45378775608296701 0.35020839559249872 0 0.44288636239621348 0.36283120083343051 0 0.46358164960813031 0.33997762085518352 0 0.47741710416152477 0.34727637058026828 0 0.46372460655253128 0.35579006750963399 0 0.46358164960813031 0.33997762085518352 0 0.46372460655253128 0.35579006750963399 0 0.45378775608296701 0.35020839559249872 0 0.44261518205203199 0.34583245486650721 0 0.44288636239621348 0.36283120083343051 0 0.46386756349693181 0.37160251416408452 0 0.44288636239621348 0.36283120083343051 0 0.44893756586603228 0.37671736309498882 0 0.44288636239621348 0.36283120083343051 0 0.42840173683077037 0.36799935200550887 0 0.44893756586603228 0.37671736309498882 0 0.44288636239621348 0.36283120083343051 0 0.42840173683077037 0.36799935200550887 0 0.42190516129549588 0.35405988750277401 0 0.42840173683077037 0.36799935200550887 0 0.42190516129549588 0.35405988750277401 0 0.40364776469790631 0.36825260144537481 0 0.42840173683077037 0.36799935200550887 0 0.40364776469790631 0.36825260144537481 0 0.42245014065086728 0.38218006662854148 0 0.42190516129549588 0.35405988750277401 0 0.40092396019477838 0.34528857417211739 0 0.42190516129549588 0.35405988750277401 0 0.40364776469790631 0.36825260144537481 0 0.40092396019477838 0.34528857417211739 0 0.42190516129549588 0.35405988750277401 0 0.41774197400099278 0.34145603075195408 0 0.40092396019477838 0.34528857417211739 0 0.42190516129549588 0.35405988750277401 0 0.42995036479937693 0.3419143081821151 0 0.41774197400099278 0.34145603075195408 0 0.44288636239621348 0.36283120083343051 0 0.42190516129549588 0.35405988750277401 0 0.44261518205203199 0.34583245486650721 0 0.42190516129549588 0.35405988750277401 0 0.42995036479937693 0.3419143081821151 0 0.44261518205203199 0.34583245486650721 0 0.44288636239621348 0.36283120083343051 0 0.42190516129549588 0.35405988750277401 0 0.43682264813406613 0.32586118876408632 0 0.40935673708858022 0.33051917312778428 0 0.42657364662673231 0.33549821077497988 0 0.43682264813406613 0.32586118876408632 0 0.40935673708858022 0.33051917312778428 0 0.44079984123829918 0.33707086967600253 0 0.42995036479937693 0.3419143081821151 0 0.42657364662673231 0.33549821077497988 0 0.44079984123829918 0.33707086967600253 0 0.42657364662673231 0.33549821077497988 0 0.43682264813406613 0.32586118876408632 0 0.42995036479937693 0.3419143081821151 0 0.42657364662673231 0.33549821077497988 0 0.41774197400099278 0.34145603075195408 0 0.43682264813406613 0.32586118876408632 0 0.42079231481466578 0.31740455364187581 0 0.40935673708858022 0.33051917312778428 0 0.43547946024697409 0.31610916107935949 0 0.43682264813406613 0.32586118876408632 0 0.42079231481466578 0.31740455364187581 0 0.43682264813406613 0.32586118876408632 0 0.42079231481466578 0.31740455364187581 0 0.40476198149526638 0.30894791851966358 0 0.42079231481466578 0.31740455364187581 0 0.40461920194460799 0.31958598254532578 0 0.42079231481466578 0.31740455364187581 0 0.40935673708858022 0.33051917312778428 0 0.40461920194460799 0.31958598254532578 0 0.40476198149526638 0.30894791851966358 0 0.42079231481466578 0.31740455364187581 0 0.42657364662673231 0.33549821077497988 0 0.41774197400099278 0.34145603075195408 0 0.40935673708858022 0.33051917312778428 0 0.41774197400099278 0.34145603075195408 0 0.40935673708858022 0.33051917312778428 0 0.40092396019477838 0.34528857417211739 0 0.40935673708858022 0.33051917312778428 0 0.38189082604309438 0.33517715749148402 0 0.40092396019477838 0.34528857417211739 0 0.40935673708858022 0.33051917312778428 0 0.39002103012396339 0.32771562149276828 0 0.38189082604309438 0.33517715749148402 0 0.40935673708858022 0.33051917312778428 0 0.38189082604309438 0.33517715749148402 0 0.40935673708858022 0.33051917312778428 0 0.39606303418716982 0.32256906315634931 0 0.39002103012396339 0.32771562149276828 0 0.40476198149526638 0.30894791851966358 0 0.40461920194460799 0.31958598254532578 0 0.3928006403135752 0.31252555936857213 0 0.40935673708858022 0.33051917312778428 0 0.40461920194460799 0.31958598254532578 0 0.39606303418716982 0.32256906315634931 0 0.39606303418716982 0.32256906315634931 0 0.38721933784308099 0.32063126059531838 0 0.39002103012396339 0.32771562149276828 0 0.40461920194460799 0.31958598254532578 0 0.39606303418716982 0.32256906315634931 0 0.3928006403135752 0.31252555936857213 0 0.39606303418716982 0.32256906315634931 0 0.3928006403135752 0.31252555936857213 0 0.38721933784308099 0.32063126059531838 0 0.3928006403135752 0.31252555936857213 0 0.38326804585601632 0.31418673981577899 0 0.38721933784308099 0.32063126059531838 0 0.38326804585601632 0.31418673981577899 0 0.38721933784308099 0.32063126059531838 0 0.38002338195471919 0.3205961483175499 0 0.38721933784308099 0.32063126059531838 0 0.3828765686296019 0.32650909630545472 0 0.38002338195471919 0.3205961483175499 0 0.38721933784308099 0.32063126059531838 0 0.39002103012396339 0.32771562149276828 0 0.3828765686296019 0.32650909630545472 0 0.3828765686296019 0.32650909630545472 0 0.3782740019627539 0.32567811482127501 0 0.3789583890863874 0.33082353469878922 0 0.3828765686296019 0.32650909630545472 0 0.3782740019627539 0.32567811482127501 0 0.38002338195471919 0.3205961483175499 0 0.37468646450948012 0.32254658311145301 0 0.37482520563358068 0.32791521167312832 0 0.3782740019627539 0.32567811482127501 0 0.37468646450948012 0.32254658311145301 0 0.3782740019627539 0.32567811482127501 0 0.38002338195471919 0.3205961483175499 0 0.37468942596683208 0.31374646967734732 0 0.37468646450948012 0.32254658311145301 0 0.38002338195471919 0.3205961483175499 0 0.37468942596683208 0.31374646967734732 0 0.38326804585601632 0.31418673981577899 0 0.38002338195471919 0.3205961483175499 0 0.38189082604309438 0.33517715749148402 0 0.37994275909406089 0.33651726084146089 0 0.40092396019477838 0.34528857417211739 0 0.37994275909406089 0.33651726084146089 0 0.37898580562215478 0.34834699925771168 0 0.40092396019477838 0.34528857417211739 0 0.37994275909406089 0.33651726084146089 0 0.40092396019477838 0.34528857417211739 0 0.39002103012396339 0.32771562149276828 0 0.38189082604309438 0.33517715749148402 0 0.38271967695225317 0.33088797828021982 0 0.39002103012396339 0.32771562149276828 0 0.3828765686296019 0.32650909630545472 0 0.38271967695225317 0.33088797828021982 0 0.37329813251097949 0.33351056758012182 0 0.38189082604309438 0.33517715749148402 0 0.38039710437148128 0.33273535630659612 0 0.38189082604309438 0.33517715749148402 0 0.38039710437148128 0.33273535630659612 0 0.38271967695225317 0.33088797828021982 0 0.3828765686296019 0.32650909630545472 0 0.38271967695225317 0.33088797828021982 0 0.3789583890863874 0.33082353469878922 0 0.38039710437148128 0.33273535630659612 0 0.38271967695225317 0.33088797828021982 0 0.3789583890863874 0.33082353469878922 0 0.37482520563358068 0.32791521167312832 0 0.3782740019627539 0.32567811482127501 0 0.3789583890863874 0.33082353469878922 0 0.37329813251097949 0.33351056758012182 0 0.3789583890863874 0.33082353469878922 0 0.37507363504334079 0.33104044787222492 0 0.37482520563358068 0.32791521167312832 0 0.3789583890863874 0.33082353469878922 0 0.37507363504334079 0.33104044787222492 0 0.37329813251097949 0.33351056758012182 0 0.38039710437148128 0.33273535630659612 0 0.3789583890863874 0.33082353469878922 0 0.37034381261662302 0.34287964466133353 0 0.37994275909406089 0.33651726084146089 0 0.37898580562215478 0.34834699925771168 0 0.36511161511286833 0.35957074249547788 0 0.37898580562215478 0.34834699925771168 0 0.38580891731413919 0.36091304919829642 0 0.37898580562215478 0.34834699925771168 0 0.38580891731413919 0.36091304919829642 0 0.40092396019477838 0.34528857417211739 0 0.36511161511286833 0.35957074249547788 0 0.38580891731413919 0.36091304919829642 0 0.38091650492936541 0.38455569761320157 0 0.38580891731413919 0.36091304919829642 0 0.40364776469790631 0.36825260144537481 0 0.38091650492936541 0.38455569761320157 0 0.38580891731413919 0.36091304919829642 0 0.40364776469790631 0.36825260144537481 0 0.40092396019477838 0.34528857417211739 0 0.38091650492936541 0.38455569761320157 0 0.39672139474586271 0.40954065273092499 0 0.40958576769836502 0.39586035967973332 0 0.39672139474586271 0.40954065273092499 0 0.40958576769836502 0.39586035967973332 0 0.40364776469790631 0.36825260144537481 0 0.38091650492936541 0.38455569761320157 0 0.40824103531771649 0.38170712532611112 0 0.38091650492936541 0.38455569761320157 0 0.40958576769836502 0.39586035967973332 0 0.40824103531771649 0.38170712532611112 0 0.37469307111402661 0.4037041701685542 0 0.38091650492936541 0.38455569761320157 0 0.39672139474586271 0.40954065273092499 0 0.38091650492936541 0.38455569761320157 0 0.39672139474586271 0.40954065273092499 0 0.37679823720245231 0.43072743227356131 0 0.39672139474586271 0.40954065273092499 0 0.41102700395872072 0.43215548954819188 0 0.37469307111402661 0.4037041701685542 0 0.37679823720245231 0.43072743227356131 0 0.39672139474586271 0.40954065273092499 0 0.37679823720245231 0.43072743227356131 0 0.39672139474586271 0.40954065273092499 0 0.39672139474586271 0.40954065273092499 0 0.41102700395872072 0.43215548954819188 0 0.39672139474586271 0.40954065273092499 0 0.41818853840575598 0.41148153485236222 0 0.41102700395872072 0.43215548954819188 0 0.41818853840575598 0.41148153485236222 0 0.41102700395872072 0.43215548954819188 0 0.42980955705513268 0.42416159789598129 0 0.41102700395872072 0.43215548954819188 0 0.42980955705513268 0.42416159789598129 0 0.42533261317157922 0.45477032636545872 0 0.41818853840575598 0.41148153485236222 0 0.42980955705513268 0.42416159789598129 0 0.4364722231738597 0.40922000625291871 0 0.41818853840575598 0.41148153485236222 0 0.4364722231738597 0.40922000625291871 0 0.42551132873941899 0.3978829104840832 0 0.4364722231738597 0.40922000625291871 0 0.42551132873941899 0.3978829104840832 0 0.44082548561734503 0.39007794621205699 0 0.41818853840575598 0.41148153485236222 0 0.42551132873941899 0.3978829104840832 0 0.40958576769836502 0.39586035967973332 0 0.39672139474586271 0.40954065273092499 0 0.41818853840575598 0.41148153485236222 0 0.40958576769836502 0.39586035967973332 0 0.42551132873941899 0.3978829104840832 0 0.40958576769836502 0.39586035967973332 0 0.42245014065086728 0.38218006662854148 0 0.40364776469790631 0.36825260144537481 0 0.40824103531771649 0.38170712532611112 0 0.42245014065086728 0.38218006662854148 0 0.40958576769836502 0.39586035967973332 0 0.40824103531771649 0.38170712532611112 0 0.42245014065086728 0.38218006662854148 0 0.40958576769836502 0.39586035967973332 0 0.42245014065086728 0.38218006662854148 0 0.42840173683077037 0.36799935200550887 0 0.42245014065086728 0.38218006662854148 0 0.44082548561734503 0.39007794621205699 0 0.42551132873941899 0.3978829104840832 0 0.42245014065086728 0.38218006662854148 0 0.44082548561734503 0.39007794621205699 0 0.42840173683077037 0.36799935200550887 0 0.44082548561734503 0.39007794621205699 0 0.44893756586603228 0.37671736309498882 0 0.49999999999999589 0.3867078897070324 0 0.48721789553276762 0.40942125414641362 0 0.5 0.45146468067451068 0 0.44082548561734503 0.39007794621205699 0 0.44893756586603228 0.37671736309498882 0 0.46409480830450262 0.39673802900206429 0 0.44082548561734503 0.39007794621205699 0 0.46409480830450262 0.39673802900206429 0 0.45069475116836782 0.4071578941692815 0 0.4364722231738597 0.40922000625291871 0 0.44082548561734503 0.39007794621205699 0 0.45069475116836782 0.4071578941692815 0 0.46386756349693181 0.37160251416408452 0 0.44893756586603228 0.37671736309498882 0 0.46409480830450262 0.39673802900206429 0 0.46386756349693181 0.37160251416408452 0 0.46409480830450262 0.39673802900206429 0 0.46386756349693181 0.37160251416408452 0 0.46409480830450262 0.39673802900206429 0 0.48193378174846307 0.3791552019355604 0 0.46386756349693181 0.37160251416408452 0 0.48193378174846307 0.3791552019355604 0 0.46409480830450262 0.39673802900206429 0 0.48193378174846307 0.3791552019355604 0 0.48721789553276762 0.40942125414641362 0 0.48193378174846307 0.3791552019355604 0 0.49999999999999589 0.3867078897070324 0 0.48721789553276762 0.40942125414641362 0 0.5 0.35991279827080269 0 0.48193378174846307 0.3791552019355604 0 0.49999999999999589 0.3867078897070324 0 0.48193378174846307 0.3791552019355604 0 0.49999999999999589 0.3867078897070324 0 0.48721789553276762 0.40942125414641362 0 0.47646006483186037 0.43316042425360179 0 0.5 0.45146468067451068 0 0.46409480830450262 0.39673802900206429 0 0.48721789553276762 0.40942125414641362 0 0.47539158167459089 0.41734983669682307 0 0.48721789553276762 0.40942125414641362 0 0.47539158167459089 0.41734983669682307 0 0.47646006483186037 0.43316042425360179 0 0.47539158167459089 0.41734983669682307 0 0.47646006483186037 0.43316042425360179 0 0.46432205311207242 0.42187354384004411 0 0.46432205311207242 0.42187354384004411 0 0.45287148861127391 0.43641071981754448 0 0.44664260388814908 0.42207841096026433 0 0.46432205311207242 0.42187354384004411 0 0.46454929791964222 0.44700905867802382 0 0.46432205311207242 0.42187354384004411 0 0.45287148861127391 0.43641071981754448 0 0.46454929791964222 0.44700905867802382 0 0.47646006483186037 0.43316042425360179 0 0.46432205311207242 0.42187354384004411 0 0.46454929791964222 0.44700905867802382 0 0.46409480830450262 0.39673802900206429 0 0.46432205311207242 0.42187354384004411 0 0.46432205311207242 0.42187354384004411 0 0.45069475116836782 0.4071578941692815 0 0.44664260388814908 0.42207841096026433 0 0.46409480830450262 0.39673802900206429 0 0.46432205311207242 0.42187354384004411 0 0.45069475116836782 0.4071578941692815 0 0.46409480830450262 0.39673802900206429 0 0.47539158167459089 0.41734983669682307 0 0.46432205311207242 0.42187354384004411 0 0.42980955705513268 0.42416159789598129 0 0.4364722231738597 0.40922000625291871 0 0.44664260388814908 0.42207841096026433 0 0.4364722231738597 0.40922000625291871 0 0.45069475116836782 0.4071578941692815 0 0.44664260388814908 0.42207841096026433 0 0.42980955705513268 0.42416159789598129 0 0.44664260388814908 0.42207841096026433 0 0.44122473360210163 0.437646087616681 0 0.45287148861127391 0.43641071981754448 0 0.44664260388814908 0.42207841096026433 0 0.44122473360210163 0.437646087616681 0 0.45287148861127391 0.43641071981754448 0 0.44122473360210163 0.437646087616681 0 0.44761875453440397 0.45344649799270897 0 0.44122473360210163 0.437646087616681 0 0.44761875453440397 0.45344649799270897 0 0.42533261317157922 0.45477032636545872 0 0.44761875453440397 0.45344649799270897 0 0.46282289592383369 0.4664117454024882 0 0.43963822238443762 0.47738516318272528 0 0.44761875453440397 0.45344649799270897 0 0.43963822238443762 0.47738516318272528 0 0.42533261317157922 0.45477032636545872 0 0.44761875453440397 0.45344649799270897 0 0.46282289592383369 0.4664117454024882 0 0.46454929791964222 0.44700905867802382 0 0.45287148861127391 0.43641071981754448 0 0.44761875453440397 0.45344649799270897 0 0.46454929791964222 0.44700905867802382 0 0.47646006483186037 0.43316042425360179 0 0.46454929791964222 0.44700905867802382 0 0.48034458092777671 0.45544028283573401 0 0.47646006483186037 0.43316042425360179 0 0.48034458092777671 0.45544028283573401 0 0.48034458092777671 0.45544028283573401 0 0.48422909702369288 0.47772014141786628 0 0.46282289592383369 0.4664117454024882 0 0.46454929791964222 0.44700905867802382 0 0.48034458092777671 0.45544028283573401 0 0.46282289592383369 0.4664117454024882 0 0.48034458092777671 0.45544028283573401 0 0.48422909702369288 0.47772014141786628 0 0.48034458092777671 0.45544028283573401 0 0.5 0.45146468067451068 0 0.48422909702369288 0.47772014141786628 0 0.47646006483186037 0.43316042425360179 0 0.48034458092777671 0.45544028283573401 0 0.5 0.45146468067451068 0 0.5 0.45146468067451068 0 0.5 0.5 0 0.48422909702369288 0.47772014141786628 0 0.48811361311960882 0.49999999999999872 0 0.48422909702369288 0.47772014141786628 0 0.5 0.5 0 0.48811361311960882 0.49999999999999872 0 0.48422909702369288 0.47772014141786628 0 0.46282289592383369 0.4664117454024882 0 0.48422909702369288 0.47772014141786628 0 0.46233255385754168 0.48430341000061589 0 0.48811361311960882 0.49999999999999872 0 0.48422909702369288 0.47772014141786628 0 0.471028722358451 0.5 0 0.48422909702369288 0.47772014141786628 0 0.471028722358451 0.5 0 0.46233255385754168 0.48430341000061589 0 0.471028722358451 0.5 0 0.45394383159729318 0.49999999999999378 0 0.46233255385754168 0.48430341000061589 0 0.46282289592383369 0.4664117454024882 0 0.46233255385754168 0.48430341000061589 0 0.43963822238443762 0.47738516318272528 0 0.45394383159729318 0.49999999999999378 0 0.43963822238443762 0.47738516318272528 0 0.42496885172427928 0.4999999999999955 0 0.45394383159729318 0.49999999999999378 0 0.46233255385754168 0.48430341000061589 0 0.43963822238443762 0.47738516318272528 0 0.45394383159729318 0.49999999999999378 0 0.43963822238443762 0.47738516318272528 0 0.42496885172427928 0.4999999999999955 0 0.41979595348669768 0.47410479881559708 0 0.40227092770253498 0.48397140393872679 0 0.42496885172427928 0.4999999999999955 0 0.40284745447282932 0.5 0 0.40227092770253498 0.48397140393872679 0 0.42496885172427928 0.4999999999999955 0 0.40227092770253498 0.48397140393872679 0 0.41979595348669768 0.47410479881559708 0 0.40051801768727319 0.45463533782398308 0 0.40227092770253498 0.48397140393872679 0 0.43963822238443762 0.47738516318272528 0 0.41979595348669768 0.47410479881559708 0 0.42533261317157922 0.45477032636545872 0 0.43963822238443762 0.47738516318272528 0 0.42496885172427928 0.4999999999999955 0 0.41979595348669768 0.47410479881559708 0 0.43963822238443762 0.47738516318272528 0 0.42533261317157922 0.45477032636545872 0 0.42980955705513268 0.42416159789598129 0 0.44122473360210163 0.437646087616681 0 0.42533261317157922 0.45477032636545872 0 0.41102700395872072 0.43215548954819188 0 0.42533261317157922 0.45477032636545872 0 0.41102700395872072 0.43215548954819188 0 0.42533261317157922 0.45477032636545872 0 0.40051801768727319 0.45463533782398308 0 0.41979595348669768 0.47410479881559708 0 0.42533261317157922 0.45477032636545872 0 0.40051801768727319 0.45463533782398308 0 0.37679823720245231 0.43072743227356131 0 0.40051801768727319 0.45463533782398308 0 0.37957300368078878 0.46794280787746129 0 0.37679823720245231 0.43072743227356131 0 0.41102700395872072 0.43215548954819188 0 0.40051801768727319 0.45463533782398308 0 0.36664168209876541 0.47825291915327017 0 0.37957300368078878 0.46794280787746129 0 0.38459015926647849 0.48449401573618972 0 0.37957300368078878 0.46794280787746129 0 0.38459015926647849 0.48449401573618972 0 0.40227092770253498 0.48397140393872679 0 0.36664168209876541 0.47825291915327017 0 0.38072605722137909 0.49999999999999872 0 0.38459015926647849 0.48449401573618972 0 0.38072605722137909 0.49999999999999872 0 0.38459015926647849 0.48449401573618972 0 0.39260864966580561 0.49211635491872918 0 0.38459015926647849 0.48449401573618972 0 0.39260864966580561 0.49211635491872918 0 0.40227092770253498 0.48397140393872679 0 0.40284745447282932 0.5 0 0.39260864966580561 0.49211635491872918 0 0.40227092770253498 0.48397140393872679 0 0.38072605722137909 0.49999999999999872 0 0.40284745447282932 0.5 0 0.39260864966580561 0.49211635491872918 0 0.37957300368078878 0.46794280787746129 0 0.40227092770253498 0.48397140393872679 0 0.40051801768727319 0.45463533782398308 0 0.37957300368078878 0.46794280787746129 0 0.40227092770253498 0.48397140393872679 0 0.33419894087582502 0.080675741691628403 0 0.32757915156589767 0.092649938279372096 0 0.33126893708072402 0.098394344284652741 0 0.33419894087582502 0.080675741691628403 0 0.33801832532439041 0.1046803996435306 0 0.34387933443982621 0.089718590435097112 0 0.33419894087582502 0.080675741691628403 0 0.33801832532439041 0.1046803996435306 0 0.33419894087582502 0.080675741691628403 0 0.32487602184927677 0.083671112072079779 0 0.32757915156589767 0.092649938279372096 0 0.33419894087582502 0.080675741691628403 0 0.32757915156589767 0.092649938279372096 0 0.33419894087582502 0.080675741691628403 0 0.34387933443982621 0.089718590435097112 0 0.34391937865754718 0.07739999013119922 0 0.33419894087582502 0.080675741691628403 0 0.33985131791449391 0.070451447430840919 0 0.34391937865754718 0.07739999013119922 0 0.33419894087582502 0.080675741691628403 0 0.33985131791449391 0.070451447430840919 0 0.33985131791449391 0.070451447430840919 0 0.33176231955451602 0.065361687250673067 0 0.33760431207473701 0.058322225317784512 0 0.33985131791449391 0.070451447430840919 0 0.33176231955451602 0.065361687250673067 0 0.33419894087582502 0.080675741691628403 0 0.33176231955451602 0.065361687250673067 0 0.32515368879357731 0.074839296321740925 0 0.33419894087582502 0.080675741691628403 0 0.33985131791449391 0.070451447430840919 0 0.33176231955451602 0.065361687250673067 0 0.33419894087582502 0.080675741691628403 0 0.33176231955451602 0.065361687250673067 0 0.33176231955451602 0.065361687250673067 0 0.32515368879357731 0.074839296321740925 0 0.3155271692970999 0.068083096168644941 0 0.32515368879357731 0.074839296321740925 0 0.3155271692970999 0.068083096168644941 0 0.31618385360962098 0.081933260100759506 0 0.31618385360962098 0.081933260100759506 0 0.32089519243110248 0.088891316590187022 0 0.30422390552602668 0.094168687165142415 0 0.32089519243110248 0.088891316590187022 0 0.31828844118172511 0.094907020493415553 0 0.30422390552602668 0.094168687165142415 0 0.33419894087582502 0.080675741691628403 0 0.32515368879357731 0.074839296321740925 0 0.32487602184927677 0.083671112072079779 0 0.32515368879357731 0.074839296321740925 0 0.31618385360962098 0.081933260100759506 0 0.32487602184927677 0.083671112072079779 0 0.31618385360962098 0.081933260100759506 0 0.32487602184927677 0.083671112072079779 0 0.32089519243110248 0.088891316590187022 0 0.32487602184927677 0.083671112072079779 0 0.32757915156589767 0.092649938279372096 0 0.32089519243110248 0.088891316590187022 0 0.32757915156589767 0.092649938279372096 0 0.32089519243110248 0.088891316590187022 0 0.32515511136198949 0.095267493926201402 0 0.32089519243110248 0.088891316590187022 0 0.31828844118172511 0.094907020493415553 0 0.32515511136198949 0.095267493926201402 0 0.32515511136198949 0.095267493926201402 0 0.32739407440255019 0.11449653610232979 0 0.33126893708072402 0.098394344284652741 0 0.31828844118172511 0.094907020493415553 0 0.32515511136198949 0.095267493926201402 0 0.32739407440255019 0.11449653610232979 0 0.31828844118172511 0.094907020493415553 0 0.32739407440255019 0.11449653610232979 0 0.31828844118172511 0.094907020493415553 0 0.32739407440255019 0.11449653610232979 0 0.31121452546318068 0.1048736697011784 0 0.32757915156589767 0.092649938279372096 0 0.32515511136198949 0.095267493926201402 0 0.33126893708072402 0.098394344284652741 0 0.31828844118172511 0.094907020493415553 0 0.32515511136198949 0.095267493926201402 0 0.30900645554692968 0.1148101194087484 0 0.30833732554016358 0.131391246677655 0 0.32274719733189822 0.12845008037485181 0 0.32739407440255019 0.11449653610232979 0 0.30900645554692968 0.1148101194087484 0 0.31121452546318068 0.1048736697011784 0 0.32739407440255019 0.11449653610232979 0 0.30900645554692968 0.1148101194087484 0 0.32274719733189822 0.12845008037485181 0 0.32739407440255019 0.11449653610232979 0 0.33652558431203489 0.1335931258248326 0 0.32739407440255019 0.11449653610232979 0 0.33801832532439041 0.1046803996435306 0 0.34183770977295652 0.1286850575954325 0 0.33801832532439041 0.1046803996435306 0 0.34183770977295652 0.1286850575954325 0 0.33419894087582502 0.080675741691628403 0 0.33126893708072402 0.098394344284652741 0 0.33801832532439041 0.1046803996435306 0 0.32739407440255019 0.11449653610232979 0 0.33126893708072402 0.098394344284652741 0 0.33801832532439041 0.1046803996435306 0 0.33801832532439041 0.1046803996435306 0 0.35149220366435852 0.097277278253948302 0 0.35370602711478022 0.1152257291054284 0 0.35149220366435852 0.097277278253948302 0 0.35370602711478022 0.1152257291054284 0 0.36441482364936861 0.1109814076483773 0 0.33801832532439041 0.1046803996435306 0 0.35149220366435852 0.097277278253948302 0 0.34387933443982621 0.089718590435097112 0 0.35370602711478022 0.1152257291054284 0 0.34183770977295652 0.1286850575954325 0 0.35944931917726008 0.1288775326312549 0 0.33801832532439041 0.1046803996435306 0 0.35370602711478022 0.1152257291054284 0 0.34183770977295652 0.1286850575954325 0 0.35370602711478022 0.1152257291054284 0 0.36825940068727891 0.1201696056674174 0 0.35944931917726008 0.1288775326312549 0 0.35370602711478022 0.1152257291054284 0 0.36441482364936861 0.1109814076483773 0 0.36825940068727891 0.1201696056674174 0 0.36441482364936861 0.1109814076483773 0 0.37360001330739268 0.1114708337735964 0 0.36825940068727891 0.1201696056674174 0 0.35149220366435852 0.097277278253948302 0 0.36738998525987793 0.1020302299904744 0 0.36360357275647209 0.09209158592910005 0 0.35149220366435852 0.097277278253948302 0 0.36441482364936861 0.1109814076483773 0 0.36738998525987793 0.1020302299904744 0 0.37360001330739268 0.1114708337735964 0 0.36738998525987793 0.1020302299904744 0 0.38328776685539723 0.1067831817270007 0 0.35149220366435852 0.097277278253948302 0 0.36738998525987793 0.1020302299904744 0 0.36360357275647209 0.09209158592910005 0 0.38328776685539723 0.1067831817270007 0 0.36738998525987793 0.1020302299904744 0 0.36360357275647209 0.09209158592910005 0 0.38328776685539723 0.1067831817270007 0 0.36441482364936861 0.1109814076483773 0 0.37360001330739268 0.1114708337735964 0 0.36738998525987793 0.1020302299904744 0 0.37150953892954941 0.090371435731814859 0 0.36787124715384972 0.079243996051601137 0 0.35568042842202158 0.080411441581328014 0 0.37150953892954941 0.090371435731814859 0 0.36360357275647209 0.09209158592910005 0 0.35568042842202158 0.080411441581328014 0 0.37150953892954941 0.090371435731814859 0 0.36360357275647209 0.09209158592910005 0 0.37822129919108233 0.095476496790246668 0 0.37150953892954941 0.090371435731814859 0 0.35568042842202158 0.080411441581328014 0 0.37150953892954941 0.090371435731814859 0 0.36787124715384972 0.079243996051601137 0 0.37798135154881018 0.081823587903253725 0 0.36360357275647209 0.09209158592910005 0 0.34387933443982621 0.089718590435097112 0 0.34391937865754718 0.07739999013119922 0 0.36360357275647209 0.09209158592910005 0 0.34391937865754718 0.07739999013119922 0 0.35149220366435852 0.097277278253948302 0 0.36360357275647209 0.09209158592910005 0 0.34387933443982621 0.089718590435097112 0 0.36360357275647209 0.09209158592910005 0 0.35568042842202158 0.080411441581328014 0 0.34391937865754718 0.07739999013119922 0 0.33985131791449391 0.070451447430840919 0 0.35568042842202158 0.080411441581328014 0 0.33985131791449391 0.070451447430840919 0 0.35568042842202158 0.080411441581328014 0 0.35262947993899102 0.067701864761773145 0 0.33985131791449391 0.070451447430840919 0 0.35568042842202158 0.080411441581328014 0 0.34391937865754718 0.07739999013119922 0 0.33985131791449391 0.070451447430840919 0 0.35262947993899102 0.067701864761773145 0 0.34816218785803149 0.055418342016173523 0 0.33985131791449391 0.070451447430840919 0 0.34816218785803149 0.055418342016173523 0 0.35568042842202158 0.080411441581328014 0 0.35262947993899102 0.067701864761773145 0 0.36123173686202559 0.072357863377566084 0 0.35262947993899102 0.067701864761773145 0 0.36123173686202559 0.072357863377566084 0 0.361729268240923 0.061053853774941193 0 0.36123173686202559 0.072357863377566084 0 0.37295318000684141 0.071255651664042921 0 0.361729268240923 0.061053853774941193 0 0.37295318000684141 0.071255651664042921 0 0.361729268240923 0.061053853774941193 0 0.37892596697808262 0.059204164228587368 0 0.36787124715384972 0.079243996051601137 0 0.35568042842202158 0.080411441581328014 0 0.36123173686202559 0.072357863377566084 0 0.36787124715384972 0.079243996051601137 0 0.37295318000684141 0.071255651664042921 0 0.37798135154881018 0.081823587903253725 0 0.36787124715384972 0.079243996051601137 0 0.36123173686202559 0.072357863377566084 0 0.37295318000684141 0.071255651664042921 0 0.361729268240923 0.061053853774941193 0 0.35647305780156602 0.040385236601504317 0 0.37892596697808262 0.059204164228587368 0 0.35647305780156602 0.040385236601504317 0 0.37892596697808262 0.059204164228587368 0 0.36952203436557951 0.041267906698185822 0 0.35647305780156602 0.040385236601504317 0 0.37892596697808262 0.059204164228587368 0 0.36952203436557951 0.041267906698185822 0 0.36373647425086247 0.027246815967462711 0 0.37895263843180721 0.038235409995188797 0 0.36373647425086247 0.027246815967462711 0 0.37895263843180721 0.038235409995188797 0 0.35647305780156602 0.040385236601504317 0 0.36373647425086247 0.027246815967462711 0 0.36952203436557951 0.041267906698185822 0 0.35647305780156602 0.040385236601504317 0 0.36373647425086247 0.027246815967462711 0 0.35647305780156602 0.040385236601504317 0 0.3385079253911269 0.047741915492173499 0 0.33907351984892758 0.037713751368350909 0 0.35647305780156602 0.040385236601504317 0 0.34816218785803149 0.055418342016173523 0 0.3385079253911269 0.047741915492173499 0 0.361729268240923 0.061053853774941193 0 0.35647305780156602 0.040385236601504317 0 0.34816218785803149 0.055418342016173523 0 0.35262947993899102 0.067701864761773145 0 0.361729268240923 0.061053853774941193 0 0.34816218785803149 0.055418342016173523 0 0.35647305780156602 0.040385236601504317 0 0.34816218785803149 0.055418342016173523 0 0.36440139366547541 0.001895178755615623 0 0.37294253482707579 0.01059444623525683 0 0.35605137196995201 0.017602112930007279 0 0.36440139366547541 0.001895178755615623 0 0.37294253482707579 0.01059444623525683 0 0.37760379982886788 -0.00043313421310100028 0 0.37294253482707579 0.01059444623525683 0 0.36373647425086247 0.027246815967462711 0 0.37294253482707579 0.01059444623525683 0 0.36373647425086247 0.027246815967462711 0 0.35605137196995201 0.017602112930007279 0 0.37294253482707579 0.01059444623525683 0 0.37474526637297229 0.023556796941533242 0 0.36373647425086247 0.027246815967462711 0 0.37474526637297229 0.023556796941533242 0 0.36373647425086247 0.027246815967462711 0 0.37895263843180721 0.038235409995188797 0 0.36373647425086247 0.027246815967462711 0 0.34406579174448798 0.01304132095962619 0 0.35647305780156602 0.040385236601504317 0 0.33340265554345111 0.021048756548515901 0 0.36373647425086247 0.027246815967462711 0 0.35605137196995201 0.017602112930007279 0 0.34406579174448798 0.01304132095962619 0 0.35647305780156602 0.040385236601504317 0 0.36373647425086247 0.027246815967462711 0 0.34406579174448798 0.01304132095962619 0 0.35647305780156602 0.040385236601504317 0 0.34406579174448798 0.01304132095962619 0 0.33340265554345111 0.021048756548515901 0 0.35605137196995201 0.017602112930007279 0 0.34406579174448798 0.01304132095962619 0 0.3468963480347198 -0.0083866267754060184 0 0.36440139366547541 0.001895178755615623 0 0.35605137196995201 0.017602112930007279 0 0.3468963480347198 -0.0083866267754060184 0 0.35605137196995201 0.017602112930007279 0 0.3468963480347198 -0.0083866267754060184 0 0.34406579174448798 0.01304132095962619 0 0.33340265554345111 0.021048756548515901 0 0.32439510923811371 -0.0011641740482105779 0 0.34406579174448798 0.01304132095962619 0 0.32439510923811371 -0.0011641740482105779 0 0.34406579174448798 0.01304132095962619 0 0.3468963480347198 -0.0083866267754060184 0 0.32439510923811371 -0.0011641740482105779 0 0.33340265554345111 0.021048756548515901 0 0.33093292911642808 0.031186525112136779 0 0.33907351984892758 0.037713751368350909 0 0.33340265554345111 0.021048756548515901 0 0.33093292911642808 0.031186525112136779 0 0.3210831270372741 0.021662063845630731 0 0.3210831270372741 0.021662063845630731 0 0.32355214628590762 0.038519418496953013 0 0.30963339126106981 0.025572958800778811 0 0.33093292911642808 0.031186525112136779 0 0.3210831270372741 0.021662063845630731 0 0.32355214628590762 0.038519418496953013 0 0.3210831270372741 0.021662063845630731 0 0.31176024539324942 0.014607124327608049 0 0.30963339126106981 0.025572958800778811 0 0.3210831270372741 0.021662063845630731 0 0.31033225328533481 0.001712276495528905 0 0.31176024539324942 0.014607124327608049 0 0.33340265554345111 0.021048756548515901 0 0.3210831270372741 0.021662063845630731 0 0.31033225328533481 0.001712276495528905 0 0.33340265554345111 0.021048756548515901 0 0.31033225328533481 0.001712276495528905 0 0.32439510923811371 -0.0011641740482105779 0 0.33340265554345111 0.021048756548515901 0 0.31033225328533481 0.001712276495528905 0 0.32973780965551752 0.052637734399060443 0 0.33760431207473701 0.058322225317784512 0 0.3385079253911269 0.047741915492173499 0 0.33176231955451602 0.065361687250673067 0 0.32973780965551752 0.052637734399060443 0 0.33760431207473701 0.058322225317784512 0 0.33176231955451602 0.065361687250673067 0 0.32973780965551752 0.052637734399060443 0 0.33985131791449391 0.070451447430840919 0 0.34816218785803149 0.055418342016173523 0 0.33760431207473701 0.058322225317784512 0 0.34816218785803149 0.055418342016173523 0 0.33760431207473701 0.058322225317784512 0 0.3385079253911269 0.047741915492173499 0 0.35647305780156602 0.040385236601504317 0 0.33340265554345111 0.021048756548515901 0 0.33907351984892758 0.037713751368350909 0 0.33093292911642808 0.031186525112136779 0 0.33907351984892758 0.037713751368350909 0 0.32355214628590762 0.038519418496953013 0 0.3385079253911269 0.047741915492173499 0 0.33907351984892758 0.037713751368350909 0 0.32355214628590762 0.038519418496953013 0 0.32973780965551752 0.052637734399060443 0 0.3385079253911269 0.047741915492173499 0 0.32355214628590762 0.038519418496953013 0 0.32355214628590762 0.038519418496953013 0 0.31060597869062828 0.052049692799070887 0 0.30645447534339532 0.03702764793310144 0 0.32355214628590762 0.038519418496953013 0 0.30645447534339532 0.03702764793310144 0 0.30963339126106981 0.025572958800778811 0 0.33176231955451602 0.065361687250673067 0 0.31060597869062828 0.052049692799070887 0 0.32973780965551752 0.052637734399060443 0 0.32355214628590762 0.038519418496953013 0 0.31060597869062828 0.052049692799070887 0 0.33176231955451602 0.065361687250673067 0 0.3155271692970999 0.068083096168644941 0 0.31060597869062828 0.052049692799070887 0 0.33176231955451602 0.065361687250673067 0 0.32973780965551752 0.052637734399060443 0 0.31060597869062828 0.052049692799070887 0 0.3155271692970999 0.068083096168644941 0 0.31060597869062828 0.052049692799070887 0 0.30286878527152628 0.065841221667380601 0 0.31060597869062828 0.052049692799070887 0 0.29303439878011889 0.056198386083636427 0 0.30286878527152628 0.065841221667380601 0 0.31060597869062828 0.052049692799070887 0 0.28944963782674121 0.038737698347467847 0 0.29303439878011889 0.056198386083636427 0 0.31060597869062828 0.052049692799070887 0 0.28944963782674121 0.038737698347467847 0 0.30645447534339532 0.03702764793310144 0 0.28944963782674121 0.038737698347467847 0 0.29903122265262932 0.030258471221236628 0 0.31060597869062828 0.052049692799070887 0 0.30645447534339532 0.03702764793310144 0 0.28944963782674121 0.038737698347467847 0 0.28944963782674121 0.038737698347467847 0 0.28811392128480412 0.026718634802204069 0 0.27952977880790281 0.048469447749142608 0 0.28811392128480412 0.026718634802204069 0 0.27952977880790281 0.048469447749142608 0 0.28944963782674121 0.038737698347467847 0 0.29903122265262932 0.030258471221236628 0 0.28811392128480412 0.026718634802204069 0 0.28944963782674121 0.038737698347467847 0 0.29303439878011889 0.056198386083636427 0 0.27952977880790281 0.048469447749142608 0 0.28302060083307568 0.062416438940867972 0 0.29303439878011889 0.056198386083636427 0 0.27952977880790281 0.048469447749142608 0 0.30159417052975152 0.006546902001735572 0 0.31033225328533481 0.001712276495528905 0 0.29669806376170488 0.0049678218552653636 0 0.30159417052975152 0.006546902001735572 0 0.29669806376170488 0.0049678218552653636 0 0.30159417052975152 0.006546902001735572 0 0.31033225328533481 0.001712276495528905 0 0.30696748980593219 0.0091472017399270578 0 0.31033225328533481 0.001712276495528905 0 0.30696748980593219 0.0091472017399270578 0 0.31176024539324942 0.014607124327608049 0 0.30696748980593219 0.0091472017399270578 0 0.31176024539324942 0.014607124327608049 0 0.3041832900153934 0.0137225041348357 0 0.3041832900153934 0.0137225041348357 0 0.29952050368460831 0.020515481782751772 0 0.29669806376170488 0.0049678218552653636 0 0.30159417052975152 0.006546902001735572 0 0.3041832900153934 0.0137225041348357 0 0.29669806376170488 0.0049678218552653636 0 0.30159417052975152 0.006546902001735572 0 0.30696748980593219 0.0091472017399270578 0 0.3041832900153934 0.0137225041348357 0 0.3041832900153934 0.0137225041348357 0 0.29952050368460831 0.020515481782751772 0 0.30963339126106981 0.025572958800778811 0 0.31176024539324942 0.014607124327608049 0 0.3041832900153934 0.0137225041348357 0 0.30963339126106981 0.025572958800778811 0 0.30645447534339532 0.03702764793310144 0 0.30963339126106981 0.025572958800778811 0 0.29903122265262932 0.030258471221236628 0 0.29952050368460831 0.020515481782751772 0 0.30963339126106981 0.025572958800778811 0 0.29903122265262932 0.030258471221236628 0 0.28811392128480412 0.026718634802204069 0 0.29669806376170488 0.0049678218552653636 0 0.27031644215909922 0.01721210995424579 0 0.28811392128480412 0.026718634802204069 0 0.29669806376170488 0.0049678218552653636 0 0.29952050368460831 0.020515481782751772 0 0.28811392128480412 0.026718634802204069 0 0.29669806376170488 0.0049678218552653636 0 0.29952050368460831 0.020515481782751772 0 0.29903122265262932 0.030258471221236628 0 0.28811392128480412 0.026718634802204069 0 0.29669806376170488 0.0049678218552653636 0 0.27245236435601983 -0.0028518406608112538 0 0.27031644215909922 0.01721210995424579 0 0.25664898171853662 0.0056114648194218507 0 0.27245236435601983 -0.0028518406608112538 0 0.29669806376170488 0.0049678218552653636 0 0.27031644215909922 0.01721210995424579 0 0.27245236435601983 -0.0028518406608112538 0 0.28811392128480412 0.026718634802204069 0 0.27031644215909922 0.01721210995424579 0 0.26231954521215051 0.038746013259031348 0 0.27031644215909922 0.01721210995424579 0 0.25086627767031322 0.022580105788253649 0 0.26231954521215051 0.038746013259031348 0 0.27031644215909922 0.01721210995424579 0 0.25086627767031322 0.022580105788253649 0 0.25664898171853662 0.0056114648194218507 0 0.27952977880790281 0.048469447749142608 0 0.26215943952994147 0.056806656712077602 0 0.27094563633100138 0.070220260696081158 0 0.27952977880790281 0.048469447749142608 0 0.27094563633100138 0.070220260696081158 0 0.27952977880790281 0.048469447749142608 0 0.26231954521215051 0.038746013259031348 0 0.26215943952994147 0.056806656712077602 0 0.28302060083307568 0.062416438940867972 0 0.27952977880790281 0.048469447749142608 0 0.27094563633100138 0.070220260696081158 0 0.28811392128480412 0.026718634802204069 0 0.27952977880790281 0.048469447749142608 0 0.26231954521215051 0.038746013259031348 0 0.2416838059484307 0.037814910533120583 0 0.25086627767031322 0.022580105788253649 0 0.26231954521215051 0.038746013259031348 0 0.24652119060439481 0.055653709416835388 0 0.2416838059484307 0.037814910533120583 0 0.26231954521215051 0.038746013259031348 0 0.24652119060439481 0.055653709416835388 0 0.26231954521215051 0.038746013259031348 0 0.26215943952994147 0.056806656712077602 0 0.24830316683739459 0.072908673739454255 0 0.24652119060439481 0.055653709416835388 0 0.26215943952994147 0.056806656712077602 0 0.24830316683739459 0.072908673739454255 0 0.26215943952994147 0.056806656712077602 0 0.27094563633100138 0.070220260696081158 0 0.23942410030379571 0.090766949842815886 0 0.2623614938541014 0.091971073643020165 0 0.23942410030379571 0.090766949842815886 0 0.24830316683739459 0.072908673739454255 0 0.2623614938541014 0.091971073643020165 0 0.24830316683739459 0.072908673739454255 0 0.2623614938541014 0.091971073643020165 0 0.27094563633100138 0.070220260696081158 0 0.2623614938541014 0.091971073643020165 0 0.27094563633100138 0.070220260696081158 0 0.2623614938541014 0.091971073643020165 0 0.28329269969006388 0.093069880404083413 0 0.2623614938541014 0.091971073643020165 0 0.27094563633100138 0.070220260696081158 0 0.28329269969006388 0.093069880404083413 0 0.28302060083307568 0.062416438940867972 0 0.27094563633100138 0.070220260696081158 0 0.29223581026497752 0.072016954094534069 0 0.28302060083307568 0.062416438940867972 0 0.29303439878011889 0.056198386083636427 0 0.29223581026497752 0.072016954094534069 0 0.29303439878011889 0.056198386083636427 0 0.29223581026497752 0.072016954094534069 0 0.30286878527152628 0.065841221667380601 0 0.28329269969006388 0.093069880404083413 0 0.30294056932480701 0.080857979191016754 0 0.30422390552602668 0.094168687165142415 0 0.28329269969006388 0.093069880404083413 0 0.30422390552602668 0.094168687165142415 0 0.29223581026497752 0.072016954094534069 0 0.28329269969006388 0.093069880404083413 0 0.30294056932480701 0.080857979191016754 0 0.27094563633100138 0.070220260696081158 0 0.29223581026497752 0.072016954094534069 0 0.28329269969006388 0.093069880404083413 0 0.31618385360962098 0.081933260100759506 0 0.30294056932480701 0.080857979191016754 0 0.30422390552602668 0.094168687165142415 0 0.3155271692970999 0.068083096168644941 0 0.30294056932480701 0.080857979191016754 0 0.30286878527152628 0.065841221667380601 0 0.3155271692970999 0.068083096168644941 0 0.31618385360962098 0.081933260100759506 0 0.30294056932480701 0.080857979191016754 0 0.29223581026497752 0.072016954094534069 0 0.30294056932480701 0.080857979191016754 0 0.30286878527152628 0.065841221667380601 0 0.30900645554692968 0.1148101194087484 0 0.29718562734733173 0.1054930594498443 0 0.2863340169385814 0.1156961875294126 0 0.2863340169385814 0.1156961875294126 0 0.30833732554016358 0.131391246677655 0 0.30900645554692968 0.1148101194087484 0 0.2863340169385814 0.1156961875294126 0 0.30833732554016358 0.131391246677655 0 0.30900645554692968 0.1148101194087484 0 0.31121452546318068 0.1048736697011784 0 0.29718562734733173 0.1054930594498443 0 0.31828844118172511 0.094907020493415553 0 0.30422390552602668 0.094168687165142415 0 0.31828844118172511 0.094907020493415553 0 0.31121452546318068 0.1048736697011784 0 0.30422390552602668 0.094168687165142415 0 0.31121452546318068 0.1048736697011784 0 0.30422390552602668 0.094168687165142415 0 0.29718562734733173 0.1054930594498443 0 0.28329269969006388 0.093069880404083413 0 0.30422390552602668 0.094168687165142415 0 0.29718562734733173 0.1054930594498443 0 0.28329269969006388 0.093069880404083413 0 0.29718562734733173 0.1054930594498443 0 0.2863340169385814 0.1156961875294126 0 0.2863340169385814 0.1156961875294126 0 0.26838420719444761 0.1177005142887734 0 0.26433070833699918 0.1000011283811701 0 0.2863340169385814 0.1156961875294126 0 0.26838420719444761 0.1177005142887734 0 0.27011075122550909 0.13763122837261421 0 0.2863340169385814 0.1156961875294126 0 0.26433070833699918 0.1000011283811701 0 0.2623614938541014 0.091971073643020165 0 0.28329269969006388 0.093069880404083413 0 0.26433070833699918 0.1000011283811701 0 0.28329269969006388 0.093069880404083413 0 0.2863340169385814 0.1156961875294126 0 0.26433070833699918 0.1000011283811701 0 0.23942410030379571 0.090766949842815886 0 0.2623614938541014 0.091971073643020165 0 0.25134453292116388 0.1198862506267229 0 0.2623614938541014 0.091971073643020165 0 0.25134453292116388 0.1198862506267229 0 0.2623614938541014 0.091971073643020165 0 0.26433070833699918 0.1000011283811701 0 0.25134453292116388 0.1198862506267229 0 0.26838420719444761 0.1177005142887734 0 0.26433070833699918 0.1000011283811701 0 0.25134453292116388 0.1198862506267229 0 0.26838420719444761 0.1177005142887734 0 0.25134453292116388 0.1198862506267229 0 0.27011075122550909 0.13763122837261421 0 0.25134453292116388 0.1198862506267229 0 0.27011075122550909 0.13763122837261421 0 0.25701456527999161 0.14463384931756959 0 0.27011075122550909 0.13763122837261421 0 0.28120053588908278 0.16072301385173141 0 0.26656322516512371 0.1574409920173713 0 0.27011075122550909 0.13763122837261421 0 0.28120053588908278 0.16072301385173141 0 0.29157596064005142 0.1433247683572004 0 0.24032757198822879 0.1478014276104265 0 0.25701456527999161 0.14463384931756959 0 0.25507240122598079 0.15936991095455749 0 0.27011075122550909 0.13763122837261421 0 0.25701456527999161 0.14463384931756959 0 0.26656322516512371 0.1574409920173713 0 0.25701456527999161 0.14463384931756959 0 0.25507240122598079 0.15936991095455749 0 0.26656322516512371 0.1574409920173713 0 0.24935793312848609 0.1682376363615565 0 0.2457774495435478 0.16110322538626889 0 0.25507240122598079 0.15936991095455749 0 0.24935793312848609 0.1682376363615565 0 0.25507240122598079 0.15936991095455749 0 0.26221358857169208 0.16860192731032941 0 0.25507240122598079 0.15936991095455749 0 0.26221358857169208 0.16860192731032941 0 0.26656322516512371 0.1574409920173713 0 0.24732722008495439 0.17337280897561649 0 0.2588047481494174 0.19151691038237789 0 0.24732722008495439 0.17337280897561649 0 0.24935793312848609 0.1682376363615565 0 0.26386129336237918 0.18251298254532469 0 0.24732722008495439 0.17337280897561649 0 0.26386129336237918 0.18251298254532469 0 0.24732722008495439 0.17337280897561649 0 0.26386129336237918 0.18251298254532469 0 0.2588047481494174 0.19151691038237789 0 0.24935793312848609 0.1682376363615565 0 0.26386129336237918 0.18251298254532469 0 0.24935793312848609 0.1682376363615565 0 0.26221358857169208 0.16860192731032941 0 0.26386129336237918 0.18251298254532469 0 0.26386129336237918 0.18251298254532469 0 0.2737675087984861 0.17368602229742591 0 0.27827173756780649 0.19047919625711179 0 0.2737675087984861 0.17368602229742591 0 0.28694135883115418 0.1795842119103182 0 0.27827173756780649 0.19047919625711179 0 0.26386129336237918 0.18251298254532469 0 0.27827173756780649 0.19047919625711179 0 0.26221358857169208 0.16860192731032941 0 0.26386129336237918 0.18251298254532469 0 0.2737675087984861 0.17368602229742591 0 0.2737675087984861 0.17368602229742591 0 0.28120053588908278 0.16072301385173141 0 0.28694135883115418 0.1795842119103182 0 0.2737675087984861 0.17368602229742591 0 0.28120053588908278 0.16072301385173141 0 0.26656322516512371 0.1574409920173713 0 0.26221358857169208 0.16860192731032941 0 0.2737675087984861 0.17368602229742591 0 0.26656322516512371 0.1574409920173713 0 0.28120053588908278 0.16072301385173141 0 0.28694135883115418 0.1795842119103182 0 0.2979190492826489 0.16533782159497221 0 0.28120053588908278 0.16072301385173141 0 0.2979190492826489 0.16533782159497221 0 0.29157596064005142 0.1433247683572004 0 0.28120053588908278 0.16072301385173141 0 0.28694135883115418 0.1795842119103182 0 0.28694135883115418 0.1795842119103182 0 0.30332451532168042 0.18535159235402529 0 0.2979190492826489 0.16533782159497221 0 0.30332451532168042 0.18535159235402529 0 0.2979190492826489 0.16533782159497221 0 0.31669613387569878 0.1715084441434479 0 0.2979190492826489 0.16533782159497221 0 0.30936272411958482 0.15322474669331951 0 0.31669613387569878 0.1715084441434479 0 0.2979190492826489 0.16533782159497221 0 0.30936272411958482 0.15322474669331951 0 0.29157596064005142 0.1433247683572004 0 0.30936272411958482 0.15322474669331951 0 0.30833732554016358 0.131391246677655 0 0.29157596064005142 0.1433247683572004 0 0.2863340169385814 0.1156961875294126 0 0.30833732554016358 0.131391246677655 0 0.29157596064005142 0.1433247683572004 0 0.2863340169385814 0.1156961875294126 0 0.27011075122550909 0.13763122837261421 0 0.29157596064005142 0.1433247683572004 0 0.28286546901279602 0.2541753127175353 0 0.26865995106101642 0.23786067986208109 0 0.28608716603038298 0.2346459669068596 0 0.25444540126316278 0.25175855520636897 0 0.26865995106101642 0.23786067986208109 0 0.25107959658486639 0.2365254663968768 0 0.26865995106101642 0.23786067986208109 0 0.25107959658486639 0.2365254663968768 0 0.26810630659804913 0.23189892967454179 0 0.24752915448128771 0.21859147621267291 0 0.26810630659804913 0.23189892967454179 0 0.27028227621388251 0.2096610117891379 0 0.24752915448128771 0.21859147621267291 0 0.25107959658486639 0.2365254663968768 0 0.26810630659804913 0.23189892967454179 0 0.24752915448128771 0.21859147621267291 0 0.26810630659804913 0.23189892967454179 0 0.26865995106101642 0.23786067986208109 0 0.27028227621388251 0.2096610117891379 0 0.28608716603038298 0.2346459669068596 0 0.26865995106101642 0.23786067986208109 0 0.26810630659804913 0.23189892967454179 0 0.27028227621388251 0.2096610117891379 0 0.27028227621388251 0.2096610117891379 0 0.28608716603038298 0.2346459669068596 0 0.26865995106101642 0.23786067986208109 0 0.27028227621388251 0.2096610117891379 0 0.27474801450363218 0.21172517353697201 0 0.27604096983628912 0.20359605149110291 0 0.2904567050586 0.20869027544439839 0 0.27474801450363218 0.21172517353697201 0 0.27028227621388251 0.2096610117891379 0 0.28608716603038298 0.2346459669068596 0 0.27474801450363218 0.21172517353697201 0 0.27604096983628912 0.20359605149110291 0 0.27028227621388251 0.2096610117891379 0 0.24752915448128771 0.21859147621267291 0 0.27028227621388251 0.2096610117891379 0 0.2588047481494174 0.19151691038237789 0 0.27028227621388251 0.2096610117891379 0 0.2588047481494174 0.19151691038237789 0 0.26386129336237918 0.18251298254532469 0 0.2588047481494174 0.19151691038237789 0 0.27131436333517428 0.1917210111723717 0 0.27604096983628912 0.20359605149110291 0 0.27028227621388251 0.2096610117891379 0 0.27131436333517428 0.1917210111723717 0 0.26386129336237918 0.18251298254532469 0 0.27715899921048948 0.19560162899486161 0 0.27827173756780649 0.19047919625711179 0 0.27028227621388251 0.2096610117891379 0 0.27131436333517428 0.1917210111723717 0 0.26386129336237918 0.18251298254532469 0 0.27715899921048948 0.19560162899486161 0 0.27028227621388251 0.2096610117891379 0 0.2588047481494174 0.19151691038237789 0 0.27131436333517428 0.1917210111723717 0 0.26386129336237918 0.18251298254532469 0 0.27131436333517428 0.1917210111723717 0 0.27715899921048948 0.19560162899486161 0 0.27604096983628912 0.20359605149110291 0 0.27715899921048948 0.19560162899486161 0 0.2904567050586 0.20869027544439839 0 0.27604096983628912 0.20359605149110291 0 0.27131436333517428 0.1917210111723717 0 0.27715899921048948 0.19560162899486161 0 0.28694135883115418 0.1795842119103182 0 0.29268218177323169 0.19844540996890311 0 0.28694135883115418 0.1795842119103182 0 0.27827173756780649 0.19047919625711179 0 0.29268218177323169 0.19844540996890311 0 0.28694135883115418 0.1795842119103182 0 0.30332451532168042 0.18535159235402529 0 0.29268218177323169 0.19844540996890311 0 0.27715899921048948 0.19560162899486161 0 0.27827173756780649 0.19047919625711179 0 0.29268218177323169 0.19844540996890311 0 0.27827173756780649 0.19047919625711179 0 0.29268218177323169 0.19844540996890311 0 0.27715899921048948 0.19560162899486161 0 0.29268218177323169 0.19844540996890311 0 0.2904567050586 0.20869027544439839 0 0.27715899921048948 0.19560162899486161 0 0.2904567050586 0.20869027544439839 0 0.29268218177323169 0.19844540996890311 0 0.29550365117402699 0.20771521217700309 0 0.30332451532168042 0.18535159235402529 0 0.3058387691211355 0.20571848115512351 0 0.31797304822844391 0.1890335044146027 0 0.30332451532168042 0.18535159235402529 0 0.29268218177323169 0.19844540996890311 0 0.3058387691211355 0.20571848115512351 0 0.29268218177323169 0.19844540996890311 0 0.3058387691211355 0.20571848115512351 0 0.3058387691211355 0.20571848115512351 0 0.29550365117402699 0.20771521217700309 0 0.3058387691211355 0.20571848115512351 0 0.29808610059307672 0.21619972571461921 0 0.29550365117402699 0.20771521217700309 0 0.29268218177323169 0.19844540996890311 0 0.3058387691211355 0.20571848115512351 0 0.29550365117402699 0.20771521217700309 0 0.3103995052412698 0.21523574135692969 0 0.29808610059307672 0.21619972571461921 0 0.31896876282740688 0.22403038914724449 0 0.3058387691211355 0.20571848115512351 0 0.3103995052412698 0.21523574135692969 0 0.32030140625346232 0.2137135475520878 0 0.3058387691211355 0.20571848115512351 0 0.3103995052412698 0.21523574135692969 0 0.29808610059307672 0.21619972571461921 0 0.27474801450363218 0.21172517353697201 0 0.2904567050586 0.20869027544439839 0 0.29808610059307672 0.21619972571461921 0 0.2904567050586 0.20869027544439839 0 0.28896503162999171 0.21977399107885631 0 0.29808610059307672 0.21619972571461921 0 0.29550365117402699 0.20771521217700309 0 0.27474801450363218 0.21172517353697201 0 0.2904567050586 0.20869027544439839 0 0.28896503162999171 0.21977399107885631 0 0.29808610059307672 0.21619972571461921 0 0.2904567050586 0.20869027544439839 0 0.29550365117402699 0.20771521217700309 0 0.2904567050586 0.20869027544439839 0 0.29268218177323169 0.19844540996890311 0 0.29550365117402699 0.20771521217700309 0 0.2904567050586 0.20869027544439839 0 0.29808610059307672 0.21619972571461921 0 0.29550365117402699 0.20771521217700309 0 0.2904567050586 0.20869027544439839 0 0.27474801450363218 0.21172517353697201 0 0.28896503162999171 0.21977399107885631 0 0.28608716603038298 0.2346459669068596 0 0.29449167763670431 0.22724273767240649 0 0.30482841229336738 0.2383512669892898 0 0.28608716603038298 0.2346459669068596 0 0.28896503162999171 0.21977399107885631 0 0.29449167763670431 0.22724273767240649 0 0.28608716603038298 0.2346459669068596 0 0.29808610059307672 0.21619972571461921 0 0.28896503162999171 0.21977399107885631 0 0.29449167763670431 0.22724273767240649 0 0.29808610059307672 0.21619972571461921 0 0.31933187964179099 0.2371114900211779 0 0.31896876282740688 0.22403038914724449 0 0.29808610059307672 0.21619972571461921 0 0.30482841229336738 0.2383512669892898 0 0.31933187964179099 0.2371114900211779 0 0.29808610059307672 0.21619972571461921 0 0.29449167763670431 0.22724273767240649 0 0.30482841229336738 0.2383512669892898 0 0.29808610059307672 0.21619972571461921 0 0.31933187964179099 0.2371114900211779 0 0.29808610059307672 0.21619972571461921 0 0.30482841229336738 0.2383512669892898 0 0.31157072399365621 0.26050280826396088 0 0.30482841229336738 0.2383512669892898 0 0.31157072399365621 0.26050280826396088 0 0.30482841229336738 0.2383512669892898 0 0.31480198050771557 0.2478617752562236 0 0.30189205584688011 0.25963092202458321 0 0.30482841229336738 0.2383512669892898 0 0.28608716603038298 0.2346459669068596 0 0.30189205584688011 0.25963092202458321 0 0.28608716603038298 0.2346459669068596 0 0.28286546901279602 0.2541753127175353 0 0.30189205584688011 0.25963092202458321 0 0.28608716603038298 0.2346459669068596 0 0.34057765869050649 0.25802325432773521 0 0.33476248464105629 0.23713924382885679 0 0.31933187964179099 0.2371114900211779 0 0.34057765869050649 0.25802325432773521 0 0.31933187964179099 0.2371114900211779 0 0.34057765869050649 0.25802325432773521 0 0.33476248464105629 0.23713924382885679 0 0.3486195408250311 0.23778695413278009 0 0.32295172191333288 0.25486780088420963 0 0.31480198050771557 0.2478617752562236 0 0.31933187964179099 0.2371114900211779 0 0.30482841229336738 0.2383512669892898 0 0.31480198050771557 0.2478617752562236 0 0.31933187964179099 0.2371114900211779 0 0.31896876282740688 0.22403038914724449 0 0.33476404338578902 0.22170861394905239 0 0.32030140625346232 0.2137135475520878 0 0.33476248464105629 0.23713924382885679 0 0.31933187964179099 0.2371114900211779 0 0.31896876282740688 0.22403038914724449 0 0.33476248464105629 0.23713924382885679 0 0.31896876282740688 0.22403038914724449 0 0.33476404338578902 0.22170861394905239 0 0.33476248464105629 0.23713924382885679 0 0.33476404338578902 0.22170861394905239 0 0.3486195408250311 0.23778695413278009 0 0.33476404338578902 0.22170861394905239 0 0.34307266607757603 0.20872765059878501 0 0.32924707071505138 0.20119602846505541 0 0.3058387691211355 0.20571848115512351 0 0.32924707071505138 0.20119602846505541 0 0.33476404338578902 0.22170861394905239 0 0.32030140625346232 0.2137135475520878 0 0.3058387691211355 0.20571848115512351 0 0.32030140625346232 0.2137135475520878 0 0.32924707071505138 0.20119602846505541 0 0.33476404338578902 0.22170861394905239 0 0.32030140625346232 0.2137135475520878 0 0.32924707071505138 0.20119602846505541 0 0.3103995052412698 0.21523574135692969 0 0.31896876282740688 0.22403038914724449 0 0.32030140625346232 0.2137135475520878 0 0.3058387691211355 0.20571848115512351 0 0.32030140625346232 0.2137135475520878 0 0.31797304822844391 0.1890335044146027 0 0.32924707071505138 0.20119602846505541 0 0.33304385809230791 0.18297429690280309 0 0.3058387691211355 0.20571848115512351 0 0.31797304822844391 0.1890335044146027 0 0.32924707071505138 0.20119602846505541 0 0.34307266607757603 0.20872765059878501 0 0.32924707071505138 0.20119602846505541 0 0.35265537230896737 0.1966735757749889 0 0.32924707071505138 0.20119602846505541 0 0.35265537230896737 0.1966735757749889 0 0.32924707071505138 0.20119602846505541 0 0.35265537230896737 0.1966735757749889 0 0.33304385809230791 0.18297429690280309 0 0.35265537230896737 0.1966735757749889 0 0.36550224296116102 0.19419157747592511 0 0.3555796685913406 0.1734406465116301 0 0.35265537230896737 0.1966735757749889 0 0.36550224296116102 0.19419157747592511 0 0.36550224296116102 0.19419157747592511 0 0.36993612691743277 0.19076335988640261 0 0.36944367673679163 0.18460589250079371 0 0.36550224296116102 0.19419157747592511 0 0.36832630984393561 0.19516385875954009 0 0.36943808105392201 0.193616850172081 0 0.36550224296116102 0.19419157747592511 0 0.36993612691743277 0.19076335988640261 0 0.36943808105392201 0.193616850172081 0 0.36832630984393561 0.19516385875954009 0 0.36943808105392201 0.193616850172081 0 0.37009275034049299 0.19598019479328049 0 0.36993612691743277 0.19076335988640261 0 0.36943808105392201 0.193616850172081 0 0.374015624345653 0.19480245735417129 0 0.36943808105392201 0.193616850172081 0 0.374015624345653 0.19480245735417129 0 0.37009275034049299 0.19598019479328049 0 0.36993612691743277 0.19076335988640261 0 0.374015624345653 0.19480245735417129 0 0.37674707336207858 0.18922182986519309 0 0.36993612691743277 0.19076335988640261 0 0.36944367673679163 0.18460589250079371 0 0.37674707336207858 0.18922182986519309 0 0.37161413123265291 0.1997157465725343 0 0.37363481024089218 0.20686709004715931 0 0.3784490857752954 0.20019611894740469 0 0.374015624345653 0.19480245735417129 0 0.37161413123265291 0.1997157465725343 0 0.3784490857752954 0.20019611894740469 0 0.374015624345653 0.19480245735417129 0 0.37161413123265291 0.1997157465725343 0 0.37009275034049299 0.19598019479328049 0 0.37161413123265291 0.1997157465725343 0 0.37009275034049299 0.19598019479328049 0 0.36705468898173099 0.19743818455569739 0 0.36832630984393561 0.19516385875954009 0 0.37009275034049299 0.19598019479328049 0 0.36705468898173099 0.19743818455569739 0 0.37161413123265291 0.1997157465725343 0 0.36740305678314811 0.20254808671514801 0 0.36705468898173099 0.19743818455569739 0 0.37161413123265291 0.1997157465725343 0 0.36740305678314811 0.20254808671514801 0 0.37363481024089218 0.20686709004715931 0 0.36740305678314811 0.20254808671514801 0 0.36705468898173099 0.19743818455569739 0 0.36027273074481192 0.20086584203251909 0 0.35265537230896737 0.1966735757749889 0 0.36550224296116102 0.19419157747592511 0 0.36027273074481192 0.20086584203251909 0 0.36550224296116102 0.19419157747592511 0 0.36705468898173099 0.19743818455569739 0 0.36027273074481192 0.20086584203251909 0 0.36550224296116102 0.19419157747592511 0 0.36705468898173099 0.19743818455569739 0 0.36550224296116102 0.19419157747592511 0 0.36832630984393561 0.19516385875954009 0 0.36705468898173099 0.19743818455569739 0 0.36903224375851029 0.21444349510298341 0 0.3556241779004965 0.21533238420604511 0 0.37259986426957498 0.226314169942749 0 0.36027273074481192 0.20086584203251909 0 0.36443892271565231 0.2078535703678295 0 0.3556241779004965 0.21533238420604511 0 0.36740305678314811 0.20254808671514801 0 0.36027273074481192 0.20086584203251909 0 0.36443892271565231 0.2078535703678295 0 0.36443892271565231 0.2078535703678295 0 0.37363481024089218 0.20686709004715931 0 0.36903224375851029 0.21444349510298341 0 0.36740305678314811 0.20254808671514801 0 0.36443892271565231 0.2078535703678295 0 0.37363481024089218 0.20686709004715931 0 0.37363481024089218 0.20686709004715931 0 0.36903224375851029 0.21444349510298341 0 0.37901632661250961 0.21610570472152529 0 0.36443892271565231 0.2078535703678295 0 0.36903224375851029 0.21444349510298341 0 0.3556241779004965 0.21533238420604511 0 0.34307266607757603 0.20872765059878501 0 0.35265537230896737 0.1966735757749889 0 0.3556241779004965 0.21533238420604511 0 0.35265537230896737 0.1966735757749889 0 0.3556241779004965 0.21533238420604511 0 0.33476404338578902 0.22170861394905239 0 0.34307266607757603 0.20872765059878501 0 0.3556241779004965 0.21533238420604511 0 0.35265537230896737 0.1966735757749889 0 0.36027273074481192 0.20086584203251909 0 0.3556241779004965 0.21533238420604511 0 0.3556241779004965 0.21533238420604511 0 0.3650284794929699 0.23595483461509889 0 0.3486195408250311 0.23778695413278009 0 0.33476404338578902 0.22170861394905239 0 0.3556241779004965 0.21533238420604511 0 0.3486195408250311 0.23778695413278009 0 0.3556241779004965 0.21533238420604511 0 0.37259986426957498 0.226314169942749 0 0.3650284794929699 0.23595483461509889 0 0.36903224375851029 0.21444349510298341 0 0.37259986426957498 0.226314169942749 0 0.37901632661250961 0.21610570472152529 0 0.36096040083936881 0.25856339386989252 0 0.3650284794929699 0.23595483461509889 0 0.37692826582088329 0.2449998410245251 0 0.37259986426957498 0.226314169942749 0 0.3650284794929699 0.23595483461509889 0 0.37692826582088329 0.2449998410245251 0 0.36096040083936881 0.25856339386989252 0 0.3650284794929699 0.23595483461509889 0 0.3486195408250311 0.23778695413278009 0 0.33034063414174558 0.14708630582589741 0 0.33253529016044092 0.1647525829575624 0 0.34565709422152102 0.15268971554733471 0 0.34183770977295652 0.1286850575954325 0 0.34565709422152102 0.15268971554733471 0 0.33652558431203489 0.1335931258248326 0 0.34565709422152102 0.15268971554733471 0 0.33034063414174558 0.14708630582589741 0 0.33652558431203489 0.1335931258248326 0 0.34565709422152102 0.15268971554733471 0 0.34183770977295652 0.1286850575954325 0 0.33652558431203489 0.1335931258248326 0 0.34565709422152102 0.15268971554733471 0 0.32739407440255019 0.11449653610232979 0 0.33652558431203489 0.1335931258248326 0 0.32274719733189822 0.12845008037485181 0 0.33034063414174558 0.14708630582589741 0 0.33652558431203489 0.1335931258248326 0 0.32274719733189822 0.12845008037485181 0 0.32739407440255019 0.11449653610232979 0 0.34183770977295652 0.1286850575954325 0 0.33652558431203489 0.1335931258248326 0 0.30833732554016358 0.131391246677655 0 0.33034063414174558 0.14708630582589741 0 0.30833732554016358 0.131391246677655 0 0.33034063414174558 0.14708630582589741 0 0.32274719733189822 0.12845008037485181 0 0.30936272411958482 0.15322474669331951 0 0.30833732554016358 0.131391246677655 0 0.33034063414174558 0.14708630582589741 0 0.30936272411958482 0.15322474669331951 0 0.33034063414174558 0.14708630582589741 0 0.32223369557436748 0.1591430199050568 0 0.32223369557436748 0.1591430199050568 0 0.31669613387569878 0.1715084441434479 0 0.33253529016044092 0.1647525829575624 0 0.30936272411958482 0.15322474669331951 0 0.32223369557436748 0.1591430199050568 0 0.31669613387569878 0.1715084441434479 0 0.31797304822844391 0.1890335044146027 0 0.31669613387569878 0.1715084441434479 0 0.33304385809230791 0.18297429690280309 0 0.31669613387569878 0.1715084441434479 0 0.33304385809230791 0.18297429690280309 0 0.33253529016044092 0.1647525829575624 0 0.30332451532168042 0.18535159235402529 0 0.31797304822844391 0.1890335044146027 0 0.31669613387569878 0.1715084441434479 0 0.33304385809230791 0.18297429690280309 0 0.33253529016044092 0.1647525829575624 0 0.34915623326524498 0.17468164566116171 0 0.33034063414174558 0.14708630582589741 0 0.32223369557436748 0.1591430199050568 0 0.33253529016044092 0.1647525829575624 0 0.33253529016044092 0.1647525829575624 0 0.34915623326524498 0.17468164566116171 0 0.34565709422152102 0.15268971554733471 0 0.3555796685913406 0.1734406465116301 0 0.34565709422152102 0.15268971554733471 0 0.34915623326524498 0.17468164566116171 0 0.3555796685913406 0.1734406465116301 0 0.34565709422152102 0.15268971554733471 0 0.34915623326524498 0.17468164566116171 0 0.34565709422152102 0.15268971554733471 0 0.3555796685913406 0.1734406465116301 0 0.36585530987976739 0.1551581633561489 0 0.34565709422152102 0.15268971554733471 0 0.35265537230896737 0.1966735757749889 0 0.33304385809230791 0.18297429690280309 0 0.34915623326524498 0.17468164566116171 0 0.35265537230896737 0.1966735757749889 0 0.34915623326524498 0.17468164566116171 0 0.35265537230896737 0.1966735757749889 0 0.34915623326524498 0.17468164566116171 0 0.3555796685913406 0.1734406465116301 0 0.3555796685913406 0.1734406465116301 0 0.3719813342835141 0.1765815502499099 0 0.36944367673679163 0.18460589250079371 0 0.36550224296116102 0.19419157747592511 0 0.3555796685913406 0.1734406465116301 0 0.36550224296116102 0.19419157747592511 0 0.3555796685913406 0.1734406465116301 0 0.36944367673679163 0.18460589250079371 0 0.36944367673679163 0.18460589250079371 0 0.37868821560282889 0.1821627733024184 0 0.37674707336207858 0.18922182986519309 0 0.3719813342835141 0.1765815502499099 0 0.36944367673679163 0.18460589250079371 0 0.37868821560282889 0.1821627733024184 0 0.3555796685913406 0.1734406465116301 0 0.37391297678728858 0.16554233000905519 0 0.36585530987976739 0.1551581633561489 0 0.3555796685913406 0.1734406465116301 0 0.3719813342835141 0.1765815502499099 0 0.37391297678728858 0.16554233000905519 0 0.37391297678728858 0.16554233000905519 0 0.36585530987976739 0.1551581633561489 0 0.38048567437745168 0.15121413435142619 0 0.36050012222480021 0.14362702031996619 0 0.36585530987976739 0.1551581633561489 0 0.3729433360864845 0.13668025046803009 0 0.36585530987976739 0.1551581633561489 0 0.3729433360864845 0.13668025046803009 0 0.38048567437745168 0.15121413435142619 0 0.36050012222480021 0.14362702031996619 0 0.36585530987976739 0.1551581633561489 0 0.34565709422152102 0.15268971554733471 0 0.34183770977295652 0.1286850575954325 0 0.36050012222480021 0.14362702031996619 0 0.34565709422152102 0.15268971554733471 0 0.34183770977295652 0.1286850575954325 0 0.36050012222480021 0.14362702031996619 0 0.35944931917726008 0.1288775326312549 0 0.36825940068727891 0.1201696056674174 0 0.35944931917726008 0.1288775326312549 0 0.3729433360864845 0.13668025046803009 0 0.36050012222480021 0.14362702031996619 0 0.35944931917726008 0.1288775326312549 0 0.3729433360864845 0.13668025046803009 0 0.36825940068727891 0.1201696056674174 0 0.3729433360864845 0.13668025046803009 0 0.38433036034418039 0.1209483736269318 0 0.3729433360864845 0.13668025046803009 0 0.38908056233843558 0.13611845775366421 0 0.38433036034418039 0.1209483736269318 0 0.38908056233843558 0.13611845775366421 0 0.39473513970358098 0.12854290425844639 0 0.38433036034418039 0.1209483736269318 0 0.38908056233843558 0.13611845775366421 0 0.39473513970358098 0.12854290425844639 0 0.40686713537665758 0.13884643888672771 0 0.40686713537665758 0.13884643888672771 0 0.39866250075504972 0.1182583467664623 0 0.39473513970358098 0.12854290425844639 0 0.40686713537665758 0.13884643888672771 0 0.39866250075504972 0.1182583467664623 0 0.40784013254787072 0.12510821097753899 0 0.40686713537665758 0.13884643888672771 0 0.39866250075504972 0.1182583467664623 0 0.38908056233843558 0.13611845775366421 0 0.39416977992171898 0.1499733707439164 0 0.40686713537665758 0.13884643888672771 0 0.39416977992171898 0.1499733707439164 0 0.41507176999826467 0.15943453100699351 0 0.40686713537665758 0.13884643888672771 0 0.39416977992171898 0.1499733707439164 0 0.38048567437745168 0.15121413435142619 0 0.38696668242563659 0.1633008213670592 0 0.3729433360864845 0.13668025046803009 0 0.38908056233843558 0.13611845775366421 0 0.38048567437745168 0.15121413435142619 0 0.38908056233843558 0.13611845775366421 0 0.39416977992171898 0.1499733707439164 0 0.38048567437745168 0.15121413435142619 0 0.37391297678728858 0.16554233000905519 0 0.38048567437745168 0.15121413435142619 0 0.38696668242563659 0.1633008213670592 0 0.37391297678728858 0.16554233000905519 0 0.38696668242563659 0.1633008213670592 0 0.38179831695709121 0.17371663772951451 0 0.38696668242563659 0.1633008213670592 0 0.38179831695709121 0.17371663772951451 0 0.39334912795776528 0.17215309239046281 0 0.37868821560282889 0.1821627733024184 0 0.37674707336207858 0.18922182986519309 0 0.38476682246741772 0.1888559951450019 0 0.3719813342835141 0.1765815502499099 0 0.37391297678728858 0.16554233000905519 0 0.38179831695709121 0.17371663772951451 0 0.3719813342835141 0.1765815502499099 0 0.37868821560282889 0.1821627733024184 0 0.38179831695709121 0.17371663772951451 0 0.37868821560282889 0.1821627733024184 0 0.38179831695709121 0.17371663772951451 0 0.38815313606359259 0.18129501024237629 0 0.38179831695709121 0.17371663772951451 0 0.38815313606359259 0.18129501024237629 0 0.39334912795776528 0.17215309239046281 0 0.38815313606359259 0.18129501024237629 0 0.38476682246741772 0.1888559951450019 0 0.39561309132680222 0.18929008946206871 0 0.37868821560282889 0.1821627733024184 0 0.38815313606359259 0.18129501024237629 0 0.38476682246741772 0.1888559951450019 0 0.38815313606359259 0.18129501024237629 0 0.40349965368664509 0.17631150874670279 0 0.39561309132680222 0.18929008946206871 0 0.38815313606359259 0.18129501024237629 0 0.39334912795776528 0.17215309239046281 0 0.40349965368664509 0.17631150874670279 0 0.40349965368664509 0.17631150874670279 0 0.39561309132680222 0.18929008946206871 0 0.40813544341014718 0.1894234335714223 0 0.40349965368664509 0.17631150874670279 0 0.39907331154613618 0.16392322307121221 0 0.41507176999826467 0.15943453100699351 0 0.39416977992171898 0.1499733707439164 0 0.39907331154613618 0.16392322307121221 0 0.41507176999826467 0.15943453100699351 0 0.39416977992171898 0.1499733707439164 0 0.38696668242563659 0.1633008213670592 0 0.39907331154613618 0.16392322307121221 0 0.38696668242563659 0.1633008213670592 0 0.39334912795776528 0.17215309239046281 0 0.39907331154613618 0.16392322307121221 0 0.39334912795776528 0.17215309239046281 0 0.40349965368664509 0.17631150874670279 0 0.39907331154613618 0.16392322307121221 0 0.41507176999826467 0.15943453100699351 0 0.42327640461987182 0.18002262312725911 0 0.40349965368664509 0.17631150874670279 0 0.42327640461987182 0.18002262312725911 0 0.40813544341014718 0.1894234335714223 0 0.40349965368664509 0.17631150874670279 0 0.41507176999826467 0.15943453100699351 0 0.42327640461987182 0.18002262312725911 0 0.42327640461987182 0.18002262312725911 0 0.43265840359834212 0.19362333930019149 0 0.44166596344978948 0.181606965634209 0 0.42327640461987182 0.18002262312725911 0 0.43911803778611358 0.16252290646227241 0 0.44166596344978948 0.181606965634209 0 0.41507176999826467 0.15943453100699351 0 0.42327640461987182 0.18002262312725911 0 0.43911803778611358 0.16252290646227241 0 0.41507176999826467 0.15943453100699351 0 0.43137069993090188 0.14551661572495589 0 0.43911803778611358 0.16252290646227241 0 0.43137069993090188 0.14551661572495589 0 0.42152907262639933 0.13294792744816941 0 0.41870966948305588 0.1441863782667116 0 0.42152907262639933 0.13294792744816941 0 0.44518713843701591 0.12528920559461021 0 0.42036882790173341 0.1178692878251045 0 0.43137069993090188 0.14551661572495589 0 0.42152907262639933 0.13294792744816941 0 0.44518713843701591 0.12528920559461021 0 0.42152907262639933 0.13294792744816941 0 0.40686713537665758 0.13884643888672771 0 0.41870966948305588 0.1441863782667116 0 0.42152907262639933 0.13294792744816941 0 0.40784013254787072 0.12510821097753899 0 0.42036882790173341 0.1178692878251045 0 0.42152907262639933 0.13294792744816941 0 0.40784013254787072 0.12510821097753899 0 0.40686713537665758 0.13884643888672771 0 0.41507176999826467 0.15943453100699351 0 0.40686713537665758 0.13884643888672771 0 0.41870966948305588 0.1441863782667116 0 0.41507176999826467 0.15943453100699351 0 0.40686713537665758 0.13884643888672771 0 0.41507176999826467 0.15943453100699351 0 0.43137069993090188 0.14551661572495589 0 0.41870966948305588 0.1441863782667116 0 0.39043011514462961 0.2351131378805737 0 0.41211135859945858 0.23859957228918491 0 0.39403451087938568 0.25232690265456059 0 0.39043011514462961 0.2351131378805737 0 0.41211135859945858 0.23859957228918491 0 0.37259986426957498 0.226314169942749 0 0.37692826582088329 0.2449998410245251 0 0.39043011514462961 0.2351131378805737 0 0.39403451087938568 0.25232690265456059 0 0.37692826582088329 0.2449998410245251 0 0.39043011514462961 0.2351131378805737 0 0.39043011514462961 0.2351131378805737 0 0.39162063004833542 0.21624783810509871 0 0.37901632661250961 0.21610570472152529 0 0.37259986426957498 0.226314169942749 0 0.39043011514462961 0.2351131378805737 0 0.37901632661250961 0.21610570472152529 0 0.39043011514462961 0.2351131378805737 0 0.40485360141808602 0.21918297158117189 0 0.39162063004833542 0.21624783810509871 0 0.39043011514462961 0.2351131378805737 0 0.40485360141808602 0.21918297158117189 0 0.41211135859945858 0.23859957228918491 0 0.40485360141808602 0.21918297158117189 0 0.3988537881723313 0.20331136170110889 0 0.39162063004833542 0.21624783810509871 0 0.3988537881723313 0.20331136170110889 0 0.39162063004833542 0.21624783810509871 0 0.38500982755850061 0.20696052044022339 0 0.39162063004833542 0.21624783810509871 0 0.37901632661250961 0.21610570472152529 0 0.38500982755850061 0.20696052044022339 0 0.37363481024089218 0.20686709004715931 0 0.37901632661250961 0.21610570472152529 0 0.38500982755850061 0.20696052044022339 0 0.37363481024089218 0.20686709004715931 0 0.38500982755850061 0.20696052044022339 0 0.3784490857752954 0.20019611894740469 0 0.38500982755850061 0.20696052044022339 0 0.38786138963732142 0.197087776036317 0 0.3784490857752954 0.20019611894740469 0 0.3988537881723313 0.20331136170110889 0 0.38500982755850061 0.20696052044022339 0 0.38786138963732142 0.197087776036317 0 0.38786138963732142 0.197087776036317 0 0.3784490857752954 0.20019611894740469 0 0.38153802881188242 0.19407849196163809 0 0.374015624345653 0.19480245735417129 0 0.3784490857752954 0.20019611894740469 0 0.38153802881188242 0.19407849196163809 0 0.37674707336207858 0.18922182986519309 0 0.38153802881188242 0.19407849196163809 0 0.38476682246741772 0.1888559951450019 0 0.374015624345653 0.19480245735417129 0 0.37674707336207858 0.18922182986519309 0 0.38153802881188242 0.19407849196163809 0 0.38786138963732142 0.197087776036317 0 0.38476682246741772 0.1888559951450019 0 0.39561309132680222 0.18929008946206871 0 0.38786138963732142 0.197087776036317 0 0.38153802881188242 0.19407849196163809 0 0.38476682246741772 0.1888559951450019 0 0.3988537881723313 0.20331136170110889 0 0.38786138963732142 0.197087776036317 0 0.39561309132680222 0.18929008946206871 0 0.3988537881723313 0.20331136170110889 0 0.39561309132680222 0.18929008946206871 0 0.40813544341014718 0.1894234335714223 0 0.42327640461987182 0.18002262312725911 0 0.41730424488867152 0.2013805942877995 0 0.40813544341014718 0.1894234335714223 0 0.3988537881723313 0.20331136170110889 0 0.41730424488867152 0.2013805942877995 0 0.40813544341014718 0.1894234335714223 0 0.42327640461987182 0.18002262312725911 0 0.41730424488867152 0.2013805942877995 0 0.43265840359834212 0.19362333930019149 0 0.41730424488867152 0.2013805942877995 0 0.43265840359834212 0.19362333930019149 0 0.43703063874675091 0.20918072868622609 0 0.41730424488867152 0.2013805942877995 0 0.43703063874675091 0.20918072868622609 0 0.42120026928626342 0.2210349685837176 0 0.43703063874675091 0.20918072868622609 0 0.42120026928626342 0.2210349685837176 0 0.4376281912163929 0.22558561624805651 0 0.40485360141808602 0.21918297158117189 0 0.3988537881723313 0.20331136170110889 0 0.41730424488867152 0.2013805942877995 0 0.40485360141808602 0.21918297158117189 0 0.41730424488867152 0.2013805942877995 0 0.42120026928626342 0.2210349685837176 0 0.40485360141808602 0.21918297158117189 0 0.42120026928626342 0.2210349685837176 0 0.41211135859945858 0.23859957228918491 0 0.42120026928626342 0.2210349685837176 0 0.43379260205428782 0.2420860066977962 0 0.41211135859945858 0.23859957228918491 0 0.42120026928626342 0.2210349685837176 0 0.43379260205428782 0.2420860066977962 0 0.4376281912163929 0.22558561624805651 0 0.42881036932591698 0.26049773150289751 0 0.43379260205428782 0.2420860066977962 0 0.41211135859945858 0.23859957228918491 0 0.43379260205428782 0.2420860066977962 0 0.41211135859945858 0.23859957228918491 0 0.46508968338692852 0.2382364646876555 0 0.45547384550911679 0.24557244110640769 0 0.47161077686298242 0.24816732699654209 0 0.45547384550911679 0.24557244110640769 0 0.47161077686298242 0.24816732699654209 0 0.46408427701748561 0.25440272181502671 0 0.45547384550911679 0.24557244110640769 0 0.47161077686298242 0.24816732699654209 0 0.46508968338692852 0.2382364646876555 0 0.45547384550911679 0.24557244110640769 0 0.45913781455856889 0.23264659440284169 0 0.45547384550911679 0.24557244110640769 0 0.45913781455856889 0.23264659440284169 0 0.45547384550911679 0.24557244110640769 0 0.44661568554913522 0.2336163065862589 0 0.45913781455856889 0.23264659440284169 0 0.43379260205428782 0.2420860066977962 0 0.45547384550911679 0.24557244110640769 0 0.44661568554913522 0.2336163065862589 0 0.44172146682776492 0.25431021510112339 0 0.43379260205428782 0.2420860066977962 0 0.45547384550911679 0.24557244110640769 0 0.43379260205428782 0.2420860066977962 0 0.45547384550911679 0.24557244110640769 0 0.44661568554913522 0.2336163065862589 0 0.44950176044552731 0.22201007068628359 0 0.45913781455856889 0.23264659440284169 0 0.43703063874675091 0.20918072868622609 0 0.4376281912163929 0.22558561624805651 0 0.44950176044552731 0.22201007068628359 0 0.43379260205428782 0.2420860066977962 0 0.44661568554913522 0.2336163065862589 0 0.4376281912163929 0.22558561624805651 0 0.44661568554913522 0.2336163065862589 0 0.4376281912163929 0.22558561624805651 0 0.44950176044552731 0.22201007068628359 0 0.46045405434045172 0.22128415683626479 0 0.45913781455856889 0.23264659440284169 0 0.47513749835107139 0.22191614669744991 0 0.46508968338692852 0.2382364646876555 0 0.45913781455856889 0.23264659440284169 0 0.47513749835107139 0.22191614669744991 0 0.44950176044552731 0.22201007068628359 0 0.46045405434045172 0.22128415683626479 0 0.45913781455856889 0.23264659440284169 0 0.46045405434045172 0.22128415683626479 0 0.45803914400663942 0.2085638155584838 0 0.47513749835107139 0.22191614669744991 0 0.44950176044552731 0.22201007068628359 0 0.46045405434045172 0.22128415683626479 0 0.45803914400663942 0.2085638155584838 0 0.43703063874675091 0.20918072868622609 0 0.45803914400663942 0.2085638155584838 0 0.44624767127928888 0.19639470466390119 0 0.43703063874675091 0.20918072868622609 0 0.44950176044552731 0.22201007068628359 0 0.45803914400663942 0.2085638155584838 0 0.43265840359834212 0.19362333930019149 0 0.43703063874675091 0.20918072868622609 0 0.44624767127928888 0.19639470466390119 0 0.43265840359834212 0.19362333930019149 0 0.44624767127928888 0.19639470466390119 0 0.44166596344978948 0.181606965634209 0 0.44624767127928888 0.19639470466390119 0 0.45128315255907098 0.18808830691262671 0 0.44166596344978948 0.181606965634209 0 0.44624767127928888 0.19639470466390119 0 0.45128315255907098 0.18808830691262671 0 0.45792058718566048 0.19655644906007549 0 0.45792058718566048 0.19655644906007549 0 0.47866421983915552 0.19566496639835729 0 0.45908250144974022 0.18566287530771031 0 0.45803914400663942 0.2085638155584838 0 0.45792058718566048 0.19655644906007549 0 0.47866421983915552 0.19566496639835729 0 0.45128315255907098 0.18808830691262671 0 0.45792058718566048 0.19655644906007549 0 0.45908250144974022 0.18566287530771031 0 0.45803914400663942 0.2085638155584838 0 0.44624767127928888 0.19639470466390119 0 0.45792058718566048 0.19655644906007549 0 0.47866421983915552 0.19566496639835729 0 0.46334846987602002 0.17968274937143 0 0.47866421983915552 0.19566496639835729 0 0.48933210991957682 0.20679707125088301 0 0.47866421983915552 0.19566496639835729 0 0.49109866885568632 0.19400826991936471 0 0.4874970145196989 0.18445806376551499 0 0.49109866885568632 0.19400826991936471 0 0.5 0.2003501414284922 0 0.49999999999999972 0.18277110675357619 0 0.49109866885568632 0.19400826991936471 0 0.5 0.2003501414284922 0 0.48933210991957682 0.20679707125088301 0 0.47866421983915552 0.19566496639835729 0 0.49109866885568632 0.19400826991936471 0 0.48933210991957682 0.20679707125088301 0 0.5 0.2003501414284922 0 0.48933210991957682 0.20679707125088301 0 0.49999999999999872 0.21792917610340801 0 0.48933210991957682 0.20679707125088301 0 0.49999999999999872 0.21792917610340801 0 0.48791563526972859 0.2263229059557407 0 0.48933210991957682 0.20679707125088301 0 0.49999999999999872 0.21792917610340801 0 0.45803914400663942 0.2085638155584838 0 0.47866421983915552 0.19566496639835729 0 0.47513749835107139 0.22191614669744991 0 0.47866421983915552 0.19566496639835729 0 0.47513749835107139 0.22191614669744991 0 0.47866421983915552 0.19566496639835729 0 0.48933210991957682 0.20679707125088301 0 0.47513749835107139 0.22191614669744991 0 0.48933210991957682 0.20679707125088301 0 0.47513749835107139 0.22191614669744991 0 0.48791563526972859 0.2263229059557407 0 0.47513749835107139 0.22191614669744991 0 0.48791563526972859 0.2263229059557407 0 0.47161077686298242 0.24816732699654209 0 0.49999999999999872 0.21792917610340801 0 0.48791563526972859 0.2263229059557407 0 0.5 0.23533080431464601 0 0.48791563526972859 0.2263229059557407 0 0.5 0.23533080431464601 0 0.47161077686298242 0.24816732699654209 0 0.50000000000000133 0.25273243252588418 0 0.5 0.23533080431464601 0 0.47161077686298242 0.24816732699654209 0 0.47513749835107139 0.22191614669744991 0 0.47161077686298242 0.24816732699654209 0 0.46508968338692852 0.2382364646876555 0 0.47513749835107139 0.22191614669744991 0 0.47161077686298242 0.24816732699654209 0 0.45217657514271448 0.14798385802710509 0 0.47014161716765301 0.16105181347295619 0 0.47164977684918491 0.1441850108231679 0 0.45217657514271448 0.14798385802710509 0 0.47014161716765301 0.16105181347295619 0 0.46070618895057341 0.13989732003755351 0 0.45217657514271448 0.14798385802710509 0 0.47164977684918491 0.1441850108231679 0 0.44518713843701591 0.12528920559461021 0 0.47000544897229851 0.13270912336411619 0 0.46070618895057341 0.13989732003755351 0 0.47164977684918491 0.1441850108231679 0 0.47000544897229851 0.13270912336411619 0 0.44518713843701591 0.12528920559461021 0 0.47000544897229851 0.13270912336411619 0 0.45913155583250892 0.120108938453116 0 0.46070618895057341 0.13989732003755351 0 0.44518713843701591 0.12528920559461021 0 0.47000544897229851 0.13270912336411619 0 0.43137069993090188 0.14551661572495589 0 0.44518713843701591 0.12528920559461021 0 0.45217657514271448 0.14798385802710509 0 0.46070618895057341 0.13989732003755351 0 0.44518713843701591 0.12528920559461021 0 0.45217657514271448 0.14798385802710509 0 0.43137069993090188 0.14551661572495589 0 0.45217657514271448 0.14798385802710509 0 0.43911803778611358 0.16252290646227241 0 0.45217657514271448 0.14798385802710509 0 0.43911803778611358 0.16252290646227241 0 0.45682251369937732 0.16339258637356949 0 0.43911803778611358 0.16252290646227241 0 0.44910149919756698 0.1716271062324265 0 0.45682251369937732 0.16339258637356949 0 0.43911803778611358 0.16252290646227241 0 0.44910149919756698 0.1716271062324265 0 0.44166596344978948 0.181606965634209 0 0.44910149919756698 0.1716271062324265 0 0.44166596344978948 0.181606965634209 0 0.45149903943087588 0.18022053989723741 0 0.44910149919756698 0.1716271062324265 0 0.45149903943087588 0.18022053989723741 0 0.45836375182032862 0.1744811205921766 0 0.45128315255907098 0.18808830691262671 0 0.44166596344978948 0.181606965634209 0 0.45149903943087588 0.18022053989723741 0 0.47866421983915552 0.19566496639835729 0 0.45908250144974022 0.18566287530771031 0 0.46334846987602002 0.17968274937143 0 0.45908250144974022 0.18566287530771031 0 0.45836375182032862 0.1744811205921766 0 0.46334846987602002 0.17968274937143 0 0.45128315255907098 0.18808830691262671 0 0.45149903943087588 0.18022053989723741 0 0.45908250144974022 0.18566287530771031 0 0.45149903943087588 0.18022053989723741 0 0.45908250144974022 0.18566287530771031 0 0.45836375182032862 0.1744811205921766 0 0.45836375182032862 0.1744811205921766 0 0.46334846987602002 0.17968274937143 0 0.45836375182032862 0.1744811205921766 0 0.46334846987602002 0.17968274937143 0 0.46273414905609561 0.16868632014310089 0 0.45908250144974022 0.18566287530771031 0 0.46334846987602002 0.17968274937143 0 0.45217657514271448 0.14798385802710509 0 0.45682251369937732 0.16339258637356949 0 0.47014161716765301 0.16105181347295619 0 0.45836375182032862 0.1744811205921766 0 0.45682251369937732 0.16339258637356949 0 0.46273414905609561 0.16868632014310089 0 0.44910149919756698 0.1716271062324265 0 0.45836375182032862 0.1744811205921766 0 0.45682251369937732 0.16339258637356949 0 0.46334846987602002 0.17968274937143 0 0.46273414905609561 0.16868632014310089 0 0.4696546117761401 0.16649833477215639 0 0.45682251369937732 0.16339258637356949 0 0.46273414905609561 0.16868632014310089 0 0.47014161716765301 0.16105181347295619 0 0.46273414905609561 0.16868632014310089 0 0.47014161716765301 0.16105181347295619 0 0.4696546117761401 0.16649833477215639 0 0.474419290028334 0.16416343649491871 0 0.48720964501416669 0.1598504572364132 0 0.48720964501416603 0.14623364284857901 0 0.47014161716765301 0.16105181347295619 0 0.474419290028334 0.16416343649491871 0 0.47243109693155649 0.14963790222081619 0 0.47014161716765301 0.16105181347295619 0 0.4696546117761401 0.16649833477215639 0 0.47014161716765301 0.16105181347295619 0 0.474419290028334 0.16416343649491871 0 0.47014161716765301 0.16105181347295619 0 0.4696546117761401 0.16649833477215639 0 0.474419290028334 0.16416343649491871 0 0.46334846987602002 0.17968274937143 0 0.4696546117761401 0.16649833477215639 0 0.474419290028334 0.16416343649491871 0 0.474419290028334 0.16416343649491871 0 0.48720964501416669 0.17346727162424749 0 0.474419290028334 0.16416343649491871 0 0.48152268906781692 0.1743879272688055 0 0.48720964501416669 0.17346727162424749 0 0.474419290028334 0.16416343649491871 0 0.48720964501416669 0.17346727162424749 0 0.48720964501416669 0.1598504572364132 0 0.47866421983915552 0.19566496639835729 0 0.48152268906781692 0.1743879272688055 0 0.4874970145196989 0.18445806376551499 0 0.46334846987602002 0.17968274937143 0 0.474419290028334 0.16416343649491871 0 0.48152268906781692 0.1743879272688055 0 0.47866421983915552 0.19566496639835729 0 0.48152268906781692 0.1743879272688055 0 0.47866421983915552 0.19566496639835729 0 0.46334846987602002 0.17968274937143 0 0.48152268906781692 0.1743879272688055 0 0.46334846987602002 0.17968274937143 0 0.474419290028334 0.16416343649491871 0 0.4874970145196989 0.18445806376551499 0 0.48720964501416669 0.17346727162424749 0 0.49999999999999972 0.18277110675357619 0 0.48152268906781692 0.1743879272688055 0 0.4874970145196989 0.18445806376551499 0 0.48720964501416669 0.17346727162424749 0 0.48720964501416669 0.17346727162424749 0 0.49999999999999972 0.18277110675357619 0 0.49109866885568632 0.19400826991936471 0 0.4874970145196989 0.18445806376551499 0 0.49999999999999972 0.18277110675357619 0 0.48720964501416669 0.17346727162424749 0 0.49999999999999972 0.18277110675357619 0 0.5 0.15553747797790771 0 0.48720964501416669 0.17346727162424749 0 0.48720964501416669 0.1598504572364132 0 0.5 0.15553747797790771 0 0.5 0.15553747797790771 0 0.48720964501416603 0.14623364284857901 0 0.49999999999999828 0.1283038492022395 0 0.48720964501416669 0.1598504572364132 0 0.5 0.15553747797790771 0 0.48720964501416603 0.14623364284857901 0 0.474419290028334 0.16416343649491871 0 0.48720964501416603 0.14623364284857901 0 0.47243109693155649 0.14963790222081619 0 0.47014161716765301 0.16105181347295619 0 0.47164977684918491 0.1441850108231679 0 0.47243109693155649 0.14963790222081619 0 0.47014161716765301 0.16105181347295619 0 0.47164977684918491 0.1441850108231679 0 0.474419290028334 0.16416343649491871 0 0.48720964501416603 0.14623364284857901 0 0.48720964501416603 0.14623364284857901 0 0.47810353229876201 0.14215059571179389 0 0.47243109693155649 0.14963790222081619 0 0.48720964501416603 0.14623364284857901 0 0.47810353229876201 0.14215059571179389 0 0.48219086346301232 0.1366612709065127 0 0.47810353229876201 0.14215059571179389 0 0.47164977684918491 0.1441850108231679 0 0.47243109693155649 0.14963790222081619 0 0.47164977684918491 0.1441850108231679 0 0.47243109693155649 0.14963790222081619 0 0.47000544897229851 0.13270912336411619 0 0.47260637368864761 0.13348672051330729 0 0.46686637733987219 0.1108013072369516 0 0.47164977684918491 0.1441850108231679 0 0.47000544897229851 0.13270912336411619 0 0.47260637368864761 0.13348672051330729 0 0.47164977684918491 0.1441850108231679 0 0.47000544897229851 0.13270912336411619 0 0.47810353229876201 0.14215059571179389 0 0.47164977684918491 0.1441850108231679 0 0.47627466636298732 0.13458342812196539 0 0.47164977684918491 0.1441850108231679 0 0.47260637368864761 0.13348672051330729 0 0.47164977684918491 0.1441850108231679 0 0.47260637368864761 0.13348672051330729 0 0.47627466636298732 0.13458342812196539 0 0.47000544897229851 0.13270912336411619 0 0.47260637368864761 0.13348672051330729 0 0.47260637368864761 0.13348672051330729 0 0.47627466636298732 0.13458342812196539 0 0.47627466636298732 0.13458342812196539 0 0.48219086346301232 0.1366612709065127 0 0.48115545177917779 0.12861664063486791 0 0.47810353229876201 0.14215059571179389 0 0.47627466636298732 0.13458342812196539 0 0.48219086346301232 0.1366612709065127 0 0.47260637368864761 0.13348672051330729 0 0.47627466636298732 0.13458342812196539 0 0.48115545177917779 0.12861664063486791 0 0.48219086346301232 0.1366612709065127 0 0.48115545177917779 0.12861664063486791 0 0.48821102185996862 0.13172204721535721 0 0.48720964501416603 0.14623364284857901 0 0.48821102185996862 0.13172204721535721 0 0.49999999999999828 0.1283038492022395 0 0.48720964501416603 0.14623364284857901 0 0.49999999999999828 0.1283038492022395 0 0.48115545177917779 0.12861664063486791 0 0.48821102185996862 0.13172204721535721 0 0.48888759172059848 0.1200542258339161 0 0.48720964501416603 0.14623364284857901 0 0.48219086346301232 0.1366612709065127 0 0.48821102185996862 0.13172204721535721 0 0.48821102185996862 0.13172204721535721 0 0.49999999999999828 0.1283038492022395 0 0.48888759172059848 0.1200542258339161 0 0.48888759172059848 0.1200542258339161 0 0.50000000000000189 0.1057109320273929 0 0.47507148496384599 0.1059176600897231 0 0.49999999999999828 0.1283038492022395 0 0.48888759172059848 0.1200542258339161 0 0.50000000000000189 0.1057109320273929 0 0.50000000000000189 0.1057109320273929 0 0.47507148496384599 0.1059176600897231 0 0.48876829811952388 0.092029765846765227 0 0.50000000000000189 0.1057109320273929 0 0.48876829811952388 0.092029765846765227 0 0.47260637368864761 0.13348672051330729 0 0.48115545177917779 0.12861664063486791 0 0.47507148496384599 0.1059176600897231 0 0.47260637368864761 0.13348672051330729 0 0.47507148496384599 0.1059176600897231 0 0.46686637733987219 0.1108013072369516 0 0.47260637368864761 0.13348672051330729 0 0.47507148496384599 0.1059176600897231 0 0.48115545177917779 0.12861664063486791 0 0.48888759172059848 0.1200542258339161 0 0.47507148496384599 0.1059176600897231 0 0.5 0.075970339595171077 0 0.48790330556602229 0.070805068181427608 0 0.48957163609828802 0.059021418257163137 0 0.48790330556602229 0.070805068181427608 0 0.47916382372148719 0.060150178670802169 0 0.48957163609828802 0.059021418257163137 0 0.48790330556602229 0.070805068181427608 0 0.48876829811952388 0.092029765846765227 0 0.47753659623904438 0.078348599666138746 0 0.5 0.075970339595171077 0 0.48790330556602229 0.070805068181427608 0 0.48876829811952388 0.092029765846765227 0 0.50000000000000189 0.1057109320273929 0 0.5 0.075970339595171077 0 0.48876829811952388 0.092029765846765227 0 0.47507148496384599 0.1059176600897231 0 0.47753659623904438 0.078348599666138746 0 0.46372730570744658 0.088893491109786921 0 0.47753659623904438 0.078348599666138746 0 0.47187465747179402 0.07145187769082309 0 0.46372730570744658 0.088893491109786921 0 0.47507148496384599 0.1059176600897231 0 0.48876829811952388 0.092029765846765227 0 0.47753659623904438 0.078348599666138746 0 0.47507148496384599 0.1059176600897231 0 0.47753659623904438 0.078348599666138746 0 0.48876829811952388 0.092029765846765227 0 0.47753659623904438 0.078348599666138746 0 0.47753659623904438 0.078348599666138746 0 0.47187465747179402 0.07145187769082309 0 0.47916382372148719 0.060150178670802169 0 0.47753659623904438 0.078348599666138746 0 0.47916382372148719 0.060150178670802169 0 0.48790330556602229 0.070805068181427608 0 0.47753659623904438 0.078348599666138746 0 0.47916382372148719 0.060150178670802169 0 0.47753659623904438 0.078348599666138746 0 0.47187465747179402 0.07145187769082309 0 0.47187465747179402 0.07145187769082309 0 0.4663678179680843 0.060682917552954033 0 0.47916382372148719 0.060150178670802169 0 0.47187465747179402 0.07145187769082309 0 0.46058823407502097 0.066985674982622173 0 0.46372730570744658 0.088893491109786921 0 0.46058823407502097 0.066985674982622173 0 0.46372730570744658 0.088893491109786921 0 0.47187465747179402 0.07145187769082309 0 0.46058823407502097 0.066985674982622173 0 0.4663678179680843 0.060682917552954033 0 0.46058823407502097 0.066985674982622173 0 0.46372730570744658 0.088893491109786921 0 0.45077303619932901 0.078528081983653672 0 0.46372730570744658 0.088893491109786921 0 0.44483200127060701 0.0914317099359932 0 0.45077303619932901 0.078528081983653672 0 0.44483200127060701 0.0914317099359932 0 0.43850234565852603 0.079629794414266708 0 0.42944964306037681 0.087292122167837022 0 0.44483200127060701 0.0914317099359932 0 0.43850234565852603 0.079629794414266708 0 0.45077303619932901 0.078528081983653672 0 0.46058823407502097 0.066985674982622173 0 0.45077303619932901 0.078528081983653672 0 0.44370396942264201 0.066844321228942988 0 0.46058823407502097 0.066985674982622173 0 0.44370396942264201 0.066844321228942988 0 0.45343200437782821 0.056102739844168401 0 0.43850234565852603 0.079629794414266708 0 0.45077303619932901 0.078528081983653672 0 0.44370396942264201 0.066844321228942988 0 0.47000544897229851 0.13270912336411619 0 0.45913155583250892 0.120108938453116 0 0.46686637733987219 0.1108013072369516 0 0.47000544897229851 0.13270912336411619 0 0.46686637733987219 0.1108013072369516 0 0.45913155583250892 0.120108938453116 0 0.46686637733987219 0.1108013072369516 0 0.45185340951664532 0.1122029504522008 0 0.47507148496384599 0.1059176600897231 0 0.46372730570744658 0.088893491109786921 0 0.46686637733987219 0.1108013072369516 0 0.46372730570744658 0.088893491109786921 0 0.46686637733987219 0.1108013072369516 0 0.45446142679718748 0.1013754336447142 0 0.46372730570744658 0.088893491109786921 0 0.44483200127060701 0.0914317099359932 0 0.45446142679718748 0.1013754336447142 0 0.46372730570744658 0.088893491109786921 0 0.46686637733987219 0.1108013072369516 0 0.46686637733987219 0.1108013072369516 0 0.45446142679718748 0.1013754336447142 0 0.45185340951664532 0.1122029504522008 0 0.45446142679718748 0.1013754336447142 0 0.44502804015136638 0.1035477094886383 0 0.45185340951664532 0.1122029504522008 0 0.44483200127060701 0.0914317099359932 0 0.44502804015136638 0.1035477094886383 0 0.42842227070386502 0.1023447597038671 0 0.44483200127060701 0.0914317099359932 0 0.45446142679718748 0.1013754336447142 0 0.44502804015136638 0.1035477094886383 0 0.44502804015136638 0.1035477094886383 0 0.43817193734212517 0.1122507826128842 0 0.45185340951664532 0.1122029504522008 0 0.44518713843701591 0.12528920559461021 0 0.43817193734212517 0.1122507826128842 0 0.45185340951664532 0.1122029504522008 0 0.44518713843701591 0.12528920559461021 0 0.45913155583250892 0.120108938453116 0 0.45185340951664532 0.1122029504522008 0 0.44518713843701591 0.12528920559461021 0 0.43817193734212517 0.1122507826128842 0 0.42036882790173341 0.1178692878251045 0 0.43817193734212517 0.1122507826128842 0 0.42036882790173341 0.1178692878251045 0 0.42842227070386502 0.1023447597038671 0 0.44518713843701591 0.12528920559461021 0 0.42036882790173341 0.1178692878251045 0 0.42036882790173341 0.1178692878251045 0 0.3955505173664503 0.11044937005560029 0 0.40784013254787072 0.12510821097753899 0 0.42036882790173341 0.1178692878251045 0 0.39866250075504972 0.1182583467664623 0 0.42036882790173341 0.1178692878251045 0 0.41135042092314028 0.1034412122041926 0 0.3955505173664503 0.11044937005560029 0 0.41135042092314028 0.1034412122041926 0 0.42842227070386502 0.1023447597038671 0 0.41261219828502921 0.089148557345228696 0 0.42036882790173341 0.1178692878251045 0 0.41135042092314028 0.1034412122041926 0 0.42842227070386502 0.1023447597038671 0 0.41135042092314028 0.1034412122041926 0 0.41261219828502921 0.089148557345228696 0 0.40125721395625058 0.095659105618179086 0 0.44502804015136638 0.1035477094886383 0 0.43817193734212517 0.1122507826128842 0 0.42842227070386502 0.1023447597038671 0 0.44483200127060701 0.0914317099359932 0 0.42842227070386502 0.1023447597038671 0 0.42944964306037681 0.087292122167837022 0 0.42842227070386502 0.1023447597038671 0 0.42944964306037681 0.087292122167837022 0 0.41261219828502921 0.089148557345228696 0 0.43850234565852603 0.079629794414266708 0 0.42944964306037681 0.087292122167837022 0 0.42350212274493992 0.071626947634559179 0 0.43850234565852603 0.079629794414266708 0 0.44370396942264201 0.066844321228942988 0 0.42350212274493992 0.071626947634559179 0 0.42350212274493992 0.071626947634559179 0 0.40389880935373967 0.073410242209850179 0 0.40918989873610762 0.056909124071894593 0 0.42350212274493992 0.071626947634559179 0 0.41261219828502921 0.089148557345228696 0 0.40389880935373967 0.073410242209850179 0 0.42944964306037681 0.087292122167837022 0 0.42350212274493992 0.071626947634559179 0 0.41261219828502921 0.089148557345228696 0 0.41261219828502921 0.089148557345228696 0 0.39859066790368008 0.084782737740281083 0 0.40389880935373967 0.073410242209850179 0 0.41261219828502921 0.089148557345228696 0 0.39859066790368008 0.084782737740281083 0 0.40125721395625058 0.095659105618179086 0 0.39859066790368008 0.084782737740281083 0 0.38744967664430979 0.074856976749807694 0 0.387735441279071 0.090838806778339803 0 0.39859066790368008 0.084782737740281083 0 0.387735441279071 0.090838806778339803 0 0.40125721395625058 0.095659105618179086 0 0.40389880935373967 0.073410242209850179 0 0.39320280942062069 0.062881506583354799 0 0.38744967664430979 0.074856976749807694 0 0.39859066790368008 0.084782737740281083 0 0.40389880935373967 0.073410242209850179 0 0.38744967664430979 0.074856976749807694 0 0.40389880935373967 0.073410242209850179 0 0.39320280942062069 0.062881506583354799 0 0.40918989873610762 0.056909124071894593 0 0.37295318000684141 0.071255651664042921 0 0.38744967664430979 0.074856976749807694 0 0.37892596697808262 0.059204164228587368 0 0.39320280942062069 0.062881506583354799 0 0.38744967664430979 0.074856976749807694 0 0.37892596697808262 0.059204164228587368 0 0.37295318000684141 0.071255651664042921 0 0.38744967664430979 0.074856976749807694 0 0.37798135154881018 0.081823587903253725 0 0.38744967664430979 0.074856976749807694 0 0.387735441279071 0.090838806778339803 0 0.37798135154881018 0.081823587903253725 0 0.387735441279071 0.090838806778339803 0 0.37798135154881018 0.081823587903253725 0 0.37900038752675902 0.089529955834906624 0 0.387735441279071 0.090838806778339803 0 0.37900038752675902 0.089529955834906624 0 0.37822129919108233 0.095476496790246668 0 0.37150953892954941 0.090371435731814859 0 0.37798135154881018 0.081823587903253725 0 0.37900038752675902 0.089529955834906624 0 0.37150953892954941 0.090371435731814859 0 0.37900038752675902 0.089529955834906624 0 0.37822129919108233 0.095476496790246668 0 0.36360357275647209 0.09209158592910005 0 0.37822129919108233 0.095476496790246668 0 0.38328776685539723 0.1067831817270007 0 0.387735441279071 0.090838806778339803 0 0.38328776685539723 0.1067831817270007 0 0.3955505173664503 0.11044937005560029 0 0.36738998525987793 0.1020302299904744 0 0.38328776685539723 0.1067831817270007 0 0.387735441279071 0.090838806778339803 0 0.37822129919108233 0.095476496790246668 0 0.38328776685539723 0.1067831817270007 0 0.38328776685539723 0.1067831817270007 0 0.3955505173664503 0.11044937005560029 0 0.37360001330739268 0.1114708337735964 0 0.38328776685539723 0.1067831817270007 0 0.38433036034418039 0.1209483736269318 0 0.37360001330739268 0.1114708337735964 0 0.36825940068727891 0.1201696056674174 0 0.38433036034418039 0.1209483736269318 0 0.38328776685539723 0.1067831817270007 0 0.38433036034418039 0.1209483736269318 0 0.39866250075504972 0.1182583467664623 0 0.42036882790173341 0.1178692878251045 0 0.3955505173664503 0.11044937005560029 0 0.39866250075504972 0.1182583467664623 0 0.38328776685539723 0.1067831817270007 0 0.3955505173664503 0.11044937005560029 0 0.39866250075504972 0.1182583467664623 0 0.38328776685539723 0.1067831817270007 0 0.39866250075504972 0.1182583467664623 0 0.3955505173664503 0.11044937005560029 0 0.39866250075504972 0.1182583467664623 0 0.39473513970358098 0.12854290425844639 0 0.38433036034418039 0.1209483736269318 0 0.39866250075504972 0.1182583467664623 0 0.40784013254787072 0.12510821097753899 0 0.39866250075504972 0.1182583467664623 0 0.387735441279071 0.090838806778339803 0 0.3955505173664503 0.11044937005560029 0 0.41135042092314028 0.1034412122041926 0 0.3955505173664503 0.11044937005560029 0 0.40125721395625058 0.095659105618179086 0 0.387735441279071 0.090838806778339803 0 0.3955505173664503 0.11044937005560029 0 0.40125721395625058 0.095659105618179086 0 0.40246218748004359 0.01757150151273525 0 0.38537425054082453 0.021021628684759871 0 0.3939496420866902 0.032544644991895362 0 0.40246218748004359 0.01757150151273525 0 0.3939496420866902 0.032544644991895362 0 0.40879033136802378 0.036670680743878192 0 0.40246218748004359 0.01757150151273525 0 0.39119130555459242 0.0034535885157415879 0 0.4134326330300091 -0.0081425240949818956 0 0.40246218748004359 0.01757150151273525 0 0.39119130555459242 0.0034535885157415879 0 0.38537425054082453 0.021021628684759871 0 0.37294253482707579 0.01059444623525683 0 0.39119130555459242 0.0034535885157415879 0 0.37760379982886788 -0.00043313421310100028 0 0.37294253482707579 0.01059444623525683 0 0.39119130555459242 0.0034535885157415879 0 0.38537425054082453 0.021021628684759871 0 0.37474526637297229 0.023556796941533242 0 0.38537425054082453 0.021021628684759871 0 0.37895263843180721 0.038235409995188797 0 0.38537425054082453 0.021021628684759871 0 0.37895263843180721 0.038235409995188797 0 0.3939496420866902 0.032544644991895362 0 0.37294253482707579 0.01059444623525683 0 0.37474526637297229 0.023556796941533242 0 0.38537425054082453 0.021021628684759871 0 0.37895263843180721 0.038235409995188797 0 0.39416880261275211 0.049224004022914672 0 0.3939496420866902 0.032544644991895362 0 0.36952203436557951 0.041267906698185822 0 0.37895263843180721 0.038235409995188797 0 0.37892596697808262 0.059204164228587368 0 0.37895263843180721 0.038235409995188797 0 0.39416880261275211 0.049224004022914672 0 0.37895263843180721 0.038235409995188797 0 0.37892596697808262 0.059204164228587368 0 0.39416880261275211 0.049224004022914672 0 0.39320280942062069 0.062881506583354799 0 0.37892596697808262 0.059204164228587368 0 0.39416880261275211 0.049224004022914672 0 0.39416880261275211 0.049224004022914672 0 0.40879033136802378 0.036670680743878192 0 0.40918989873610762 0.056909124071894593 0 0.39320280942062069 0.062881506583354799 0 0.39416880261275211 0.049224004022914672 0 0.40918989873610762 0.056909124071894593 0 0.39416880261275211 0.049224004022914672 0 0.3939496420866902 0.032544644991895362 0 0.40879033136802378 0.036670680743878192 0 0.40879033136802378 0.036670680743878192 0 0.43316383092112948 0.047474067063119033 0 0.42401079164864769 0.01592493151882745 0 0.40879033136802378 0.036670680743878192 0 0.40918989873610762 0.056909124071894593 0 0.43316383092112948 0.047474067063119033 0 0.44370396942264201 0.066844321228942988 0 0.42350212274493992 0.071626947634559179 0 0.43316383092112948 0.047474067063119033 0 0.42350212274493992 0.071626947634559179 0 0.40918989873610762 0.056909124071894593 0 0.43316383092112948 0.047474067063119033 0 0.43316383092112948 0.047474067063119033 0 0.42401079164864769 0.01592493151882745 0 0.44761521743379967 0.02295556668807603 0 0.40246218748004359 0.01757150151273525 0 0.40879033136802378 0.036670680743878192 0 0.42401079164864769 0.01592493151882745 0 0.40246218748004359 0.01757150151273525 0 0.42401079164864769 0.01592493151882745 0 0.4134326330300091 -0.0081425240949818956 0 0.42401079164864769 0.01592493151882745 0 0.4134326330300091 -0.0081425240949818956 0 0.43672458657571889 -0.0025103731928187091 0 0.42401079164864769 0.01592493151882745 0 0.44761521743379967 0.02295556668807603 0 0.43672458657571889 -0.0025103731928187091 0 0.44761521743379967 0.02295556668807603 0 0.46206660394646992 -0.0015629336869669511 0 0.43672458657571889 -0.0025103731928187091 0 0.44761521743379967 0.02295556668807603 0 0.46470950129832062 0.033878531054115472 0 0.47329374978099181 0.018513024492546 0 0.44761521743379967 0.02295556668807603 0 0.47329374978099181 0.018513024492546 0 0.46206660394646992 -0.0015629336869669511 0 0.44761521743379967 0.02295556668807603 0 0.46206660394646992 -0.0015629336869669511 0 0.44370396942264201 0.066844321228942988 0 0.43316383092112948 0.047474067063119033 0 0.45343200437782821 0.056102739844168401 0 0.43316383092112948 0.047474067063119033 0 0.45273150915446608 0.041255708323844002 0 0.45343200437782821 0.056102739844168401 0 0.43316383092112948 0.047474067063119033 0 0.44761521743379967 0.02295556668807603 0 0.43316383092112948 0.047474067063119033 0 0.44761521743379967 0.02295556668807603 0 0.45273150915446608 0.041255708323844002 0 0.44761521743379967 0.02295556668807603 0 0.45273150915446608 0.041255708323844002 0 0.46470950129832062 0.033878531054115472 0 0.45273150915446608 0.041255708323844002 0 0.46470950129832062 0.033878531054115472 0 0.46678037019429103 0.048724116576354323 0 0.45273150915446608 0.041255708323844002 0 0.46678037019429103 0.048724116576354323 0 0.45343200437782821 0.056102739844168401 0 0.46678037019429103 0.048724116576354323 0 0.4663678179680843 0.060682917552954033 0 0.45343200437782821 0.056102739844168401 0 0.46058823407502097 0.066985674982622173 0 0.4663678179680843 0.060682917552954033 0 0.45343200437782821 0.056102739844168401 0 0.47916382372148719 0.060150178670802169 0 0.48079105120393067 0.041951757675465592 0 0.48957163609828802 0.059021418257163137 0 0.47916382372148719 0.060150178670802169 0 0.48079105120393067 0.041951757675465592 0 0.46678037019429103 0.048724116576354323 0 0.47916382372148719 0.060150178670802169 0 0.48079105120393067 0.041951757675465592 0 0.46678037019429103 0.048724116576354323 0 0.4663678179680843 0.060682917552954033 0 0.47916382372148719 0.060150178670802169 0 0.46470950129832062 0.033878531054115472 0 0.48079105120393067 0.041951757675465592 0 0.47329374978099181 0.018513024492546 0 0.46470950129832062 0.033878531054115472 0 0.46678037019429103 0.048724116576354323 0 0.48079105120393067 0.041951757675465592 0 0.48079105120393067 0.041951757675465592 0 0.5 0.046229747162949253 0 0.5 0.016489154730727429 0 0.48079105120393067 0.041951757675465592 0 0.5 0.046229747162949253 0 0.48957163609828802 0.059021418257163137 0 0.5 0.075970339595171077 0 0.5 0.046229747162949253 0 0.48957163609828802 0.059021418257163137 0 0.47329374978099181 0.018513024492546 0 0.48263320695525741 -0.001259818267235968 0 0.46206660394646992 -0.0015629336869669511 0 0.48079105120393067 0.041951757675465592 0 0.47329374978099181 0.018513024492546 0 0.5 0.016489154730727429 0 0.47329374978099181 0.018513024492546 0 0.5 0.016489154730727429 0 0.48263320695525741 -0.001259818267235968 0 0.5 0.016489154730727429 0 0.5 -0.01325143770149434 0 0.48263320695525741 -0.001259818267235968 0 0.5 -0.01325143770149434 0 0.48263320695525741 -0.001259818267235968 0 0.47651799045914017 -0.026081434062009929 0 0.48263320695525741 -0.001259818267235968 0 0.47651799045914017 -0.026081434062009929 0 0.46206660394646992 -0.0015629336869669511 0 0.47651799045914017 -0.026081434062009929 0 0.46206660394646992 -0.0015629336869669511 0 0.5 -0.01325143770149434 0 0.47651799045914017 -0.026081434062009929 0 0.5 -0.042992030133716053 0 0.47651799045914017 -0.026081434062009929 0 0.5 -0.042992030133716053 0 0.49096937697181042 -0.050599934437052858 0 0.49096937697181042 -0.050599934437052858 0 0.5 -0.072732622565937877 0 0.48258035506707248 -0.063004075549666763 0 0.5 -0.042992030133716053 0 0.49096937697181042 -0.050599934437052858 0 0.5 -0.072732622565937877 0 0.47232566782281088 -0.048983320219932631 0 0.48258035506707248 -0.063004075549666763 0 0.47019678055464098 -0.065668823985100724 0 0.49096937697181042 -0.050599934437052858 0 0.47232566782281088 -0.048983320219932631 0 0.48258035506707248 -0.063004075549666763 0 0.47651799045914017 -0.026081434062009929 0 0.49096937697181042 -0.050599934437052858 0 0.47651799045914017 -0.026081434062009929 0 0.47232566782281088 -0.048983320219932631 0 0.45875439794227402 -0.02882640142248458 0 0.47651799045914017 -0.026081434062009929 0 0.49096937697181042 -0.050599934437052858 0 0.47232566782281088 -0.048983320219932631 0 0.47232566782281088 -0.048983320219932631 0 0.4538617057114176 -0.044079584214913307 0 0.45875439794227402 -0.02882640142248458 0 0.47232566782281088 -0.048983320219932631 0 0.45511729529136352 -0.06222671487200658 0 0.47019678055464098 -0.065668823985100724 0 0.47232566782281088 -0.048983320219932631 0 0.4538617057114176 -0.044079584214913307 0 0.45511729529136352 -0.06222671487200658 0 0.45511729529136352 -0.06222671487200658 0 0.44307935810926308 -0.048823446648810789 0 0.43822633048198778 -0.064784374623206742 0 0.4538617057114176 -0.044079584214913307 0 0.45511729529136352 -0.06222671487200658 0 0.44307935810926308 -0.048823446648810789 0 0.4538617057114176 -0.044079584214913307 0 0.44198735359050012 -0.034946027704050253 0 0.45875439794227402 -0.02882640142248458 0 0.4538617057114176 -0.044079584214913307 0 0.44307935810926308 -0.048823446648810789 0 0.44198735359050012 -0.034946027704050253 0 0.44307935810926308 -0.048823446648810789 0 0.44198735359050012 -0.034946027704050253 0 0.42819931832662428 -0.040644377849193163 0 0.44198735359050012 -0.034946027704050253 0 0.44405683565171461 -0.020171104529534752 0 0.45875439794227402 -0.02882640142248458 0 0.44198735359050012 -0.034946027704050253 0 0.44405683565171461 -0.020171104529534752 0 0.429165437743673 -0.024066175052332141 0 0.44405683565171461 -0.020171104529534752 0 0.46206660394646992 -0.0015629336869669511 0 0.43672458657571889 -0.0025103731928187091 0 0.47651799045914017 -0.026081434062009929 0 0.46206660394646992 -0.0015629336869669511 0 0.45875439794227402 -0.02882640142248458 0 0.44405683565171461 -0.020171104529534752 0 0.46206660394646992 -0.0015629336869669511 0 0.45875439794227402 -0.02882640142248458 0 0.4775061862933267 -0.1115557727057918 0 0.45828035479271489 -0.113064368171234 0 0.47574630687967312 -0.12579017742597401 0 0.4775061862933267 -0.1115557727057918 0 0.49054818325236282 -0.1257619253337465 0 0.47574630687967312 -0.12579017742597401 0 0.49999999999999939 -0.1024732149981596 0 0.49054818325236282 -0.1257619253337465 0 0.4775061862933267 -0.1115557727057918 0 0.49999999999999939 -0.1024732149981596 0 0.49054818325236282 -0.1257619253337465 0 0.49999999999999939 -0.1024732149981596 0 0.5 -0.1262086412738998 0 0.49054818325236282 -0.1257619253337465 0 0.4775061862933267 -0.1115557727057918 0 0.49999999999999939 -0.1024732149981596 0 0.47255829066553712 -0.094800718336932308 0 0.4775061862933267 -0.1115557727057918 0 0.47255829066553712 -0.094800718336932308 0 0.45828035479271489 -0.113064368171234 0 0.47255829066553712 -0.094800718336932308 0 0.4794099499861002 -0.077035676540309739 0 0.46520923065291081 -0.078808572695637569 0 0.49999999999999939 -0.1024732149981596 0 0.47255829066553712 -0.094800718336932308 0 0.4794099499861002 -0.077035676540309739 0 0.49999999999999939 -0.1024732149981596 0 0.5 -0.072732622565937877 0 0.4794099499861002 -0.077035676540309739 0 0.5 -0.072732622565937877 0 0.48258035506707248 -0.063004075549666763 0 0.4794099499861002 -0.077035676540309739 0 0.48258035506707248 -0.063004075549666763 0 0.4794099499861002 -0.077035676540309739 0 0.47019678055464098 -0.065668823985100724 0 0.4794099499861002 -0.077035676540309739 0 0.47019678055464098 -0.065668823985100724 0 0.46520923065291081 -0.078808572695637569 0 0.45511729529136352 -0.06222671487200658 0 0.47019678055464098 -0.065668823985100724 0 0.46520923065291081 -0.078808572695637569 0 0.45511729529136352 -0.06222671487200658 0 0.44825334263735128 -0.088924371397220314 0 0.46520923065291081 -0.078808572695637569 0 0.43822633048198778 -0.064784374623206742 0 0.44825334263735128 -0.088924371397220314 0 0.43118506422657582 -0.080427924141739604 0 0.43822633048198778 -0.064784374623206742 0 0.44825334263735128 -0.088924371397220314 0 0.45511729529136352 -0.06222671487200658 0 0.43822633048198778 -0.064784374623206742 0 0.44825334263735128 -0.088924371397220314 0 0.44825334263735128 -0.088924371397220314 0 0.43433976774389738 -0.10058550739423811 0 0.43118506422657582 -0.080427924141739604 0 0.47255829066553712 -0.094800718336932308 0 0.44825334263735128 -0.088924371397220314 0 0.46520923065291081 -0.078808572695637569 0 0.44825334263735128 -0.088924371397220314 0 0.45828035479271489 -0.113064368171234 0 0.47255829066553712 -0.094800718336932308 0 0.44825334263735128 -0.088924371397220314 0 0.45828035479271489 -0.113064368171234 0 0.44825334263735128 -0.088924371397220314 0 0.45828035479271489 -0.113064368171234 0 0.43433976774389738 -0.10058550739423811 0 0.45828035479271489 -0.113064368171234 0 0.43433976774389738 -0.10058550739423811 0 0.44092479249240568 -0.12747828222871169 0 0.45828035479271489 -0.113064368171234 0 0.46488475554209879 -0.13446621701837519 0 0.47574630687967312 -0.12579017742597401 0 0.42099662251237358 -0.1139954922210559 0 0.40432748380727751 -0.10687384111152259 0 0.40139278968641212 -0.1348833127229925 0 0.42099662251237358 -0.1139954922210559 0 0.43433976774389738 -0.10058550739423811 0 0.44092479249240568 -0.12747828222871169 0 0.42099662251237358 -0.1139954922210559 0 0.43433976774389738 -0.10058550739423811 0 0.4191056251417824 -0.087532250189537392 0 0.4191056251417824 -0.087532250189537392 0 0.40429151935213259 -0.088252215223455749 0 0.40432748380727751 -0.10687384111152259 0 0.42099662251237358 -0.1139954922210559 0 0.4191056251417824 -0.087532250189537392 0 0.42099662251237358 -0.1139954922210559 0 0.4191056251417824 -0.087532250189537392 0 0.40432748380727751 -0.10687384111152259 0 0.41074272277956181 -0.07780775255226928 0 0.40427429161796702 -0.074652520128837635 0 0.40429151935213259 -0.088252215223455749 0 0.4191056251417824 -0.087532250189537392 0 0.41074272277956181 -0.07780775255226928 0 0.40429151935213259 -0.088252215223455749 0 0.43433976774389738 -0.10058550739423811 0 0.4191056251417824 -0.087532250189537392 0 0.43118506422657582 -0.080427924141739604 0 0.43822633048198778 -0.064784374623206742 0 0.43118506422657582 -0.080427924141739604 0 0.41721462777119128 -0.06106900815801887 0 0.4191056251417824 -0.087532250189537392 0 0.43118506422657582 -0.080427924141739604 0 0.41721462777119128 -0.06106900815801887 0 0.4191056251417824 -0.087532250189537392 0 0.41721462777119128 -0.06106900815801887 0 0.4191056251417824 -0.087532250189537392 0 0.41074272277956181 -0.07780775255226928 0 0.41721462777119128 -0.06106900815801887 0 0.41074272277956181 -0.07780775255226928 0 0.40791498501523621 -0.069832814129058812 0 0.41721462777119128 -0.06106900815801887 0 0.41074272277956181 -0.07780775255226928 0 0.40791498501523621 -0.069832814129058812 0 0.40427429161796702 -0.074652520128837635 0 0.40791498501523621 -0.069832814129058812 0 0.41721462777119128 -0.06106900815801887 0 0.40633542717299431 -0.056711080866164852 0 0.40055157323471702 -0.075073731473784419 0 0.40633542717299431 -0.056711080866164852 0 0.39858367780637061 -0.065585730932760225 0 0.40055157323471702 -0.075073731473784419 0 0.40633542717299431 -0.056711080866164852 0 0.40791498501523621 -0.069832814129058812 0 0.40055157323471702 -0.075073731473784419 0 0.40633542717299431 -0.056711080866164852 0 0.40791498501523621 -0.069832814129058812 0 0.40427429161796702 -0.074652520128837635 0 0.40055157323471702 -0.075073731473784419 0 0.40427429161796702 -0.074652520128837635 0 0.40055157323471702 -0.075073731473784419 0 0.39858367780637061 -0.065585730932760225 0 0.40055157323471702 -0.075073731473784419 0 0.39174618846870402 -0.068846464144115313 0 0.39174618846870402 -0.068846464144115313 0 0.39570152234906719 -0.061711647246976337 0 0.38686666596285008 -0.061042029071852341 0 0.39858367780637061 -0.065585730932760225 0 0.39174618846870402 -0.068846464144115313 0 0.39570152234906719 -0.061711647246976337 0 0.40055157323471702 -0.075073731473784419 0 0.39174618846870402 -0.068846464144115313 0 0.37755868796990011 -0.077675288489263417 0 0.40055157323471702 -0.075073731473784419 0 0.37755868796990011 -0.077675288489263417 0 0.37755868796990011 -0.077675288489263417 0 0.38686666596285008 -0.061042029071852341 0 0.37352032859163709 -0.057721304058238852 0 0.39174618846870402 -0.068846464144115313 0 0.37755868796990011 -0.077675288489263417 0 0.38686666596285008 -0.061042029071852341 0 0.40055157323471702 -0.075073731473784419 0 0.37755868796990011 -0.077675288489263417 0 0.38990559274031639 -0.083891000392820991 0 0.37755868796990011 -0.077675288489263417 0 0.38990559274031639 -0.083891000392820991 0 0.37084200097384118 -0.099948852110232814 0 0.38990559274031639 -0.083891000392820991 0 0.39357663979522689 -0.097217835928626123 0 0.37084200097384118 -0.099948852110232814 0 0.40055157323471702 -0.075073731473784419 0 0.38990559274031639 -0.083891000392820991 0 0.39357663979522689 -0.097217835928626123 0 0.40055157323471702 -0.075073731473784419 0 0.40429151935213259 -0.088252215223455749 0 0.39357663979522689 -0.097217835928626123 0 0.40055157323471702 -0.075073731473784419 0 0.39357663979522689 -0.097217835928626123 0 0.40427429161796702 -0.074652520128837635 0 0.40055157323471702 -0.075073731473784419 0 0.40429151935213259 -0.088252215223455749 0 0.40429151935213259 -0.088252215223455749 0 0.39357663979522689 -0.097217835928626123 0 0.40432748380727751 -0.10687384111152259 0 0.39357663979522689 -0.097217835928626123 0 0.40432748380727751 -0.10687384111152259 0 0.38660170635573687 -0.1193619403834678 0 0.39357663979522689 -0.097217835928626123 0 0.38660170635573687 -0.1193619403834678 0 0.39357663979522689 -0.097217835928626123 0 0.38660170635573687 -0.1193619403834678 0 0.37084200097384118 -0.099948852110232814 0 0.38660170635573687 -0.1193619403834678 0 0.36892844815853321 -0.1249047661769056 0 0.37084200097384118 -0.099948852110232814 0 0.40432748380727751 -0.10687384111152259 0 0.38660170635573687 -0.1193619403834678 0 0.40139278968641212 -0.1348833127229925 0 0.4134326330300091 -0.0081425240949818956 0 0.41532363040060022 -0.034605766126500383 0 0.4134326330300091 -0.0081425240949818956 0 0.429165437743673 -0.024066175052332141 0 0.41532363040060022 -0.034605766126500383 0 0.4134326330300091 -0.0081425240949818956 0 0.41532363040060022 -0.034605766126500383 0 0.40224711486815518 -0.028031482465191462 0 0.44405683565171461 -0.020171104529534752 0 0.43672458657571889 -0.0025103731928187091 0 0.429165437743673 -0.024066175052332141 0 0.4134326330300091 -0.0081425240949818956 0 0.43672458657571889 -0.0025103731928187091 0 0.429165437743673 -0.024066175052332141 0 0.44198735359050012 -0.034946027704050253 0 0.429165437743673 -0.024066175052332141 0 0.42819931832662428 -0.040644377849193163 0 0.429165437743673 -0.024066175052332141 0 0.42819931832662428 -0.040644377849193163 0 0.41532363040060022 -0.034605766126500383 0 0.44307935810926308 -0.048823446648810789 0 0.43822633048198778 -0.064784374623206742 0 0.42819931832662428 -0.040644377849193163 0 0.43822633048198778 -0.064784374623206742 0 0.42819931832662428 -0.040644377849193163 0 0.43822633048198778 -0.064784374623206742 0 0.42819931832662428 -0.040644377849193163 0 0.41721462777119128 -0.06106900815801887 0 0.41721462777119128 -0.06106900815801887 0 0.41532363040060022 -0.034605766126500383 0 0.40602299778419532 -0.046040878963086528 0 0.41721462777119128 -0.06106900815801887 0 0.41532363040060022 -0.034605766126500383 0 0.41721462777119128 -0.06106900815801887 0 0.40633542717299431 -0.056711080866164852 0 0.40602299778419532 -0.046040878963086528 0 0.41532363040060022 -0.034605766126500383 0 0.40602299778419532 -0.046040878963086528 0 0.40224711486815518 -0.028031482465191462 0 0.42819931832662428 -0.040644377849193163 0 0.41721462777119128 -0.06106900815801887 0 0.41532363040060022 -0.034605766126500383 0 0.40602299778419532 -0.046040878963086528 0 0.39711033158737702 -0.041469027592932077 0 0.40224711486815518 -0.028031482465191462 0 0.40602299778419532 -0.046040878963086528 0 0.39711033158737702 -0.041469027592932077 0 0.39584205906601722 -0.051802106749802207 0 0.39711033158737702 -0.041469027592932077 0 0.39584205906601722 -0.051802106749802207 0 0.38528172147808271 -0.046293809005382332 0 0.39711033158737702 -0.041469027592932077 0 0.39064136687458723 -0.033000376427584542 0 0.38528172147808271 -0.046293809005382332 0 0.39711033158737702 -0.041469027592932077 0 0.39064136687458723 -0.033000376427584542 0 0.40224711486815518 -0.028031482465191462 0 0.39858367780637061 -0.065585730932760225 0 0.40633542717299431 -0.056711080866164852 0 0.39570152234906719 -0.061711647246976337 0 0.40633542717299431 -0.056711080866164852 0 0.39584205906601722 -0.051802106749802207 0 0.39570152234906719 -0.061711647246976337 0 0.40633542717299431 -0.056711080866164852 0 0.40602299778419532 -0.046040878963086528 0 0.39584205906601722 -0.051802106749802207 0 0.39584205906601722 -0.051802106749802207 0 0.39570152234906719 -0.061711647246976337 0 0.38686666596285008 -0.061042029071852341 0 0.39584205906601722 -0.051802106749802207 0 0.38686666596285008 -0.061042029071852341 0 0.38528172147808271 -0.046293809005382332 0 0.38528172147808271 -0.046293809005382332 0 0.37192838111640042 -0.043090146468552297 0 0.37352032859163709 -0.057721304058238852 0 0.38686666596285008 -0.061042029071852341 0 0.38528172147808271 -0.046293809005382332 0 0.37352032859163709 -0.057721304058238852 0 0.39064136687458723 -0.033000376427584542 0 0.38528172147808271 -0.046293809005382332 0 0.37988335971156523 -0.035240291177815027 0 0.38528172147808271 -0.046293809005382332 0 0.37988335971156523 -0.035240291177815027 0 0.37192838111640042 -0.043090146468552297 0 0.37988335971156523 -0.035240291177815027 0 0.38077512566197291 -0.021900963600091281 0 0.36997392698673037 -0.02947005184619925 0 0.38077512566197291 -0.021900963600091281 0 0.39351290218816271 -0.022393525105217828 0 0.38595964092693391 -0.0094489484630412984 0 0.39064136687458723 -0.033000376427584542 0 0.38077512566197291 -0.021900963600091281 0 0.39351290218816271 -0.022393525105217828 0 0.39064136687458723 -0.033000376427584542 0 0.37988335971156523 -0.035240291177815027 0 0.38077512566197291 -0.021900963600091281 0 0.4134326330300091 -0.0081425240949818956 0 0.40224711486815518 -0.028031482465191462 0 0.39726871931357072 -0.012912578322538179 0 0.39064136687458723 -0.033000376427584542 0 0.39351290218816271 -0.022393525105217828 0 0.40224711486815518 -0.028031482465191462 0 0.39351290218816271 -0.022393525105217828 0 0.40224711486815518 -0.028031482465191462 0 0.39726871931357072 -0.012912578322538179 0 0.39119130555459242 0.0034535885157415879 0 0.4134326330300091 -0.0081425240949818956 0 0.39726871931357072 -0.012912578322538179 0 0.39119130555459242 0.0034535885157415879 0 0.39726871931357072 -0.012912578322538179 0 0.38595964092693391 -0.0094489484630412984 0 0.39351290218816271 -0.022393525105217828 0 0.39726871931357072 -0.012912578322538179 0 0.38595964092693391 -0.0094489484630412984 0 0.39119130555459242 0.0034535885157415879 0 0.38595964092693391 -0.0094489484630412984 0 0.37760379982886788 -0.00043313421310100028 0 0.38077512566197291 -0.021900963600091281 0 0.38595964092693391 -0.0094489484630412984 0 0.37352412417026198 -0.0086599361090777417 0 0.38595964092693391 -0.0094489484630412984 0 0.37760379982886788 -0.00043313421310100028 0 0.37352412417026198 -0.0086599361090777417 0 0.36440139366547541 0.001895178755615623 0 0.36345533559157062 -0.01295525424199459 0 0.3510713588824817 -0.016240093862602011 0 0.36440139366547541 0.001895178755615623 0 0.37760379982886788 -0.00043313421310100028 0 0.37352412417026198 -0.0086599361090777417 0 0.37352412417026198 -0.0086599361090777417 0 0.36345533559157062 -0.01295525424199459 0 0.36924913884153671 -0.01921360069563512 0 0.36440139366547541 0.001895178755615623 0 0.37352412417026198 -0.0086599361090777417 0 0.36345533559157062 -0.01295525424199459 0 0.38077512566197291 -0.021900963600091281 0 0.36997392698673037 -0.02947005184619925 0 0.36924913884153671 -0.01921360069563512 0 0.38077512566197291 -0.021900963600091281 0 0.37352412417026198 -0.0086599361090777417 0 0.36924913884153671 -0.01921360069563512 0 0.36345533559157062 -0.01295525424199459 0 0.36924913884153671 -0.01921360069563512 0 0.36224890888928402 -0.02238009810630957 0 0.36997392698673037 -0.02947005184619925 0 0.36224890888928402 -0.02238009810630957 0 0.35749478414410069 -0.034021489885116878 0 0.36997392698673037 -0.02947005184619925 0 0.36924913884153671 -0.01921360069563512 0 0.36224890888928402 -0.02238009810630957 0 0.3510713588824817 -0.016240093862602011 0 0.33774132409948793 -0.034375366480819423 0 0.35749478414410069 -0.034021489885116878 0 0.36224890888928402 -0.02238009810630957 0 0.3510713588824817 -0.016240093862602011 0 0.35749478414410069 -0.034021489885116878 0 0.3510713588824817 -0.016240093862602011 0 0.3468963480347198 -0.0083866267754060184 0 0.33774132409948793 -0.034375366480819423 0 0.3510713588824817 -0.016240093862602011 0 0.33774132409948793 -0.034375366480819423 0 0.36345533559157062 -0.01295525424199459 0 0.36224890888928402 -0.02238009810630957 0 0.3510713588824817 -0.016240093862602011 0 0.36440139366547541 0.001895178755615623 0 0.3510713588824817 -0.016240093862602011 0 0.3468963480347198 -0.0083866267754060184 0 0.36440139366547541 0.001895178755615623 0 0.3510713588824817 -0.016240093862602011 0 0.3468963480347198 -0.0083866267754060184 0 0.33158447523820522 -0.017207141832551169 0 0.32439510923811371 -0.0011641740482105779 0 0.33158447523820522 -0.017207141832551169 0 0.31885421456356922 -0.02191393541025069 0 0.33774132409948793 -0.034375366480819423 0 0.3468963480347198 -0.0083866267754060184 0 0.33774132409948793 -0.034375366480819423 0 0.3468963480347198 -0.0083866267754060184 0 0.33158447523820522 -0.017207141832551169 0 0.33774132409948793 -0.034375366480819423 0 0.31885421456356922 -0.02191393541025069 0 0.31293184394702928 -0.036165921810200452 0 0.33774132409948793 -0.034375366480819423 0 0.33158447523820522 -0.017207141832551169 0 0.31885421456356922 -0.02191393541025069 0 0.32439510923811371 -0.0011641740482105779 0 0.32439510923811371 -0.0011641740482105779 0 0.30472442673173888 -0.015369669056047039 0 0.31033225328533481 0.001712276495528905 0 0.32439510923811371 -0.0011641740482105779 0 0.30472442673173888 -0.015369669056047039 0 0.31885421456356922 -0.02191393541025069 0 0.32439510923811371 -0.0011641740482105779 0 0.30472442673173888 -0.015369669056047039 0 0.32113926116232222 -0.056962174564352798 0 0.31293184394702928 -0.036165921810200452 0 0.30532118393206892 -0.053814837618057471 0 0.32113926116232222 -0.056962174564352798 0 0.31197687842134653 -0.06942743152317532 0 0.30532118393206892 -0.053814837618057471 0 0.32113926116232222 -0.056962174564352798 0 0.3292957039179002 -0.058350292827584402 0 0.32509827068645208 -0.066993657131916851 0 0.32113926116232222 -0.056962174564352798 0 0.32509827068645208 -0.066993657131916851 0 0.32113926116232222 -0.056962174564352798 0 0.31293184394702928 -0.036165921810200452 0 0.32113926116232222 -0.056962174564352798 0 0.31293184394702928 -0.036165921810200452 0 0.33774132409948793 -0.034375366480819423 0 0.33774132409948793 -0.034375366480819423 0 0.3292957039179002 -0.058350292827584402 0 0.32113926116232222 -0.056962174564352798 0 0.33774132409948793 -0.034375366480819423 0 0.33774132409948793 -0.034375366480819423 0 0.3292957039179002 -0.058350292827584402 0 0.34415169163497172 -0.055363247628415227 0 0.32113926116232222 -0.056962174564352798 0 0.33774132409948793 -0.034375366480819423 0 0.3292957039179002 -0.058350292827584402 0 0.3292957039179002 -0.058350292827584402 0 0.34415169163497172 -0.055363247628415227 0 0.33546907660555991 -0.06427764789246293 0 0.34415169163497172 -0.055363247628415227 0 0.35171765223484469 -0.044456469090844879 0 0.36032382230281312 -0.052714669916820389 0 0.34415169163497172 -0.055363247628415227 0 0.36032382230281312 -0.052714669916820389 0 0.35324138356223311 -0.063597671460010413 0 0.33774132409948793 -0.034375366480819423 0 0.35171765223484469 -0.044456469090844879 0 0.35749478414410069 -0.034021489885116878 0 0.33774132409948793 -0.034375366480819423 0 0.34415169163497172 -0.055363247628415227 0 0.35171765223484469 -0.044456469090844879 0 0.35171765223484469 -0.044456469090844879 0 0.35749478414410069 -0.034021489885116878 0 0.36032382230281312 -0.052714669916820389 0 0.35749478414410069 -0.034021489885116878 0 0.37192838111640042 -0.043090146468552297 0 0.36032382230281312 -0.052714669916820389 0 0.36997392698673037 -0.02947005184619925 0 0.35749478414410069 -0.034021489885116878 0 0.37192838111640042 -0.043090146468552297 0 0.37988335971156523 -0.035240291177815027 0 0.36997392698673037 -0.02947005184619925 0 0.37192838111640042 -0.043090146468552297 0 0.36032382230281312 -0.052714669916820389 0 0.36520154789890491 -0.068453604598504636 0 0.35324138356223311 -0.063597671460010413 0 0.36032382230281312 -0.052714669916820389 0 0.37352032859163709 -0.057721304058238852 0 0.36520154789890491 -0.068453604598504636 0 0.37192838111640042 -0.043090146468552297 0 0.36032382230281312 -0.052714669916820389 0 0.37352032859163709 -0.057721304058238852 0 0.37755868796990011 -0.077675288489263417 0 0.36520154789890491 -0.068453604598504636 0 0.3545658027050832 -0.080276845504742567 0 0.37755868796990011 -0.077675288489263417 0 0.37352032859163709 -0.057721304058238852 0 0.36520154789890491 -0.068453604598504636 0 0.37755868796990011 -0.077675288489263417 0 0.3545658027050832 -0.080276845504742567 0 0.37084200097384118 -0.099948852110232814 0 0.37755868796990011 -0.077675288489263417 0 0.3545658027050832 -0.080276845504742567 0 0.3545658027050832 -0.080276845504742567 0 0.35026822601345392 -0.096187322991804339 0 0.33157291744026629 -0.082878402520221689 0 0.3545658027050832 -0.080276845504742567 0 0.37084200097384118 -0.099948852110232814 0 0.35026822601345392 -0.096187322991804339 0 0.36520154789890491 -0.068453604598504636 0 0.3545658027050832 -0.080276845504742567 0 0.35324138356223311 -0.063597671460010413 0 0.3545658027050832 -0.080276845504742567 0 0.35324138356223311 -0.063597671460010413 0 0.34171045588828802 -0.069567459402758547 0 0.34415169163497172 -0.055363247628415227 0 0.35324138356223311 -0.063597671460010413 0 0.34171045588828802 -0.069567459402758547 0 0.36892844815853321 -0.1249047661769056 0 0.37084200097384118 -0.099948852110232814 0 0.35689380213083172 -0.11116844221524851 0 0.37084200097384118 -0.099948852110232814 0 0.35026822601345392 -0.096187322991804339 0 0.35689380213083172 -0.11116844221524851 0 0.35026822601345392 -0.096187322991804339 0 0.35689380213083172 -0.11116844221524851 0 0.34381027128102121 -0.1101777240538945 0 0.36892844815853321 -0.1249047661769056 0 0.35689380213083172 -0.11116844221524851 0 0.35062006422730879 -0.1246235457434051 0 0.35689380213083172 -0.11116844221524851 0 0.34381027128102121 -0.1101777240538945 0 0.35062006422730879 -0.1246235457434051 0 0.34381027128102121 -0.1101777240538945 0 0.33602192972224632 -0.11937813502018881 0 0.32800565052154712 -0.1079998951708631 0 0.33602192972224632 -0.11937813502018881 0 0.31866132604247832 -0.1160164442581503 0 0.33216815925553361 -0.12959872546738541 0 0.34381027128102121 -0.1101777240538945 0 0.35062006422730879 -0.1246235457434051 0 0.33602192972224632 -0.11937813502018881 0 0.35062006422730879 -0.1246235457434051 0 0.33602192972224632 -0.11937813502018881 0 0.3407950552388328 -0.12900565341057441 0 0.34381027128102121 -0.1101777240538945 0 0.33422411998396268 -0.097393205281082945 0 0.32800565052154712 -0.1079998951708631 0 0.35026822601345392 -0.096187322991804339 0 0.34381027128102121 -0.1101777240538945 0 0.33422411998396268 -0.097393205281082945 0 0.33422411998396268 -0.097393205281082945 0 0.32230140413567132 -0.098132234369835841 0 0.32800565052154712 -0.1079998951708631 0 0.33422411998396268 -0.097393205281082945 0 0.32230140413567132 -0.098132234369835841 0 0.32675052847285302 -0.092152092547096984 0 0.32230140413567132 -0.098132234369835841 0 0.31890367233151212 -0.090204528017247473 0 0.30929982741991202 -0.095365087495263665 0 0.32230140413567132 -0.098132234369835841 0 0.31355989373455428 -0.106633998459426 0 0.30929982741991202 -0.095365087495263665 0 0.32230140413567132 -0.098132234369835841 0 0.31355989373455428 -0.106633998459426 0 0.32800565052154712 -0.1079998951708631 0 0.33602192972224632 -0.11937813502018881 0 0.32800565052154712 -0.1079998951708631 0 0.31866132604247832 -0.1160164442581503 0 0.31355989373455428 -0.106633998459426 0 0.32800565052154712 -0.1079998951708631 0 0.31866132604247832 -0.1160164442581503 0 0.3545658027050832 -0.080276845504742567 0 0.34171045588828802 -0.069567459402758547 0 0.33157291744026629 -0.082878402520221689 0 0.33169213208440029 -0.071520435628996556 0 0.34171045588828802 -0.069567459402758547 0 0.33157291744026629 -0.082878402520221689 0 0.3292957039179002 -0.058350292827584402 0 0.33169213208440029 -0.071520435628996556 0 0.33546907660555991 -0.06427764789246293 0 0.33169213208440029 -0.071520435628996556 0 0.33546907660555991 -0.06427764789246293 0 0.34171045588828802 -0.069567459402758547 0 0.34415169163497172 -0.055363247628415227 0 0.33546907660555991 -0.06427764789246293 0 0.34171045588828802 -0.069567459402758547 0 0.35026822601345392 -0.096187322991804339 0 0.33422411998396268 -0.097393205281082945 0 0.33157291744026629 -0.082878402520221689 0 0.3545658027050832 -0.080276845504742567 0 0.33157291744026629 -0.082878402520221689 0 0.33422411998396268 -0.097393205281082945 0 0.33157291744026629 -0.082878402520221689 0 0.32675052847285302 -0.092152092547096984 0 0.33157291744026629 -0.082878402520221689 0 0.31890367233151212 -0.090204528017247473 0 0.30858003217544938 -0.085479959535700839 0 0.33157291744026629 -0.082878402520221689 0 0.32085008373631269 -0.082325219174349581 0 0.30858003217544938 -0.085479959535700839 0 0.33169213208440029 -0.071520435628996556 0 0.33157291744026629 -0.082878402520221689 0 0.32085008373631269 -0.082325219174349581 0 0.33157291744026629 -0.082878402520221689 0 0.30858003217544938 -0.085479959535700839 0 0.32230140413567132 -0.098132234369835841 0 0.32675052847285302 -0.092152092547096984 0 0.31890367233151212 -0.090204528017247473 0 0.33157291744026629 -0.082878402520221689 0 0.32675052847285302 -0.092152092547096984 0 0.31890367233151212 -0.090204528017247473 0 0.32085008373631269 -0.082325219174349581 0 0.31354700770139288 -0.077640947536551208 0 0.30858003217544938 -0.085479959535700839 0 0.31354700770139288 -0.077640947536551208 0 0.32509827068645208 -0.066993657131916851 0 0.31197687842134653 -0.06942743152317532 0 0.32085008373631269 -0.082325219174349581 0 0.31354700770139288 -0.077640947536551208 0 0.32509827068645208 -0.066993657131916851 0 0.3292957039179002 -0.058350292827584402 0 0.32085008373631269 -0.082325219174349581 0 0.32509827068645208 -0.066993657131916851 0 0.3292957039179002 -0.058350292827584402 0 0.33169213208440029 -0.071520435628996556 0 0.32085008373631269 -0.082325219174349581 0 0.3292957039179002 -0.058350292827584402 0 0.32085008373631269 -0.082325219174349581 0 0.32113926116232222 -0.056962174564352798 0 0.32509827068645208 -0.066993657131916851 0 0.31197687842134653 -0.06942743152317532 0 0.32113926116232222 -0.056962174564352798 0 0.31197687842134653 -0.06942743152317532 0 0.31197687842134653 -0.06942743152317532 0 0.29746708839017277 -0.065294396005272079 0 0.30532118393206892 -0.053814837618057471 0 0.31197687842134653 -0.06942743152317532 0 0.29746708839017277 -0.065294396005272079 0 0.29796765102505879 -0.075831122741836066 0 0.31197687842134653 -0.06942743152317532 0 0.29796765102505879 -0.075831122741836066 0 0.30281449568037039 -0.081892688481997489 0 0.31197687842134653 -0.06942743152317532 0 0.30281449568037039 -0.081892688481997489 0 0.31354700770139288 -0.077640947536551208 0 0.31197687842134653 -0.06942743152317532 0 0.30281449568037039 -0.081892688481997489 0 0.31354700770139288 -0.077640947536551208 0 0.30858003217544938 -0.085479959535700839 0 0.30281449568037039 -0.081892688481997489 0 0.30858003217544938 -0.085479959535700839 0 0.30333581767267259 -0.08868675337516263 0 0.30281449568037039 -0.081892688481997489 0 0.31890367233151212 -0.090204528017247473 0 0.30858003217544938 -0.085479959535700839 0 0.30929982741991202 -0.095365087495263665 0 0.30858003217544938 -0.085479959535700839 0 0.30333581767267259 -0.08868675337516263 0 0.30929982741991202 -0.095365087495263665 0 0.30333581767267259 -0.08868675337516263 0 0.29676012201103702 -0.086020116996308918 0 0.29922461107659443 -0.094675914366542269 0 0.30333581767267259 -0.08868675337516263 0 0.30929982741991202 -0.095365087495263665 0 0.29922461107659443 -0.094675914366542269 0 0.29796765102505879 -0.075831122741836066 0 0.30281449568037039 -0.081892688481997489 0 0.29676012201103702 -0.086020116996308918 0 0.30333581767267259 -0.08868675337516263 0 0.30281449568037039 -0.081892688481997489 0 0.29676012201103702 -0.086020116996308918 0 0.29796765102505879 -0.075831122741836066 0 0.29205293743667432 -0.080856124781875052 0 0.29676012201103702 -0.086020116996308918 0 0.29205293743667432 -0.080856124781875052 0 0.29676012201103702 -0.086020116996308918 0 0.28957947409416168 -0.085944541206644715 0 0.29676012201103702 -0.086020116996308918 0 0.29083927870337639 -0.091588588899327555 0 0.29922461107659443 -0.094675914366542269 0 0.29676012201103702 -0.086020116996308918 0 0.28957947409416168 -0.085944541206644715 0 0.29083927870337639 -0.091588588899327555 0 0.29083927870337639 -0.091588588899327555 0 0.28411670599782418 -0.088363773107860977 0 0.2831736068808276 -0.094881664156623358 0 0.28957947409416168 -0.085944541206644715 0 0.29083927870337639 -0.091588588899327555 0 0.28411670599782418 -0.088363773107860977 0 0.28411670599782418 -0.088363773107860977 0 0.2831736068808276 -0.094881664156623358 0 0.2790859651114902 -0.090785505276985465 0 0.29205293743667432 -0.080856124781875052 0 0.28957947409416168 -0.085944541206644715 0 0.28412832632189661 -0.082894102247851056 0 0.28412832632189661 -0.082894102247851056 0 0.28349581259803092 -0.0736853291005376 0 0.27630006534501639 -0.079283753968901693 0 0.29205293743667432 -0.080856124781875052 0 0.28412832632189661 -0.082894102247851056 0 0.28349581259803092 -0.0736853291005376 0 0.28957947409416168 -0.085944541206644715 0 0.28411670599782418 -0.088363773107860977 0 0.28412832632189661 -0.082894102247851056 0 0.28411670599782418 -0.088363773107860977 0 0.28412832632189661 -0.082894102247851056 0 0.27851754450974281 -0.085799803214711257 0 0.29205293743667432 -0.080856124781875052 0 0.28349581259803092 -0.0736853291005376 0 0.29135861405319491 -0.070890170016920759 0 0.28349581259803092 -0.0736853291005376 0 0.29135861405319491 -0.070890170016920759 0 0.28580958081603758 -0.058783877455082963 0 0.29746708839017277 -0.065294396005272079 0 0.29135861405319491 -0.070890170016920759 0 0.28580958081603758 -0.058783877455082963 0 0.29746708839017277 -0.065294396005272079 0 0.29796765102505879 -0.075831122741836066 0 0.29135861405319491 -0.070890170016920759 0 0.29796765102505879 -0.075831122741836066 0 0.29205293743667432 -0.080856124781875052 0 0.29135861405319491 -0.070890170016920759 0 0.30445699924468722 -0.11600664888952909 0 0.29159390878913022 -0.1279808632143741 0 0.30913965066518317 -0.12703223380977521 0 0.31866132604247832 -0.1160164442581503 0 0.30445699924468722 -0.11600664888952909 0 0.30913965066518317 -0.12703223380977521 0 0.31355989373455428 -0.106633998459426 0 0.31866132604247832 -0.1160164442581503 0 0.30445699924468722 -0.11600664888952909 0 0.30445699924468722 -0.11600664888952909 0 0.30177359564198231 -0.1047421341771365 0 0.29026758383940959 -0.1120104203448173 0 0.31355989373455428 -0.106633998459426 0 0.30177359564198231 -0.1047421341771365 0 0.30929982741991202 -0.095365087495263665 0 0.31355989373455428 -0.106633998459426 0 0.30445699924468722 -0.11600664888952909 0 0.30177359564198231 -0.1047421341771365 0 0.30177359564198231 -0.1047421341771365 0 0.30929982741991202 -0.095365087495263665 0 0.29922461107659443 -0.094675914366542269 0 0.30177359564198231 -0.1047421341771365 0 0.29922461107659443 -0.094675914366542269 0 0.29069749223535679 -0.1001450051612086 0 0.29083927870337639 -0.091588588899327555 0 0.29922461107659443 -0.094675914366542269 0 0.29069749223535679 -0.1001450051612086 0 0.29069749223535679 -0.1001450051612086 0 0.2831736068808276 -0.094881664156623358 0 0.27919296665720139 -0.1020011156025817 0 0.29083927870337639 -0.091588588899327555 0 0.29069749223535679 -0.1001450051612086 0 0.2831736068808276 -0.094881664156623358 0 0.29069749223535679 -0.1001450051612086 0 0.29026758383940959 -0.1120104203448173 0 0.27919296665720139 -0.1020011156025817 0 0.30177359564198231 -0.1047421341771365 0 0.29069749223535679 -0.1001450051612086 0 0.29026758383940959 -0.1120104203448173 0 0.29026758383940959 -0.1120104203448173 0 0.27446166226678481 -0.11539201534628341 0 0.27919296665720139 -0.1020011156025817 0 0.29026758383940959 -0.1120104203448173 0 0.27446166226678481 -0.11539201534628341 0 0.29159390878913022 -0.1279808632143741 0 0.27446166226678481 -0.11539201534628341 0 0.27863529775215118 -0.13130885407456161 0 0.29159390878913022 -0.1279808632143741 0 0.30445699924468722 -0.11600664888952909 0 0.29026758383940959 -0.1120104203448173 0 0.29159390878913022 -0.1279808632143741 0 0.27446166226678481 -0.11539201534628341 0 0.29159390878913022 -0.1279808632143741 0 0.27446166226678481 -0.11539201534628341 0 0.27863529775215118 -0.13130885407456161 0 0.27446166226678481 -0.11539201534628341 0 0.25875100621879649 -0.12504953296095059 0 0.27863529775215118 -0.13130885407456161 0 0.27446166226678481 -0.11539201534628341 0 0.26848811655621441 -0.092610925803507813 0 0.27446166226678481 -0.11539201534628341 0 0.25721619871458618 -0.10271997512142091 0 0.26848811655621441 -0.092610925803507813 0 0.27446166226678481 -0.11539201534628341 0 0.25721619871458618 -0.10271997512142091 0 0.27446166226678481 -0.11539201534628341 0 0.27919296665720139 -0.1020011156025817 0 0.26848811655621441 -0.092610925803507813 0 0.27919296665720139 -0.1020011156025817 0 0.27581600977518889 -0.094569171557080639 0 0.26848811655621441 -0.092610925803507813 0 0.2831736068808276 -0.094881664156623358 0 0.27919296665720139 -0.1020011156025817 0 0.27581600977518889 -0.094569171557080639 0 0.25721619871458618 -0.10271997512142091 0 0.26848811655621441 -0.092610925803507813 0 0.26050825240686448 -0.091533934836894496 0 0.25721619871458618 -0.10271997512142091 0 0.26848811655621441 -0.092610925803507813 0 0.25721619871458618 -0.10271997512142091 0 0.26050825240686448 -0.091533934836894496 0 0.25174049021884548 -0.087486636901796727 0 0.27446166226678481 -0.11539201534628341 0 0.25721619871458618 -0.10271997512142091 0 0.25875100621879649 -0.12504953296095059 0 0.25721619871458618 -0.10271997512142091 0 0.25875100621879649 -0.12504953296095059 0 0.23946377219984241 -0.11864097079151539 0 0.26639566211606319 -0.077486903324068934 0 0.2740550190205176 -0.065911157801392645 0 0.25782929842336338 -0.063524329579946456 0 0.26639566211606319 -0.077486903324068934 0 0.2740550190205176 -0.065911157801392645 0 0.27630006534501639 -0.079283753968901693 0 0.28349581259803092 -0.0736853291005376 0 0.2740550190205176 -0.065911157801392645 0 0.28580958081603758 -0.058783877455082963 0 0.28349581259803092 -0.0736853291005376 0 0.2740550190205176 -0.065911157801392645 0 0.27630006534501639 -0.079283753968901693 0 0.28412832632189661 -0.082894102247851056 0 0.27851754450974281 -0.085799803214711257 0 0.27630006534501639 -0.079283753968901693 0 0.27851754450974281 -0.085799803214711257 0 0.27630006534501639 -0.079283753968901693 0 0.27234198765136769 -0.084720763533666227 0 0.2831736068808276 -0.094881664156623358 0 0.27581600977518889 -0.094569171557080639 0 0.2790859651114902 -0.090785505276985465 0 0.27851754450974281 -0.085799803214711257 0 0.2790859651114902 -0.090785505276985465 0 0.27515093929693291 -0.089242560026841944 0 0.28411670599782418 -0.088363773107860977 0 0.27851754450974281 -0.085799803214711257 0 0.2790859651114902 -0.090785505276985465 0 0.27851754450974281 -0.085799803214711257 0 0.27515093929693291 -0.089242560026841944 0 0.27234198765136769 -0.084720763533666227 0 0.27581600977518889 -0.094569171557080639 0 0.2790859651114902 -0.090785505276985465 0 0.27515093929693291 -0.089242560026841944 0 0.27581600977518889 -0.094569171557080639 0 0.27515093929693291 -0.089242560026841944 0 0.27075843380955422 -0.090574826055110275 0 0.27581600977518889 -0.094569171557080639 0 0.27075843380955422 -0.090574826055110275 0 0.26848811655621441 -0.092610925803507813 0 0.27075843380955422 -0.090574826055110275 0 0.26848811655621441 -0.092610925803507813 0 0.27515093929693291 -0.089242560026841944 0 0.27075843380955422 -0.090574826055110275 0 0.27234198765136769 -0.084720763533666227 0 0.27075843380955422 -0.090574826055110275 0 0.26693290225906591 -0.086679862766885551 0 0.27234198765136769 -0.084720763533666227 0 0.26693290225906591 -0.086679862766885551 0 0.26848811655621441 -0.092610925803507813 0 0.27075843380955422 -0.090574826055110275 0 0.26693290225906591 -0.086679862766885551 0 0.26848811655621441 -0.092610925803507813 0 0.26639566211606319 -0.077486903324068934 0 0.27630006534501639 -0.079283753968901693 0 0.27234198765136769 -0.084720763533666227 0 0.26639566211606319 -0.077486903324068934 0 0.26693290225906591 -0.086679862766885551 0 0.27234198765136769 -0.084720763533666227 0 0.26639566211606319 -0.077486903324068934 0 0.26693290225906591 -0.086679862766885551 0 0.26017862556604782 -0.084465736959569215 0 0.26639566211606319 -0.077486903324068934 0 0.26017862556604782 -0.084465736959569215 0 0.25531582082939952 -0.079141346968200396 0 0.26693290225906591 -0.086679862766885551 0 0.26848811655621441 -0.092610925803507813 0 0.26050825240686448 -0.091533934836894496 0 0.26693290225906591 -0.086679862766885551 0 0.26017862556604782 -0.084465736959569215 0 0.26050825240686448 -0.091533934836894496 0 0.26017862556604782 -0.084465736959569215 0 0.26050825240686448 -0.091533934836894496 0 0.25174049021884548 -0.087486636901796727 0 0.26017862556604782 -0.084465736959569215 0 0.25174049021884548 -0.087486636901796727 0 0.25531582082939952 -0.079141346968200396 0 0.25531582082939952 -0.079141346968200396 0 0.25782929842336338 -0.063524329579946456 0 0.23974687695672151 -0.083316692675018428 0 0.26639566211606319 -0.077486903324068934 0 0.25531582082939952 -0.079141346968200396 0 0.25782929842336338 -0.063524329579946456 0 0.25782929842336338 -0.063524329579946456 0 0.25002440808248971 -0.049070108055649597 0 0.2424790725628117 -0.068061140075458951 0 0.25782929842336338 -0.063524329579946456 0 0.25002440808248971 -0.049070108055649597 0 0.27591171989000529 -0.04373196648487454 0 0.2740550190205176 -0.065911157801392645 0 0.25782929842336338 -0.063524329579946456 0 0.27591171989000529 -0.04373196648487454 0 0.2740550190205176 -0.065911157801392645 0 0.27591171989000529 -0.04373196648487454 0 0.28580958081603758 -0.058783877455082963 0 0.25782929842336338 -0.063524329579946456 0 0.27591171989000529 -0.04373196648487454 0 0.27591171989000529 -0.04373196648487454 0 0.27735903868336192 -0.031740056614602073 0 0.25548622622839667 -0.03190991485936516 0 0.25002440808248971 -0.049070108055649597 0 0.27591171989000529 -0.04373196648487454 0 0.25548622622839667 -0.03190991485936516 0 0.25548622622839667 -0.03190991485936516 0 0.26316610588291889 -0.01548425961105131 0 0.27770230622727071 -0.019666001727380249 0 0.25548622622839667 -0.03190991485936516 0 0.26316610588291889 -0.01548425961105131 0 0.24820666495033469 -0.010671503176887811 0 0.27245236435601983 -0.0028518406608112538 0 0.24820666495033469 -0.010671503176887811 0 0.26316610588291889 -0.01548425961105131 0 0.27245236435601983 -0.0028518406608112538 0 0.24820666495033469 -0.010671503176887811 0 0.25664898171853662 0.0056114648194218507 0 0.27245236435601983 -0.0028518406608112538 0 0.24820666495033469 -0.010671503176887811 0 0.27245236435601983 -0.0028518406608112538 0 0.27770230622727071 -0.019666001727380249 0 0.2901426303658472 -0.0085593345258249982 0 0.26316610588291889 -0.01548425961105131 0 0.27245236435601983 -0.0028518406608112538 0 0.27770230622727071 -0.019666001727380249 0 0.27735903868336192 -0.031740056614602073 0 0.25548622622839667 -0.03190991485936516 0 0.27770230622727071 -0.019666001727380249 0 0.25548622622839667 -0.03190991485936516 0 0.27770230622727071 -0.019666001727380249 0 0.27735903868336192 -0.031740056614602073 0 0.27770230622727071 -0.019666001727380249 0 0.2866154472820816 -0.022962069510895591 0 0.27735903868336192 -0.031740056614602073 0 0.2866154472820816 -0.022962069510895591 0 0.29405855385444818 -0.023072198130139231 0 0.27770230622727071 -0.019666001727380249 0 0.2866154472820816 -0.022962069510895591 0 0.28956375000426021 -0.017283932756289359 0 0.2866154472820816 -0.022962069510895591 0 0.28956375000426021 -0.017283932756289359 0 0.29405855385444818 -0.023072198130139231 0 0.28956375000426021 -0.017283932756289359 0 0.29541094877832041 -0.016176344353092832 0 0.29405855385444818 -0.023072198130139231 0 0.29405855385444818 -0.023072198130139231 0 0.29692197467967968 -0.029018650600014181 0 0.29230268948280203 -0.034585818718675138 0 0.29669806376170488 0.0049678218552653636 0 0.27245236435601983 -0.0028518406608112538 0 0.2901426303658472 -0.0085593345258249982 0 0.27770230622727071 -0.019666001727380249 0 0.28956375000426021 -0.017283932756289359 0 0.2901426303658472 -0.0085593345258249982 0 0.29541094877832041 -0.016176344353092832 0 0.2901426303658472 -0.0085593345258249982 0 0.30472442673173888 -0.015369669056047039 0 0.28956375000426021 -0.017283932756289359 0 0.29541094877832041 -0.016176344353092832 0 0.2901426303658472 -0.0085593345258249982 0 0.31033225328533481 0.001712276495528905 0 0.29669806376170488 0.0049678218552653636 0 0.30472442673173888 -0.015369669056047039 0 0.29669806376170488 0.0049678218552653636 0 0.2901426303658472 -0.0085593345258249982 0 0.30472442673173888 -0.015369669056047039 0 0.29669806376170488 0.0049678218552653636 0 0.30472442673173888 -0.015369669056047039 0 0.31293184394702928 -0.036165921810200452 0 0.30472442673173888 -0.015369669056047039 0 0.29982370446671958 -0.023936405684760399 0 0.31885421456356922 -0.02191393541025069 0 0.31293184394702928 -0.036165921810200452 0 0.30472442673173888 -0.015369669056047039 0 0.31293184394702928 -0.036165921810200452 0 0.30472442673173888 -0.015369669056047039 0 0.31293184394702928 -0.036165921810200452 0 0.29982370446671958 -0.023936405684760399 0 0.29999230420119688 -0.033034672256742982 0 0.29692197467967968 -0.029018650600014181 0 0.29982370446671958 -0.023936405684760399 0 0.29999230420119688 -0.033034672256742982 0 0.29405855385444818 -0.023072198130139231 0 0.29692197467967968 -0.029018650600014181 0 0.29982370446671958 -0.023936405684760399 0 0.29541094877832041 -0.016176344353092832 0 0.29405855385444818 -0.023072198130139231 0 0.30472442673173888 -0.015369669056047039 0 0.29405855385444818 -0.023072198130139231 0 0.30472442673173888 -0.015369669056047039 0 0.29405855385444818 -0.023072198130139231 0 0.30472442673173888 -0.015369669056047039 0 0.29982370446671958 -0.023936405684760399 0 0.31293184394702928 -0.036165921810200452 0 0.30532118393206892 -0.053814837618057471 0 0.29455473577647268 -0.043153340224441887 0 0.31293184394702928 -0.036165921810200452 0 0.29999230420119688 -0.033034672256742982 0 0.29455473577647268 -0.043153340224441887 0 0.29746708839017277 -0.065294396005272079 0 0.30532118393206892 -0.053814837618057471 0 0.29578814722868801 -0.055261612825713603 0 0.30532118393206892 -0.053814837618057471 0 0.29578814722868801 -0.055261612825713603 0 0.29455473577647268 -0.043153340224441887 0 0.29578814722868801 -0.055261612825713603 0 0.28580958081603758 -0.058783877455082963 0 0.29455473577647268 -0.043153340224441887 0 0.27591171989000529 -0.04373196648487454 0 0.28580958081603758 -0.058783877455082963 0 0.29455473577647268 -0.043153340224441887 0 0.29746708839017277 -0.065294396005272079 0 0.29578814722868801 -0.055261612825713603 0 0.28580958081603758 -0.058783877455082963 0 0.27591171989000529 -0.04373196648487454 0 0.29230268948280203 -0.034585818718675138 0 0.29455473577647268 -0.043153340224441887 0 0.27591171989000529 -0.04373196648487454 0 0.29405855385444818 -0.023072198130139231 0 0.27591171989000529 -0.04373196648487454 0 0.27735903868336192 -0.031740056614602073 0 0.29405855385444818 -0.023072198130139231 0 0.27591171989000529 -0.04373196648487454 0 0.29405855385444818 -0.023072198130139231 0 0.29230268948280203 -0.034585818718675138 0 0.29999230420119688 -0.033034672256742982 0 0.29230268948280203 -0.034585818718675138 0 0.29455473577647268 -0.043153340224441887 0 0.29692197467967968 -0.029018650600014181 0 0.29999230420119688 -0.033034672256742982 0 0.29230268948280203 -0.034585818718675138 0 0.28304456934196132 -0.21040780225078121 0 0.29955686468219622 -0.21101085745181289 0 0.28686681690347782 -0.2230811129199767 0 0.28304456934196132 -0.21040780225078121 0 0.28468493947340812 -0.19756035861734769 0 0.29955686468219622 -0.21101085745181289 0 0.28468493947340812 -0.19756035861734769 0 0.30188457884086728 -0.1986535637700283 0 0.29955686468219622 -0.21101085745181289 0 0.28468493947340812 -0.19756035861734769 0 0.30188457884086728 -0.1986535637700283 0 0.29515411624069271 -0.18660141202939279 0 0.28468493947340812 -0.19756035861734769 0 0.27808265084970107 -0.17922403302440629 0 0.29515411624069271 -0.18660141202939279 0 0.30188457884086728 -0.1986535637700283 0 0.29515411624069271 -0.18660141202939279 0 0.31453580060441111 -0.18999111815888561 0 0.30188457884086728 -0.1986535637700283 0 0.31882006570172122 -0.20594305790058409 0 0.31453580060441111 -0.18999111815888561 0 0.29955686468219622 -0.21101085745181289 0 0.31669537675115972 -0.2175556610923958 0 0.31882006570172122 -0.20594305790058409 0 0.30188457884086728 -0.1986535637700283 0 0.29955686468219622 -0.21101085745181289 0 0.31882006570172122 -0.20594305790058409 0 0.29955686468219622 -0.21101085745181289 0 0.30395357075514462 -0.2253582266454619 0 0.31669537675115972 -0.2175556610923958 0 0.30395357075514462 -0.2253582266454619 0 0.31669537675115972 -0.2175556610923958 0 0.31526495809652272 -0.22717434466432981 0 0.30909257150035152 -0.23414456314565871 0 0.30395357075514462 -0.2253582266454619 0 0.31526495809652272 -0.22717434466432981 0 0.30909257150035152 -0.23414456314565871 0 0.30395357075514462 -0.2253582266454619 0 0.29675187277504089 -0.24077871660993291 0 0.30909257150035152 -0.23414456314565871 0 0.29675187277504089 -0.24077871660993291 0 0.31440153750881022 -0.25585096765320098 0 0.29675187277504089 -0.24077871660993291 0 0.27951171511203837 -0.23820816909590339 0 0.2808859915677191 -0.25298064889964872 0 0.29675187277504089 -0.24077871660993291 0 0.28686681690347782 -0.2230811129199767 0 0.27951171511203837 -0.23820816909590339 0 0.30395357075514462 -0.2253582266454619 0 0.29675187277504089 -0.24077871660993291 0 0.28686681690347782 -0.2230811129199767 0 0.29955686468219622 -0.21101085745181289 0 0.30395357075514462 -0.2253582266454619 0 0.28686681690347782 -0.2230811129199767 0 0.28686681690347782 -0.2230811129199767 0 0.26818020838970469 -0.23053346047278001 0 0.27951171511203837 -0.23820816909590339 0 0.28686681690347782 -0.2230811129199767 0 0.26818020838970469 -0.23053346047278001 0 0.27028664558422588 -0.21672853691687041 0 0.27951171511203837 -0.23820816909590339 0 0.26487368592424948 -0.2436669065771791 0 0.2808859915677191 -0.25298064889964872 0 0.26818020838970469 -0.23053346047278001 0 0.27951171511203837 -0.23820816909590339 0 0.26487368592424948 -0.2436669065771791 0 0.26487368592424948 -0.2436669065771791 0 0.25436638690304969 -0.22747799096314841 0 0.2484788525112992 -0.25384991982673899 0 0.25436638690304969 -0.22747799096314841 0 0.2484788525112992 -0.25384991982673899 0 0.26818020838970469 -0.23053346047278001 0 0.25436638690304969 -0.22747799096314841 0 0.27028664558422588 -0.21672853691687041 0 0.26818020838970469 -0.23053346047278001 0 0.26487368592424948 -0.2436669065771791 0 0.25436638690304969 -0.22747799096314841 0 0.25436638690304969 -0.22747799096314841 0 0.27028664558422588 -0.21672853691687041 0 0.26025392129480029 -0.20110606209955781 0 0.25436638690304969 -0.22747799096314841 0 0.26025392129480029 -0.20110606209955781 0 0.24494309261358449 -0.20972046551627541 0 0.25436638690304969 -0.22747799096314841 0 0.26025392129480029 -0.20110606209955781 0 0.28304456934196132 -0.21040780225078121 0 0.28686681690347782 -0.2230811129199767 0 0.27028664558422588 -0.21672853691687041 0 0.27028664558422588 -0.21672853691687041 0 0.27382758006649832 -0.20365814534789789 0 0.26025392129480029 -0.20110606209955781 0 0.28304456934196132 -0.21040780225078121 0 0.27028664558422588 -0.21672853691687041 0 0.27382758006649832 -0.20365814534789789 0 0.28304456934196132 -0.21040780225078121 0 0.28468493947340812 -0.19756035861734769 0 0.27382758006649832 -0.20365814534789789 0 0.27238630044348999 -0.19141820492325179 0 0.26025392129480029 -0.20110606209955781 0 0.26614145568655168 -0.17473413323596751 0 0.28468493947340812 -0.19756035861734769 0 0.27238630044348999 -0.19141820492325179 0 0.27808265084970107 -0.17922403302440629 0 0.28468493947340812 -0.19756035861734769 0 0.27382758006649832 -0.20365814534789789 0 0.27238630044348999 -0.19141820492325179 0 0.27382758006649832 -0.20365814534789789 0 0.27238630044348999 -0.19141820492325179 0 0.26025392129480029 -0.20110606209955781 0 0.25554227415006853 -0.19222729937612171 0 0.24494309261358449 -0.20972046551627541 0 0.26025392129480029 -0.20110606209955781 0 0.25554227415006853 -0.19222729937612171 0 0.26614145568655168 -0.17473413323596751 0 0.26025392129480029 -0.20110606209955781 0 0.26614145568655168 -0.17473413323596751 0 0.26025392129480029 -0.20110606209955781 0 0.25554227415006853 -0.19222729937612171 0 0.24494309261358449 -0.20972046551627541 0 0.25554227415006853 -0.19222729937612171 0 0.25796616033780118 -0.1725408592901749 0 0.26614145568655168 -0.17473413323596751 0 0.25554227415006853 -0.19222729937612171 0 0.25796616033780118 -0.1725408592901749 0 0.24543199639070409 -0.18264300804967451 0 0.25554227415006853 -0.19222729937612171 0 0.26614145568655168 -0.17473413323596751 0 0.25796616033780118 -0.1725408592901749 0 0.26687517087673929 -0.17144761573742009 0 0.26614145568655168 -0.17473413323596751 0 0.25796616033780118 -0.1725408592901749 0 0.2486145811112937 -0.16884638692669571 0 0.24543199639070409 -0.18264300804967451 0 0.25796616033780118 -0.1725408592901749 0 0.26114861347281387 -0.15977193974449311 0 0.2486145811112937 -0.16884638692669571 0 0.26114861347281387 -0.15977193974449311 0 0.25179086874915613 -0.15330806089431401 0 0.2486145811112937 -0.16884638692669571 0 0.26114861347281387 -0.15977193974449311 0 0.2631367956739285 -0.16708258574927529 0 0.26655723800835968 -0.16456992822501321 0 0.25796616033780118 -0.1725408592901749 0 0.2631367956739285 -0.16708258574927529 0 0.26687517087673929 -0.17144761573742009 0 0.25796616033780118 -0.1725408592901749 0 0.26114861347281387 -0.15977193974449311 0 0.2631367956739285 -0.16708258574927529 0 0.2631367956739285 -0.16708258574927529 0 0.26687517087673929 -0.17144761573742009 0 0.26655723800835968 -0.16456992822501321 0 0.26687517087673929 -0.17144761573742009 0 0.26655723800835968 -0.16456992822501321 0 0.27447519446203428 -0.1609799130194034 0 0.26687517087673929 -0.17144761573742009 0 0.27447519446203428 -0.1609799130194034 0 0.26614145568655168 -0.17473413323596751 0 0.27447519446203428 -0.1609799130194034 0 0.27808265084970107 -0.17922403302440629 0 0.29001797670027391 -0.1747185542623565 0 0.27447519446203428 -0.1609799130194034 0 0.26614145568655168 -0.17473413323596751 0 0.27447519446203428 -0.1609799130194034 0 0.27808265084970107 -0.17922403302440629 0 0.26614145568655168 -0.17473413323596751 0 0.26114861347281387 -0.15977193974449311 0 0.26655723800835968 -0.16456992822501321 0 0.27447519446203428 -0.1609799130194034 0 0.27238630044348999 -0.19141820492325179 0 0.27808265084970107 -0.17922403302440629 0 0.26614145568655168 -0.17473413323596751 0 0.26687517087673929 -0.17144761573742009 0 0.26614145568655168 -0.17473413323596751 0 0.25875100621879649 -0.12504953296095059 0 0.26488398849809469 -0.1442874953964805 0 0.24289792203789021 -0.14188522053962821 0 0.26488398849809469 -0.1442874953964805 0 0.25179086874915613 -0.15330806089431401 0 0.24289792203789021 -0.14188522053962821 0 0.26114861347281387 -0.15977193974449311 0 0.26488398849809469 -0.1442874953964805 0 0.25179086874915613 -0.15330806089431401 0 0.27447519446203428 -0.1609799130194034 0 0.26488398849809469 -0.1442874953964805 0 0.28280893323751788 -0.14722569280283981 0 0.26114861347281387 -0.15977193974449311 0 0.27447519446203428 -0.1609799130194034 0 0.26488398849809469 -0.1442874953964805 0 0.26488398849809469 -0.1442874953964805 0 0.27863529775215118 -0.13130885407456161 0 0.28280893323751788 -0.14722569280283981 0 0.27447519446203428 -0.1609799130194034 0 0.28280893323751788 -0.14722569280283981 0 0.27863529775215118 -0.13130885407456161 0 0.28280893323751788 -0.14722569280283981 0 0.25875100621879649 -0.12504953296095059 0 0.26488398849809469 -0.1442874953964805 0 0.27863529775215118 -0.13130885407456161 0 0.27863529775215118 -0.13130885407456161 0 0.28498135069571562 -0.1407963566948027 0 0.28280893323751788 -0.14722569280283981 0 0.27863529775215118 -0.13130885407456161 0 0.29159390878913022 -0.1279808632143741 0 0.2878149751139682 -0.13732215674795509 0 0.27863529775215118 -0.13130885407456161 0 0.2878149751139682 -0.13732215674795509 0 0.28498135069571562 -0.1407963566948027 0 0.2878149751139682 -0.13732215674795509 0 0.2891716175379242 -0.14350990039156411 0 0.28498135069571562 -0.1407963566948027 0 0.29159390878913022 -0.1279808632143741 0 0.2878149751139682 -0.13732215674795509 0 0.29480499231202062 -0.1413047434370715 0 0.29480499231202062 -0.1413047434370715 0 0.29232739532889712 -0.15166901370818339 0 0.3020706719889299 -0.1498438365519392 0 0.29480499231202062 -0.1413047434370715 0 0.2891716175379242 -0.14350990039156411 0 0.29232739532889712 -0.15166901370818339 0 0.2891716175379242 -0.14350990039156411 0 0.28648590678767699 -0.14597597275722191 0 0.29232739532889712 -0.15166901370818339 0 0.2878149751139682 -0.13732215674795509 0 0.29480499231202062 -0.1413047434370715 0 0.2891716175379242 -0.14350990039156411 0 0.2891716175379242 -0.14350990039156411 0 0.28498135069571562 -0.1407963566948027 0 0.28648590678767699 -0.14597597275722191 0 0.28280893323751788 -0.14722569280283981 0 0.28648590678767699 -0.14597597275722191 0 0.29232739532889712 -0.15166901370818339 0 0.28498135069571562 -0.1407963566948027 0 0.28280893323751788 -0.14722569280283981 0 0.28648590678767699 -0.14597597275722191 0 0.29232739532889712 -0.15166901370818339 0 0.3020706719889299 -0.1498438365519392 0 0.30235872082449983 -0.1614315138179224 0 0.3020706719889299 -0.1498438365519392 0 0.31213609616775778 -0.15424420071405209 0 0.30235872082449983 -0.1614315138179224 0 0.3020706719889299 -0.1498438365519392 0 0.31213609616775778 -0.15424420071405209 0 0.30872615531147418 -0.14056971108246669 0 0.29480499231202062 -0.1413047434370715 0 0.3020706719889299 -0.1498438365519392 0 0.30872615531147418 -0.14056971108246669 0 0.29159390878913022 -0.1279808632143741 0 0.30872615531147418 -0.14056971108246669 0 0.29159390878913022 -0.1279808632143741 0 0.30872615531147418 -0.14056971108246669 0 0.30913965066518317 -0.12703223380977521 0 0.29159390878913022 -0.1279808632143741 0 0.29480499231202062 -0.1413047434370715 0 0.30872615531147418 -0.14056971108246669 0 0.27808265084970107 -0.17922403302440629 0 0.29001797670027391 -0.1747185542623565 0 0.29515411624069271 -0.18660141202939279 0 0.29001797670027391 -0.1747185542623565 0 0.29515411624069271 -0.18660141202939279 0 0.30543569606404458 -0.17606482478382801 0 0.29232739532889712 -0.15166901370818339 0 0.29001797670027391 -0.1747185542623565 0 0.30235872082449983 -0.1614315138179224 0 0.27447519446203428 -0.1609799130194034 0 0.28280893323751788 -0.14722569280283981 0 0.29001797670027391 -0.1747185542623565 0 0.28280893323751788 -0.14722569280283981 0 0.29232739532889712 -0.15166901370818339 0 0.29001797670027391 -0.1747185542623565 0 0.28280893323751788 -0.14722569280283981 0 0.29001797670027391 -0.1747185542623565 0 0.29001797670027391 -0.1747185542623565 0 0.30235872082449983 -0.1614315138179224 0 0.30543569606404458 -0.17606482478382801 0 0.31213609616775778 -0.15424420071405209 0 0.30235872082449983 -0.1614315138179224 0 0.31350609690106901 -0.16582061841154461 0 0.30235872082449983 -0.1614315138179224 0 0.30543569606404458 -0.17606482478382801 0 0.31350609690106901 -0.16582061841154461 0 0.29515411624069271 -0.18660141202939279 0 0.30543569606404458 -0.17606482478382801 0 0.31453580060441111 -0.18999111815888561 0 0.30543569606404458 -0.17606482478382801 0 0.31859019223355067 -0.17641072387307269 0 0.31453580060441111 -0.18999111815888561 0 0.32592812551767258 -0.18457636524275189 0 0.31859019223355067 -0.17641072387307269 0 0.31453580060441111 -0.18999111815888561 0 0.31859019223355067 -0.17641072387307269 0 0.32210844871179151 -0.1667705269762525 0 0.32979061491708561 -0.17345162151767621 0 0.32592812551767258 -0.18457636524275189 0 0.31859019223355067 -0.17641072387307269 0 0.32979061491708561 -0.17345162151767621 0 0.30543569606404458 -0.17606482478382801 0 0.31859019223355067 -0.17641072387307269 0 0.31350609690106901 -0.16582061841154461 0 0.31859019223355067 -0.17641072387307269 0 0.31350609690106901 -0.16582061841154461 0 0.32210844871179151 -0.1667705269762525 0 0.31350609690106901 -0.16582061841154461 0 0.31840226090360879 -0.15999847626310251 0 0.32210844871179151 -0.1667705269762525 0 0.32210844871179151 -0.1667705269762525 0 0.32979061491708561 -0.17345162151767621 0 0.32585840183381709 -0.1531585589505608 0 0.32979061491708561 -0.17345162151767621 0 0.32585840183381709 -0.1531585589505608 0 0.31213609616775778 -0.15424420071405209 0 0.31350609690106901 -0.16582061841154461 0 0.31840226090360879 -0.15999847626310251 0 0.31840226090360879 -0.15999847626310251 0 0.32210844871179151 -0.1667705269762525 0 0.32585840183381709 -0.1531585589505608 0 0.33509768675375662 -0.15994762494464171 0 0.33556749571157168 -0.17901167732769929 0 0.34787529092781982 -0.16933666302882869 0 0.33509768675375662 -0.15994762494464171 0 0.32979061491708561 -0.17345162151767621 0 0.33556749571157168 -0.17901167732769929 0 0.33509768675375662 -0.15994762494464171 0 0.32979061491708561 -0.17345162151767621 0 0.32585840183381709 -0.1531585589505608 0 0.33509768675375662 -0.15994762494464171 0 0.33556749571157168 -0.17901167732769929 0 0.33509768675375662 -0.15994762494464171 0 0.32585840183381709 -0.1531585589505608 0 0.33509768675375662 -0.15994762494464171 0 0.34787529092781982 -0.16933666302882869 0 0.3453057120017497 -0.15667167558393219 0 0.33509768675375662 -0.15994762494464171 0 0.34787529092781982 -0.16933666302882869 0 0.32979061491708561 -0.17345162151767621 0 0.33556749571157168 -0.17901167732769929 0 0.33372282800035669 -0.19374468408479101 0 0.34063015670432079 -0.1810560539250041 0 0.33556749571157168 -0.17901167732769929 0 0.35284401263924348 -0.17667040057744501 0 0.32979061491708561 -0.17345162151767621 0 0.33372282800035669 -0.19374468408479101 0 0.32592812551767258 -0.18457636524275189 0 0.32979061491708561 -0.17345162151767621 0 0.33372282800035669 -0.19374468408479101 0 0.34063015670432079 -0.1810560539250041 0 0.3384740200401718 -0.18741812857892531 0 0.33556749571157168 -0.17901167732769929 0 0.34063015670432079 -0.1810560539250041 0 0.3430915906280847 -0.18385278586231221 0 0.3384740200401718 -0.18741812857892531 0 0.3430915906280847 -0.18385278586231221 0 0.3384740200401718 -0.18741812857892531 0 0.34229522890714942 -0.18989707570219619 0 0.31866132604247832 -0.1160164442581503 0 0.32225986393814637 -0.13458750160435581 0 0.33216815925553361 -0.12959872546738541 0 0.31866132604247832 -0.1160164442581503 0 0.32225986393814637 -0.13458750160435581 0 0.31866132604247832 -0.1160164442581503 0 0.30913965066518317 -0.12703223380977521 0 0.32225986393814637 -0.13458750160435581 0 0.30872615531147418 -0.14056971108246669 0 0.30913965066518317 -0.12703223380977521 0 0.32225986393814637 -0.13458750160435581 0 0.30872615531147418 -0.14056971108246669 0 0.32225986393814637 -0.13458750160435581 0 0.32585840183381709 -0.1531585589505608 0 0.32225986393814637 -0.13458750160435581 0 0.32585840183381709 -0.1531585589505608 0 0.32225986393814637 -0.13458750160435581 0 0.32585840183381709 -0.1531585589505608 0 0.33038522870242337 -0.13926111298166699 0 0.30872615531147418 -0.14056971108246669 0 0.32585840183381709 -0.1531585589505608 0 0.31213609616775778 -0.15424420071405209 0 0.30872615531147418 -0.14056971108246669 0 0.32585840183381709 -0.1531585589505608 0 0.31213609616775778 -0.15424420071405209 0 0.31840226090360879 -0.15999847626310251 0 0.32585840183381709 -0.1531585589505608 0 0.3353241011422235 -0.14428031328248789 0 0.33776741136425631 -0.13667295059041931 0 0.3453057120017497 -0.15667167558393219 0 0.33776741136425631 -0.13667295059041931 0 0.3453057120017497 -0.15667167558393219 0 0.33509768675375662 -0.15994762494464171 0 0.3353241011422235 -0.14428031328248789 0 0.33509768675375662 -0.15994762494464171 0 0.32585840183381709 -0.1531585589505608 0 0.3353241011422235 -0.14428031328248789 0 0.33509768675375662 -0.15994762494464171 0 0.3353241011422235 -0.14428031328248789 0 0.3453057120017497 -0.15667167558393219 0 0.32585840183381709 -0.1531585589505608 0 0.3353241011422235 -0.14428031328248789 0 0.33038522870242337 -0.13926111298166699 0 0.32225986393814637 -0.13458750160435581 0 0.33038522870242337 -0.13926111298166699 0 0.33216815925553361 -0.12959872546738541 0 0.33038522870242337 -0.13926111298166699 0 0.33776741136425631 -0.13667295059041931 0 0.33216815925553361 -0.12959872546738541 0 0.3353241011422235 -0.14428031328248789 0 0.33038522870242337 -0.13926111298166699 0 0.33776741136425631 -0.13667295059041931 0 0.33776741136425631 -0.13667295059041931 0 0.3407950552388328 -0.12900565341057441 0 0.34739771162481892 -0.13475491023147351 0 0.33776741136425631 -0.13667295059041931 0 0.3407950552388328 -0.12900565341057441 0 0.33216815925553361 -0.12959872546738541 0 0.33602192972224632 -0.11937813502018881 0 0.3407950552388328 -0.12900565341057441 0 0.33216815925553361 -0.12959872546738541 0 0.35062006422730879 -0.1246235457434051 0 0.3407950552388328 -0.12900565341057441 0 0.34739771162481892 -0.13475491023147351 0 0.33776741136425631 -0.13667295059041931 0 0.34739771162481892 -0.13475491023147351 0 0.34898692066612058 -0.14412313254011561 0 0.35062006422730879 -0.1246235457434051 0 0.34739771162481892 -0.13475491023147351 0 0.35921253690469201 -0.13944051922790671 0 0.34739771162481892 -0.13475491023147351 0 0.35921253690469201 -0.13944051922790671 0 0.34898692066612058 -0.14412313254011561 0 0.33776741136425631 -0.13667295059041931 0 0.34898692066612058 -0.14412313254011561 0 0.3453057120017497 -0.15667167558393219 0 0.35921253690469201 -0.13944051922790671 0 0.34898692066612058 -0.14412313254011561 0 0.35588619610232258 -0.15154387421633289 0 0.34898692066612058 -0.14412313254011561 0 0.35588619610232258 -0.15154387421633289 0 0.3453057120017497 -0.15667167558393219 0 0.3657570617015658 -0.15186210140539161 0 0.37265183947675679 -0.163650149293151 0 0.3796267729162468 -0.14150604483830939 0 0.35921253690469201 -0.13944051922790671 0 0.3657570617015658 -0.15186210140539161 0 0.3796267729162468 -0.14150604483830939 0 0.35588619610232258 -0.15154387421633289 0 0.3657570617015658 -0.15186210140539161 0 0.36143867857195799 -0.16255847662329259 0 0.35921253690469201 -0.13944051922790671 0 0.35588619610232258 -0.15154387421633289 0 0.3657570617015658 -0.15186210140539161 0 0.36892844815853321 -0.1249047661769056 0 0.35921253690469201 -0.13944051922790671 0 0.3796267729162468 -0.14150604483830939 0 0.36892844815853321 -0.1249047661769056 0 0.35062006422730879 -0.1246235457434051 0 0.35921253690469201 -0.13944051922790671 0 0.33556749571157168 -0.17901167732769929 0 0.35284401263924348 -0.17667040057744501 0 0.33556749571157168 -0.17901167732769929 0 0.35284401263924348 -0.17667040057744501 0 0.34787529092781982 -0.16933666302882869 0 0.34063015670432079 -0.1810560539250041 0 0.3430915906280847 -0.18385278586231221 0 0.35284401263924348 -0.17667040057744501 0 0.3430915906280847 -0.18385278586231221 0 0.35284401263924348 -0.17667040057744501 0 0.34744812184746782 -0.18851960793983219 0 0.3430915906280847 -0.18385278586231221 0 0.34744812184746782 -0.18851960793983219 0 0.34229522890714942 -0.18989707570219619 0 0.35588619610232258 -0.15154387421633289 0 0.3453057120017497 -0.15667167558393219 0 0.36143867857195799 -0.16255847662329259 0 0.35284401263924348 -0.17667040057744501 0 0.34787529092781982 -0.16933666302882869 0 0.3453057120017497 -0.15667167558393219 0 0.35284401263924348 -0.17667040057744501 0 0.3453057120017497 -0.15667167558393219 0 0.36143867857195799 -0.16255847662329259 0 0.35284401263924348 -0.17667040057744501 0 0.3453057120017497 -0.15667167558393219 0 0.35284401263924348 -0.17667040057744501 0 0.36143867857195799 -0.16255847662329259 0 0.37682221417734679 -0.17342092581299001 0 0.3657570617015658 -0.15186210140539161 0 0.36143867857195799 -0.16255847662329259 0 0.37265183947675679 -0.163650149293151 0 0.36143867857195799 -0.16255847662329259 0 0.37265183947675679 -0.163650149293151 0 0.37682221417734679 -0.17342092581299001 0 0.35284401263924348 -0.17667040057744501 0 0.36629924405068559 -0.1858643888578945 0 0.37682221417734679 -0.17342092581299001 0 0.35284401263924348 -0.17667040057744501 0 0.37682221417734679 -0.17342092581299001 0 0.36629924405068559 -0.1858643888578945 0 0.36226072483054239 -0.20165245508986321 0 0.37892955939237971 -0.20500096645112759 0 0.35284401263924348 -0.17667040057744501 0 0.36629924405068559 -0.1858643888578945 0 0.36226072483054239 -0.20165245508986321 0 0.36226072483054239 -0.20165245508986321 0 0.37167743702184169 -0.22663450960228121 0 0.36226072483054239 -0.20165245508986321 0 0.37167743702184169 -0.22663450960228121 0 0.37892955939237971 -0.20500096645112759 0 0.36226072483054239 -0.20165245508986321 0 0.34804894657850188 -0.21110248518830779 0 0.37167743702184169 -0.22663450960228121 0 0.36226072483054239 -0.20165245508986321 0 0.34804894657850188 -0.21110248518830779 0 0.34466571429100201 -0.19823127822671929 0 0.34804894657850188 -0.21110248518830779 0 0.34466571429100201 -0.19823127822671929 0 0.34174309855666801 -0.20528106660093159 0 0.34804894657850188 -0.21110248518830779 0 0.34168237409452829 -0.21787177184354611 0 0.34691241302062631 -0.2241022963985469 0 0.35284401263924348 -0.17667040057744501 0 0.36226072483054239 -0.20165245508986321 0 0.34744812184746782 -0.18851960793983219 0 0.35284401263924348 -0.17667040057744501 0 0.36226072483054239 -0.20165245508986321 0 0.36226072483054239 -0.20165245508986321 0 0.34466571429100201 -0.19823127822671929 0 0.34744812184746782 -0.18851960793983219 0 0.34466571429100201 -0.19823127822671929 0 0.34744812184746782 -0.18851960793983219 0 0.34229522890714942 -0.18989707570219619 0 0.3384740200401718 -0.18741812857892531 0 0.33556749571157168 -0.17901167732769929 0 0.33450856664957668 -0.20071326859960209 0 0.34466571429100201 -0.19823127822671929 0 0.34229522890714942 -0.18989707570219619 0 0.3394261599281545 -0.1934667473966751 0 0.33556749571157168 -0.17901167732769929 0 0.33372282800035669 -0.19374468408479101 0 0.33450856664957668 -0.20071326859960209 0 0.3384740200401718 -0.18741812857892531 0 0.34229522890714942 -0.18989707570219619 0 0.3394261599281545 -0.1934667473966751 0 0.33556749571157168 -0.17901167732769929 0 0.33450856664957668 -0.20071326859960209 0 0.3384740200401718 -0.18741812857892531 0 0.3394261599281545 -0.1934667473966751 0 0.33450856664957668 -0.20071326859960209 0 0.32592812551767258 -0.18457636524275189 0 0.33372282800035669 -0.19374468408479101 0 0.32641885713208851 -0.1914896061809464 0 0.33372282800035669 -0.19374468408479101 0 0.32641885713208851 -0.1914896061809464 0 0.32497472226615631 -0.19825966160977121 0 0.33372282800035669 -0.19374468408479101 0 0.33450856664957668 -0.20071326859960209 0 0.32497472226615631 -0.19825966160977121 0 0.33450856664957668 -0.20071326859960209 0 0.32812934030373592 -0.2065030196342599 0 0.32497472226615631 -0.19825966160977121 0 0.34466571429100201 -0.19823127822671929 0 0.3394261599281545 -0.1934667473966751 0 0.33450856664957668 -0.20071326859960209 0 0.34466571429100201 -0.19823127822671929 0 0.33450856664957668 -0.20071326859960209 0 0.34174309855666801 -0.20528106660093159 0 0.33450856664957668 -0.20071326859960209 0 0.33421400659748951 -0.22109609042708231 0 0.33450856664957668 -0.20071326859960209 0 0.32812934030373592 -0.2065030196342599 0 0.33421400659748951 -0.22109609042708231 0 0.34804894657850188 -0.21110248518830779 0 0.34174309855666801 -0.20528106660093159 0 0.33974916670759142 -0.21107723438909701 0 0.33450856664957668 -0.20071326859960209 0 0.33974916670759142 -0.21107723438909701 0 0.33421400659748951 -0.22109609042708231 0 0.33450856664957668 -0.20071326859960209 0 0.34174309855666801 -0.20528106660093159 0 0.33974916670759142 -0.21107723438909701 0 0.34168237409452829 -0.21787177184354611 0 0.33974916670759142 -0.21107723438909701 0 0.33421400659748951 -0.22109609042708231 0 0.34804894657850188 -0.21110248518830779 0 0.34168237409452829 -0.21787177184354611 0 0.33974916670759142 -0.21107723438909701 0 0.31669537675115972 -0.2175556610923958 0 0.31882006570172122 -0.20594305790058409 0 0.33421400659748951 -0.22109609042708231 0 0.32812934030373592 -0.2065030196342599 0 0.31882006570172122 -0.20594305790058409 0 0.32497472226615631 -0.19825966160977121 0 0.31882006570172122 -0.20594305790058409 0 0.33421400659748951 -0.22109609042708231 0 0.32812934030373592 -0.2065030196342599 0 0.31882006570172122 -0.20594305790058409 0 0.33421400659748951 -0.22109609042708231 0 0.31882006570172122 -0.20594305790058409 0 0.31453580060441111 -0.18999111815888561 0 0.32497472226615631 -0.19825966160977121 0 0.31453580060441111 -0.18999111815888561 0 0.32641885713208851 -0.1914896061809464 0 0.32497472226615631 -0.19825966160977121 0 0.32592812551767258 -0.18457636524275189 0 0.31453580060441111 -0.18999111815888561 0 0.32641885713208851 -0.1914896061809464 0 0.30909257150035152 -0.23414456314565871 0 0.32201998315447161 -0.23370049475007301 0 0.31440153750881022 -0.25585096765320098 0 0.32201998315447161 -0.23370049475007301 0 0.33460187179154399 -0.24805785858830651 0 0.31440153750881022 -0.25585096765320098 0 0.32201998315447161 -0.23370049475007301 0 0.31440153750881022 -0.25585096765320098 0 0.30909257150035152 -0.23414456314565871 0 0.31526495809652272 -0.22717434466432981 0 0.32201998315447161 -0.23370049475007301 0 0.31669537675115972 -0.2175556610923958 0 0.32456328832148629 -0.2251127776880596 0 0.33421400659748951 -0.22109609042708231 0 0.31669537675115972 -0.2175556610923958 0 0.31526495809652272 -0.22717434466432981 0 0.32456328832148629 -0.2251127776880596 0 0.32456328832148629 -0.2251127776880596 0 0.32201998315447161 -0.23370049475007301 0 0.33412100872424561 -0.2275313115888358 0 0.31526495809652272 -0.22717434466432981 0 0.32456328832148629 -0.2251127776880596 0 0.32201998315447161 -0.23370049475007301 0 0.33421400659748951 -0.22109609042708231 0 0.35011852429105239 -0.23675170945021379 0 0.33412100872424561 -0.2275313115888358 0 0.33421400659748951 -0.22109609042708231 0 0.35011852429105239 -0.23675170945021379 0 0.33421400659748951 -0.22109609042708231 0 0.35011852429105239 -0.23675170945021379 0 0.34691241302062631 -0.2241022963985469 0 0.32456328832148629 -0.2251127776880596 0 0.33412100872424561 -0.2275313115888358 0 0.33421400659748951 -0.22109609042708231 0 0.33412100872424561 -0.2275313115888358 0 0.33421400659748951 -0.22109609042708231 0 0.34168237409452829 -0.21787177184354611 0 0.33421400659748951 -0.22109609042708231 0 0.34691241302062631 -0.2241022963985469 0 0.32201998315447161 -0.23370049475007301 0 0.33412100872424561 -0.2275313115888358 0 0.33460187179154399 -0.24805785858830651 0 0.33412100872424561 -0.2275313115888358 0 0.33460187179154399 -0.24805785858830651 0 0.35011852429105239 -0.23675170945021379 0 0.35011852429105239 -0.23675170945021379 0 0.36602304198461422 -0.25240732847334652 0 0.35011852429105239 -0.23675170945021379 0 0.34963001261181442 -0.25352116830563232 0 0.36602304198461422 -0.25240732847334652 0 0.33460187179154399 -0.24805785858830651 0 0.35011852429105239 -0.23675170945021379 0 0.34963001261181442 -0.25352116830563232 0 0.34804894657850188 -0.21110248518830779 0 0.34691241302062631 -0.2241022963985469 0 0.37167743702184169 -0.22663450960228121 0 0.35011852429105239 -0.23675170945021379 0 0.34691241302062631 -0.2241022963985469 0 0.37167743702184169 -0.22663450960228121 0 0.37167743702184169 -0.22663450960228121 0 0.38321566691688402 -0.24311563445384249 0 0.36602304198461422 -0.25240732847334652 0 0.35011852429105239 -0.23675170945021379 0 0.37167743702184169 -0.22663450960228121 0 0.36602304198461422 -0.25240732847334652 0 0.38321566691688402 -0.24311563445384249 0 0.40156759631590971 -0.245492196854215 0 0.39488269958387812 -0.22298118984289109 0 0.40156759631590971 -0.245492196854215 0 0.39488269958387812 -0.22298118984289109 0 0.42120763295364139 -0.22292144621194909 0 0.37167743702184169 -0.22663450960228121 0 0.38321566691688402 -0.24311563445384249 0 0.39488269958387812 -0.22298118984289109 0 0.37167743702184169 -0.22663450960228121 0 0.39488269958387812 -0.22298118984289109 0 0.37892955939237971 -0.20500096645112759 0 0.39488269958387812 -0.22298118984289109 0 0.37892955939237971 -0.20500096645112759 0 0.39482994256342002 -0.20302634439657119 0 0.37892955939237971 -0.20500096645112759 0 0.38362730830391029 -0.18984691091726499 0 0.39482994256342002 -0.20302634439657119 0 0.36629924405068559 -0.1858643888578945 0 0.37892955939237971 -0.20500096645112759 0 0.38362730830391029 -0.18984691091726499 0 0.39482994256342002 -0.20302634439657119 0 0.40100862160929762 -0.19019690421857241 0 0.41111583164752352 -0.205519703027427 0 0.38362730830391029 -0.18984691091726499 0 0.39482994256342002 -0.20302634439657119 0 0.40100862160929762 -0.19019690421857241 0 0.39488269958387812 -0.22298118984289109 0 0.39482994256342002 -0.20302634439657119 0 0.41111583164752352 -0.205519703027427 0 0.41111583164752352 -0.205519703027427 0 0.4268795690089815 -0.19632338935057181 0 0.42120763295364139 -0.22292144621194909 0 0.39488269958387812 -0.22298118984289109 0 0.41111583164752352 -0.205519703027427 0 0.42120763295364139 -0.22292144621194909 0 0.40100862160929762 -0.19019690421857241 0 0.41111583164752352 -0.205519703027427 0 0.41466960981618389 -0.1824201117030621 0 0.41111583164752352 -0.205519703027427 0 0.4268795690089815 -0.19632338935057181 0 0.41466960981618389 -0.1824201117030621 0 0.4268795690089815 -0.19632338935057181 0 0.42898052076440718 -0.22572480241705059 0 0.4268795690089815 -0.19632338935057181 0 0.42898052076440718 -0.22572480241705059 0 0.42120763295364139 -0.22292144621194909 0 0.4268795690089815 -0.19632338935057181 0 0.42898052076440718 -0.22572480241705059 0 0.44800204568703 -0.2074300345402415 0 0.42898052076440718 -0.22572480241705059 0 0.41926161822492403 -0.24076645383141171 0 0.42120763295364139 -0.22292144621194909 0 0.42898052076440718 -0.22572480241705059 0 0.41926161822492403 -0.24076645383141171 0 0.43108147251983131 -0.25512621548352959 0 0.42898052076440718 -0.22572480241705059 0 0.45100749806263418 -0.2329347479132253 0 0.43108147251983131 -0.25512621548352959 0 0.42898052076440718 -0.22572480241705059 0 0.43108147251983131 -0.25512621548352959 0 0.40156759631590971 -0.245492196854215 0 0.41926161822492403 -0.24076645383141171 0 0.42120763295364139 -0.22292144621194909 0 0.40156759631590971 -0.245492196854215 0 0.41926161822492403 -0.24076645383141171 0 0.41415818210327188 -0.2548172337746758 0 0.40156759631590971 -0.245492196854215 0 0.42120763295364139 -0.22292144621194909 0 0.38660170635573687 -0.1193619403834678 0 0.3796267729162468 -0.14150604483830939 0 0.38660170635573687 -0.1193619403834678 0 0.40139278968641212 -0.1348833127229925 0 0.3796267729162468 -0.14150604483830939 0 0.38660170635573687 -0.1193619403834678 0 0.36892844815853321 -0.1249047661769056 0 0.3796267729162468 -0.14150604483830939 0 0.37265183947675679 -0.163650149293151 0 0.3796267729162468 -0.14150604483830939 0 0.3881817092495301 -0.16136505525674491 0 0.40139278968641212 -0.1348833127229925 0 0.3796267729162468 -0.14150604483830939 0 0.3881817092495301 -0.16136505525674491 0 0.37265183947675679 -0.163650149293151 0 0.3796267729162468 -0.14150604483830939 0 0.40139278968641212 -0.1348833127229925 0 0.3881817092495301 -0.16136505525674491 0 0.40832384900585411 -0.1550980509961529 0 0.40080041571545039 -0.17017145104853679 0 0.3881817092495301 -0.16136505525674491 0 0.40832384900585411 -0.1550980509961529 0 0.40080041571545039 -0.17017145104853679 0 0.37682221417734679 -0.17342092581299001 0 0.40080041571545039 -0.17017145104853679 0 0.3881817092495301 -0.16136505525674491 0 0.37682221417734679 -0.17342092581299001 0 0.37265183947675679 -0.163650149293151 0 0.3881817092495301 -0.16136505525674491 0 0.37682221417734679 -0.17342092581299001 0 0.38362730830391029 -0.18984691091726499 0 0.40080041571545039 -0.17017145104853679 0 0.37682221417734679 -0.17342092581299001 0 0.36629924405068559 -0.1858643888578945 0 0.38362730830391029 -0.18984691091726499 0 0.37682221417734679 -0.17342092581299001 0 0.38362730830391029 -0.18984691091726499 0 0.40100862160929762 -0.19019690421857241 0 0.40080041571545039 -0.17017145104853679 0 0.40100862160929762 -0.19019690421857241 0 0.40080041571545039 -0.17017145104853679 0 0.41466960981618389 -0.1824201117030621 0 0.40080041571545039 -0.17017145104853679 0 0.41466960981618389 -0.1824201117030621 0 0.42477861725355509 -0.16692197628409289 0 0.4268795690089815 -0.19632338935057181 0 0.43382906619471168 -0.17711307083474731 0 0.44802795087073172 -0.18376131742007601 0 0.4268795690089815 -0.19632338935057181 0 0.42477861725355509 -0.16692197628409289 0 0.4268795690089815 -0.19632338935057181 0 0.43382906619471168 -0.17711307083474731 0 0.42477861725355509 -0.16692197628409289 0 0.4268795690089815 -0.19632338935057181 0 0.41466960981618389 -0.1824201117030621 0 0.42477861725355509 -0.16692197628409289 0 0.43382906619471168 -0.17711307083474731 0 0.42477861725355509 -0.16692197628409289 0 0.42983189750979428 -0.16623716651449899 0 0.42477861725355509 -0.16692197628409289 0 0.42983189750979428 -0.16623716651449899 0 0.43382906619471168 -0.17711307083474731 0 0.42983189750979428 -0.16623716651449899 0 0.43974315779300371 -0.17094307418758631 0 0.42983189750979428 -0.16623716651449899 0 0.43868079616161182 -0.16386186205740061 0 0.43974315779300371 -0.17094307418758631 0 0.42477861725355509 -0.16692197628409289 0 0.42983189750979428 -0.16623716651449899 0 0.43683436615342131 -0.15352952132437639 0 0.42983189750979428 -0.16623716651449899 0 0.43683436615342131 -0.15352952132437639 0 0.43868079616161182 -0.16386186205740061 0 0.40080041571545039 -0.17017145104853679 0 0.42477861725355509 -0.16692197628409289 0 0.40832384900585411 -0.1550980509961529 0 0.40080041571545039 -0.17017145104853679 0 0.42477861725355509 -0.16692197628409289 0 0.40139278968641212 -0.1348833127229925 0 0.40832384900585411 -0.1550980509961529 0 0.42288761988296458 -0.14045873425257441 0 0.42477861725355509 -0.16692197628409289 0 0.40832384900585411 -0.1550980509961529 0 0.42288761988296458 -0.14045873425257441 0 0.42477861725355509 -0.16692197628409289 0 0.43683436615342131 -0.15352952132437639 0 0.42288761988296458 -0.14045873425257441 0 0.42477861725355509 -0.16692197628409289 0 0.42288761988296458 -0.14045873425257441 0 0.43683436615342131 -0.15352952132437639 0 0.42288761988296458 -0.14045873425257441 0 0.44092479249240568 -0.12747828222871169 0 0.42099662251237358 -0.1139954922210559 0 0.42288761988296458 -0.14045873425257441 0 0.44092479249240568 -0.12747828222871169 0 0.42099662251237358 -0.1139954922210559 0 0.42288761988296458 -0.14045873425257441 0 0.42099662251237358 -0.1139954922210559 0 0.40139278968641212 -0.1348833127229925 0 0.42288761988296458 -0.14045873425257441 0 0.45828035479271489 -0.113064368171234 0 0.46488475554209879 -0.13446621701837519 0 0.44092479249240568 -0.12747828222871169 0 0.46488475554209879 -0.13446621701837519 0 0.44092479249240568 -0.12747828222871169 0 0.45254566584389277 -0.1464832262671745 0 0.43683436615342131 -0.15352952132437639 0 0.44092479249240568 -0.12747828222871169 0 0.45254566584389277 -0.1464832262671745 0 0.43683436615342131 -0.15352952132437639 0 0.45254566584389277 -0.1464832262671745 0 0.4483137631902282 -0.16473768620314061 0 0.45254566584389277 -0.1464832262671745 0 0.46466515318138291 -0.154854548382134 0 0.4483137631902282 -0.16473768620314061 0 0.46488475554209879 -0.13446621701837519 0 0.45254566584389277 -0.1464832262671745 0 0.46466515318138291 -0.154854548382134 0 0.46466515318138291 -0.154854548382134 0 0.4483137631902282 -0.16473768620314061 0 0.47164454975709058 -0.17233934600492101 0 0.43683436615342131 -0.15352952132437639 0 0.43868079616161182 -0.16386186205740061 0 0.4483137631902282 -0.16473768620314061 0 0.43868079616161182 -0.16386186205740061 0 0.43974315779300371 -0.17094307418758631 0 0.4483137631902282 -0.16473768620314061 0 0.43974315779300371 -0.17094307418758631 0 0.4483137631902282 -0.16473768620314061 0 0.44802795087073172 -0.18376131742007601 0 0.43382906619471168 -0.17711307083474731 0 0.43974315779300371 -0.17094307418758631 0 0.44802795087073172 -0.18376131742007601 0 0.4483137631902282 -0.16473768620314061 0 0.44802795087073172 -0.18376131742007601 0 0.47164454975709058 -0.17233934600492101 0 0.44802795087073172 -0.18376131742007601 0 0.47164454975709058 -0.17233934600492101 0 0.46385574263062118 -0.19339310406483889 0 0.47164454975709058 -0.17233934600492101 0 0.5 -0.1736794938253805 0 0.48067064323281511 -0.1926915420160335 0 0.47164454975709058 -0.17233934600492101 0 0.46385574263062118 -0.19339310406483889 0 0.48067064323281511 -0.1926915420160335 0 0.5 -0.1736794938253805 0 0.48869407026480499 -0.16141292716951641 0 0.5 -0.1499440675496401 0 0.47164454975709058 -0.17233934600492101 0 0.5 -0.1736794938253805 0 0.48869407026480499 -0.16141292716951641 0 0.47164454975709058 -0.17233934600492101 0 0.48869407026480499 -0.16141292716951641 0 0.4810963665047267 -0.14905063566933369 0 0.47164454975709058 -0.17233934600492101 0 0.4810963665047267 -0.14905063566933369 0 0.46466515318138291 -0.154854548382134 0 0.47164454975709058 -0.17233934600492101 0 0.4810963665047267 -0.14905063566933369 0 0.46488475554209879 -0.13446621701837519 0 0.46466515318138291 -0.154854548382134 0 0.4810963665047267 -0.14905063566933369 0 0.4810963665047267 -0.14905063566933369 0 0.5 -0.1499440675496401 0 0.49054818325236282 -0.1257619253337465 0 0.48869407026480499 -0.16141292716951641 0 0.4810963665047267 -0.14905063566933369 0 0.5 -0.1499440675496401 0 0.5 -0.1499440675496401 0 0.5 -0.1262086412738998 0 0.49054818325236282 -0.1257619253337465 0 0.4810963665047267 -0.14905063566933369 0 0.49054818325236282 -0.1257619253337465 0 0.4810963665047267 -0.14905063566933369 0 0.49054818325236282 -0.1257619253337465 0 0.47574630687967312 -0.12579017742597401 0 0.46488475554209879 -0.13446621701837519 0 0.4810963665047267 -0.14905063566933369 0 0.47574630687967312 -0.12579017742597401 0 0.45100749806263418 -0.2329347479132253 0 0.47093352360543878 -0.2107432803429227 0 0.46442313518652267 -0.2388607118588352 0 0.45100749806263418 -0.2329347479132253 0 0.47005366180268798 -0.22795983395551281 0 0.45100749806263418 -0.2329347479132253 0 0.47093352360543878 -0.2107432803429227 0 0.47005366180268798 -0.22795983395551281 0 0.46442313518652267 -0.2388607118588352 0 0.45943374721119512 -0.2491917459288723 0 0.45100749806263418 -0.2329347479132253 0 0.46807898461255648 -0.2456363096581268 0 0.45943374721119512 -0.2491917459288723 0 0.47303658331672599 -0.25388631030013958 0 0.46442313518652267 -0.2388607118588352 0 0.46807898461255648 -0.2456363096581268 0 0.45943374721119512 -0.2491917459288723 0 0.45943374721119512 -0.2491917459288723 0 0.45100749806263418 -0.2329347479132253 0 0.44860092883411251 -0.25416885033015779 0 0.45100749806263418 -0.2329347479132253 0 0.44860092883411251 -0.25416885033015779 0 0.43108147251983131 -0.25512621548352959 0 0.45100749806263418 -0.2329347479132253 0 0.43108147251983131 -0.25512621548352959 0 0.42898052076440718 -0.22572480241705059 0 0.45100749806263418 -0.2329347479132253 0 0.44800204568703 -0.2074300345402415 0 0.4268795690089815 -0.19632338935057181 0 0.44802795087073172 -0.18376131742007601 0 0.44800204568703 -0.2074300345402415 0 0.44802795087073172 -0.18376131742007601 0 0.44800204568703 -0.2074300345402415 0 0.46385574263062118 -0.19339310406483889 0 0.44800204568703 -0.2074300345402415 0 0.46385574263062118 -0.19339310406483889 0 0.47093352360543878 -0.2107432803429227 0 0.45100749806263418 -0.2329347479132253 0 0.44800204568703 -0.2074300345402415 0 0.47093352360543878 -0.2107432803429227 0 0.47093352360543878 -0.2107432803429227 0 0.48848013926248968 -0.21726865094600831 0 0.47005366180268798 -0.22795983395551281 0 0.47093352360543878 -0.2107432803429227 0 0.48067064323281511 -0.1926915420160335 0 0.48848013926248968 -0.21726865094600831 0 0.46385574263062118 -0.19339310406483889 0 0.47093352360543878 -0.2107432803429227 0 0.48067064323281511 -0.1926915420160335 0 0.48067064323281511 -0.1926915420160335 0 0.50000000000000133 -0.19741492010112091 0 0.48848013926248968 -0.21726865094600831 0 0.5 -0.1736794938253805 0 0.48067064323281511 -0.1926915420160335 0 0.50000000000000133 -0.19741492010112091 0 0.50000000000000133 -0.19741492010112091 0 0.48848013926248968 -0.21726865094600831 0 0.5 -0.220839161354136 0 0.50000000000000133 -0.19741492010112091 0 0.48848013926248968 -0.21726865094600831 0 0.48848013926248968 -0.21726865094600831 0 0.5 -0.220839161354136 0 0.490345321188349 -0.23161988539149081 0 0.5 -0.220839161354136 0 0.490345321188349 -0.23161988539149081 0 0.5 -0.24426340260715099 0 0.48848013926248968 -0.21726865094600831 0 0.490345321188349 -0.23161988539149081 0 0.47696027852497758 -0.23712238179089551 0 0.48848013926248968 -0.21726865094600831 0 0.47005366180268798 -0.22795983395551281 0 0.47696027852497758 -0.23712238179089551 0 0.48848013926248968 -0.21726865094600831 0 0.47696027852497758 -0.23712238179089551 0 0.47005366180268798 -0.22795983395551281 0 0.47696027852497758 -0.23712238179089551 0 0.46807898461255648 -0.2456363096581268 0 0.47528054622840499 -0.24001729117109349 0 0.47303658331672599 -0.25388631030013958 0 0.46442313518652267 -0.2388607118588352 0 0.47005366180268798 -0.22795983395551281 0 0.47528054622840499 -0.24001729117109349 0 0.46442313518652267 -0.2388607118588352 0 0.46807898461255648 -0.2456363096581268 0 0.47528054622840499 -0.24001729117109349 0 0.47005366180268798 -0.22795983395551281 0 0.47528054622840499 -0.24001729117109349 0 0.47696027852497758 -0.23712238179089551 0 0.47528054622840499 -0.24001729117109349 0 0.47696027852497758 -0.23712238179089551 0 0.47528054622840499 -0.24001729117109349 0 0.48848013926248929 -0.25240501282553052 0 0.47303658331672599 -0.25388631030013958 0 0.47528054622840499 -0.24001729117109349 0 0.47696027852497758 -0.23712238179089551 0 0.48848013926248929 -0.25240501282553052 0 0.47696027852497758 -0.23712238179089551 0 0.48848013926248929 -0.25240501282553052 0 0.47696027852497758 -0.23712238179089551 0 0.48894643474395411 -0.24135267065376689 0 0.48848013926248929 -0.25240501282553052 0 0.490345321188349 -0.23161988539149081 0 0.47696027852497758 -0.23712238179089551 0 0.48894643474395411 -0.24135267065376689 0 0.490345321188349 -0.23161988539149081 0 0.48894643474395411 -0.24135267065376689 0 0.5 -0.24426340260715099 0 0.48894643474395411 -0.24135267065376689 0 0.5 -0.24426340260715099 0 0.48848013926248929 -0.25240501282553052 0 0.48848013926248929 -0.25240501282553052 0 0.50000000000000056 -0.26768764386016608 0 0.48052848211180271 -0.26437423320816139 0 0.5 -0.24426340260715099 0 0.48848013926248929 -0.25240501282553052 0 0.50000000000000056 -0.26768764386016608 0 0.48848013926248929 -0.25240501282553052 0 0.50000000000000056 -0.26768764386016608 0 0.50000000000000056 -0.26768764386016608 0 0.48052848211180271 -0.26437423320816139 0 0.47878514582373488 -0.28258611882944101 0 0.48052848211180271 -0.26437423320816139 0 0.46234054215606318 -0.26530608022552993 0 0.47878514582373488 -0.28258611882944101 0 0.48052848211180271 -0.26437423320816139 0 0.47303658331672599 -0.25388631030013958 0 0.46234054215606318 -0.26530608022552993 0 0.48848013926248929 -0.25240501282553052 0 0.48052848211180271 -0.26437423320816139 0 0.47303658331672599 -0.25388631030013958 0 0.45943374721119512 -0.2491917459288723 0 0.47303658331672599 -0.25388631030013958 0 0.46234054215606318 -0.26530608022552993 0 0.45943374721119512 -0.2491917459288723 0 0.46234054215606318 -0.26530608022552993 0 0.44860092883411251 -0.25416885033015779 0 0.46234054215606318 -0.26530608022552993 0 0.45427648399129239 -0.27919553245867712 0 0.44485792975810312 -0.26767052828273069 0 0.46234054215606318 -0.26530608022552993 0 0.45427648399129239 -0.27919553245867712 0 0.47878514582373488 -0.28258611882944101 0 0.45427648399129239 -0.27919553245867712 0 0.44485792975810312 -0.26767052828273069 0 0.43313380461098322 -0.28384722890312147 0 0.44485792975810312 -0.26767052828273069 0 0.44860092883411251 -0.25416885033015779 0 0.43108147251983131 -0.25512621548352959 0 0.46234054215606318 -0.26530608022552993 0 0.44485792975810312 -0.26767052828273069 0 0.44860092883411251 -0.25416885033015779 0 0.45683561871384809 -0.29576517184418799 0 0.46655041220287508 -0.31578030827558501 0 0.4351861367021333 -0.31256824232271357 0 0.45683561871384809 -0.29576517184418799 0 0.4351861367021333 -0.31256824232271357 0 0.43313380461098322 -0.28384722890312147 0 0.45427648399129239 -0.27919553245867712 0 0.45683561871384809 -0.29576517184418799 0 0.43313380461098322 -0.28384722890312147 0 0.45427648399129239 -0.27919553245867712 0 0.45683561871384809 -0.29576517184418799 0 0.47878514582373488 -0.28258611882944101 0 0.45683561871384809 -0.29576517184418799 0 0.47554279418511453 -0.29883680814177682 0 0.46655041220287508 -0.31578030827558501 0 0.47554279418511453 -0.29883680814177682 0 0.5 -0.30121563361789339 0 0.46655041220287508 -0.31578030827558501 0 0.50000000000000056 -0.26768764386016608 0 0.47878514582373488 -0.28258611882944101 0 0.5 -0.30121563361789339 0 0.45683561871384809 -0.29576517184418799 0 0.47554279418511453 -0.29883680814177682 0 0.47878514582373488 -0.28258611882944101 0 0.47554279418511453 -0.29883680814177682 0 0.47878514582373488 -0.28258611882944101 0 0.5 -0.30121563361789339 0 0.5 -0.30121563361789339 0 0.4863139100151268 -0.34247391801554072 0 0.5 -0.34753685197440648 0 0.5 -0.30121563361789339 0 0.4863139100151268 -0.34247391801554072 0 0.47400191802569852 -0.32965055162669799 0 0.5 -0.30121563361789339 0 0.47400191802569852 -0.32965055162669799 0 0.46655041220287508 -0.31578030827558501 0 0.4863139100151268 -0.34247391801554072 0 0.47400191802569852 -0.32965055162669799 0 0.466162357158379 -0.34904570046330069 0 0.5 -0.34753685197440648 0 0.48134752435381412 -0.36008413299444691 0 0.48277247218508201 -0.39309593226029649 0 0.48134752435381412 -0.36008413299444691 0 0.4714888824104827 -0.36826826225868992 0 0.48277247218508201 -0.39309593226029649 0 0.4863139100151268 -0.34247391801554072 0 0.5 -0.34753685197440648 0 0.48134752435381412 -0.36008413299444691 0 0.4863139100151268 -0.34247391801554072 0 0.466162357158379 -0.34904570046330069 0 0.48134752435381412 -0.36008413299444691 0 0.4714888824104827 -0.36826826225868992 0 0.466162357158379 -0.34904570046330069 0 0.4863139100151268 -0.34247391801554072 0 0.48134752435381412 -0.36008413299444691 0 0.466162357158379 -0.34904570046330069 0 0.4714888824104827 -0.36826826225868992 0 0.44601080430163093 -0.35561748291105982 0 0.4714888824104827 -0.36826826225868992 0 0.45465276955418438 -0.37304607253900463 0 0.44601080430163093 -0.35561748291105982 0 0.466162357158379 -0.34904570046330069 0 0.44601080430163093 -0.35561748291105982 0 0.44932909767982387 -0.34373637837112891 0 0.4714888824104827 -0.36826826225868992 0 0.466162357158379 -0.34904570046330069 0 0.44601080430163093 -0.35561748291105982 0 0.466162357158379 -0.34904570046330069 0 0.44601080430163093 -0.35561748291105982 0 0.44601080430163093 -0.35561748291105982 0 0.44932909767982387 -0.34373637837112891 0 0.43723846879328349 -0.34128925574230562 0 0.44601080430163093 -0.35561748291105982 0 0.44290642646873579 -0.3694315010258985 0 0.42567754510794759 -0.36224852305098049 0 0.45465276955418438 -0.37304607253900463 0 0.44601080430163093 -0.35561748291105982 0 0.44290642646873579 -0.3694315010258985 0 0.46655041220287508 -0.31578030827558501 0 0.45472030421527382 -0.33269308771268052 0 0.4351861367021333 -0.31256824232271357 0 0.47400191802569852 -0.32965055162669799 0 0.46655041220287508 -0.31578030827558501 0 0.45472030421527382 -0.33269308771268052 0 0.466162357158379 -0.34904570046330069 0 0.45472030421527382 -0.33269308771268052 0 0.44932909767982387 -0.34373637837112891 0 0.47400191802569852 -0.32965055162669799 0 0.466162357158379 -0.34904570046330069 0 0.45472030421527382 -0.33269308771268052 0 0.45472030421527382 -0.33269308771268052 0 0.44932909767982387 -0.34373637837112891 0 0.43723846879328349 -0.34128925574230562 0 0.45472030421527382 -0.33269308771268052 0 0.4351861367021333 -0.31256824232271357 0 0.43723846879328349 -0.34128925574230562 0 0.4351861367021333 -0.31256824232271357 0 0.42525885610298431 -0.32771145505089572 0 0.41391869780007512 -0.30232558412863991 0 0.4351861367021333 -0.31256824232271357 0 0.43723846879328349 -0.34128925574230562 0 0.4351861367021333 -0.31256824232271357 0 0.42525885610298431 -0.32771145505089572 0 0.43723846879328349 -0.34128925574230562 0 0.42525885610298431 -0.32771145505089572 0 0.43723846879328349 -0.34128925574230562 0 0.42622438113199562 -0.34579281432622638 0 0.42525885610298431 -0.32771145505089572 0 0.4064379579623596 -0.33596814574139439 0 0.42622438113199562 -0.34579281432622638 0 0.4064379579623596 -0.33596814574139439 0 0.42622438113199562 -0.34579281432622638 0 0.42525885610298431 -0.32771145505089572 0 0.4064379579623596 -0.33596814574139439 0 0.40264842403911372 -0.31876329002088871 0 0.42525885610298431 -0.32771145505089572 0 0.40264842403911372 -0.31876329002088871 0 0.41391869780007512 -0.30232558412863991 0 0.44290642646873579 -0.3694315010258985 0 0.42567754510794759 -0.36224852305098049 0 0.43301114224087511 -0.37717363240032198 0 0.42567754510794759 -0.36224852305098049 0 0.41832180635967958 -0.37487250105256731 0 0.43301114224087511 -0.37717363240032198 0 0.44601080430163093 -0.35561748291105982 0 0.43723846879328349 -0.34128925574230562 0 0.42622438113199562 -0.34579281432622638 0 0.44601080430163093 -0.35561748291105982 0 0.42567754510794759 -0.36224852305098049 0 0.44601080430163093 -0.35561748291105982 0 0.42622438113199562 -0.34579281432622638 0 0.44601080430163093 -0.35561748291105982 0 0.42567754510794759 -0.36224852305098049 0 0.42622438113199562 -0.34579281432622638 0 0.4064379579623596 -0.33596814574139439 0 0.42622438113199562 -0.34579281432622638 0 0.41252739615341871 -0.35218236337066938 0 0.42567754510794759 -0.36224852305098049 0 0.42622438113199562 -0.34579281432622638 0 0.41252739615341871 -0.35218236337066938 0 0.4064379579623596 -0.33596814574139439 0 0.41252739615341871 -0.35218236337066938 0 0.40030793899791067 -0.35177934038708158 0 0.42567754510794759 -0.36224852305098049 0 0.40534428591426402 -0.36887956319090021 0 0.42567754510794759 -0.36224852305098049 0 0.41252739615341871 -0.35218236337066938 0 0.40534428591426402 -0.36887956319090021 0 0.42567754510794759 -0.36224852305098049 0 0.41832180635967958 -0.37487250105256731 0 0.40534428591426402 -0.36887956319090021 0 0.41832180635967958 -0.37487250105256731 0 0.40534428591426402 -0.36887956319090021 0 0.40904089350268102 -0.38089922141317328 0 0.40534428591426402 -0.36887956319090021 0 0.38501102672058041 -0.37551060333081981 0 0.40534428591426402 -0.36887956319090021 0 0.3909597665830013 -0.35926144940995752 0 0.40030793899791067 -0.35177934038708158 0 0.40534428591426402 -0.36887956319090021 0 0.3909597665830013 -0.35926144940995752 0 0.38501102672058041 -0.37551060333081981 0 0.41252739615341871 -0.35218236337066938 0 0.40534428591426402 -0.36887956319090021 0 0.40030793899791067 -0.35177934038708158 0 0.3909597665830013 -0.35926144940995752 0 0.40030793899791067 -0.35177934038708158 0 0.38627028837651017 -0.34260518022248648 0 0.3909597665830013 -0.35926144940995752 0 0.37828147262876483 -0.36208066851540888 0 0.38627028837651017 -0.34260518022248648 0 0.37828147262876483 -0.36208066851540888 0 0.38627028837651017 -0.34260518022248648 0 0.3610305864901725 -0.35726631180067431 0 0.37828147262876483 -0.36208066851540888 0 0.38501102672058041 -0.37551060333081981 0 0.36813569497355941 -0.37575979781310648 0 0.3909597665830013 -0.35926144940995752 0 0.37828147262876483 -0.36208066851540888 0 0.38501102672058041 -0.37551060333081981 0 0.4064379579623596 -0.33596814574139439 0 0.40264842403911372 -0.31876329002088871 0 0.38665153479272357 -0.32614347715656239 0 0.40264842403911372 -0.31876329002088871 0 0.38665153479272357 -0.32614347715656239 0 0.38987828458049212 -0.31418708814477248 0 0.4064379579623596 -0.33596814574139439 0 0.40030793899791067 -0.35177934038708158 0 0.38627028837651017 -0.34260518022248648 0 0.4064379579623596 -0.33596814574139439 0 0.38665153479272357 -0.32614347715656239 0 0.4064379579623596 -0.33596814574139439 0 0.38627028837651017 -0.34260518022248648 0 0.38665153479272357 -0.32614347715656239 0 0.38627028837651017 -0.34260518022248648 0 0.38665153479272357 -0.32614347715656239 0 0.36431323765339252 -0.33386139747700411 0 0.38665153479272357 -0.32614347715656239 0 0.37479560848769888 -0.30914323833367602 0 0.36431323765339252 -0.33386139747700411 0 0.38665153479272357 -0.32614347715656239 0 0.38987828458049212 -0.31418708814477248 0 0.37479560848769888 -0.30914323833367602 0 0.3954175710024323 -0.30269834706796278 0 0.38417794662727778 -0.28954262043001322 0 0.37479560848769888 -0.30914323833367602 0 0.38987828458049212 -0.31418708814477248 0 0.3954175710024323 -0.30269834706796278 0 0.37479560848769888 -0.30914323833367602 0 0.3954175710024323 -0.30269834706796278 0 0.39866240404397951 -0.29069214069484173 0 0.41391869780007512 -0.30232558412863991 0 0.40264842403911372 -0.31876329002088871 0 0.3954175710024323 -0.30269834706796278 0 0.41391869780007512 -0.30232558412863991 0 0.40264842403911372 -0.31876329002088871 0 0.38987828458049212 -0.31418708814477248 0 0.3954175710024323 -0.30269834706796278 0 0.39866240404397951 -0.29069214069484173 0 0.39193295127752531 -0.2779117591407374 0 0.40786485351258672 -0.28098239270685521 0 0.3954175710024323 -0.30269834706796278 0 0.39866240404397951 -0.29069214069484173 0 0.38417794662727778 -0.28954262043001322 0 0.39866240404397951 -0.29069214069484173 0 0.38417794662727778 -0.28954262043001322 0 0.39193295127752531 -0.2779117591407374 0 0.38417794662727778 -0.28954262043001322 0 0.3819275596781761 -0.26806294749647902 0 0.36307275068754141 -0.28973129771318218 0 0.38417794662727778 -0.28954262043001322 0 0.3819275596781761 -0.26806294749647902 0 0.39193295127752531 -0.2779117591407374 0 0.3819275596781761 -0.26806294749647902 0 0.39193295127752531 -0.2779117591407374 0 0.38321566691688402 -0.24311563445384249 0 0.40156759631590971 -0.245492196854215 0 0.3819275596781761 -0.26806294749647902 0 0.38321566691688402 -0.24311563445384249 0 0.3819275596781761 -0.26806294749647902 0 0.36602304198461422 -0.25240732847334652 0 0.40156759631590971 -0.245492196854215 0 0.40270616539520598 -0.26584520141396539 0 0.41415818210327188 -0.2548172337746758 0 0.40156759631590971 -0.245492196854215 0 0.3819275596781761 -0.26806294749647902 0 0.40156759631590971 -0.245492196854215 0 0.3819275596781761 -0.26806294749647902 0 0.40270616539520598 -0.26584520141396539 0 0.40270616539520598 -0.26584520141396539 0 0.39193295127752531 -0.2779117591407374 0 0.40786485351258672 -0.28098239270685521 0 0.3819275596781761 -0.26806294749647902 0 0.40270616539520598 -0.26584520141396539 0 0.39193295127752531 -0.2779117591407374 0 0.40786485351258672 -0.28098239270685521 0 0.41947316301620807 -0.26805430409519149 0 0.43313380461098322 -0.28384722890312147 0 0.40270616539520598 -0.26584520141396539 0 0.40786485351258672 -0.28098239270685521 0 0.41947316301620807 -0.26805430409519149 0 0.40786485351258672 -0.28098239270685521 0 0.41947316301620807 -0.26805430409519149 0 0.40270616539520598 -0.26584520141396539 0 0.41947316301620807 -0.26805430409519149 0 0.41415818210327188 -0.2548172337746758 0 0.41947316301620807 -0.26805430409519149 0 0.41415818210327188 -0.2548172337746758 0 0.43108147251983131 -0.25512621548352959 0 0.41926161822492403 -0.24076645383141171 0 0.41415818210327188 -0.2548172337746758 0 0.43108147251983131 -0.25512621548352959 0 0.41947316301620807 -0.26805430409519149 0 0.43108147251983131 -0.25512621548352959 0 0.43108147251983131 -0.25512621548352959 0 0.43313380461098322 -0.28384722890312147 0 0.41947316301620807 -0.26805430409519149 0 0.43108147251983131 -0.25512621548352959 0 0.43313380461098322 -0.28384722890312147 0 0.44485792975810312 -0.26767052828273069 0 0.43108147251983131 -0.25512621548352959 0 0.43313380461098322 -0.28384722890312147 0 0.4351861367021333 -0.31256824232271357 0 0.43313380461098322 -0.28384722890312147 0 0.4351861367021333 -0.31256824232271357 0 0.43313380461098322 -0.28384722890312147 0 0.41391869780007512 -0.30232558412863991 0 0.39866240404397951 -0.29069214069484173 0 0.40786485351258672 -0.28098239270685521 0 0.41391869780007512 -0.30232558412863991 0 0.40786485351258672 -0.28098239270685521 0 0.43313380461098322 -0.28384722890312147 0 0.41391869780007512 -0.30232558412863991 0 0.5 -0.5 0 0.4738425378255392 -0.45951315864513043 0 0.5 -0.41154983875890588 0 0.45351959519158902 -0.47449039477796839 0 0.46183110110402048 -0.5 0 0.4738425378255392 -0.45951315864513043 0 0.45351959519158902 -0.47449039477796839 0 0.46183110110402048 -0.5 0 0.43297807073744349 -0.4800996785152396 0 0.45351959519158902 -0.47449039477796839 0 0.44542667109935308 -0.45834874195150388 0 0.43297807073744349 -0.4800996785152396 0 0.44542667109935308 -0.45834874195150388 0 0.43297807073744349 -0.4800996785152396 0 0.46183110110402048 -0.5 0 0.5 -0.5 0 0.4738425378255392 -0.45951315864513043 0 0.4738425378255392 -0.45951315864513043 0 0.44542667109935308 -0.45834874195150388 0 0.45787527146126272 -0.43659780538776821 0 0.45351959519158902 -0.47449039477796839 0 0.4738425378255392 -0.45951315864513043 0 0.44542667109935308 -0.45834874195150388 0 0.44542667109935308 -0.45834874195150388 0 0.45787527146126272 -0.43659780538776821 0 0.43299586898683051 -0.4443683796333826 0 0.44542667109935308 -0.45834874195150388 0 0.45787527146126272 -0.43659780538776821 0 0.5 -0.34753685197440648 0 0.5 -0.41154983875890588 0 0.48277247218508201 -0.39309593226029649 0 0.4738425378255392 -0.45951315864513043 0 0.45787527146126272 -0.43659780538776821 0 0.47032387182317231 -0.41484686882403232 0 0.45079640822707928 -0.41839353396960283 0 0.45787527146126272 -0.43659780538776821 0 0.43414697173183692 -0.4258084443161857 0 0.45787527146126272 -0.43659780538776821 0 0.43414697173183692 -0.4258084443161857 0 0.43299586898683051 -0.4443683796333826 0 0.45079640822707928 -0.41839353396960283 0 0.4339636864615104 -0.4007269655735321 0 0.43414697173183692 -0.4258084443161857 0 0.45079640822707928 -0.41839353396960283 0 0.45376434972392432 -0.40188216146407402 0 0.4339636864615104 -0.4007269655735321 0 0.45079640822707928 -0.41839353396960283 0 0.47032387182317231 -0.41484686882403232 0 0.45376434972392432 -0.40188216146407402 0 0.45079640822707928 -0.41839353396960283 0 0.45787527146126272 -0.43659780538776821 0 0.47032387182317231 -0.41484686882403232 0 0.45787527146126272 -0.43659780538776821 0 0.47032387182317231 -0.41484686882403232 0 0.4738425378255392 -0.45951315864513043 0 0.5 -0.41154983875890588 0 0.47032387182317231 -0.41484686882403232 0 0.5 -0.41154983875890588 0 0.47032387182317231 -0.41484686882403232 0 0.48277247218508201 -0.39309593226029649 0 0.47032387182317231 -0.41484686882403232 0 0.48277247218508201 -0.39309593226029649 0 0.47032387182317231 -0.41484686882403232 0 0.48277247218508201 -0.39309593226029649 0 0.46474179985557068 -0.38782085458230903 0 0.4714888824104827 -0.36826826225868992 0 0.48277247218508201 -0.39309593226029649 0 0.46474179985557068 -0.38782085458230903 0 0.4714888824104827 -0.36826826225868992 0 0.45465276955418438 -0.37304607253900463 0 0.46474179985557068 -0.38782085458230903 0 0.45465276955418438 -0.37304607253900463 0 0.46474179985557068 -0.38782085458230903 0 0.44811593473450168 -0.38409226191706553 0 0.47032387182317231 -0.41484686882403232 0 0.46474179985557068 -0.38782085458230903 0 0.45376434972392432 -0.40188216146407402 0 0.46474179985557068 -0.38782085458230903 0 0.45376434972392432 -0.40188216146407402 0 0.44811593473450168 -0.38409226191706553 0 0.45376434972392432 -0.40188216146407402 0 0.44811593473450168 -0.38409226191706553 0 0.4339636864615104 -0.4007269655735321 0 0.44811593473450168 -0.38409226191706553 0 0.43301114224087511 -0.37717363240032198 0 0.4339636864615104 -0.4007269655735321 0 0.44290642646873579 -0.3694315010258985 0 0.44811593473450168 -0.38409226191706553 0 0.43301114224087511 -0.37717363240032198 0 0.45465276955418438 -0.37304607253900463 0 0.44290642646873579 -0.3694315010258985 0 0.44811593473450168 -0.38409226191706553 0 0.43301114224087511 -0.37717363240032198 0 0.4339636864615104 -0.4007269655735321 0 0.4189563088516613 -0.38616532514058283 0 0.41832180635967958 -0.37487250105256731 0 0.43301114224087511 -0.37717363240032198 0 0.4189563088516613 -0.38616532514058283 0 0.4339636864615104 -0.4007269655735321 0 0.41847273251919548 -0.39945127522000012 0 0.41387060703084338 -0.41432726443844459 0 0.4339636864615104 -0.4007269655735321 0 0.41847273251919548 -0.39945127522000012 0 0.4189563088516613 -0.38616532514058283 0 0.41847273251919548 -0.39945127522000012 0 0.40710032773276678 -0.39658554572744081 0 0.4189563088516613 -0.38616532514058283 0 0.41847273251919548 -0.39945127522000012 0 0.40710032773276678 -0.39658554572744081 0 0.41387060703084338 -0.41432726443844459 0 0.40710032773276678 -0.39658554572744081 0 0.4189563088516613 -0.38616532514058283 0 0.40904089350268102 -0.38089922141317328 0 0.41832180635967958 -0.37487250105256731 0 0.4189563088516613 -0.38616532514058283 0 0.40904089350268102 -0.38089922141317328 0 0.40534428591426402 -0.36887956319090021 0 0.39750322898637958 -0.38281121963336301 0 0.38501102672058041 -0.37551060333081981 0 0.40534428591426402 -0.36887956319090021 0 0.40904089350268102 -0.38089922141317328 0 0.39750322898637958 -0.38281121963336301 0 0.40710032773276678 -0.39658554572744081 0 0.40904089350268102 -0.38089922141317328 0 0.39750322898637958 -0.38281121963336301 0 0.37715946759020169 -0.39018376313325409 0 0.38501102672058041 -0.37551060333081981 0 0.36813569497355941 -0.37575979781310648 0 0.39750322898637958 -0.38281121963336301 0 0.37715946759020169 -0.39018376313325409 0 0.38501102672058041 -0.37551060333081981 0 0.39750322898637958 -0.38281121963336301 0 0.37715946759020169 -0.39018376313325409 0 0.38911658781986053 -0.40622289858175231 0 0.37715946759020169 -0.39018376313325409 0 0.38911658781986053 -0.40622289858175231 0 0.36641330609187178 -0.41103484272696311 0 0.40710032773276678 -0.39658554572744081 0 0.39750322898637958 -0.38281121963336301 0 0.38911658781986053 -0.40622289858175231 0 0.39750322898637958 -0.38281121963336301 0 0.38911658781986053 -0.40622289858175231 0 0.40710032773276678 -0.39658554572744081 0 0.38911658781986053 -0.40622289858175231 0 0.41387060703084338 -0.41432726443844459 0 0.38911658781986053 -0.40622289858175231 0 0.39898903405229519 -0.4310430263402415 0 0.41387060703084338 -0.41432726443844459 0 0.38911658781986053 -0.40622289858175231 0 0.38072994665334148 -0.42963457753014161 0 0.36641330609187178 -0.41103484272696311 0 0.38911658781986053 -0.40622289858175231 0 0.38072994665334148 -0.42963457753014161 0 0.38072994665334148 -0.42963457753014161 0 0.39898903405229519 -0.4310430263402415 0 0.39165686204611549 -0.44455713118804763 0 0.38911658781986053 -0.40622289858175231 0 0.38072994665334148 -0.42963457753014161 0 0.39898903405229519 -0.4310430263402415 0 0.41387060703084338 -0.41432726443844459 0 0.43414697173183692 -0.4258084443161857 0 0.41475578739290658 -0.44021208378808491 0 0.39898903405229519 -0.4310430263402415 0 0.41387060703084338 -0.41432726443844459 0 0.41475578739290658 -0.44021208378808491 0 0.4339636864615104 -0.4007269655735321 0 0.41387060703084338 -0.41432726443844459 0 0.43414697173183692 -0.4258084443161857 0 0.43414697173183692 -0.4258084443161857 0 0.43299586898683051 -0.4443683796333826 0 0.41475578739290658 -0.44021208378808491 0 0.44542667109935308 -0.45834874195150388 0 0.43299586898683051 -0.4443683796333826 0 0.43038845697179118 -0.46417978871965598 0 0.43299586898683051 -0.4443683796333826 0 0.43038845697179118 -0.46417978871965598 0 0.41671410829068273 -0.45713085818589422 0 0.44542667109935308 -0.45834874195150388 0 0.43038845697179118 -0.46417978871965598 0 0.43297807073744349 -0.4800996785152396 0 0.41671410829068273 -0.45713085818589422 0 0.4053490206798358 -0.46358024024578198 0 0.41588084407461462 -0.48080759406611412 0 0.43038845697179118 -0.46417978871965598 0 0.41671410829068273 -0.45713085818589422 0 0.41588084407461462 -0.48080759406611412 0 0.41671410829068273 -0.45713085818589422 0 0.40380441337070411 -0.45130420251497871 0 0.4053490206798358 -0.46358024024578198 0 0.41671410829068273 -0.45713085818589422 0 0.41475578739290658 -0.44021208378808491 0 0.40380441337070411 -0.45130420251497871 0 0.43299586898683051 -0.4443683796333826 0 0.41671410829068273 -0.45713085818589422 0 0.41475578739290658 -0.44021208378808491 0 0.39898903405229519 -0.4310430263402415 0 0.41475578739290658 -0.44021208378808491 0 0.40380441337070411 -0.45130420251497871 0 0.39898903405229519 -0.4310430263402415 0 0.40380441337070411 -0.45130420251497871 0 0.39165686204611549 -0.44455713118804763 0 0.40380441337070411 -0.45130420251497871 0 0.39165686204611549 -0.44455713118804763 0 0.39283249249818442 -0.45726415656621172 0 0.38072994665334148 -0.42963457753014161 0 0.39165686204611549 -0.44455713118804763 0 0.38334165058796721 -0.44929666149764802 0 0.38072994665334148 -0.42963457753014161 0 0.38334165058796721 -0.44929666149764802 0 0.37234330548682387 -0.45304625647853131 0 0.38072994665334148 -0.42963457753014161 0 0.37234330548682387 -0.45304625647853131 0 0.39165686204611549 -0.44455713118804763 0 0.38334165058796721 -0.44929666149764802 0 0.39283249249818442 -0.45726415656621172 0 0.37914564625537228 -0.46198118572530827 0 0.39283249249818442 -0.45726415656621172 0 0.39751324516499342 -0.4713943898957112 0 0.37914564625537228 -0.46198118572530827 0 0.39751324516499342 -0.4713943898957112 0 0.38334165058796721 -0.44929666149764802 0 0.37914564625537228 -0.46198118572530827 0 0.37234330548682387 -0.45304625647853131 0 0.37914564625537228 -0.46198118572530827 0 0.37234330548682387 -0.45304625647853131 0 0.38334165058796721 -0.44929666149764802 0 0.37914564625537228 -0.46198118572530827 0 0.39283249249818442 -0.45726415656621172 0 0.40380441337070411 -0.45130420251497871 0 0.39283249249818442 -0.45726415656621172 0 0.4053490206798358 -0.46358024024578198 0 0.39283249249818442 -0.45726415656621172 0 0.4053490206798358 -0.46358024024578198 0 0.39751324516499342 -0.4713943898957112 0 0.4053490206798358 -0.46358024024578198 0 0.39751324516499342 -0.4713943898957112 0 0.41588084407461462 -0.48080759406611412 0 0.39361788902135408 -0.48099059286265311 0 0.39751324516499342 -0.4713943898957112 0 0.41588084407461462 -0.48080759406611412 0 0.37914564625537228 -0.46198118572530827 0 0.39361788902135408 -0.48099059286265311 0 0.39751324516499342 -0.4713943898957112 0 0.37914564625537228 -0.46198118572530827 0 0.39361788902135408 -0.48099059286265311 0 0.37941975046662457 -0.48044918109470758 0 0.37914564625537228 -0.46198118572530827 0 0.39361788902135408 -0.48099059286265311 0 0.39361788902135408 -0.48099059286265311 0 0.37941975046662457 -0.48044918109470758 0 0.38180672379631148 -0.5 0 0.39361788902135408 -0.48099059286265311 0 0.40809013178733511 -0.49999999999999861 0 0.41588084407461462 -0.48080759406611412 0 0.39361788902135408 -0.48099059286265311 0 0.40809013178733511 -0.49999999999999861 0 0.39361788902135408 -0.48099059286265311 0 0.38180672379631148 -0.5 0 0.40809013178733511 -0.49999999999999861 0 0.40809013178733511 -0.49999999999999861 0 0.41588084407461462 -0.48080759406611412 0 0.43297807073744349 -0.4800996785152396 0 0.46183110110402048 -0.5 0 0.40809013178733511 -0.49999999999999861 0 0.43297807073744349 -0.4800996785152396 0 0.39751324516499342 -0.4713943898957112 0 0.41588084407461462 -0.48080759406611412 0 0.43038845697179118 -0.46417978871965598 0 0.41588084407461462 -0.48080759406611412 0 0.43297807073744349 -0.4800996785152396 0 0.31888209099111048 -0.4856149865898382 0 0.33113772213413722 -0.5 0 0.3067521284629865 -0.5 0 0.31888209099111048 -0.4856149865898382 0 0.33921752520488718 -0.47910097709975591 0 0.31892172632893262 -0.46591270658298262 0 0.33921752520488718 -0.47910097709975591 0 0.33113772213413722 -0.5 0 0.35552331580528779 -0.49999999999999861 0 0.31888209099111048 -0.4856149865898382 0 0.33921752520488718 -0.47910097709975591 0 0.33113772213413722 -0.5 0 0.35552331580528779 -0.49999999999999861 0 0.36310874279346061 -0.47882494579086909 0 0.33921752520488718 -0.47910097709975591 0 0.35552331580528779 -0.49999999999999861 0 0.36310874279346061 -0.47882494579086909 0 0.38180672379631148 -0.5 0 0.35552331580528779 -0.49999999999999861 0 0.36310874279346061 -0.47882494579086909 0 0.37941975046662457 -0.48044918109470758 0 0.38180672379631148 -0.5 0 0.36310874279346061 -0.47882494579086909 0 0.37914564625537228 -0.46198118572530827 0 0.37941975046662457 -0.48044918109470758 0 0.36310874279346061 -0.47882494579086909 0 0.33921752520488718 -0.47910097709975591 0 0.36310874279346061 -0.47882494579086909 0 0.35172608730442229 -0.46405189151695753 0 0.35172608730442229 -0.46405189151695753 0 0.37069416978163372 -0.45764989158173991 0 0.34621868984452681 -0.44510646165656292 0 0.35172608730442229 -0.46405189151695753 0 0.34621868984452681 -0.44510646165656292 0 0.33556544771803781 -0.45734701371752889 0 0.37914564625537228 -0.46198118572530827 0 0.36310874279346061 -0.47882494579086909 0 0.37069416978163372 -0.45764989158173991 0 0.36310874279346061 -0.47882494579086909 0 0.35172608730442229 -0.46405189151695753 0 0.37069416978163372 -0.45764989158173991 0 0.36310874279346061 -0.47882494579086909 0 0.37069416978163372 -0.45764989158173991 0 0.37914564625537228 -0.46198118572530827 0 0.37069416978163372 -0.45764989158173991 0 0.37234330548682387 -0.45304625647853131 0 0.37914564625537228 -0.46198118572530827 0 0.37069416978163372 -0.45764989158173991 0 0.37069416978163372 -0.45764989158173991 0 0.37234330548682387 -0.45304625647853131 0 0.37234330548682387 -0.45304625647853131 0 0.35623927565157743 -0.43189348391657578 0 0.37234330548682387 -0.45304625647853131 0 0.36109132980765929 -0.4465011037469141 0 0.35623927565157743 -0.43189348391657578 0 0.38072994665334148 -0.42963457753014161 0 0.37234330548682387 -0.45304625647853131 0 0.35623927565157743 -0.43189348391657578 0 0.37069416978163372 -0.45764989158173991 0 0.37234330548682387 -0.45304625647853131 0 0.36109132980765929 -0.4465011037469141 0 0.37069416978163372 -0.45764989158173991 0 0.34621868984452681 -0.44510646165656292 0 0.36109132980765929 -0.4465011037469141 0 0.34621868984452681 -0.44510646165656292 0 0.35623927565157743 -0.43189348391657578 0 0.37069416978163372 -0.45764989158173991 0 0.36109132980765929 -0.4465011037469141 0 0.34621868984452681 -0.44510646165656292 0 0.34621868984452681 -0.44510646165656292 0 0.32174320990741972 -0.43256303173138588 0 0.31892172632893262 -0.46591270658298262 0 0.32174320990741972 -0.43256303173138588 0 0.30313581419777291 -0.45611880884764833 0 0.34621868984452681 -0.44510646165656292 0 0.33556544771803781 -0.45734701371752889 0 0.32174320990741972 -0.43256303173138588 0 0.33556544771803781 -0.45734701371752889 0 0.31892172632893262 -0.46591270658298262 0 0.32174320990741972 -0.43256303173138588 0 0.33921752520488718 -0.47910097709975591 0 0.33556544771803781 -0.45734701371752889 0 0.31892172632893262 -0.46591270658298262 0 0.33921752520488718 -0.47910097709975591 0 0.35172608730442229 -0.46405189151695753 0 0.33556544771803781 -0.45734701371752889 0 0.32174320990741972 -0.43256303173138588 0 0.34013524581632859 -0.41074071135462209 0 0.31236763670928941 -0.41369213679956118 0 0.34013524581632859 -0.41074071135462209 0 0.31463436729199268 -0.39977619348395399 0 0.31236763670928941 -0.41369213679956118 0 0.34621868984452681 -0.44510646165656292 0 0.32174320990741972 -0.43256303173138588 0 0.33949218274166731 -0.42940880694622119 0 0.32174320990741972 -0.43256303173138588 0 0.34013524581632859 -0.41074071135462209 0 0.33949218274166731 -0.42940880694622119 0 0.34621868984452681 -0.44510646165656292 0 0.33949218274166731 -0.42940880694622119 0 0.35623927565157743 -0.43189348391657578 0 0.34013524581632859 -0.41074071135462209 0 0.33949218274166731 -0.42940880694622119 0 0.35623927565157743 -0.43189348391657578 0 0.38072994665334148 -0.42963457753014161 0 0.35623927565157743 -0.43189348391657578 0 0.36641330609187178 -0.41103484272696311 0 0.34013524581632859 -0.41074071135462209 0 0.35623927565157743 -0.43189348391657578 0 0.36641330609187178 -0.41103484272696311 0 0.34013524581632859 -0.41074071135462209 0 0.35623927565157743 -0.43189348391657578 0 0.34013524581632859 -0.41074071135462209 0 0.35731339728553541 -0.39200843168506289 0 0.34160215677372779 -0.38805699853454328 0 0.34013524581632859 -0.41074071135462209 0 0.36641330609187178 -0.41103484272696311 0 0.35731339728553541 -0.39200843168506289 0 0.37715946759020169 -0.39018376313325409 0 0.36641330609187178 -0.41103484272696311 0 0.35731339728553541 -0.39200843168506289 0 0.37715946759020169 -0.39018376313325409 0 0.35731339728553541 -0.39200843168506289 0 0.36813569497355941 -0.37575979781310648 0 0.35731339728553541 -0.39200843168506289 0 0.36813569497355941 -0.37575979781310648 0 0.35277454402536601 -0.37700379664244982 0 0.35731339728553541 -0.39200843168506289 0 0.35277454402536601 -0.37700379664244982 0 0.34160215677372779 -0.38805699853454328 0 0.35277454402536601 -0.37700379664244982 0 0.34160215677372779 -0.38805699853454328 0 0.33579088460383488 -0.37192744337886202 0 0.34160215677372779 -0.38805699853454328 0 0.32403121598107981 -0.38958793879266829 0 0.33579088460383488 -0.37192744337886202 0 0.34013524581632859 -0.41074071135462209 0 0.32403121598107981 -0.38958793879266829 0 0.34013524581632859 -0.41074071135462209 0 0.34160215677372779 -0.38805699853454328 0 0.32403121598107981 -0.38958793879266829 0 0.34013524581632859 -0.41074071135462209 0 0.31463436729199268 -0.39977619348395399 0 0.32403121598107981 -0.38958793879266829 0 0.31463436729199268 -0.39977619348395399 0 0.32403121598107981 -0.38958793879266829 0 0.31055118271749738 -0.38658857495704968 0 0.31055118271749738 -0.38658857495704968 0 0.33579088460383488 -0.37192744337886202 0 0.31306122824443838 -0.36948366030614987 0 0.31055118271749738 -0.38658857495704968 0 0.33579088460383488 -0.37192744337886202 0 0.32403121598107981 -0.38958793879266829 0 0.31055118271749738 -0.38658857495704968 0 0.33579088460383488 -0.37192744337886202 0 0.31055118271749738 -0.38658857495704968 0 0.28448106956433372 -0.383734880768763 0 0.2969253220653969 -0.37200133009530267 0 0.31055118271749738 -0.38658857495704968 0 0.31306122824443838 -0.36948366030614987 0 0.2969253220653969 -0.37200133009530267 0 0.31463436729199268 -0.39977619348395399 0 0.28531148083115981 -0.40124970653523739 0 0.31236763670928941 -0.41369213679956118 0 0.31055118271749738 -0.38658857495704968 0 0.28531148083115981 -0.40124970653523739 0 0.31463436729199268 -0.39977619348395399 0 0.31055118271749738 -0.38658857495704968 0 0.28531148083115981 -0.40124970653523739 0 0.31055118271749738 -0.38658857495704968 0 0.28531148083115981 -0.40124970653523739 0 0.28448106956433372 -0.383734880768763 0 0.28448106956433372 -0.383734880768763 0 0.2969253220653969 -0.37200133009530267 0 0.28359386598555542 -0.37191048178921599 0 0.28448106956433372 -0.383734880768763 0 0.27197180634270468 -0.38548678343882109 0 0.27155454343823432 -0.37473077260953241 0 0.28448106956433372 -0.383734880768763 0 0.28359386598555542 -0.37191048178921599 0 0.27155454343823432 -0.37473077260953241 0 0.28448106956433372 -0.383734880768763 0 0.27197180634270468 -0.38548678343882109 0 0.27365373614900629 -0.39576073483159729 0 0.27197180634270468 -0.38548678343882109 0 0.26333172382085479 -0.38502715815675281 0 0.26570325011355878 -0.39543917265614631 0 0.27197180634270468 -0.38548678343882109 0 0.26333172382085479 -0.38502715815675281 0 0.27155454343823432 -0.37473077260953241 0 0.26333172382085479 -0.38502715815675281 0 0.25732300087440207 -0.39575033566817341 0 0.25330110596180933 -0.36625234778313681 0 0.25732300087440207 -0.39575033566817341 0 0.25330110596180933 -0.36625234778313681 0 0.26333172382085479 -0.38502715815675281 0 0.27155454343823432 -0.37473077260953241 0 0.25330110596180933 -0.36625234778313681 0 0.25208611461120289 -0.39253911363356347 0 0.25732300087440207 -0.39575033566817341 0 0.25330110596180933 -0.36625234778313681 0 0.25732300087440207 -0.39575033566817341 0 0.25940734124596793 -0.39552124413911349 0 0.26007177894482181 -0.41591083811342472 0 0.25940734124596793 -0.39552124413911349 0 0.26570325011355878 -0.39543917265614631 0 0.26007177894482181 -0.41591083811342472 0 0.25732300087440207 -0.39575033566817341 0 0.26007177894482181 -0.41591083811342472 0 0.26333172382085479 -0.38502715815675281 0 0.25732300087440207 -0.39575033566817341 0 0.25940734124596793 -0.39552124413911349 0 0.26333172382085479 -0.38502715815675281 0 0.25940734124596793 -0.39552124413911349 0 0.26570325011355878 -0.39543917265614631 0 0.25732300087440207 -0.39575033566817341 0 0.25940734124596793 -0.39552124413911349 0 0.26570325011355878 -0.39543917265614631 0 0.27365373614900629 -0.39576073483159729 0 0.26007177894482181 -0.41591083811342472 0 0.28531148083115981 -0.40124970653523739 0 0.27365373614900629 -0.39576073483159729 0 0.26007177894482181 -0.41591083811342472 0 0.28531148083115981 -0.40124970653523739 0 0.28448106956433372 -0.383734880768763 0 0.27365373614900629 -0.39576073483159729 0 0.27197180634270468 -0.38548678343882109 0 0.26570325011355878 -0.39543917265614631 0 0.27365373614900629 -0.39576073483159729 0 0.28531148083115981 -0.40124970653523739 0 0.26007177894482181 -0.41591083811342472 0 0.28531148083115981 -0.40124970653523739 0 0.28030228772178101 -0.42168231249492572 0 0.26007177894482181 -0.41591083811342472 0 0.25732300087440207 -0.39575033566817341 0 0.26007177894482181 -0.41591083811342472 0 0.24750047960936969 -0.40949869805603889 0 0.26007177894482181 -0.41591083811342472 0 0.2446807388689711 -0.42485112055786151 0 0.26007177894482181 -0.41591083811342472 0 0.2446807388689711 -0.42485112055786151 0 0.24750047960936969 -0.40949869805603889 0 0.26007177894482181 -0.41591083811342472 0 0.26235531399268391 -0.43265908505693212 0 0.26235531399268391 -0.43265908505693212 0 0.25146878115798132 -0.43797362560499747 0 0.2446807388689711 -0.42485112055786151 0 0.26007177894482181 -0.41591083811342472 0 0.26235531399268391 -0.43265908505693212 0 0.2446807388689711 -0.42485112055786151 0 0.28030228772178101 -0.42168231249492572 0 0.26007177894482181 -0.41591083811342472 0 0.26235531399268391 -0.43265908505693212 0 0.28030228772178101 -0.42168231249492572 0 0.26235531399268391 -0.43265908505693212 0 0.27555302653205821 -0.44249788261255352 0 0.28030228772178101 -0.42168231249492572 0 0.29300500363530019 -0.4418541090079795 0 0.27555302653205821 -0.44249788261255352 0 0.28030228772178101 -0.42168231249492572 0 0.29962634249724168 -0.42562009140229151 0 0.29300500363530019 -0.4418541090079795 0 0.28531148083115981 -0.40124970653523739 0 0.28030228772178101 -0.42168231249492572 0 0.29962634249724168 -0.42562009140229151 0 0.28531148083115981 -0.40124970653523739 0 0.31236763670928941 -0.41369213679956118 0 0.29962634249724168 -0.42562009140229151 0 0.32174320990741972 -0.43256303173138588 0 0.29962634249724168 -0.42562009140229151 0 0.29300500363530019 -0.4418541090079795 0 0.32174320990741972 -0.43256303173138588 0 0.31236763670928941 -0.41369213679956118 0 0.29962634249724168 -0.42562009140229151 0 0.32174320990741972 -0.43256303173138588 0 0.30313581419777291 -0.45611880884764833 0 0.29300500363530019 -0.4418541090079795 0 0.31892172632893262 -0.46591270658298262 0 0.30313581419777291 -0.45611880884764833 0 0.29748860298434338 -0.47904999550043897 0 0.30313581419777291 -0.45611880884764833 0 0.28452052813286838 -0.46121420141545438 0 0.29748860298434338 -0.47904999550043897 0 0.28452052813286838 -0.46121420141545438 0 0.29300500363530019 -0.4418541090079795 0 0.27555302653205821 -0.44249788261255352 0 0.30313581419777291 -0.45611880884764833 0 0.28452052813286838 -0.46121420141545438 0 0.29300500363530019 -0.4418541090079795 0 0.26235531399268391 -0.43265908505693212 0 0.27555302653205821 -0.44249788261255352 0 0.2609832287379234 -0.44842375683169561 0 0.27555302653205821 -0.44249788261255352 0 0.2609832287379234 -0.44842375683169561 0 0.26709924515855499 -0.46343879669508747 0 0.26235531399268391 -0.43265908505693212 0 0.25146878115798132 -0.43797362560499747 0 0.2609832287379234 -0.44842375683169561 0 0.25146878115798132 -0.43797362560499747 0 0.2609832287379234 -0.44842375683169561 0 0.24059777835827181 -0.44708129722640277 0 0.2609832287379234 -0.44842375683169561 0 0.25066357344128998 -0.46042009830195291 0 0.24059777835827181 -0.44708129722640277 0 0.2609832287379234 -0.44842375683169561 0 0.25066357344128998 -0.46042009830195291 0 0.26709924515855499 -0.46343879669508747 0 0.28452052813286838 -0.46121420141545438 0 0.27555302653205821 -0.44249788261255352 0 0.26709924515855499 -0.46343879669508747 0 0.28452052813286838 -0.46121420141545438 0 0.26709924515855499 -0.46343879669508747 0 0.27204808317256629 -0.48156847138527409 0 0.26709924515855499 -0.46343879669508747 0 0.27204808317256629 -0.48156847138527409 0 0.2493799117921196 -0.48316441513589592 0 0.25066357344128998 -0.46042009830195291 0 0.26709924515855499 -0.46343879669508747 0 0.2493799117921196 -0.48316441513589592 0 0.27204808317256629 -0.48156847138527409 0 0.25798094112068509 -0.5 0 0.2493799117921196 -0.48316441513589592 0 0.27204808317256629 -0.48156847138527409 0 0.25798094112068509 -0.5 0 0.28236653479183582 -0.5 0 0.28236653479183582 -0.5 0 0.29748860298434338 -0.47904999550043897 0 0.3067521284629865 -0.5 0 0.27204808317256629 -0.48156847138527409 0 0.28236653479183582 -0.5 0 0.29748860298434338 -0.47904999550043897 0 0.28452052813286838 -0.46121420141545438 0 0.27204808317256629 -0.48156847138527409 0 0.29748860298434338 -0.47904999550043897 0 0.31888209099111048 -0.4856149865898382 0 0.31892172632893262 -0.46591270658298262 0 0.29748860298434338 -0.47904999550043897 0 0.31888209099111048 -0.4856149865898382 0 0.29748860298434338 -0.47904999550043897 0 0.3067521284629865 -0.5 0 0.33264583727132052 -0.28954652862045771 0 0.32413172858793449 -0.30218293717649658 0 0.34421794169690462 -0.31139964792988362 0 0.32413172858793449 -0.30218293717649658 0 0.34421794169690462 -0.31139964792988362 0 0.32123570117162781 -0.31489009831366183 0 0.32413172858793449 -0.30218293717649658 0 0.32123570117162781 -0.31489009831366183 0 0.30796865197135143 -0.30426887852060469 0 0.32413172858793449 -0.30218293717649658 0 0.31459051082846817 -0.29080953249787528 0 0.30796865197135143 -0.30426887852060469 0 0.33264583727132052 -0.28954652862045771 0 0.31459051082846817 -0.29080953249787528 0 0.32471069931263119 -0.27184423397807811 0 0.33264583727132052 -0.28954652862045771 0 0.32413172858793449 -0.30218293717649658 0 0.31459051082846817 -0.29080953249787528 0 0.32471069931263119 -0.27184423397807811 0 0.31440153750881022 -0.25585096765320098 0 0.30678309186314878 -0.27800144055632903 0 0.31459051082846817 -0.29080953249787528 0 0.32471069931263119 -0.27184423397807811 0 0.30678309186314878 -0.27800144055632903 0 0.33460187179154399 -0.24805785858830651 0 0.32471069931263119 -0.27184423397807811 0 0.31440153750881022 -0.25585096765320098 0 0.33460187179154399 -0.24805785858830651 0 0.34524134661249611 -0.2687990759522994 0 0.34963001261181442 -0.25352116830563232 0 0.33460187179154399 -0.24805785858830651 0 0.32471069931263119 -0.27184423397807811 0 0.34524134661249611 -0.2687990759522994 0 0.33264583727132052 -0.28954652862045771 0 0.32471069931263119 -0.27184423397807811 0 0.34524134661249611 -0.2687990759522994 0 0.34524134661249611 -0.2687990759522994 0 0.36295308033746149 -0.26961102093880912 0 0.36307275068754141 -0.28973129771318218 0 0.34524134661249611 -0.2687990759522994 0 0.34963001261181442 -0.25352116830563232 0 0.36295308033746149 -0.26961102093880912 0 0.34963001261181442 -0.25352116830563232 0 0.36602304198461422 -0.25240732847334652 0 0.36295308033746149 -0.26961102093880912 0 0.3819275596781761 -0.26806294749647902 0 0.36602304198461422 -0.25240732847334652 0 0.36295308033746149 -0.26961102093880912 0 0.3819275596781761 -0.26806294749647902 0 0.36602304198461422 -0.25240732847334652 0 0.3819275596781761 -0.26806294749647902 0 0.36295308033746149 -0.26961102093880912 0 0.36307275068754141 -0.28973129771318218 0 0.3819275596781761 -0.26806294749647902 0 0.36307275068754141 -0.28973129771318218 0 0.38417794662727778 -0.28954262043001322 0 0.36307275068754141 -0.28973129771318218 0 0.37479560848769888 -0.30914323833367602 0 0.33264583727132052 -0.28954652862045771 0 0.34524134661249611 -0.2687990759522994 0 0.36307275068754141 -0.28973129771318218 0 0.36307275068754141 -0.28973129771318218 0 0.34421794169690462 -0.31139964792988362 0 0.33264583727132052 -0.28954652862045771 0 0.36307275068754141 -0.28973129771318218 0 0.34421794169690462 -0.31139964792988362 0 0.36307275068754141 -0.28973129771318218 0 0.34421794169690462 -0.31139964792988362 0 0.37479560848769888 -0.30914323833367602 0 0.34421794169690462 -0.31139964792988362 0 0.37479560848769888 -0.30914323833367602 0 0.36431323765339252 -0.33386139747700411 0 0.36431323765339252 -0.33386139747700411 0 0.34452414334203119 -0.3312876949489314 0 0.33992543880021092 -0.34998911289138679 0 0.34421794169690462 -0.31139964792988362 0 0.36431323765339252 -0.33386139747700411 0 0.34452414334203119 -0.3312876949489314 0 0.37828147262876483 -0.36208066851540888 0 0.36813569497355941 -0.37575979781310648 0 0.3610305864901725 -0.35726631180067431 0 0.36813569497355941 -0.37575979781310648 0 0.35277454402536601 -0.37700379664244982 0 0.3610305864901725 -0.35726631180067431 0 0.38627028837651017 -0.34260518022248648 0 0.3610305864901725 -0.35726631180067431 0 0.38627028837651017 -0.34260518022248648 0 0.36431323765339252 -0.33386139747700411 0 0.3610305864901725 -0.35726631180067431 0 0.36431323765339252 -0.33386139747700411 0 0.3610305864901725 -0.35726631180067431 0 0.33992543880021092 -0.34998911289138679 0 0.3610305864901725 -0.35726631180067431 0 0.33579088460383488 -0.37192744337886202 0 0.3610305864901725 -0.35726631180067431 0 0.33579088460383488 -0.37192744337886202 0 0.33992543880021092 -0.34998911289138679 0 0.35277454402536601 -0.37700379664244982 0 0.3610305864901725 -0.35726631180067431 0 0.33579088460383488 -0.37192744337886202 0 0.33992543880021092 -0.34998911289138679 0 0.32412980161407662 -0.35584091261725398 0 0.32536313270626782 -0.33306799814658511 0 0.33579088460383488 -0.37192744337886202 0 0.33992543880021092 -0.34998911289138679 0 0.32412980161407662 -0.35584091261725398 0 0.32412980161407662 -0.35584091261725398 0 0.32536313270626782 -0.33306799814658511 0 0.30650832371563103 -0.35473634836328638 0 0.32536313270626782 -0.33306799814658511 0 0.30650832371563103 -0.35473634836328638 0 0.33579088460383488 -0.37192744337886202 0 0.32412980161407662 -0.35584091261725398 0 0.31306122824443838 -0.36948366030614987 0 0.32412980161407662 -0.35584091261725398 0 0.31306122824443838 -0.36948366030614987 0 0.30650832371563103 -0.35473634836328638 0 0.34421794169690462 -0.31139964792988362 0 0.32536313270626782 -0.33306799814658511 0 0.32123570117162781 -0.31489009831366183 0 0.34421794169690462 -0.31139964792988362 0 0.32536313270626782 -0.33306799814658511 0 0.34421794169690462 -0.31139964792988362 0 0.34452414334203119 -0.3312876949489314 0 0.32536313270626782 -0.33306799814658511 0 0.34452414334203119 -0.3312876949489314 0 0.33992543880021092 -0.34998911289138679 0 0.32536313270626782 -0.33306799814658511 0 0.32536313270626782 -0.33306799814658511 0 0.30829884406480351 -0.32372208101088767 0 0.30650832371563103 -0.35473634836328638 0 0.32123570117162781 -0.31489009831366183 0 0.30829884406480351 -0.32372208101088767 0 0.30796865197135143 -0.30426887852060469 0 0.32536313270626782 -0.33306799814658511 0 0.32123570117162781 -0.31489009831366183 0 0.30829884406480351 -0.32372208101088767 0 0.30829884406480351 -0.32372208101088767 0 0.28942846092858898 -0.32845967050756231 0 0.29916464621748728 -0.30015191345945702 0 0.30829884406480351 -0.32372208101088767 0 0.30650832371563103 -0.35473634836328638 0 0.29464986630771028 -0.34507517325885911 0 0.30829884406480351 -0.32372208101088767 0 0.28942846092858898 -0.32845967050756231 0 0.29464986630771028 -0.34507517325885911 0 0.28942846092858898 -0.32845967050756231 0 0.27969227563969062 -0.35676742755566748 0 0.28942846092858898 -0.32845967050756231 0 0.29464986630771028 -0.34507517325885911 0 0.27969227563969062 -0.35676742755566748 0 0.28942846092858898 -0.32845967050756231 0 0.27948056953969141 -0.30916254882428379 0 0.29916464621748728 -0.30015191345945702 0 0.28942846092858898 -0.32845967050756231 0 0.29916464621748728 -0.30015191345945702 0 0.31306122824443838 -0.36948366030614987 0 0.2969253220653969 -0.37200133009530267 0 0.30650832371563103 -0.35473634836328638 0 0.2969253220653969 -0.37200133009530267 0 0.30650832371563103 -0.35473634836328638 0 0.28932142718983722 -0.36169033885689111 0 0.30650832371563103 -0.35473634836328638 0 0.29464986630771028 -0.34507517325885911 0 0.28932142718983722 -0.36169033885689111 0 0.29464986630771028 -0.34507517325885911 0 0.28932142718983722 -0.36169033885689111 0 0.27969227563969062 -0.35676742755566748 0 0.28932142718983722 -0.36169033885689111 0 0.27728629284516632 -0.36560503206767642 0 0.27969227563969062 -0.35676742755566748 0 0.28932142718983722 -0.36169033885689111 0 0.28359386598555542 -0.37191048178921599 0 0.27728629284516632 -0.36560503206767642 0 0.2969253220653969 -0.37200133009530267 0 0.28932142718983722 -0.36169033885689111 0 0.28359386598555542 -0.37191048178921599 0 0.27155454343823432 -0.37473077260953241 0 0.27728629284516632 -0.36560503206767642 0 0.26822048002157478 -0.36371500475686819 0 0.28359386598555542 -0.37191048178921599 0 0.27155454343823432 -0.37473077260953241 0 0.27728629284516632 -0.36560503206767642 0 0.27728629284516632 -0.36560503206767642 0 0.26822048002157478 -0.36371500475686819 0 0.27969227563969062 -0.35676742755566748 0 0.28942846092858898 -0.32845967050756231 0 0.27969227563969062 -0.35676742755566748 0 0.27113289281487868 -0.34960780313771739 0 0.26822048002157478 -0.36371500475686819 0 0.27969227563969062 -0.35676742755566748 0 0.27113289281487868 -0.34960780313771739 0 0.25330110596180933 -0.36625234778313681 0 0.2492792110492198 -0.33675435989809949 0 0.27113289281487868 -0.34960780313771739 0 0.25330110596180933 -0.36625234778313681 0 0.2492792110492198 -0.33675435989809949 0 0.27155454343823432 -0.37473077260953241 0 0.26822048002157478 -0.36371500475686819 0 0.25330110596180933 -0.36625234778313681 0 0.26822048002157478 -0.36371500475686819 0 0.27113289281487868 -0.34960780313771739 0 0.25330110596180933 -0.36625234778313681 0 0.28942846092858898 -0.32845967050756231 0 0.26684661224653078 -0.32381206172009191 0 0.27948056953969141 -0.30916254882428379 0 0.28942846092858898 -0.32845967050756231 0 0.27113289281487868 -0.34960780313771739 0 0.26684661224653078 -0.32381206172009191 0 0.27113289281487868 -0.34960780313771739 0 0.2492792110492198 -0.33675435989809949 0 0.27113289281487868 -0.34960780313771739 0 0.26684661224653078 -0.32381206172009191 0 0.2492792110492198 -0.33675435989809949 0 0.26684661224653078 -0.32381206172009191 0 0.24637000942484619 -0.31541725484293659 0 0.2492792110492198 -0.33675435989809949 0 0.26684661224653078 -0.32381206172009191 0 0.26233616210215849 -0.30237347455046482 0 0.24637000942484619 -0.31541725484293659 0 0.26233616210215849 -0.30237347455046482 0 0.24346080780047569 -0.2940801497877733 0 0.24637000942484619 -0.31541725484293659 0 0.26233616210215849 -0.30237347455046482 0 0.2600892861898958 -0.28187933430822931 0 0.24346080780047569 -0.2940801497877733 0 0.2600892861898958 -0.28187933430822931 0 0.27962696620369148 -0.29101562388384328 0 0.26233616210215849 -0.30237347455046482 0 0.2600892861898958 -0.28187933430822931 0 0.27962696620369148 -0.29101562388384328 0 0.2600892861898958 -0.28187933430822931 0 0.27962696620369148 -0.29101562388384328 0 0.2806078599126437 -0.27241723629863651 0 0.26233616210215849 -0.30237347455046482 0 0.27962696620369148 -0.29101562388384328 0 0.27948056953969141 -0.30916254882428379 0 0.26684661224653078 -0.32381206172009191 0 0.26233616210215849 -0.30237347455046482 0 0.27948056953969141 -0.30916254882428379 0 0.27962696620369148 -0.29101562388384328 0 0.27948056953969141 -0.30916254882428379 0 0.29916464621748728 -0.30015191345945702 0 0.27962696620369148 -0.29101562388384328 0 0.29389834047260183 -0.2859552347975538 0 0.29916464621748728 -0.30015191345945702 0 0.27962696620369148 -0.29101562388384328 0 0.29389834047260183 -0.2859552347975538 0 0.2806078599126437 -0.27241723629863651 0 0.27962696620369148 -0.29101562388384328 0 0.29916464621748728 -0.30015191345945702 0 0.29389834047260183 -0.2859552347975538 0 0.29916464621748728 -0.30015191345945702 0 0.30678309186314878 -0.27800144055632903 0 0.29916464621748728 -0.30015191345945702 0 0.30678309186314878 -0.27800144055632903 0 0.31459051082846817 -0.29080953249787528 0 0.29916464621748728 -0.30015191345945702 0 0.30678309186314878 -0.27800144055632903 0 0.31459051082846817 -0.29080953249787528 0 0.30796865197135143 -0.30426887852060469 0 0.29916464621748728 -0.30015191345945702 0 0.30829884406480351 -0.32372208101088767 0 0.30796865197135143 -0.30426887852060469 0 0.29916464621748728 -0.30015191345945702 0 0.30796865197135143 -0.30426887852060469 0 0.29916464621748728 -0.30015191345945702 0 0.29675187277504089 -0.24077871660993291 0 0.31440153750881022 -0.25585096765320098 0 0.29555478234999411 -0.26433070746921689 0 0.31440153750881022 -0.25585096765320098 0 0.30678309186314878 -0.27800144055632903 0 0.29555478234999411 -0.26433070746921689 0 0.29389834047260183 -0.2859552347975538 0 0.30678309186314878 -0.27800144055632903 0 0.29555478234999411 -0.26433070746921689 0 0.31440153750881022 -0.25585096765320098 0 0.30678309186314878 -0.27800144055632903 0 0.29389834047260183 -0.2859552347975538 0 0.29555478234999411 -0.26433070746921689 0 0.2806078599126437 -0.27241723629863651 0 0.29555478234999411 -0.26433070746921689 0 0.2808859915677191 -0.25298064889964872 0 0.2806078599126437 -0.27241723629863651 0 0.29675187277504089 -0.24077871660993291 0 0.29555478234999411 -0.26433070746921689 0 0.2808859915677191 -0.25298064889964872 0 0.26487368592424948 -0.2436669065771791 0 0.2808859915677191 -0.25298064889964872 0 0.26643037661203678 -0.26174227120836091 0 0.2808859915677191 -0.25298064889964872 0 0.26643037661203678 -0.26174227120836091 0 0.2806078599126437 -0.27241723629863651 0 0.2600892861898958 -0.28187933430822931 0 0.26643037661203678 -0.26174227120836091 0 0.2806078599126437 -0.27241723629863651 0 0.2600892861898958 -0.28187933430822931 0 0.26643037661203678 -0.26174227120836091 0 0.25309355582519488 -0.26610536137318802 0 0.2600892861898958 -0.28187933430822931 0 0.2405516061761023 -0.27274304473261052 0 0.2600892861898958 -0.28187933430822931 0 0.25309355582519488 -0.26610536137318802 0 0.2405516061761023 -0.27274304473261052 0 0.26487368592424948 -0.2436669065771791 0 0.25821911771819511 -0.25634111474636673 0 0.2484788525112992 -0.25384991982673899 0 0.26487368592424948 -0.2436669065771791 0 0.26643037661203678 -0.26174227120836091 0 0.25821911771819511 -0.25634111474636673 0 0.26643037661203678 -0.26174227120836091 0 0.25309355582519488 -0.26610536137318802 0 0.25821911771819511 -0.25634111474636673 0 0.25309355582519488 -0.26610536137318802 0 0.25821911771819511 -0.25634111474636673 0 0.2484788525112992 -0.25384991982673899 0 0.2405516061761023 -0.27274304473261052 0 0.23744775862660331 -0.2499783381945197 0 0.2405516061761023 -0.27274304473261052 0 0.22912478275073331 -0.25674295063279989 0 0.23744775862660331 -0.2499783381945197 0 0.25309355582519488 -0.26610536137318802 0 0.2484788525112992 -0.25384991982673899 0 0.2405516061761023 -0.27274304473261052 0 0.2484788525112992 -0.25384991982673899 0 0.2405516061761023 -0.27274304473261052 0 0.23744775862660331 -0.2499783381945197 0 0.2405516061761023 -0.27274304473261052 0 0.22076862443918399 -0.27802501986586731 0 0.21421854044111599 -0.26042906918390341 0 0.2405516061761023 -0.27274304473261052 0 0.22076862443918399 -0.27802501986586731 0 0.2322339025332272 -0.2856712192089359 0 0.2405516061761023 -0.27274304473261052 0 0.21421854044111599 -0.26042906918390341 0 0.2405516061761023 -0.27274304473261052 0 0.22912478275073331 -0.25674295063279989 0 0.21421854044111599 -0.26042906918390341 0 0.22912478275073331 -0.25674295063279989 0 0.21421854044111599 -0.26042906918390341 0 0.22428122575910839 -0.24382135042016631 0 0.21421854044111599 -0.26042906918390341 0 0.22428122575910839 -0.24382135042016631 0 0.22912478275073331 -0.25674295063279989 0 0.23744775862660331 -0.2499783381945197 0 0.22428122575910839 -0.24382135042016631 0 0.21421854044111599 -0.26042906918390341 0 0.22428122575910839 -0.24382135042016631 0 0.20853645925439809 -0.2499426345604043 0 0.21421854044111599 -0.26042906918390341 0 0.2005972037248808 -0.25405940417973438 0 0.21421854044111599 -0.26042906918390341 0 0.2005972037248808 -0.25405940417973438 0 0.20853645925439809 -0.2499426345604043 0 0.2005972037248808 -0.25405940417973438 0 0.20853645925439809 -0.2499426345604043 0 0.21421854044111599 -0.26042906918390341 0 0.2005972037248808 -0.25405940417973438 0 0.2027265074109231 -0.26345584539782602 0 0.21421854044111599 -0.26042906918390341 0 0.20673908479035019 -0.27277335821097543 0 0.2027265074109231 -0.26345584539782602 0 0.22076862443918399 -0.27802501986586731 0 0.21421854044111599 -0.26042906918390341 0 0.20673908479035019 -0.27277335821097543 0 0.22076862443918399 -0.27802501986586731 0 0.20673908479035019 -0.27277335821097543 0 0.21095821937159301 -0.28416260895301221 0 0.21421854044111599 -0.26042906918390341 0 0.20673908479035019 -0.27277335821097543 0 0.20673908479035019 -0.27277335821097543 0 0.1913666732207806 -0.27131897546246481 0 0.20087776641350599 -0.29093760690426151 0 0.20673908479035019 -0.27277335821097543 0 0.1913666732207806 -0.27131897546246481 0 0.2027265074109231 -0.26345584539782602 0 0.1960021101174742 -0.256664134456286 0 0.2005972037248808 -0.25405940417973438 0 0.19894780114414509 -0.24424568885774631 0 0.1960021101174742 -0.256664134456286 0 0.2005972037248808 -0.25405940417973438 0 0.1913666732207806 -0.27131897546246481 0 0.1960021101174742 -0.256664134456286 0 0.2027265074109231 -0.26345584539782602 0 0.1960021101174742 -0.256664134456286 0 0.2005972037248808 -0.25405940417973438 0 0.2027265074109231 -0.26345584539782602 0 0.20087776641350599 -0.29093760690426151 0 0.2051419149532315 -0.3107946046402178 0 0.1830732669052367 -0.29781472701127759 0 0.2051419149532315 -0.3107946046402178 0 0.1830732669052367 -0.29781472701127759 0 0.1842523286580614 -0.31208575283319939 0 0.2051419149532315 -0.3107946046402178 0 0.1830732669052367 -0.29781472701127759 0 0.1913666732207806 -0.27131897546246481 0 0.20087776641350599 -0.29093760690426151 0 0.18279499832009291 -0.28388989644520418 0 0.20087776641350599 -0.29093760690426151 0 0.18279499832009291 -0.28388989644520418 0 0.1830732669052367 -0.29781472701127759 0 0.20087776641350599 -0.29093760690426151 0 0.21095821937159301 -0.28416260895301221 0 0.21991039332271151 -0.29237081890576938 0 0.20673908479035019 -0.27277335821097543 0 0.20087776641350599 -0.29093760690426151 0 0.21095821937159301 -0.28416260895301221 0 0.22076862443918399 -0.27802501986586731 0 0.21095821937159301 -0.28416260895301221 0 0.21991039332271151 -0.29237081890576938 0 0.20087776641350599 -0.29093760690426151 0 0.2051419149532315 -0.3107946046402178 0 0.21991039332271151 -0.29237081890576938 0 0.2051419149532315 -0.3107946046402178 0 0.23072891658071371 -0.30640625847959801 0 0.21991039332271151 -0.29237081890576938 0 0.23072891658071371 -0.30640625847959801 0 0.21991039332271151 -0.29237081890576938 0 0.2322339025332272 -0.2856712192089359 0 0.22076862443918399 -0.27802501986586731 0 0.21991039332271151 -0.29237081890576938 0 0.2322339025332272 -0.2856712192089359 0 0.23072891658071371 -0.30640625847959801 0 0.2322339025332272 -0.2856712192089359 0 0.24346080780047569 -0.2940801497877733 0 0.2405516061761023 -0.27274304473261052 0 0.2322339025332272 -0.2856712192089359 0 0.24346080780047569 -0.2940801497877733 0 0.2600892861898958 -0.28187933430822931 0 0.2405516061761023 -0.27274304473261052 0 0.24346080780047569 -0.2940801497877733 0 0.2405516061761023 -0.27274304473261052 0 0.24346080780047569 -0.2940801497877733 0 0.23072891658071371 -0.30640625847959801 0 0.24346080780047569 -0.2940801497877733 0 0.24637000942484619 -0.31541725484293659 0 0.24346080780047569 -0.2940801497877733 0 0.24637000942484619 -0.31541725484293659 0 0.24637000942484619 -0.31541725484293659 0 0.2492792110492198 -0.33675435989809949 0 0.24637000942484619 -0.31541725484293659 0 0.2492792110492198 -0.33675435989809949 0 0.22721056300122611 -0.32377448226915778 0 0.23072891658071371 -0.30640625847959801 0 0.24637000942484619 -0.31541725484293659 0 0.22721056300122611 -0.32377448226915778 0 0.2492792110492198 -0.33675435989809949 0 0.2331352555672549 -0.3415113541367909 0 0.22721056300122611 -0.32377448226915778 0 0.2492792110492198 -0.33675435989809949 0 0.22721056300122611 -0.32377448226915778 0 0.2331352555672549 -0.3415113541367909 0 0.22721056300122611 -0.32377448226915778 0 0.21816922163463209 -0.35231243323338152 0 0.2051419149532315 -0.3107946046402178 0 0.23072891658071371 -0.30640625847959801 0 0.22721056300122611 -0.32377448226915778 0 0.25330110596180933 -0.36625234778313681 0 0.23512766812291749 -0.3724257734334725 0 0.23788202658394439 -0.35320414114652449 0 0.2492792110492198 -0.33675435989809949 0 0.2331352555672549 -0.3415113541367909 0 0.23788202658394439 -0.35320414114652449 0 0.25330110596180933 -0.36625234778313681 0 0.2492792110492198 -0.33675435989809949 0 0.23788202658394439 -0.35320414114652449 0 0.23512766812291749 -0.3724257734334725 0 0.23788202658394439 -0.35320414114652449 0 0.21816922163463209 -0.35231243323338152 0 0.2331352555672549 -0.3415113541367909 0 0.23788202658394439 -0.35320414114652449 0 0.21816922163463209 -0.35231243323338152 0 0.23512766812291749 -0.3724257734334725 0 0.21816922163463209 -0.35231243323338152 0 0.23512766812291749 -0.3724257734334725 0 0.21176655525013871 -0.36749299294025001 0 0.21525193836568821 -0.38214816835425308 0 0.23512766812291749 -0.3724257734334725 0 0.21176655525013871 -0.36749299294025001 0 0.21816922163463209 -0.35231243323338152 0 0.21176655525013871 -0.36749299294025001 0 0.21816922163463209 -0.35231243323338152 0 0.19684733035246649 -0.35567439135756052 0 0.21816922163463209 -0.35231243323338152 0 0.19684733035246649 -0.35567439135756052 0 0.20121077514634669 -0.33219909303329043 0 0.19684733035246649 -0.35567439135756052 0 0.1835687741617146 -0.3726986328509943 0 0.19823426264849831 -0.37691915816439953 0 0.21176655525013871 -0.36749299294025001 0 0.19684733035246649 -0.35567439135756052 0 0.19823426264849831 -0.37691915816439953 0 0.2051419149532315 -0.3107946046402178 0 0.22721056300122611 -0.32377448226915778 0 0.2051419149532315 -0.3107946046402178 0 0.22721056300122611 -0.32377448226915778 0 0.20121077514634669 -0.33219909303329043 0 0.21816922163463209 -0.35231243323338152 0 0.20121077514634669 -0.33219909303329043 0 0.22721056300122611 -0.32377448226915778 0 0.21816922163463209 -0.35231243323338152 0 0.20121077514634669 -0.33219909303329043 0 0.20121077514634669 -0.33219909303329043 0 0.18307829161012121 -0.32818194048520111 0 0.1836176417380094 -0.34252103522070337 0 0.19684733035246649 -0.35567439135756052 0 0.20121077514634669 -0.33219909303329043 0 0.1836176417380094 -0.34252103522070337 0 0.20121077514634669 -0.33219909303329043 0 0.1842523286580614 -0.31208575283319939 0 0.2051419149532315 -0.3107946046402178 0 0.20121077514634669 -0.33219909303329043 0 0.1842523286580614 -0.31208575283319939 0 0.20121077514634669 -0.33219909303329043 0 0.18307829161012121 -0.32818194048520111 0 0.1842523286580614 -0.31208575283319939 0 0.17255398138595901 -0.31966571652925613 0 0.18307829161012121 -0.32818194048520111 0 0.1842523286580614 -0.31208575283319939 0 0.17255398138595901 -0.31966571652925613 0 0.1842523286580614 -0.31208575283319939 0 0.1721671803881703 -0.30589999945339558 0 0.17255398138595901 -0.31966571652925613 0 0.18307829161012121 -0.32818194048520111 0 0.1737567311222292 -0.33443810480955621 0 0.18307829161012121 -0.32818194048520111 0 0.1836176417380094 -0.34252103522070337 0 0.1737567311222292 -0.33443810480955621 0 0.1836176417380094 -0.34252103522070337 0 0.1737567311222292 -0.33443810480955621 0 0.16706762992359089 -0.3463730440714039 0 0.17255398138595901 -0.31966571652925613 0 0.1737567311222292 -0.33443810480955621 0 0.16051444592268019 -0.33083463426203952 0 0.16051444592268019 -0.33083463426203952 0 0.16706762992359089 -0.3463730440714039 0 0.150686755530797 -0.34161572503016813 0 0.1737567311222292 -0.33443810480955621 0 0.16051444592268019 -0.33083463426203952 0 0.16706762992359089 -0.3463730440714039 0 0.17255398138595901 -0.31966571652925613 0 0.16051444592268019 -0.33083463426203952 0 0.15743765192587891 -0.30792573714297222 0 0.19684733035246649 -0.35567439135756052 0 0.1835687741617146 -0.3726986328509943 0 0.17562783358468889 -0.35963150737803612 0 0.1835687741617146 -0.3726986328509943 0 0.17562783358468889 -0.35963150737803612 0 0.1699746479014336 -0.37146923927908082 0 0.1836176417380094 -0.34252103522070337 0 0.17562783358468889 -0.35963150737803612 0 0.16706762992359089 -0.3463730440714039 0 0.19684733035246649 -0.35567439135756052 0 0.1836176417380094 -0.34252103522070337 0 0.17562783358468889 -0.35963150737803612 0 0.16706762992359089 -0.3463730440714039 0 0.16007175154021749 -0.36179188809511148 0 0.150686755530797 -0.34161572503016813 0 0.17562783358468889 -0.35963150737803612 0 0.16706762992359089 -0.3463730440714039 0 0.16007175154021749 -0.36179188809511148 0 0.16007175154021749 -0.36179188809511148 0 0.1699746479014336 -0.37146923927908082 0 0.1584644081918585 -0.37944544730309998 0 0.17562783358468889 -0.35963150737803612 0 0.16007175154021749 -0.36179188809511148 0 0.1699746479014336 -0.37146923927908082 0 0.17562783358468889 -0.35963150737803612 0 0.16007175154021749 -0.36179188809511148 0 0.16007175154021749 -0.36179188809511148 0 0.14451566949574629 -0.36395226881218817 0 0.1584644081918585 -0.37944544730309998 0 0.16007175154021749 -0.36179188809511148 0 0.14451566949574629 -0.36395226881218817 0 0.16007175154021749 -0.36179188809511148 0 0.14451566949574629 -0.36395226881218817 0 0.150686755530797 -0.34161572503016813 0 0.14451566949574629 -0.36395226881218817 0 0.13202821872263221 -0.3496637690889825 0 0.150686755530797 -0.34161572503016813 0 0.14451566949574629 -0.36395226881218817 0 0.150686755530797 -0.34161572503016813 0 0.14451566949574629 -0.36395226881218817 0 0.1377677476524711 -0.38837669764593302 0 0.1246401987996983 -0.36671251290911161 0 0.14451566949574629 -0.36395226881218817 0 0.13202821872263221 -0.3496637690889825 0 0.1246401987996983 -0.36671251290911161 0 0.14451566949574629 -0.36395226881218817 0 0.1246401987996983 -0.36671251290911161 0 0.14374324663717061 -0.32410374605465492 0 0.13880513671801301 -0.30736671619030609 0 0.15743765192587891 -0.30792573714297222 0 0.16051444592268019 -0.33083463426203952 0 0.14374324663717061 -0.32410374605465492 0 0.15743765192587891 -0.30792573714297222 0 0.14374324663717061 -0.32410374605465492 0 0.150686755530797 -0.34161572503016813 0 0.1293484956327727 -0.33385066363202598 0 0.16051444592268019 -0.33083463426203952 0 0.14374324663717061 -0.32410374605465492 0 0.150686755530797 -0.34161572503016813 0 0.13202821872263221 -0.3496637690889825 0 0.150686755530797 -0.34161572503016813 0 0.1293484956327727 -0.33385066363202598 0 0.14374324663717061 -0.32410374605465492 0 0.12742308611263159 -0.31933000501787018 0 0.13880513671801301 -0.30736671619030609 0 0.14374324663717061 -0.32410374605465492 0 0.1293484956327727 -0.33385066363202598 0 0.12742308611263159 -0.31933000501787018 0 0.12742308611263159 -0.31933000501787018 0 0.12657632499259641 -0.30856474660512928 0 0.13880513671801301 -0.30736671619030609 0 0.12657632499259641 -0.30856474660512928 0 0.13880513671801301 -0.30736671619030609 0 0.1260003292148639 -0.29420233910561949 0 0.13880513671801301 -0.30736671619030609 0 0.14933425618240001 -0.28168960422250722 0 0.15743765192587891 -0.30792573714297222 0 0.13880513671801301 -0.30736671619030609 0 0.14933425618240001 -0.28168960422250722 0 0.1260003292148639 -0.29420233910561949 0 0.14933425618240001 -0.28168960422250722 0 0.1260003292148639 -0.29420233910561949 0 0.12112953848426369 -0.28568685094122609 0 0.14933425618240001 -0.28168960422250722 0 0.1260003292148639 -0.29420233910561949 0 0.14933425618240001 -0.28168960422250722 0 0.12613625232875009 -0.27173438427532631 0 0.1422690580276556 -0.26418529022618947 0 0.14933425618240001 -0.28168960422250722 0 0.12613625232875009 -0.27173438427532631 0 0.12112953848426369 -0.28568685094122609 0 0.12613625232875009 -0.27173438427532631 0 0.13005229300132709 -0.25122354292990129 0 0.1422690580276556 -0.26418529022618947 0 0.13005229300132709 -0.25122354292990129 0 0.1422690580276556 -0.26418529022618947 0 0.15832738130462731 -0.2537591705193008 0 0.14933425618240001 -0.28168960422250722 0 0.1422690580276556 -0.26418529022618947 0 0.17266818314993609 -0.26917686933939478 0 0.14933425618240001 -0.28168960422250722 0 0.17266818314993609 -0.26917686933939478 0 0.1659891019110051 -0.29020130350862272 0 0.14933425618240001 -0.28168960422250722 0 0.17266818314993609 -0.26917686933939478 0 0.15832738130462731 -0.2537591705193008 0 0.17701116387899951 -0.25279338993454598 0 0.17266818314993609 -0.26917686933939478 0 0.1422690580276556 -0.26418529022618947 0 0.15832738130462731 -0.2537591705193008 0 0.17266818314993609 -0.26917686933939478 0 0.1960021101174742 -0.256664134456286 0 0.17701116387899951 -0.25279338993454598 0 0.18760946069112969 -0.2429492766766933 0 0.1960021101174742 -0.256664134456286 0 0.17701116387899951 -0.25279338993454598 0 0.17266818314993609 -0.26917686933939478 0 0.1960021101174742 -0.256664134456286 0 0.17266818314993609 -0.26917686933939478 0 0.17266818314993609 -0.26917686933939478 0 0.18279499832009291 -0.28388989644520418 0 0.1659891019110051 -0.29020130350862272 0 0.1913666732207806 -0.27131897546246481 0 0.1960021101174742 -0.256664134456286 0 0.17266818314993609 -0.26917686933939478 0 0.1913666732207806 -0.27131897546246481 0 0.17266818314993609 -0.26917686933939478 0 0.18279499832009291 -0.28388989644520418 0 0.18279499832009291 -0.28388989644520418 0 0.1830732669052367 -0.29781472701127759 0 0.1659891019110051 -0.29020130350862272 0 0.1830732669052367 -0.29781472701127759 0 0.1721671803881703 -0.30589999945339558 0 0.1659891019110051 -0.29020130350862272 0 0.1830732669052367 -0.29781472701127759 0 0.1842523286580614 -0.31208575283319939 0 0.1721671803881703 -0.30589999945339558 0 0.1721671803881703 -0.30589999945339558 0 0.15743765192587891 -0.30792573714297222 0 0.1659891019110051 -0.29020130350862272 0 0.17255398138595901 -0.31966571652925613 0 0.1721671803881703 -0.30589999945339558 0 0.15743765192587891 -0.30792573714297222 0 0.14933425618240001 -0.28168960422250722 0 0.15743765192587891 -0.30792573714297222 0 0.1659891019110051 -0.29020130350862272 0 0.20082950971110561 -0.48377932784906941 0 0.20629571062959109 -0.5 0 0.18447318470842289 -0.48882513699288749 0 0.20629571062959109 -0.5 0 0.18447318470842289 -0.48882513699288749 0 0.17899607380964769 -0.5 0 0.20082950971110561 -0.48377932784906941 0 0.18581018107094949 -0.47654341581895071 0 0.18447318470842289 -0.48882513699288749 0 0.20082950971110561 -0.48377932784906941 0 0.1958202839761192 -0.46789794586718308 0 0.18581018107094949 -0.47654341581895071 0 0.20082950971110561 -0.48377932784906941 0 0.22243047950191019 -0.4754574188593878 0 0.1958202839761192 -0.46789794586718308 0 0.20082950971110561 -0.48377932784906941 0 0.20629571062959109 -0.5 0 0.22243047950191019 -0.4754574188593878 0 0.23359534744953439 -0.49991057738658168 0 0.22243047950191019 -0.4754574188593878 0 0.20629571062959109 -0.5 0 0.23359534744953439 -0.49991057738658168 0 0.22243047950191019 -0.4754574188593878 0 0.23243185733687169 -0.49154165056348498 0 0.23359534744953439 -0.49991057738658168 0 0.22243047950191019 -0.4754574188593878 0 0.23243185733687169 -0.49154165056348498 0 0.23359534744953439 -0.49991057738658168 0 0.2493799117921196 -0.48316441513589592 0 0.25798094112068509 -0.5 0 0.23359534744953439 -0.49991057738658168 0 0.2493799117921196 -0.48316441513589592 0 0.23243185733687169 -0.49154165056348498 0 0.2493799117921196 -0.48316441513589592 0 0.23651481784757181 -0.46931147389494388 0 0.23243185733687169 -0.49154165056348498 0 0.23651481784757181 -0.46931147389494388 0 0.25066357344128998 -0.46042009830195291 0 0.2493799117921196 -0.48316441513589592 0 0.23651481784757181 -0.46931147389494388 0 0.23243185733687169 -0.49154165056348498 0 0.23651481784757181 -0.46931147389494388 0 0.22243047950191019 -0.4754574188593878 0 0.23651481784757181 -0.46931147389494388 0 0.22243047950191019 -0.4754574188593878 0 0.22792514880059581 -0.4548904884346161 0 0.22243047950191019 -0.4754574188593878 0 0.22792514880059581 -0.4548904884346161 0 0.21126561155428611 -0.45100426033219387 0 0.23651481784757181 -0.46931147389494388 0 0.24059777835827181 -0.44708129722640277 0 0.23651481784757181 -0.46931147389494388 0 0.22792514880059581 -0.4548904884346161 0 0.24059777835827181 -0.44708129722640277 0 0.25066357344128998 -0.46042009830195291 0 0.23651481784757181 -0.46931147389494388 0 0.24059777835827181 -0.44708129722640277 0 0.24059777835827181 -0.44708129722640277 0 0.23254767501711271 -0.44075060864072507 0 0.24110774096846771 -0.42871482002002748 0 0.22792514880059581 -0.4548904884346161 0 0.22300146804984361 -0.44190930356099523 0 0.21126561155428611 -0.45100426033219387 0 0.23254767501711271 -0.44075060864072507 0 0.22300146804984361 -0.44190930356099523 0 0.2265244911728683 -0.4348957169412111 0 0.22792514880059581 -0.4548904884346161 0 0.24059777835827181 -0.44708129722640277 0 0.23254767501711271 -0.44075060864072507 0 0.22792514880059581 -0.4548904884346161 0 0.23254767501711271 -0.44075060864072507 0 0.22300146804984361 -0.44190930356099523 0 0.21126561155428611 -0.45100426033219387 0 0.20010074360666269 -0.42655110180499978 0 0.22300146804984361 -0.44190930356099523 0 0.21126561155428611 -0.45100426033219387 0 0.21919316470014061 -0.42755850595420919 0 0.22243047950191019 -0.4754574188593878 0 0.21126561155428611 -0.45100426033219387 0 0.1958202839761192 -0.46789794586718308 0 0.22243047950191019 -0.4754574188593878 0 0.21126561155428611 -0.45100426033219387 0 0.21126561155428611 -0.45100426033219387 0 0.1958202839761192 -0.46789794586718308 0 0.18746348214514269 -0.45574959936952048 0 0.21126561155428611 -0.45100426033219387 0 0.1881823592500434 -0.44219194930376021 0 0.20010074360666269 -0.42655110180499978 0 0.21126561155428611 -0.45100426033219387 0 0.1881823592500434 -0.44219194930376021 0 0.18746348214514269 -0.45574959936952048 0 0.1881823592500434 -0.44219194930376021 0 0.20010074360666269 -0.42655110180499978 0 0.1798657127604241 -0.43591791460315099 0 0.20010074360666269 -0.42655110180499978 0 0.2082548653191294 -0.41477819349623107 0 0.1908275305984917 -0.40624102301060872 0 0.20010074360666269 -0.42655110180499978 0 0.1908275305984917 -0.40624102301060872 0 0.1863195066419559 -0.41745231624379031 0 0.20010074360666269 -0.42655110180499978 0 0.1908275305984917 -0.40624102301060872 0 0.2082548653191294 -0.41477819349623107 0 0.2111012491196913 -0.40083060563260392 0 0.1908275305984917 -0.40624102301060872 0 0.2082548653191294 -0.41477819349623107 0 0.21919316470014061 -0.42755850595420919 0 0.22134973857852849 -0.41167403636004157 0 0.2082548653191294 -0.41477819349623107 0 0.22134973857852849 -0.41167403636004157 0 0.2111012491196913 -0.40083060563260392 0 0.20010074360666269 -0.42655110180499978 0 0.21919316470014061 -0.42755850595420919 0 0.20010074360666269 -0.42655110180499978 0 0.2082548653191294 -0.41477819349623107 0 0.21919316470014061 -0.42755850595420919 0 0.21126561155428611 -0.45100426033219387 0 0.20010074360666269 -0.42655110180499978 0 0.21919316470014061 -0.42755850595420919 0 0.21919316470014061 -0.42755850595420919 0 0.23828558579361861 -0.42856591010342021 0 0.21919316470014061 -0.42755850595420919 0 0.23828558579361861 -0.42856591010342021 0 0.2339872887566346 -0.41691240606677521 0 0.21919316470014061 -0.42755850595420919 0 0.2334590703332845 -0.43136951604721357 0 0.23828558579361861 -0.42856591010342021 0 0.22300146804984361 -0.44190930356099523 0 0.2265244911728683 -0.4348957169412111 0 0.21919316470014061 -0.42755850595420919 0 0.2265244911728683 -0.4348957169412111 0 0.21919316470014061 -0.42755850595420919 0 0.2334590703332845 -0.43136951604721357 0 0.23254767501711271 -0.44075060864072507 0 0.2265244911728683 -0.4348957169412111 0 0.2334590703332845 -0.43136951604721357 0 0.24059777835827181 -0.44708129722640277 0 0.24110774096846771 -0.42871482002002748 0 0.2446807388689711 -0.42485112055786151 0 0.25146878115798132 -0.43797362560499747 0 0.24059777835827181 -0.44708129722640277 0 0.2446807388689711 -0.42485112055786151 0 0.23254767501711271 -0.44075060864072507 0 0.2334590703332845 -0.43136951604721357 0 0.24110774096846771 -0.42871482002002748 0 0.24059777835827181 -0.44708129722640277 0 0.2446807388689711 -0.42485112055786151 0 0.2334590703332845 -0.43136951604721357 0 0.23828558579361861 -0.42856591010342021 0 0.2334590703332845 -0.43136951604721357 0 0.23828558579361861 -0.42856591010342021 0 0.24110774096846771 -0.42871482002002748 0 0.23828558579361861 -0.42856591010342021 0 0.2446807388689711 -0.42485112055786151 0 0.2339872887566346 -0.41691240606677521 0 0.23828558579361861 -0.42856591010342021 0 0.2446807388689711 -0.42485112055786151 0 0.23828558579361861 -0.42856591010342021 0 0.24110774096846771 -0.42871482002002748 0 0.2446807388689711 -0.42485112055786151 0 0.23828558579361861 -0.42856591010342021 0 0.24110774096846771 -0.42871482002002748 0 0.24750047960936969 -0.40949869805603889 0 0.2339872887566346 -0.41691240606677521 0 0.23421212499704669 -0.39829047065038869 0 0.2446807388689711 -0.42485112055786151 0 0.24750047960936969 -0.40949869805603889 0 0.2446807388689711 -0.42485112055786151 0 0.24750047960936969 -0.40949869805603889 0 0.2339872887566346 -0.41691240606677521 0 0.21919316470014061 -0.42755850595420919 0 0.2339872887566346 -0.41691240606677521 0 0.22134973857852849 -0.41167403636004157 0 0.2339872887566346 -0.41691240606677521 0 0.22134973857852849 -0.41167403636004157 0 0.23421212499704669 -0.39829047065038869 0 0.23421212499704669 -0.39829047065038869 0 0.22997862440390029 -0.3851920631881165 0 0.2111012491196913 -0.40083060563260392 0 0.22134973857852849 -0.41167403636004157 0 0.23421212499704669 -0.39829047065038869 0 0.2111012491196913 -0.40083060563260392 0 0.23421212499704669 -0.39829047065038869 0 0.2111012491196913 -0.40083060563260392 0 0.25208611461120289 -0.39253911363356347 0 0.25732300087440207 -0.39575033566817341 0 0.23421212499704669 -0.39829047065038869 0 0.25732300087440207 -0.39575033566817341 0 0.23421212499704669 -0.39829047065038869 0 0.25208611461120289 -0.39253911363356347 0 0.23421212499704669 -0.39829047065038869 0 0.2378511330337669 -0.38711185522638519 0 0.25732300087440207 -0.39575033566817341 0 0.24750047960936969 -0.40949869805603889 0 0.23421212499704669 -0.39829047065038869 0 0.25208611461120289 -0.39253911363356347 0 0.25330110596180933 -0.36625234778313681 0 0.23512766812291749 -0.3724257734334725 0 0.25208611461120289 -0.39253911363356347 0 0.23512766812291749 -0.3724257734334725 0 0.25208611461120289 -0.39253911363356347 0 0.23512766812291749 -0.3724257734334725 0 0.2378511330337669 -0.38711185522638519 0 0.23512766812291749 -0.3724257734334725 0 0.22997862440390029 -0.3851920631881165 0 0.21525193836568821 -0.38214816835425308 0 0.22997862440390029 -0.3851920631881165 0 0.21525193836568821 -0.38214816835425308 0 0.2111012491196913 -0.40083060563260392 0 0.23512766812291749 -0.3724257734334725 0 0.2378511330337669 -0.38711185522638519 0 0.22997862440390029 -0.3851920631881165 0 0.23421212499704669 -0.39829047065038869 0 0.2378511330337669 -0.38711185522638519 0 0.22997862440390029 -0.3851920631881165 0 0.21176655525013871 -0.36749299294025001 0 0.21525193836568821 -0.38214816835425308 0 0.19823426264849831 -0.37691915816439953 0 0.21525193836568821 -0.38214816835425308 0 0.19888400786303939 -0.39607939691437272 0 0.19823426264849831 -0.37691915816439953 0 0.21525193836568821 -0.38214816835425308 0 0.2111012491196913 -0.40083060563260392 0 0.19888400786303939 -0.39607939691437272 0 0.2111012491196913 -0.40083060563260392 0 0.18799037324233589 -0.40337074061481898 0 0.2111012491196913 -0.40083060563260392 0 0.1908275305984917 -0.40624102301060872 0 0.18799037324233589 -0.40337074061481898 0 0.2111012491196913 -0.40083060563260392 0 0.19888400786303939 -0.39607939691437272 0 0.18799037324233589 -0.40337074061481898 0 0.19888400786303939 -0.39607939691437272 0 0.18799037324233589 -0.40337074061481898 0 0.1900889038599452 -0.3960911701874883 0 0.18799037324233589 -0.40337074061481898 0 0.1900889038599452 -0.3960911701874883 0 0.1855103426455855 -0.39609729912600128 0 0.19888400786303939 -0.39607939691437272 0 0.1900889038599452 -0.3960911701874883 0 0.18797089168882 -0.38881724409476037 0 0.1900889038599452 -0.3960911701874883 0 0.18797089168882 -0.38881724409476037 0 0.1855103426455855 -0.39609729912600128 0 0.1835687741617146 -0.3726986328509943 0 0.19823426264849831 -0.37691915816439953 0 0.18797089168882 -0.38881724409476037 0 0.19888400786303939 -0.39607939691437272 0 0.19823426264849831 -0.37691915816439953 0 0.18797089168882 -0.38881724409476037 0 0.1835687741617146 -0.3726986328509943 0 0.18797089168882 -0.38881724409476037 0 0.17337488556007211 -0.38358179289609601 0 0.17337488556007211 -0.38358179289609601 0 0.17785558388676201 -0.39537702085441201 0 0.16653464109187119 -0.39200222196006068 0 0.1835687741617146 -0.3726986328509943 0 0.1699746479014336 -0.37146923927908082 0 0.17337488556007211 -0.38358179289609601 0 0.18797089168882 -0.38881724409476037 0 0.17337488556007211 -0.38358179289609601 0 0.17785558388676201 -0.39537702085441201 0 0.18797089168882 -0.38881724409476037 0 0.1855103426455855 -0.39609729912600128 0 0.17785558388676201 -0.39537702085441201 0 0.18799037324233589 -0.40337074061481898 0 0.17785558388676201 -0.39537702085441201 0 0.1648794973649805 -0.40591087559703432 0 0.18799037324233589 -0.40337074061481898 0 0.1648794973649805 -0.40591087559703432 0 0.18799037324233589 -0.40337074061481898 0 0.1855103426455855 -0.39609729912600128 0 0.17785558388676201 -0.39537702085441201 0 0.1648794973649805 -0.40591087559703432 0 0.14832087185221721 -0.4057923503910057 0 0.15620974914338129 -0.39423878363438192 0 0.17785558388676201 -0.39537702085441201 0 0.16653464109187119 -0.39200222196006068 0 0.1648794973649805 -0.40591087559703432 0 0.16653464109187119 -0.39200222196006068 0 0.1648794973649805 -0.40591087559703432 0 0.15620974914338129 -0.39423878363438192 0 0.16653464109187119 -0.39200222196006068 0 0.1584644081918585 -0.37944544730309998 0 0.15620974914338129 -0.39423878363438192 0 0.17337488556007211 -0.38358179289609601 0 0.16653464109187119 -0.39200222196006068 0 0.1584644081918585 -0.37944544730309998 0 0.1699746479014336 -0.37146923927908082 0 0.17337488556007211 -0.38358179289609601 0 0.1584644081918585 -0.37944544730309998 0 0.14451566949574629 -0.36395226881218817 0 0.1377677476524711 -0.38837669764593302 0 0.1584644081918585 -0.37944544730309998 0 0.1377677476524711 -0.38837669764593302 0 0.15620974914338129 -0.39423878363438192 0 0.14451566949574629 -0.36395226881218817 0 0.1584644081918585 -0.37944544730309998 0 0.1377677476524711 -0.38837669764593302 0 0.1377677476524711 -0.38837669764593302 0 0.1174098863026264 -0.38365426356940752 0 0.1246401987996983 -0.36671251290911161 0 0.1377677476524711 -0.38837669764593302 0 0.1246401987996983 -0.36671251290911161 0 0.1377677476524711 -0.38837669764593302 0 0.1233220301008478 -0.39646983393993551 0 0.1174098863026264 -0.38365426356940752 0 0.1377677476524711 -0.38837669764593302 0 0.13346549555816839 -0.40394890677085071 0 0.14832087185221721 -0.4057923503910057 0 0.13346549555816839 -0.40394890677085071 0 0.1197818346257407 -0.40867834848616119 0 0.1233220301008478 -0.39646983393993551 0 0.1377677476524711 -0.38837669764593302 0 0.13346549555816839 -0.40394890677085071 0 0.1233220301008478 -0.39646983393993551 0 0.1377677476524711 -0.38837669764593302 0 0.13346549555816839 -0.40394890677085071 0 0.1377677476524711 -0.38837669764593302 0 0.14832087185221721 -0.4057923503910057 0 0.1377677476524711 -0.38837669764593302 0 0.14832087185221721 -0.4057923503910057 0 0.15620974914338129 -0.39423878363438192 0 0.14832087185221721 -0.4057923503910057 0 0.14516213738520711 -0.42365228768454732 0 0.15887399605196209 -0.42320800313607898 0 0.14832087185221721 -0.4057923503910057 0 0.1390279370648648 -0.41322866518554308 0 0.14516213738520711 -0.42365228768454732 0 0.14832087185221721 -0.4057923503910057 0 0.15887399605196209 -0.42320800313607898 0 0.13346549555816839 -0.40394890677085071 0 0.1390279370648648 -0.41322866518554308 0 0.12916324346386651 -0.41952111589576879 0 0.1390279370648648 -0.41322866518554308 0 0.12916324346386651 -0.41952111589576879 0 0.14516213738520711 -0.42365228768454732 0 0.12916324346386651 -0.41952111589576879 0 0.14516213738520711 -0.42365228768454732 0 0.11769283427447889 -0.42220288062432187 0 0.13346549555816839 -0.40394890677085071 0 0.14832087185221721 -0.4057923503910057 0 0.1390279370648648 -0.41322866518554308 0 0.13346549555816839 -0.40394890677085071 0 0.12916324346386651 -0.41952111589576879 0 0.13346549555816839 -0.40394890677085071 0 0.12916324346386651 -0.41952111589576879 0 0.1197818346257407 -0.40867834848616119 0 0.13142980709991339 -0.4332907695743905 0 0.14516213738520711 -0.42365228768454732 0 0.11769283427447889 -0.42220288062432187 0 0.14516213738520711 -0.42365228768454732 0 0.11769283427447889 -0.42220288062432187 0 0.13142980709991339 -0.4332907695743905 0 0.125086547625398 -0.44233273496432729 0 0.1196781982088109 -0.43332561415690918 0 0.13142980709991339 -0.4332907695743905 0 0.1440937604844332 -0.43604037411581881 0 0.14516213738520711 -0.42365228768454732 0 0.1440937604844332 -0.43604037411581881 0 0.14516213738520711 -0.42365228768454732 0 0.15605413658079609 -0.43418933107432262 0 0.15605413658079609 -0.43418933107432262 0 0.1726314404959349 -0.42510169474477272 0 0.1666598711019816 -0.4397527115874349 0 0.14516213738520711 -0.42365228768454732 0 0.15887399605196209 -0.42320800313607898 0 0.1726314404959349 -0.42510169474477272 0 0.14516213738520711 -0.42365228768454732 0 0.1726314404959349 -0.42510169474477272 0 0.14516213738520711 -0.42365228768454732 0 0.15605413658079609 -0.43418933107432262 0 0.1726314404959349 -0.42510169474477272 0 0.1648794973649805 -0.40591087559703432 0 0.14832087185221721 -0.4057923503910057 0 0.15887399605196209 -0.42320800313607898 0 0.1648794973649805 -0.40591087559703432 0 0.15887399605196209 -0.42320800313607898 0 0.16847429019401 -0.41724499523519959 0 0.1648794973649805 -0.40591087559703432 0 0.16847429019401 -0.41724499523519959 0 0.17751222686316251 -0.41475940746291262 0 0.15887399605196209 -0.42320800313607898 0 0.16847429019401 -0.41724499523519959 0 0.1726314404959349 -0.42510169474477272 0 0.18799037324233589 -0.40337074061481898 0 0.1648794973649805 -0.40591087559703432 0 0.18232580555158021 -0.41000700727763512 0 0.17751222686316251 -0.41475940746291262 0 0.1863195066419559 -0.41745231624379031 0 0.1726314404959349 -0.42510169474477272 0 0.1648794973649805 -0.40591087559703432 0 0.17751222686316251 -0.41475940746291262 0 0.18232580555158021 -0.41000700727763512 0 0.16847429019401 -0.41724499523519959 0 0.17751222686316251 -0.41475940746291262 0 0.1726314404959349 -0.42510169474477272 0 0.1908275305984917 -0.40624102301060872 0 0.18232580555158021 -0.41000700727763512 0 0.1863195066419559 -0.41745231624379031 0 0.1908275305984917 -0.40624102301060872 0 0.18799037324233589 -0.40337074061481898 0 0.18232580555158021 -0.41000700727763512 0 0.17751222686316251 -0.41475940746291262 0 0.18232580555158021 -0.41000700727763512 0 0.1863195066419559 -0.41745231624379031 0 0.20010074360666269 -0.42655110180499978 0 0.1726314404959349 -0.42510169474477272 0 0.20010074360666269 -0.42655110180499978 0 0.1798657127604241 -0.43591791460315099 0 0.1726314404959349 -0.42510169474477272 0 0.20010074360666269 -0.42655110180499978 0 0.1863195066419559 -0.41745231624379031 0 0.1726314404959349 -0.42510169474477272 0 0.1798657127604241 -0.43591791460315099 0 0.1726314404959349 -0.42510169474477272 0 0.1666598711019816 -0.4397527115874349 0 0.1798657127604241 -0.43591791460315099 0 0.17663356571786909 -0.4473586949548643 0 0.1666598711019816 -0.4397527115874349 0 0.1881823592500434 -0.44219194930376021 0 0.1798657127604241 -0.43591791460315099 0 0.17663356571786909 -0.4473586949548643 0 0.1881823592500434 -0.44219194930376021 0 0.17663356571786909 -0.4473586949548643 0 0.18746348214514269 -0.45574959936952048 0 0.18746348214514269 -0.45574959936952048 0 0.1784297556501791 -0.46738226662351851 0 0.17351098965558581 -0.45790024625212389 0 0.1958202839761192 -0.46789794586718308 0 0.18746348214514269 -0.45574959936952048 0 0.1784297556501791 -0.46738226662351851 0 0.17663356571786909 -0.4473586949548643 0 0.18746348214514269 -0.45574959936952048 0 0.17351098965558581 -0.45790024625212389 0 0.17351098965558581 -0.45790024625212389 0 0.16214980029463669 -0.46541419578587062 0 0.1641189793940368 -0.45263974861319572 0 0.1784297556501791 -0.46738226662351851 0 0.17351098965558581 -0.45790024625212389 0 0.16214980029463669 -0.46541419578587062 0 0.16214980029463669 -0.46541419578587062 0 0.1641189793940368 -0.45263974861319572 0 0.15320993593927801 -0.45726143496362198 0 0.1641189793940368 -0.45263974861319572 0 0.1666598711019816 -0.4397527115874349 0 0.1520942971790642 -0.44573163390196052 0 0.1641189793940368 -0.45263974861319572 0 0.1520942971790642 -0.44573163390196052 0 0.15320993593927801 -0.45726143496362198 0 0.17663356571786909 -0.4473586949548643 0 0.1641189793940368 -0.45263974861319572 0 0.1666598711019816 -0.4397527115874349 0 0.17663356571786909 -0.4473586949548643 0 0.17351098965558581 -0.45790024625212389 0 0.1641189793940368 -0.45263974861319572 0 0.15605413658079609 -0.43418933107432262 0 0.1666598711019816 -0.4397527115874349 0 0.1520942971790642 -0.44573163390196052 0 0.1440937604844332 -0.43604037411581881 0 0.15605413658079609 -0.43418933107432262 0 0.1520942971790642 -0.44573163390196052 0 0.1520942971790642 -0.44573163390196052 0 0.14165283081364649 -0.45525449204995538 0 0.15320993593927801 -0.45726143496362198 0 0.1520942971790642 -0.44573163390196052 0 0.13732331580452109 -0.44416968956982228 0 0.14165283081364649 -0.45525449204995538 0 0.1440937604844332 -0.43604037411581881 0 0.1520942971790642 -0.44573163390196052 0 0.13732331580452109 -0.44416968956982228 0 0.13142980709991339 -0.4332907695743905 0 0.1440937604844332 -0.43604037411581881 0 0.13732331580452109 -0.44416968956982228 0 0.13732331580452109 -0.44416968956982228 0 0.13001779054709739 -0.45194749383222638 0 0.14165283081364649 -0.45525449204995538 0 0.13732331580452109 -0.44416968956982228 0 0.13001779054709739 -0.45194749383222638 0 0.125086547625398 -0.44233273496432729 0 0.13142980709991339 -0.4332907695743905 0 0.13732331580452109 -0.44416968956982228 0 0.125086547625398 -0.44233273496432729 0 0.13001779054709739 -0.45194749383222638 0 0.13056477321497889 -0.46610303112611579 0 0.11783146813261459 -0.45135331593509148 0 0.13001779054709739 -0.45194749383222638 0 0.13056477321497889 -0.46610303112611579 0 0.14165283081364649 -0.45525449204995538 0 0.13056477321497889 -0.46610303112611579 0 0.14603377201500559 -0.46726710446712783 0 0.14165283081364649 -0.45525449204995538 0 0.16214980029463669 -0.46541419578587062 0 0.14603377201500559 -0.46726710446712783 0 0.15320993593927801 -0.45726143496362198 0 0.14603377201500559 -0.46726710446712783 0 0.14165283081364649 -0.45525449204995538 0 0.15320993593927801 -0.45726143496362198 0 0.16214980029463669 -0.46541419578587062 0 0.14603377201500559 -0.46726710446712783 0 0.15506975308034551 -0.47422229313537462 0 0.1438402296580194 -0.47562113241002207 0 0.1301975050837037 -0.48406710988336588 0 0.15733534489606341 -0.48644612343812671 0 0.15506975308034551 -0.47422229313537462 0 0.1438402296580194 -0.47562113241002207 0 0.15733534489606341 -0.48644612343812671 0 0.14603377201500559 -0.46726710446712783 0 0.15506975308034551 -0.47422229313537462 0 0.1438402296580194 -0.47562113241002207 0 0.13056477321497889 -0.46610303112611579 0 0.14603377201500559 -0.46726710446712783 0 0.1438402296580194 -0.47562113241002207 0 0.13056477321497889 -0.46610303112611579 0 0.1438402296580194 -0.47562113241002207 0 0.1301975050837037 -0.48406710988336588 0 0.1301975050837037 -0.48406710988336588 0 0.15169643698970431 -0.5 0 0.124396800169761 -0.5 0 0.1301975050837037 -0.48406710988336588 0 0.15169643698970431 -0.5 0 0.15733534489606341 -0.48644612343812671 0 0.1301975050837037 -0.48406710988336588 0 0.15733534489606341 -0.48644612343812671 0 0.15169643698970431 -0.5 0 0.15733534489606341 -0.48644612343812671 0 0.17899607380964769 -0.5 0 0.15733534489606341 -0.48644612343812671 0 0.18447318470842289 -0.48882513699288749 0 0.15506975308034551 -0.47422229313537462 0 0.15733534489606341 -0.48644612343812671 0 0.17144340530619459 -0.47606166526054411 0 0.1784297556501791 -0.46738226662351851 0 0.16214980029463669 -0.46541419578587062 0 0.17144340530619459 -0.47606166526054411 0 0.16214980029463669 -0.46541419578587062 0 0.15506975308034551 -0.47422229313537462 0 0.17144340530619459 -0.47606166526054411 0 0.15733534489606341 -0.48644612343812671 0 0.17144340530619459 -0.47606166526054411 0 0.18447318470842289 -0.48882513699288749 0 0.1958202839761192 -0.46789794586718308 0 0.1784297556501791 -0.46738226662351851 0 0.18581018107094949 -0.47654341581895071 0 0.1784297556501791 -0.46738226662351851 0 0.17144340530619459 -0.47606166526054411 0 0.18581018107094949 -0.47654341581895071 0 0.17144340530619459 -0.47606166526054411 0 0.18581018107094949 -0.47654341581895071 0 0.18447318470842289 -0.48882513699288749 0 0.15733534489606341 -0.48644612343812671 0 0.18447318470842289 -0.48882513699288749 0 0.17899607380964769 -0.5 0 0.069797526529874032 -0.5 0 0.064839688950304286 -0.47609096064942519 0 0.083411797607368693 -0.48503042745954172 0 0.064839688950304286 -0.47609096064942519 0 0.083411797607368693 -0.48503042745954172 0 0.082094316739614245 -0.46546070348455149 0 0.083411797607368693 -0.48503042745954172 0 0.103059665271344 -0.48168809632860499 0 0.082094316739614245 -0.46546070348455149 0 0.069797526529874032 -0.5 0 0.083411797607368693 -0.48503042745954172 0 0.097097163349817439 -0.5 0 0.097097163349817439 -0.5 0 0.124396800169761 -0.5 0 0.103059665271344 -0.48168809632860499 0 0.083411797607368693 -0.48503042745954172 0 0.097097163349817439 -0.5 0 0.103059665271344 -0.48168809632860499 0 0.1301975050837037 -0.48406710988336588 0 0.124396800169761 -0.5 0 0.103059665271344 -0.48168809632860499 0 0.1301975050837037 -0.48406710988336588 0 0.103059665271344 -0.48168809632860499 0 0.1135065826051065 -0.46512251417799538 0 0.1301975050837037 -0.48406710988336588 0 0.103059665271344 -0.48168809632860499 0 0.13056477321497889 -0.46610303112611579 0 0.1301975050837037 -0.48406710988336588 0 0.1135065826051065 -0.46512251417799538 0 0.103059665271344 -0.48168809632860499 0 0.097972341697339413 -0.46106880762899982 0 0.082094316739614245 -0.46546070348455149 0 0.103059665271344 -0.48168809632860499 0 0.097972341697339413 -0.46106880762899982 0 0.1135065826051065 -0.46512251417799538 0 0.097972341697339413 -0.46106880762899982 0 0.1135065826051065 -0.46512251417799538 0 0.102899903870001 -0.44477809320219208 0 0.13056477321497889 -0.46610303112611579 0 0.1135065826051065 -0.46512251417799538 0 0.11783146813261459 -0.45135331593509148 0 0.1135065826051065 -0.46512251417799538 0 0.11783146813261459 -0.45135331593509148 0 0.102899903870001 -0.44477809320219208 0 0.125086547625398 -0.44233273496432729 0 0.11783146813261459 -0.45135331593509148 0 0.11480220304357081 -0.43972236095203981 0 0.125086547625398 -0.44233273496432729 0 0.11480220304357081 -0.43972236095203981 0 0.1196781982088109 -0.43332561415690918 0 0.13001779054709739 -0.45194749383222638 0 0.125086547625398 -0.44233273496432729 0 0.11783146813261459 -0.45135331593509148 0 0.11783146813261459 -0.45135331593509148 0 0.11480220304357081 -0.43972236095203981 0 0.102899903870001 -0.44477809320219208 0 0.097972341697339413 -0.46106880762899982 0 0.102899903870001 -0.44477809320219208 0 0.089150636255416249 -0.45030939206940351 0 0.11480220304357081 -0.43972236095203981 0 0.102899903870001 -0.44477809320219208 0 0.1093795990006933 -0.42907932466946658 0 0.102899903870001 -0.44477809320219208 0 0.087820194573405716 -0.43803030123395081 0 0.089150636255416249 -0.45030939206940351 0 0.089150636255416249 -0.45030939206940351 0 0.082094316739614245 -0.46546070348455149 0 0.074966424396720868 -0.44220905479732331 0 0.087820194573405716 -0.43803030123395081 0 0.089150636255416249 -0.45030939206940351 0 0.074966424396720868 -0.44220905479732331 0 0.097972341697339413 -0.46106880762899982 0 0.089150636255416249 -0.45030939206940351 0 0.082094316739614245 -0.46546070348455149 0 0.064839688950304286 -0.47609096064942519 0 0.082094316739614245 -0.46546070348455149 0 0.061833520466348081 -0.45588845875101691 0 0.082094316739614245 -0.46546070348455149 0 0.074966424396720868 -0.44220905479732331 0 0.061833520466348081 -0.45588845875101691 0 0.074966424396720868 -0.44220905479732331 0 0.056186206726213668 -0.43480511144672862 0 0.061833520466348081 -0.45588845875101691 0 0.074966424396720868 -0.44220905479732331 0 0.068673188911649877 -0.42199244983913958 0 0.081887418383498722 -0.42676673994537628 0 0.074966424396720868 -0.44220905479732331 0 0.068673188911649877 -0.42199244983913958 0 0.056186206726213668 -0.43480511144672862 0 0.068673188911649877 -0.42199244983913958 0 0.082823357403395817 -0.40841568683349871 0 0.081887418383498722 -0.42676673994537628 0 0.068673188911649877 -0.42199244983913958 0 0.082823357403395817 -0.40841568683349871 0 0.063593984496221431 -0.40592114769550802 0 0.082823357403395817 -0.40841568683349871 0 0.081887418383498722 -0.42676673994537628 0 0.095153926632321292 -0.4231862070229695 0 0.082823357403395817 -0.40841568683349871 0 0.095153926632321292 -0.4231862070229695 0 0.096872110520445434 -0.4059105220882181 0 0.087820194573405716 -0.43803030123395081 0 0.081887418383498722 -0.42676673994537628 0 0.095153926632321292 -0.4231862070229695 0 0.087820194573405716 -0.43803030123395081 0 0.074966424396720868 -0.44220905479732331 0 0.081887418383498722 -0.42676673994537628 0 0.102899903870001 -0.44477809320219208 0 0.095153926632321292 -0.4231862070229695 0 0.1093795990006933 -0.42907932466946658 0 0.102899903870001 -0.44477809320219208 0 0.087820194573405716 -0.43803030123395081 0 0.095153926632321292 -0.4231862070229695 0 0.095153926632321292 -0.4231862070229695 0 0.1093795990006933 -0.42907932466946658 0 0.1076332278496103 -0.41402867061631898 0 0.11480220304357081 -0.43972236095203981 0 0.1093795990006933 -0.42907932466946658 0 0.1196781982088109 -0.43332561415690918 0 0.1093795990006933 -0.42907932466946658 0 0.11769283427447889 -0.42220288062432187 0 0.1196781982088109 -0.43332561415690918 0 0.13142980709991339 -0.4332907695743905 0 0.11769283427447889 -0.42220288062432187 0 0.1196781982088109 -0.43332561415690918 0 0.1197818346257407 -0.40867834848616119 0 0.1076332278496103 -0.41402867061631898 0 0.10876943250062859 -0.39722669681390088 0 0.12916324346386651 -0.41952111589576879 0 0.11769283427447889 -0.42220288062432187 0 0.1197818346257407 -0.40867834848616119 0 0.11769283427447889 -0.42220288062432187 0 0.1197818346257407 -0.40867834848616119 0 0.1076332278496103 -0.41402867061631898 0 0.1093795990006933 -0.42907932466946658 0 0.11769283427447889 -0.42220288062432187 0 0.1076332278496103 -0.41402867061631898 0 0.095153926632321292 -0.4231862070229695 0 0.1076332278496103 -0.41402867061631898 0 0.096872110520445434 -0.4059105220882181 0 0.1076332278496103 -0.41402867061631898 0 0.096872110520445434 -0.4059105220882181 0 0.10876943250062859 -0.39722669681390088 0 0.096872110520445434 -0.4059105220882181 0 0.10876943250062859 -0.39722669681390088 0 0.090743346643173836 -0.39047579133767968 0 0.10876943250062859 -0.39722669681390088 0 0.1233220301008478 -0.39646983393993551 0 0.1174098863026264 -0.38365426356940752 0 0.1197818346257407 -0.40867834848616119 0 0.10876943250062859 -0.39722669681390088 0 0.1233220301008478 -0.39646983393993551 0 0.10876943250062859 -0.39722669681390088 0 0.1174098863026264 -0.38365426356940752 0 0.1026106432894232 -0.38288787082118692 0 0.1174098863026264 -0.38365426356940752 0 0.1026106432894232 -0.38288787082118692 0 0.10607221885500601 -0.3692911767213039 0 0.10876943250062859 -0.39722669681390088 0 0.1026106432894232 -0.38288787082118692 0 0.090743346643173836 -0.39047579133767968 0 0.1026106432894232 -0.38288787082118692 0 0.090743346643173836 -0.39047579133767968 0 0.08750423891031367 -0.37186984053349531 0 0.090743346643173836 -0.39047579133767968 0 0.070351308291646666 -0.38759678695912542 0 0.08750423891031367 -0.37186984053349531 0 0.082823357403395817 -0.40841568683349871 0 0.090743346643173836 -0.39047579133767968 0 0.070351308291646666 -0.38759678695912542 0 0.082823357403395817 -0.40841568683349871 0 0.096872110520445434 -0.4059105220882181 0 0.090743346643173836 -0.39047579133767968 0 0.082823357403395817 -0.40841568683349871 0 0.063593984496221431 -0.40592114769550802 0 0.070351308291646666 -0.38759678695912542 0 0.070351308291646666 -0.38759678695912542 0 0.07076253173118327 -0.36921297652340501 0 0.049978528723357937 -0.37230476998244078 0 0.070351308291646666 -0.38759678695912542 0 0.08750423891031367 -0.37186984053349531 0 0.07076253173118327 -0.36921297652340501 0 0.070351308291646666 -0.38759678695912542 0 0.045995465413762412 -0.39592367817762081 0 0.049978528723357937 -0.37230476998244078 0 0.063593984496221431 -0.40592114769550802 0 0.045995465413762412 -0.39592367817762081 0 0.050126602460652432 -0.41567713666815598 0 0.063593984496221431 -0.40592114769550802 0 0.070351308291646666 -0.38759678695912542 0 0.045995465413762412 -0.39592367817762081 0 0.045995465413762412 -0.39592367817762081 0 0.021413268392009618 -0.39302714129047772 0 0.027293342987403661 -0.41663102847677341 0 0.045995465413762412 -0.39592367817762081 0 0.035308307108285732 -0.38103540582968481 0 0.021413268392009618 -0.39302714129047772 0 0.045995465413762412 -0.39592367817762081 0 0.035308307108285732 -0.38103540582968481 0 0.049978528723357937 -0.37230476998244078 0 0.035308307108285732 -0.38103540582968481 0 0.021413268392009618 -0.39302714129047772 0 0.020284017000177849 -0.37260898512918922 0 -0.0015752445019280509 -0.39584212530132401 0 0.0047232380292418791 -0.38267049908728129 0 0.021413268392009618 -0.39302714129047772 0 0.0047232380292418791 -0.38267049908728129 0 0.021413268392009618 -0.39302714129047772 0 0.020284017000177849 -0.37260898512918922 0 -0.0015752445019280509 -0.39584212530132401 0 0.021413268392009618 -0.39302714129047772 0 0.0089749178656362196 -0.4085379017589601 0 0.021413268392009618 -0.39302714129047772 0 0.027293342987403661 -0.41663102847677341 0 0.0089749178656362196 -0.4085379017589601 0 0.027293342987403661 -0.41663102847677341 0 0.0089749178656362196 -0.4085379017589601 0 0.003319901708807629 -0.42425039637610329 0 0.003319901708807629 -0.42425039637610329 0 0.021897132012740621 -0.43788830071532919 0 0.0059891361194842896 -0.44518073930204333 0 0.003319901708807629 -0.42425039637610329 0 0.021897132012740621 -0.43788830071532919 0 0.027293342987403661 -0.41663102847677341 0 0.039434702663434511 -0.42924598893475119 0 0.021897132012740621 -0.43788830071532919 0 0.027293342987403661 -0.41663102847677341 0 0.003319901708807629 -0.42425039637610329 0 0.021897132012740621 -0.43788830071532919 0 0.039434702663434511 -0.42924598893475119 0 0.056186206726213668 -0.43480511144672862 0 0.042495373786790441 -0.44640679201320072 0 0.027293342987403661 -0.41663102847677341 0 0.039434702663434511 -0.42924598893475119 0 0.050126602460652432 -0.41567713666815598 0 0.045995465413762412 -0.39592367817762081 0 0.027293342987403661 -0.41663102847677341 0 0.050126602460652432 -0.41567713666815598 0 0.068673188911649877 -0.42199244983913958 0 0.063593984496221431 -0.40592114769550802 0 0.050126602460652432 -0.41567713666815598 0 0.068673188911649877 -0.42199244983913958 0 0.050126602460652432 -0.41567713666815598 0 0.056186206726213668 -0.43480511144672862 0 0.039434702663434511 -0.42924598893475119 0 0.050126602460652432 -0.41567713666815598 0 0.056186206726213668 -0.43480511144672862 0 0.056186206726213668 -0.43480511144672862 0 0.061833520466348081 -0.45588845875101691 0 0.042495373786790441 -0.44640679201320072 0 0.061833520466348081 -0.45588845875101691 0 0.04463716735972429 -0.46446686850825292 0 0.042495373786790441 -0.44640679201320072 0 0.064839688950304286 -0.47609096064942519 0 0.061833520466348081 -0.45588845875101691 0 0.04463716735972429 -0.46446686850825292 0 0.04463716735972429 -0.46446686850825292 0 0.042495373786790441 -0.44640679201320072 0 0.026591953951925418 -0.45688873459281382 0 0.04463716735972429 -0.46446686850825292 0 0.026591953951925418 -0.45688873459281382 0 0.028219786382394571 -0.48082671805062888 0 0.039434702663434511 -0.42924598893475119 0 0.042495373786790441 -0.44640679201320072 0 0.021897132012740621 -0.43788830071532919 0 0.042495373786790441 -0.44640679201320072 0 0.021897132012740621 -0.43788830071532919 0 0.026591953951925418 -0.45688873459281382 0 0.021897132012740621 -0.43788830071532919 0 0.0059891361194842896 -0.44518073930204333 0 0.026591953951925418 -0.45688873459281382 0 0.0059891361194842896 -0.44518073930204333 0 0.0097387781098224185 -0.46684003122232343 0 0.026591953951925418 -0.45688873459281382 0 -0.01176977653683204 -0.45315375861559798 0 0.0059891361194842896 -0.44518073930204333 0 0.0097387781098224185 -0.46684003122232343 0 0.0097387781098224185 -0.46684003122232343 0 0.026591953951925418 -0.45688873459281382 0 0.028219786382394571 -0.48082671805062888 0 -0.01017086125060777 -0.4771211151146702 0 0.0097387781098224185 -0.46684003122232343 0 0.0062221922340855986 -0.48444841357399271 0 0.0097387781098224185 -0.46684003122232343 0 0.028219786382394571 -0.48082671805062888 0 0.0062221922340855986 -0.48444841357399271 0 -0.01210138392995614 -0.50000000000000155 0 0.0062221922340855986 -0.48444841357399271 0 0.01519825288998722 -0.5 0 0.028219786382394571 -0.48082671805062888 0 0.0062221922340855986 -0.48444841357399271 0 0.01519825288998722 -0.5 0 0.028219786382394571 -0.48082671805062888 0 0.01519825288998722 -0.5 0 0.042497889709930632 -0.5 0 0.028219786382394571 -0.48082671805062888 0 0.042497889709930632 -0.5 0 0.049998411786445568 -0.48427690944166141 0 0.04463716735972429 -0.46446686850825292 0 0.028219786382394571 -0.48082671805062888 0 0.049998411786445568 -0.48427690944166141 0 0.064839688950304286 -0.47609096064942519 0 0.04463716735972429 -0.46446686850825292 0 0.049998411786445568 -0.48427690944166141 0 0.069797526529874032 -0.5 0 0.064839688950304286 -0.47609096064942519 0 0.049998411786445568 -0.48427690944166141 0 0.069797526529874032 -0.5 0 0.042497889709930632 -0.5 0 0.049998411786445568 -0.48427690944166141 0 0.084995063905358381 -0.28882668236244857 0 0.091804314360482503 -0.30385447405127741 0 0.067459017058750473 -0.29449834331540781 0 0.084995063905358381 -0.28882668236244857 0 0.081249530942255621 -0.27192929203584398 0 0.099467393259944581 -0.28502462004726481 0 0.084995063905358381 -0.28882668236244857 0 0.091804314360482503 -0.30385447405127741 0 0.099467393259944581 -0.28502462004726481 0 0.091804314360482503 -0.30385447405127741 0 0.075518666387279221 -0.31909091294506631 0 0.091804314360482503 -0.30385447405127741 0 0.088553881662708528 -0.3118414951888564 0 0.075518666387279221 -0.31909091294506631 0 0.091804314360482503 -0.30385447405127741 0 0.067459017058750473 -0.29449834331540781 0 0.075518666387279221 -0.31909091294506631 0 0.091804314360482503 -0.30385447405127741 0 0.088553881662708528 -0.3118414951888564 0 0.095942606939571282 -0.31019352716348952 0 0.091804314360482503 -0.30385447405127741 0 0.088553881662708528 -0.3118414951888564 0 0.067459017058750473 -0.29449834331540781 0 0.075518666387279221 -0.31909091294506631 0 0.053668503175245297 -0.31706739459497152 0 0.067459017058750473 -0.29449834331540781 0 0.081249530942255621 -0.27192929203584398 0 0.084995063905358381 -0.28882668236244857 0 0.067459017058750473 -0.29449834331540781 0 0.081249530942255621 -0.27192929203584398 0 0.067459017058750473 -0.29449834331540781 0 0.064203064287619266 -0.27050335197085401 0 0.081249530942255621 -0.27192929203584398 0 0.064203064287619266 -0.27050335197085401 0 0.072990447352685145 -0.2601386508339148 0 0.081249530942255621 -0.27192929203584398 0 0.072990447352685145 -0.2601386508339148 0 0.058408781237998489 -0.25787320876665182 0 0.070671848883312932 -0.24837599116058481 0 0.064203064287619266 -0.27050335197085401 0 0.072990447352685145 -0.2601386508339148 0 0.058408781237998489 -0.25787320876665182 0 0.072990447352685145 -0.2601386508339148 0 0.085626393554373917 -0.25194285689470058 0 0.070671848883312932 -0.24837599116058481 0 0.081249530942255621 -0.27192929203584398 0 0.095040044825762116 -0.2493602407562813 0 0.072990447352685145 -0.2601386508339148 0 0.085626393554373917 -0.25194285689470058 0 0.081249530942255621 -0.27192929203584398 0 0.085626393554373917 -0.25194285689470058 0 0.081249530942255621 -0.27192929203584398 0 0.095040044825762116 -0.2493602407562813 0 0.10713047215940109 -0.26619476604324988 0 0.1131294297275502 -0.27454762240554242 0 0.1062412762375357 -0.28404127822739489 0 0.10713047215940109 -0.26619476604324988 0 0.099467393259944581 -0.28502462004726481 0 0.081249530942255621 -0.27192929203584398 0 0.10713047215940109 -0.26619476604324988 0 0.099467393259944581 -0.28502462004726481 0 0.10713047215940109 -0.26619476604324988 0 0.1062412762375357 -0.28404127822739489 0 0.099467393259944581 -0.28502462004726481 0 0.10713047215940109 -0.26619476604324988 0 0.11512388834378939 -0.246553201377151 0 0.095040044825762116 -0.2493602407562813 0 0.081249530942255621 -0.27192929203584398 0 0.10713047215940109 -0.26619476604324988 0 0.095040044825762116 -0.2493602407562813 0 0.10713047215940109 -0.26619476604324988 0 0.095040044825762116 -0.2493602407562813 0 0.13005229300132709 -0.25122354292990129 0 0.1131294297275502 -0.27454762240554242 0 0.10713047215940109 -0.26619476604324988 0 0.11512388834378939 -0.246553201377151 0 0.13005229300132709 -0.25122354292990129 0 0.10713047215940109 -0.26619476604324988 0 0.11512388834378939 -0.246553201377151 0 0.13005229300132709 -0.25122354292990129 0 0.10713047215940109 -0.26619476604324988 0 0.1131294297275502 -0.27454762240554242 0 0.12613625232875009 -0.27173438427532631 0 0.13005229300132709 -0.25122354292990129 0 0.1131294297275502 -0.27454762240554242 0 0.117148235013234 -0.2801433451486951 0 0.1131294297275502 -0.27454762240554242 0 0.1062412762375357 -0.28404127822739489 0 0.1131294297275502 -0.27454762240554242 0 0.1062412762375357 -0.28404127822739489 0 0.117148235013234 -0.2801433451486951 0 0.1131294297275502 -0.27454762240554242 0 0.10713047215940109 -0.26619476604324988 0 0.1131294297275502 -0.27454762240554242 0 0.12613625232875009 -0.27173438427532631 0 0.117148235013234 -0.2801433451486951 0 0.12613625232875009 -0.27173438427532631 0 0.117148235013234 -0.2801433451486951 0 0.1131294297275502 -0.27454762240554242 0 0.12613625232875009 -0.27173438427532631 0 0.117148235013234 -0.2801433451486951 0 0.12112953848426369 -0.28568685094122609 0 0.117148235013234 -0.2801433451486951 0 0.12112953848426369 -0.28568685094122609 0 0.1142841559293097 -0.29174930375685199 0 0.117148235013234 -0.2801433451486951 0 0.12112953848426369 -0.28568685094122609 0 0.1260003292148639 -0.29420233910561949 0 0.12112953848426369 -0.28568685094122609 0 0.1142841559293097 -0.29174930375685199 0 0.117148235013234 -0.2801433451486951 0 0.10447627468685911 -0.29199890959998731 0 0.117148235013234 -0.2801433451486951 0 0.1142841559293097 -0.29174930375685199 0 0.10447627468685911 -0.29199890959998731 0 0.091804314360482503 -0.30385447405127741 0 0.099467393259944581 -0.28502462004726481 0 0.091804314360482503 -0.30385447405127741 0 0.10447627468685911 -0.29199890959998731 0 0.099467393259944581 -0.28502462004726481 0 0.117148235013234 -0.2801433451486951 0 0.1062412762375357 -0.28404127822739489 0 0.10447627468685911 -0.29199890959998731 0 0.1062412762375357 -0.28404127822739489 0 0.10447627468685911 -0.29199890959998731 0 0.099467393259944581 -0.28502462004726481 0 0.1142841559293097 -0.29174930375685199 0 0.10447627468685911 -0.29199890959998731 0 0.1026664022473278 -0.30671507398873188 0 0.1026664022473278 -0.30671507398873188 0 0.1156742532494127 -0.31241112792595338 0 0.098955579887399503 -0.31790112361323908 0 0.095942606939571282 -0.31019352716348952 0 0.1026664022473278 -0.30671507398873188 0 0.098955579887399503 -0.31790112361323908 0 0.091804314360482503 -0.30385447405127741 0 0.095942606939571282 -0.31019352716348952 0 0.1026664022473278 -0.30671507398873188 0 0.091804314360482503 -0.30385447405127741 0 0.10447627468685911 -0.29199890959998731 0 0.1026664022473278 -0.30671507398873188 0 0.091804314360482503 -0.30385447405127741 0 0.10447627468685911 -0.29199890959998731 0 0.1260003292148639 -0.29420233910561949 0 0.1026664022473278 -0.30671507398873188 0 0.1156742532494127 -0.31241112792595338 0 0.12657632499259641 -0.30856474660512928 0 0.1260003292148639 -0.29420233910561949 0 0.1156742532494127 -0.31241112792595338 0 0.1260003292148639 -0.29420233910561949 0 0.1142841559293097 -0.29174930375685199 0 0.1026664022473278 -0.30671507398873188 0 0.1260003292148639 -0.29420233910561949 0 0.1026664022473278 -0.30671507398873188 0 0.12742308611263159 -0.31933000501787018 0 0.1156742532494127 -0.31241112792595338 0 0.1125602147205583 -0.32641721419718589 0 0.1293484956327727 -0.33385066363202598 0 0.12742308611263159 -0.31933000501787018 0 0.1125602147205583 -0.32641721419718589 0 0.12742308611263159 -0.31933000501787018 0 0.12657632499259641 -0.30856474660512928 0 0.1156742532494127 -0.31241112792595338 0 0.13202821872263221 -0.3496637690889825 0 0.1293484956327727 -0.33385066363202598 0 0.1096494520728465 -0.34197352240329421 0 0.1293484956327727 -0.33385066363202598 0 0.1125602147205583 -0.32641721419718589 0 0.1096494520728465 -0.34197352240329421 0 0.1125602147205583 -0.32641721419718589 0 0.1096494520728465 -0.34197352240329421 0 0.093009899286987385 -0.33282268993260827 0 0.1096494520728465 -0.34197352240329421 0 0.084046178923334644 -0.35155321480054619 0 0.093009899286987385 -0.33282268993260827 0 0.1156742532494127 -0.31241112792595338 0 0.1125602147205583 -0.32641721419718589 0 0.098955579887399503 -0.31790112361323908 0 0.1125602147205583 -0.32641721419718589 0 0.098955579887399503 -0.31790112361323908 0 0.093009899286987385 -0.33282268993260827 0 0.088553881662708528 -0.3118414951888564 0 0.095942606939571282 -0.31019352716348952 0 0.098955579887399503 -0.31790112361323908 0 0.1246401987996983 -0.36671251290911161 0 0.10607221885500601 -0.3692911767213039 0 0.1174098863026264 -0.38365426356940752 0 0.1246401987996983 -0.36671251290911161 0 0.10607221885500601 -0.3692911767213039 0 0.1096494520728465 -0.34197352240329421 0 0.1246401987996983 -0.36671251290911161 0 0.13202821872263221 -0.3496637690889825 0 0.1096494520728465 -0.34197352240329421 0 0.1246401987996983 -0.36671251290911161 0 0.1096494520728465 -0.34197352240329421 0 0.1246401987996983 -0.36671251290911161 0 0.10607221885500601 -0.3692911767213039 0 0.1096494520728465 -0.34197352240329421 0 0.095330660243898385 -0.36008510976052338 0 0.10607221885500601 -0.3692911767213039 0 0.1096494520728465 -0.34197352240329421 0 0.095330660243898385 -0.36008510976052338 0 0.084046178923334644 -0.35155321480054619 0 0.10607221885500601 -0.3692911767213039 0 0.08750423891031367 -0.37186984053349531 0 0.095330660243898385 -0.36008510976052338 0 0.10607221885500601 -0.3692911767213039 0 0.08750423891031367 -0.37186984053349531 0 0.1026106432894232 -0.38288787082118692 0 0.10607221885500601 -0.3692911767213039 0 0.08750423891031367 -0.37186984053349531 0 0.095330660243898385 -0.36008510976052338 0 0.08750423891031367 -0.37186984053349531 0 0.084046178923334644 -0.35155321480054619 0 0.08750423891031367 -0.37186984053349531 0 0.084046178923334644 -0.35155321480054619 0 0.07076253173118327 -0.36921297652340501 0 0.084046178923334644 -0.35155321480054619 0 0.063674598140215879 -0.35240773930704311 0 0.07076253173118327 -0.36921297652340501 0 0.084046178923334644 -0.35155321480054619 0 0.063674598140215879 -0.35240773930704311 0 0.076916347543426744 -0.33547059708520899 0 0.086426546140733862 -0.32319573801989288 0 0.076916347543426744 -0.33547059708520899 0 0.075518666387279221 -0.31909091294506631 0 0.088553881662708528 -0.3118414951888564 0 0.086426546140733862 -0.32319573801989288 0 0.075518666387279221 -0.31909091294506631 0 0.088553881662708528 -0.3118414951888564 0 0.098955579887399503 -0.31790112361323908 0 0.086426546140733862 -0.32319573801989288 0 0.098955579887399503 -0.31790112361323908 0 0.086426546140733862 -0.32319573801989288 0 0.093009899286987385 -0.33282268993260827 0 0.084046178923334644 -0.35155321480054619 0 0.093009899286987385 -0.33282268993260827 0 0.076916347543426744 -0.33547059708520899 0 0.086426546140733862 -0.32319573801989288 0 0.093009899286987385 -0.33282268993260827 0 0.076916347543426744 -0.33547059708520899 0 0.076916347543426744 -0.33547059708520899 0 0.075518666387279221 -0.31909091294506631 0 0.059233018414075543 -0.33432735183885492 0 0.063674598140215879 -0.35240773930704311 0 0.076916347543426744 -0.33547059708520899 0 0.059233018414075543 -0.33432735183885492 0 0.075518666387279221 -0.31909091294506631 0 0.059233018414075543 -0.33432735183885492 0 0.075518666387279221 -0.31909091294506631 0 0.053668503175245297 -0.31706739459497152 0 0.059233018414075543 -0.33432735183885492 0 0.059233018414075543 -0.33432735183885492 0 0.042947370440870512 -0.34956379073264199 0 0.053668503175245297 -0.31706739459497152 0 0.059233018414075543 -0.33432735183885492 0 0.039877989291738157 -0.33963644587453401 0 0.059233018414075543 -0.33432735183885492 0 0.039877989291738157 -0.33963644587453401 0 0.042947370440870512 -0.34956379073264199 0 0.053668503175245297 -0.31706739459497152 0 0.039877989291738157 -0.33963644587453401 0 0.039877989291738157 -0.33963644587453401 0 0.03250771676111798 -0.35169836467561272 0 0.02629283104321567 -0.33961813058845358 0 0.039877989291738157 -0.33963644587453401 0 0.031476027719411652 -0.31246185726518988 0 0.039877989291738157 -0.33963644587453401 0 0.025500679703452409 -0.32848828656749313 0 0.031476027719411652 -0.31246185726518988 0 0.053668503175245297 -0.31706739459497152 0 0.039877989291738157 -0.33963644587453401 0 0.031476027719411652 -0.31246185726518988 0 0.063674598140215879 -0.35240773930704311 0 0.07076253173118327 -0.36921297652340501 0 0.049978528723357937 -0.37230476998244078 0 0.063674598140215879 -0.35240773930704311 0 0.049978528723357937 -0.37230476998244078 0 0.042947370440870512 -0.34956379073264199 0 0.063674598140215879 -0.35240773930704311 0 0.059233018414075543 -0.33432735183885492 0 0.042947370440870512 -0.34956379073264199 0 0.039877989291738157 -0.33963644587453401 0 0.042947370440870512 -0.34956379073264199 0 0.039877989291738157 -0.33963644587453401 0 0.042947370440870512 -0.34956379073264199 0 0.038543694400711002 -0.34968026516873407 0 0.039877989291738157 -0.33963644587453401 0 0.03250771676111798 -0.35169836467561272 0 0.039877989291738157 -0.33963644587453401 0 0.038543694400711002 -0.34968026516873407 0 0.03250771676111798 -0.35169836467561272 0 0.038543694400711002 -0.34968026516873407 0 0.038997770065580403 -0.35767644523769893 0 0.03250771676111798 -0.35169836467561272 0 0.038997770065580403 -0.35767644523769893 0 0.03250771676111798 -0.35169836467561272 0 0.02672401912778314 -0.35949567874660943 0 0.042947370440870512 -0.34956379073264199 0 0.038543694400711002 -0.34968026516873407 0 0.038997770065580403 -0.35767644523769893 0 0.049978528723357937 -0.37230476998244078 0 0.038997770065580403 -0.35767644523769893 0 0.033884394113918498 -0.36889075439040281 0 0.049978528723357937 -0.37230476998244078 0 0.042947370440870512 -0.34956379073264199 0 0.038997770065580403 -0.35767644523769893 0 0.035308307108285732 -0.38103540582968481 0 0.049978528723357937 -0.37230476998244078 0 0.033884394113918498 -0.36889075439040281 0 0.049978528723357937 -0.37230476998244078 0 0.042947370440870512 -0.34956379073264199 0 0.038997770065580403 -0.35767644523769893 0 0.033884394113918498 -0.36889075439040281 0 0.02672401912778314 -0.35949567874660943 0 0.020284017000177849 -0.37260898512918922 0 0.02672401912778314 -0.35949567874660943 0 0.012412288609108519 -0.35676677193473172 0 0.035308307108285732 -0.38103540582968481 0 0.033884394113918498 -0.36889075439040281 0 0.020284017000177849 -0.37260898512918922 0 0.033884394113918498 -0.36889075439040281 0 0.020284017000177849 -0.37260898512918922 0 0.02672401912778314 -0.35949567874660943 0 0.02672401912778314 -0.35949567874660943 0 0.021979373477986751 -0.3500516938512494 0 0.012412288609108519 -0.35676677193473172 0 0.03250771676111798 -0.35169836467561272 0 0.02672401912778314 -0.35949567874660943 0 0.021979373477986751 -0.3500516938512494 0 0.03250771676111798 -0.35169836467561272 0 0.021979373477986751 -0.3500516938512494 0 0.02629283104321567 -0.33961813058845358 0 0.021979373477986751 -0.3500516938512494 0 0.01376764727069261 -0.3447318445014253 0 0.02629283104321567 -0.33961813058845358 0 0.021979373477986751 -0.3500516938512494 0 0.01376764727069261 -0.3447318445014253 0 0.012412288609108519 -0.35676677193473172 0 -0.0045987494092564144 -0.34478868756049103 0 0.01376764727069261 -0.3447318445014253 0 0.012412288609108519 -0.35676677193473172 0 -0.0045987494092564144 -0.34478868756049103 0 0.012412288609108519 -0.35676677193473172 0 0.00027428580365272681 -0.36892463324439351 0 0.0047232380292418791 -0.38267049908728129 0 0.020284017000177849 -0.37260898512918922 0 0.00027428580365272681 -0.36892463324439351 0 0.020284017000177849 -0.37260898512918922 0 0.012412288609108519 -0.35676677193473172 0 0.00027428580365272681 -0.36892463324439351 0 0.017104057830486099 -0.31829106053708611 0 0.025500679703452409 -0.32848828656749313 0 0.031476027719411652 -0.31246185726518988 0 0.017104057830486099 -0.31829106053708611 0 0.025500679703452409 -0.32848828656749313 0 0.012752492632408531 -0.33243393857220072 0 0.039877989291738157 -0.33963644587453401 0 0.025500679703452409 -0.32848828656749313 0 0.02629283104321567 -0.33961813058845358 0 0.01376764727069261 -0.3447318445014253 0 0.02629283104321567 -0.33961813058845358 0 0.012752492632408531 -0.33243393857220072 0 0.025500679703452409 -0.32848828656749313 0 0.02629283104321567 -0.33961813058845358 0 0.012752492632408531 -0.33243393857220072 0 -0.0045987494092564144 -0.34478868756049103 0 0.012752492632408531 -0.33243393857220072 0 0.0025675676883719391 -0.31926859205911717 0 -0.0045987494092564144 -0.34478868756049103 0 0.01376764727069261 -0.3447318445014253 0 0.012752492632408531 -0.33243393857220072 0 0.017104057830486099 -0.31829106053708611 0 0.0025675676883719391 -0.31926859205911717 0 0.01276677257489205 -0.3027743638737781 0 0.017104057830486099 -0.31829106053708611 0 0.012752492632408531 -0.33243393857220072 0 0.0025675676883719391 -0.31926859205911717 0 -0.001504200419740815 -0.30232164797886207 0 0.0025675676883719391 -0.31926859205911717 0 0.01276677257489205 -0.3027743638737781 0 0.01276677257489205 -0.3027743638737781 0 0.0059911154865208227 -0.28204989981844369 0 0.023074066147088412 -0.28528726865584481 0 -0.001504200419740815 -0.30232164797886207 0 0.01276677257489205 -0.3027743638737781 0 0.0059911154865208227 -0.28204989981844369 0 0.017104057830486099 -0.31829106053708611 0 0.01276677257489205 -0.3027743638737781 0 0.031476027719411652 -0.31246185726518988 0 0.023074066147088412 -0.28528726865584481 0 0.031476027719411652 -0.31246185726518988 0 0.01276677257489205 -0.3027743638737781 0 0.023074066147088412 -0.28528726865584481 0 0.031476027719411652 -0.31246185726518988 0 0.053668503175245297 -0.31706739459497152 0 0.045707832246798273 -0.29788363735072249 0 0.031476027719411652 -0.31246185726518988 0 0.023074066147088412 -0.28528726865584481 0 0.045707832246798273 -0.29788363735072249 0 0.031476027719411652 -0.31246185726518988 0 0.023074066147088412 -0.28528726865584481 0 0.045707832246798273 -0.29788363735072249 0 0.050041201656543487 -0.27824359481733107 0 0.067459017058750473 -0.29449834331540781 0 0.045707832246798273 -0.29788363735072249 0 0.050041201656543487 -0.27824359481733107 0 0.067459017058750473 -0.29449834331540781 0 0.053668503175245297 -0.31706739459497152 0 0.067459017058750473 -0.29449834331540781 0 0.053668503175245297 -0.31706739459497152 0 0.045707832246798273 -0.29788363735072249 0 0.058408781237998489 -0.25787320876665182 0 0.034855404838715347 -0.26293443762362773 0 0.04796250665441415 -0.24802763492419491 0 0.067459017058750473 -0.29449834331540781 0 0.064203064287619266 -0.27050335197085401 0 0.050041201656543487 -0.27824359481733107 0 0.064203064287619266 -0.27050335197085401 0 0.058408781237998489 -0.25787320876665182 0 0.050041201656543487 -0.27824359481733107 0 0.058408781237998489 -0.25787320876665182 0 0.050041201656543487 -0.27824359481733107 0 0.034855404838715347 -0.26293443762362773 0 0.023074066147088412 -0.28528726865584481 0 0.050041201656543487 -0.27824359481733107 0 0.034855404838715347 -0.26293443762362773 0 0.034855404838715347 -0.26293443762362773 0 0.035669316300620667 -0.2458257488816129 0 0.04796250665441415 -0.24802763492419491 0 0.023034993083160711 -0.25799679172586298 0 0.0061916210880953622 -0.26674168381286367 0 0.01940998024775677 -0.24248740924656911 0 0.023034993083160711 -0.25799679172586298 0 0.018629440128716129 -0.27100201632732862 0 0.0061916210880953622 -0.26674168381286367 0 0.034855404838715347 -0.26293443762362773 0 0.023034993083160711 -0.25799679172586298 0 0.035669316300620667 -0.2458257488816129 0 0.034855404838715347 -0.26293443762362773 0 0.023034993083160711 -0.25799679172586298 0 0.018629440128716129 -0.27100201632732862 0 0.023074066147088412 -0.28528726865584481 0 0.034855404838715347 -0.26293443762362773 0 0.018629440128716129 -0.27100201632732862 0 0.0059911154865208227 -0.28204989981844369 0 0.023074066147088412 -0.28528726865584481 0 0.018629440128716129 -0.27100201632732862 0 -0.0066347101700803546 -0.26203402040461299 0 0.0059911154865208227 -0.28204989981844369 0 0.0061916210880953622 -0.26674168381286367 0 0.0059911154865208227 -0.28204989981844369 0 0.018629440128716129 -0.27100201632732862 0 0.0061916210880953622 -0.26674168381286367 0 0.0061916210880953622 -0.26674168381286367 0 0.002133627569713394 -0.25101287838952202 0 0.01940998024775677 -0.24248740924656911 0 0.0061916210880953622 -0.26674168381286367 0 0.01940998024775677 -0.24248740924656911 0 -0.0066347101700803546 -0.26203402040461299 0 0.0061916210880953622 -0.26674168381286367 0 0.002133627569713394 -0.25101287838952202 0 0.002133627569713394 -0.25101287838952202 0 0.0073731991179590119 -0.23535427265255429 0 0.01940998024775677 -0.24248740924656911 0 -0.0022667461226881808 -0.2386345135768688 0 0.002133627569713394 -0.25101287838952202 0 0.0073731991179590119 -0.23535427265255429 0 0.0073731991179590119 -0.23535427265255429 0 0.013060012023818389 -0.2198849321928423 0 0.01940998024775677 -0.24248740924656911 0 -0.0022667461226881808 -0.2386345135768688 0 0.0050669207359482294 -0.22727718129284749 0 0.002101217924703695 -0.21523500674912471 0 -0.0022667461226881808 -0.2386345135768688 0 0.0073731991179590119 -0.23535427265255429 0 0.0050669207359482294 -0.22727718129284749 0 0.0050669207359482294 -0.22727718129284749 0 0.013060012023818389 -0.2198849321928423 0 0.002101217924703695 -0.21523500674912471 0 0.0073731991179590119 -0.23535427265255429 0 0.0050669207359482294 -0.22727718129284749 0 0.013060012023818389 -0.2198849321928423 0 0.013060012023818389 -0.2198849321928423 0 0.01940998024775677 -0.24248740924656911 0 0.032628339407418223 -0.21823313468027461 0 0.01940998024775677 -0.24248740924656911 0 0.032628339407418223 -0.21823313468027461 0 0.01940998024775677 -0.24248740924656911 0 0.032628339407418223 -0.21823313468027461 0 0.036789039966710457 -0.23273215047884299 0 0.023034993083160711 -0.25799679172586298 0 0.01940998024775677 -0.24248740924656911 0 0.035669316300620667 -0.2458257488816129 0 0.01940998024775677 -0.24248740924656911 0 0.035669316300620667 -0.2458257488816129 0 0.036789039966710457 -0.23273215047884299 0 0.0064691819720955734 -0.19183549992138041 0 0.017605475082801341 -0.19798982188306871 0 0.0094024463718349778 -0.17975930851510871 0 -0.00092526836118996675 -0.2125336880427198 0 -0.0055145796366369423 -0.19578922249617739 0 0.0064691819720955734 -0.19183549992138041 0 0.0064691819720955734 -0.19183549992138041 0 0.002101217924703695 -0.21523500674912471 0 0.017605475082801341 -0.19798982188306871 0 0.013060012023818389 -0.2198849321928423 0 0.017605475082801341 -0.19798982188306871 0 0.0064691819720955734 -0.19183549992138041 0 0.002101217924703695 -0.21523500674912471 0 0.013060012023818389 -0.2198849321928423 0 0.002101217924703695 -0.21523500674912471 0 0.017605475082801341 -0.19798982188306871 0 -0.00092526836118996675 -0.2125336880427198 0 0.0064691819720955734 -0.19183549992138041 0 0.002101217924703695 -0.21523500674912471 0 0.013060012023818389 -0.2198849321928423 0 0.023923229605059208 -0.20920771638085081 0 0.032628339407418223 -0.21823313468027461 0 0.013060012023818389 -0.2198849321928423 0 0.023923229605059208 -0.20920771638085081 0 0.017605475082801341 -0.19798982188306871 0 0.023923229605059208 -0.20920771638085081 0 0.032399091906198878 -0.20072297676721759 0 0.032628339407418223 -0.21823313468027461 0 0.023923229605059208 -0.20920771638085081 0 0.017605475082801341 -0.19798982188306871 0 0.032399091906198878 -0.20072297676721759 0 0.017605475082801341 -0.19798982188306871 0 0.028454542930026059 -0.19238508500387019 0 0.032399091906198878 -0.20072297676721759 0 0.017605475082801341 -0.19798982188306871 0 0.028454542930026059 -0.19238508500387019 0 0.02640724258539098 -0.18619865639683339 0 0.028454542930026059 -0.19238508500387019 0 0.033484521289073713 -0.18571820827873201 0 0.02640724258539098 -0.18619865639683339 0 0.045846698567080763 -0.1939788601139808 0 0.034237667733614668 -0.19325181897471799 0 0.033484521289073713 -0.18571820827873201 0 0.028454542930026059 -0.19238508500387019 0 0.034237667733614668 -0.19325181897471799 0 0.033484521289073713 -0.18571820827873201 0 0.028454542930026059 -0.19238508500387019 0 0.034237667733614668 -0.19325181897471799 0 0.032399091906198878 -0.20072297676721759 0 0.045846698567080763 -0.1939788601139808 0 0.034237667733614668 -0.19325181897471799 0 0.032399091906198878 -0.20072297676721759 0 0.045846698567080763 -0.1939788601139808 0 0.032628339407418223 -0.21823313468027461 0 0.045846698567080763 -0.1939788601139808 0 0.032399091906198878 -0.20072297676721759 0 0.032628339407418223 -0.21823313468027461 0 0.045846698567080763 -0.1939788601139808 0 0.032628339407418223 -0.21823313468027461 0 0.046638123662870373 -0.21162491409467279 0 0.032628339407418223 -0.21823313468027461 0 0.046638123662870373 -0.21162491409467279 0 0.046929351100318262 -0.2228791182394029 0 0.045846698567080763 -0.1939788601139808 0 0.046638123662870373 -0.21162491409467279 0 0.059106596896178851 -0.21330019237422049 0 0.045846698567080763 -0.1939788601139808 0 0.059106596896178851 -0.21330019237422049 0 0.046638123662870373 -0.21162491409467279 0 0.059106596896178851 -0.21330019237422049 0 0.046929351100318262 -0.2228791182394029 0 0.060868223013258803 -0.2017799210099025 0 0.043782312107005478 -0.1779897611367143 0 0.060868223013258803 -0.2017799210099025 0 0.047945134552119233 -0.1901284546342846 0 0.043782312107005478 -0.1779897611367143 0 0.045846698567080763 -0.1939788601139808 0 0.059106596896178851 -0.21330019237422049 0 0.060868223013258803 -0.2017799210099025 0 0.045846698567080763 -0.1939788601139808 0 0.060868223013258803 -0.2017799210099025 0 0.047945134552119233 -0.1901284546342846 0 0.045846698567080763 -0.1939788601139808 0 0.047945134552119233 -0.1901284546342846 0 0.035669316300620667 -0.2458257488816129 0 0.036789039966710457 -0.23273215047884299 0 0.049308212777438361 -0.2342353413463554 0 0.035669316300620667 -0.2458257488816129 0 0.049308212777438361 -0.2342353413463554 0 0.04796250665441415 -0.24802763492419491 0 0.032628339407418223 -0.21823313468027461 0 0.036789039966710457 -0.23273215047884299 0 0.046929351100318262 -0.2228791182394029 0 0.036789039966710457 -0.23273215047884299 0 0.049308212777438361 -0.2342353413463554 0 0.046929351100318262 -0.2228791182394029 0 0.049308212777438361 -0.2342353413463554 0 0.046929351100318262 -0.2228791182394029 0 0.058264596559399029 -0.22808279311359569 0 0.059106596896178851 -0.21330019237422049 0 0.046929351100318262 -0.2228791182394029 0 0.058264596559399029 -0.22808279311359569 0 0.049308212777438361 -0.2342353413463554 0 0.058264596559399029 -0.22808279311359569 0 0.0615708181172979 -0.23926943800272679 0 0.058408781237998489 -0.25787320876665182 0 0.0615708181172979 -0.23926943800272679 0 0.04796250665441415 -0.24802763492419491 0 0.049308212777438361 -0.2342353413463554 0 0.0615708181172979 -0.23926943800272679 0 0.04796250665441415 -0.24802763492419491 0 0.085626393554373917 -0.25194285689470058 0 0.070671848883312932 -0.24837599116058481 0 0.07236649522527637 -0.23262152463446059 0 0.058408781237998489 -0.25787320876665182 0 0.0615708181172979 -0.23926943800272679 0 0.070671848883312932 -0.24837599116058481 0 0.0615708181172979 -0.23926943800272679 0 0.070671848883312932 -0.24837599116058481 0 0.07236649522527637 -0.23262152463446059 0 0.077954133919512128 -0.22557008088309069 0 0.095040044825762116 -0.2493602407562813 0 0.085626393554373917 -0.25194285689470058 0 0.07236649522527637 -0.23262152463446059 0 0.085626393554373917 -0.25194285689470058 0 0.077954133919512128 -0.22557008088309069 0 0.07236649522527637 -0.23262152463446059 0 0.085626393554373917 -0.25194285689470058 0 0.077954133919512128 -0.22557008088309069 0 0.095040044825762116 -0.2493602407562813 0 0.089959329549413908 -0.2255387413312793 0 0.077954133919512128 -0.22557008088309069 0 0.095040044825762116 -0.2493602407562813 0 0.089959329549413908 -0.2255387413312793 0 0.077954133919512128 -0.22557008088309069 0 0.084039517528495519 -0.20850189026294261 0 0.059106596896178851 -0.21330019237422049 0 0.07236649522527637 -0.23262152463446059 0 0.059106596896178851 -0.21330019237422049 0 0.077954133919512128 -0.22557008088309069 0 0.07236649522527637 -0.23262152463446059 0 0.059106596896178851 -0.21330019237422049 0 0.058264596559399029 -0.22808279311359569 0 0.07236649522527637 -0.23262152463446059 0 0.058264596559399029 -0.22808279311359569 0 0.0615708181172979 -0.23926943800272679 0 0.07236649522527637 -0.23262152463446059 0 0.060868223013258803 -0.2017799210099025 0 0.077954133919512128 -0.22557008088309069 0 0.060868223013258803 -0.2017799210099025 0 0.077954133919512128 -0.22557008088309069 0 0.084039517528495519 -0.20850189026294261 0 0.059106596896178851 -0.21330019237422049 0 0.060868223013258803 -0.2017799210099025 0 0.077954133919512128 -0.22557008088309069 0 0.060868223013258803 -0.2017799210099025 0 0.082952312226001051 -0.18845896889207561 0 0.084039517528495519 -0.20850189026294261 0 0.082952312226001051 -0.18845896889207561 0 0.084039517528495519 -0.20850189026294261 0 0.095061160385587415 -0.19622146395799081 0 0.082952312226001051 -0.18845896889207561 0 0.095061160385587415 -0.19622146395799081 0 0.099077849461169654 -0.18396262519040821 0 0.084039517528495519 -0.20850189026294261 0 0.099940918159592843 -0.2127753408217973 0 0.095061160385587415 -0.19622146395799081 0 0.089959329549413908 -0.2255387413312793 0 0.084039517528495519 -0.20850189026294261 0 0.099940918159592843 -0.2127753408217973 0 0.095061160385587415 -0.19622146395799081 0 0.1115391097194177 -0.1911703091887107 0 0.099077849461169654 -0.18396262519040821 0 0.099940918159592843 -0.2127753408217973 0 0.095061160385587415 -0.19622146395799081 0 0.1115391097194177 -0.1911703091887107 0 0.1115391097194177 -0.1911703091887107 0 0.1204911152159769 -0.20770794863657771 0 0.13187092091143501 -0.1890841743188228 0 0.099940918159592843 -0.2127753408217973 0 0.1115391097194177 -0.1911703091887107 0 0.1204911152159769 -0.20770794863657771 0 0.1204911152159769 -0.20770794863657771 0 0.1091113095205183 -0.22633172295433229 0 0.099940918159592843 -0.2127753408217973 0 0.1204911152159769 -0.20770794863657771 0 0.1091113095205183 -0.22633172295433229 0 0.1204911152159769 -0.20770794863657771 0 0.1091113095205183 -0.22633172295433229 0 0.12509200087224359 -0.21676833170735779 0 0.12311730452817291 -0.22691163671105011 0 0.11512388834378939 -0.246553201377151 0 0.1091113095205183 -0.22633172295433229 0 0.12311730452817291 -0.22691163671105011 0 0.1091113095205183 -0.22633172295433229 0 0.12509200087224359 -0.21676833170735779 0 0.12311730452817291 -0.22691163671105011 0 0.1091113095205183 -0.22633172295433229 0 0.13005229300132709 -0.25122354292990129 0 0.12311730452817291 -0.22691163671105011 0 0.11512388834378939 -0.246553201377151 0 0.12311730452817291 -0.22691163671105011 0 0.11512388834378939 -0.246553201377151 0 0.095040044825762116 -0.2493602407562813 0 0.1091113095205183 -0.22633172295433229 0 0.11512388834378939 -0.246553201377151 0 0.095040044825762116 -0.2493602407562813 0 0.1091113095205183 -0.22633172295433229 0 0.089959329549413908 -0.2255387413312793 0 0.1091113095205183 -0.22633172295433229 0 0.089959329549413908 -0.2255387413312793 0 0.095040044825762116 -0.2493602407562813 0 0.1091113095205183 -0.22633172295433229 0 0.089959329549413908 -0.2255387413312793 0 0.099940918159592843 -0.2127753408217973 0 0.1091113095205183 -0.22633172295433229 0 0.095073234391618147 -0.14933294019911381 0 0.1060052855721535 -0.13897027767558109 0 0.1143050861408222 -0.15568642978264419 0 0.095073234391618147 -0.14933294019911381 0 0.1060052855721535 -0.13897027767558109 0 0.090638918558566303 -0.1346801766442367 0 0.1060052855721535 -0.13897027767558109 0 0.11446569296354379 -0.12653022323923321 0 0.1020695004072603 -0.1169681559265718 0 0.1060052855721535 -0.13897027767558109 0 0.090638918558566303 -0.1346801766442367 0 0.1020695004072603 -0.1169681559265718 0 0.11446569296354379 -0.12653022323923321 0 0.12323912243264699 -0.1145505871361681 0 0.12617980878852969 -0.1365240843804808 0 0.1060052855721535 -0.13897027767558109 0 0.11446569296354379 -0.12653022323923321 0 0.12617980878852969 -0.1365240843804808 0 0.1143050861408222 -0.15568642978264419 0 0.13412479340576849 -0.1555472456916952 0 0.12617980878852969 -0.1365240843804808 0 0.1060052855721535 -0.13897027767558109 0 0.1143050861408222 -0.15568642978264419 0 0.12617980878852969 -0.1365240843804808 0 0.1143050861408222 -0.15568642978264419 0 0.114096228229441 -0.17441940739503159 0 0.12847455560672219 -0.168849375265443 0 0.114096228229441 -0.17441940739503159 0 0.13187092091143501 -0.1890841743188228 0 0.12847455560672219 -0.168849375265443 0 0.1115391097194177 -0.1911703091887107 0 0.114096228229441 -0.17441940739503159 0 0.13187092091143501 -0.1890841743188228 0 0.114096228229441 -0.17441940739503159 0 0.099077849461169654 -0.18396262519040821 0 0.091740436745401041 -0.16954297651823211 0 0.1115391097194177 -0.1911703091887107 0 0.114096228229441 -0.17441940739503159 0 0.099077849461169654 -0.18396262519040821 0 0.095073234391618147 -0.14933294019911381 0 0.1143050861408222 -0.15568642978264419 0 0.091740436745401041 -0.16954297651823211 0 0.1143050861408222 -0.15568642978264419 0 0.114096228229441 -0.17441940739503159 0 0.091740436745401041 -0.16954297651823211 0 0.082952312226001051 -0.18845896889207561 0 0.091740436745401041 -0.16954297651823211 0 0.067379640259629003 -0.17159900508302031 0 0.082952312226001051 -0.18845896889207561 0 0.099077849461169654 -0.18396262519040821 0 0.091740436745401041 -0.16954297651823211 0 0.060868223013258803 -0.2017799210099025 0 0.082952312226001051 -0.18845896889207561 0 0.067379640259629003 -0.17159900508302031 0 0.091740436745401041 -0.16954297651823211 0 0.067379640259629003 -0.17159900508302031 0 0.074021661194530242 -0.1480711658966275 0 0.067379640259629003 -0.17159900508302031 0 0.074021661194530242 -0.1480711658966275 0 0.051889264874002521 -0.15825284206404391 0 0.095073234391618147 -0.14933294019911381 0 0.091740436745401041 -0.16954297651823211 0 0.074021661194530242 -0.1480711658966275 0 0.095073234391618147 -0.14933294019911381 0 0.074021661194530242 -0.1480711658966275 0 0.090638918558566303 -0.1346801766442367 0 0.074021661194530242 -0.1480711658966275 0 0.090638918558566303 -0.1346801766442367 0 0.078715343734034438 -0.12063099456679539 0 0.074021661194530242 -0.1480711658966275 0 0.062283180342959259 -0.12859484082852179 0 0.078715343734034438 -0.12063099456679539 0 0.074021661194530242 -0.1480711658966275 0 0.047566309608080629 -0.13940467694033579 0 0.062283180342959259 -0.12859484082852179 0 0.047566309608080629 -0.13940467694033579 0 0.052335653880579959 -0.1132819195438137 0 0.047566309608080629 -0.13940467694033579 0 0.062283180342959259 -0.12859484082852179 0 0.052335653880579959 -0.1132819195438137 0 0.074021661194530242 -0.1480711658966275 0 0.047566309608080629 -0.13940467694033579 0 0.051889264874002521 -0.15825284206404391 0 0.047566309608080629 -0.13940467694033579 0 0.051889264874002521 -0.15825284206404391 0 0.026696401200760479 -0.1541996012635202 0 0.047566309608080629 -0.13940467694033579 0 0.032255493454128883 -0.12742192503336991 0 0.052335653880579959 -0.1132819195438137 0 0.047566309608080629 -0.13940467694033579 0 0.032255493454128883 -0.12742192503336991 0 0.026696401200760479 -0.1541996012635202 0 0.060868223013258803 -0.2017799210099025 0 0.067379640259629003 -0.17159900508302031 0 0.043782312107005478 -0.1779897611367143 0 0.067379640259629003 -0.17159900508302031 0 0.051889264874002521 -0.15825284206404391 0 0.043782312107005478 -0.1779897611367143 0 0.051889264874002521 -0.15825284206404391 0 0.043782312107005478 -0.1779897611367143 0 0.026696401200760479 -0.1541996012635202 0 0.043782312107005478 -0.1779897611367143 0 0.03022242041013893 -0.1712123303786624 0 0.026696401200760479 -0.1541996012635202 0 0.043782312107005478 -0.1779897611367143 0 0.026696401200760479 -0.1541996012635202 0 0.045846698567080763 -0.1939788601139808 0 0.033484521289073713 -0.18571820827873201 0 0.03022242041013893 -0.1712123303786624 0 0.045846698567080763 -0.1939788601139808 0 0.043782312107005478 -0.1779897611367143 0 0.03022242041013893 -0.1712123303786624 0 0.045846698567080763 -0.1939788601139808 0 0.03022242041013893 -0.1712123303786624 0 0.045846698567080763 -0.1939788601139808 0 0.047945134552119233 -0.1901284546342846 0 0.043782312107005478 -0.1779897611367143 0 0.017605475082801341 -0.19798982188306871 0 0.022150938141784302 -0.17609471157329509 0 0.0094024463718349778 -0.17975930851510871 0 0.017605475082801341 -0.19798982188306871 0 0.02640724258539098 -0.18619865639683339 0 0.022150938141784302 -0.17609471157329509 0 0.017605475082801341 -0.19798982188306871 0 0.022150938141784302 -0.17609471157329509 0 0.02640724258539098 -0.18619865639683339 0 0.02806628060659698 -0.17980597665688081 0 0.022150938141784302 -0.17609471157329509 0 0.033484521289073713 -0.18571820827873201 0 0.02640724258539098 -0.18619865639683339 0 0.02806628060659698 -0.17980597665688081 0 0.02806628060659698 -0.17980597665688081 0 0.022150938141784302 -0.17609471157329509 0 0.03022242041013893 -0.1712123303786624 0 0.033484521289073713 -0.18571820827873201 0 0.02806628060659698 -0.17980597665688081 0 0.03022242041013893 -0.1712123303786624 0 0.022150938141784302 -0.17609471157329509 0 0.01422886217454594 -0.16303069661463451 0 0.026696401200760479 -0.1541996012635202 0 0.022150938141784302 -0.17609471157329509 0 0.03022242041013893 -0.1712123303786624 0 0.026696401200760479 -0.1541996012635202 0 0.01422886217454594 -0.16303069661463451 0 0.026696401200760479 -0.1541996012635202 0 0.01087676573748202 -0.1519036108884888 0 0.022150938141784302 -0.17609471157329509 0 0.026696401200760479 -0.1541996012635202 0 0.01422886217454594 -0.16303069661463451 0 0.00095454359378272782 -0.16685631586716351 0 0.0094024463718349778 -0.17975930851510871 0 0.01422886217454594 -0.16303069661463451 0 0.00095454359378272782 -0.16685631586716351 0 0.01087676573748202 -0.1519036108884888 0 0.022150938141784302 -0.17609471157329509 0 0.01422886217454594 -0.16303069661463451 0 0.0094024463718349778 -0.17975930851510871 0 -0.0049943227340000142 -0.18274880523110981 0 0.00095454359378272782 -0.16685631586716351 0 0.0094024463718349778 -0.17975930851510871 0 -0.0049943227340000142 -0.18274880523110981 0 0.0064691819720955734 -0.19183549992138041 0 0.0094024463718349778 -0.17975930851510871 0 0.032255493454128883 -0.12742192503336991 0 0.017426882726650949 -0.12754810726732221 0 0.01863590950298399 -0.14297629644831561 0 0.032255493454128883 -0.12742192503336991 0 0.026696401200760479 -0.1541996012635202 0 0.01863590950298399 -0.14297629644831561 0 0.032255493454128883 -0.12742192503336991 0 0.026696401200760479 -0.1541996012635202 0 0.026696401200760479 -0.1541996012635202 0 0.01863590950298399 -0.14297629644831561 0 0.01087676573748202 -0.1519036108884888 0 0.026696401200760479 -0.1541996012635202 0 0.01863590950298399 -0.14297629644831561 0 -0.00113225379654322 -0.14908059611682761 0 0.00095454359378272782 -0.16685631586716351 0 0.01087676573748202 -0.1519036108884888 0 -0.00113225379654322 -0.14908059611682761 0 0.01087676573748202 -0.1519036108884888 0 0.005877131749355417 -0.13527815902046991 0 0.01863590950298399 -0.14297629644831561 0 0.01087676573748202 -0.1519036108884888 0 0.005877131749355417 -0.13527815902046991 0 -0.01044844011035528 -0.12823112002220899 0 0.005877131749355417 -0.13527815902046991 0 0.006624818464014165 -0.1187193322005841 0 0.017426882726650949 -0.12754810726732221 0 0.005877131749355417 -0.13527815902046991 0 0.006624818464014165 -0.1187193322005841 0 0.017426882726650949 -0.12754810726732221 0 0.01863590950298399 -0.14297629644831561 0 0.005877131749355417 -0.13527815902046991 0 0.006624818464014165 -0.1187193322005841 0 0.022013634757918329 -0.1146380778975024 0 0.015946393437307121 -0.098856776183017955 0 0.017426882726650949 -0.12754810726732221 0 0.006624818464014165 -0.1187193322005841 0 0.022013634757918329 -0.1146380778975024 0 0.032255493454128883 -0.12742192503336991 0 0.022013634757918329 -0.1146380778975024 0 0.037814585707490543 -0.100644248803218 0 0.032255493454128883 -0.12742192503336991 0 0.017426882726650949 -0.12754810726732221 0 0.022013634757918329 -0.1146380778975024 0 0.022013634757918329 -0.1146380778975024 0 0.015946393437307121 -0.098856776183017955 0 0.037814585707490543 -0.100644248803218 0 -0.015169606627087721 -0.1026672402057538 0 0.006624818464014165 -0.1187193322005841 0 0.015946393437307121 -0.098856776183017955 0 -0.015169606627087721 -0.1026672402057538 0 0.015946393437307121 -0.098856776183017955 0 0.0003806329818320936 -0.083393270986056811 0 0.015946393437307121 -0.098856776183017955 0 0.0003806329818320936 -0.083393270986056811 0 0.02474679145735097 -0.080924374377615127 0 0.0003806329818320936 -0.083393270986056811 0 0.015930872590751891 -0.06411930176635984 0 0.02474679145735097 -0.080924374377615127 0 0.0003806329818320936 -0.083393270986056811 0 0.015930872590751891 -0.06411930176635984 0 -0.0020527242365353088 -0.057067134515462047 0 0.0003806329818320936 -0.083393270986056811 0 0.015930872590751891 -0.06411930176635984 0 0.015930872590751891 -0.06411930176635984 0 0.02474679145735097 -0.080924374377615127 0 0.032333812774862809 -0.06144324319499353 0 0.015946393437307121 -0.098856776183017955 0 0.02474679145735097 -0.080924374377615127 0 0.037814585707490543 -0.100644248803218 0 0.043373677960852189 -0.073866572573066197 0 0.037814585707490543 -0.100644248803218 0 0.02474679145735097 -0.080924374377615127 0 0.043373677960852189 -0.073866572573066197 0 0.037814585707490543 -0.100644248803218 0 0.043373677960852189 -0.073866572573066197 0 0.057104998153079289 -0.087159162147291525 0 0.037814585707490543 -0.100644248803218 0 0.02474679145735097 -0.080924374377615127 0 0.043373677960852189 -0.073866572573066197 0 0.032333812774862809 -0.06144324319499353 0 0.057104998153079289 -0.087159162147291525 0 0.061874342425578627 -0.06103640475076931 0 0.043373677960852189 -0.073866572573066197 0 0.057104998153079289 -0.087159162147291525 0 0.061874342425578627 -0.06103640475076931 0 0.057104998153079289 -0.087159162147291525 0 0.052335653880579959 -0.1132819195438137 0 0.057104998153079289 -0.087159162147291525 0 0.052335653880579959 -0.1132819195438137 0 0.06943927927713385 -0.1029078435052084 0 0.057104998153079289 -0.087159162147291525 0 0.052335653880579959 -0.1132819195438137 0 0.037814585707490543 -0.100644248803218 0 0.062283180342959259 -0.12859484082852179 0 0.052335653880579959 -0.1132819195438137 0 0.06943927927713385 -0.1029078435052084 0 0.032255493454128883 -0.12742192503336991 0 0.052335653880579959 -0.1132819195438137 0 0.037814585707490543 -0.100644248803218 0 0.032255493454128883 -0.12742192503336991 0 0.037814585707490543 -0.100644248803218 0 0.02076612650089784 0.0082996566370284637 0 0.022081846222858189 -0.0091816557446990875 0 0.037869521298495842 -0.0024130821824058812 0 0.022081846222858189 -0.0091816557446990875 0 0.0029913831872387482 -0.0052912084592871226 0 0.0088030871894733444 -0.023666954911981241 0 0.02076612650089784 0.0082996566370284637 0 0.022081846222858189 -0.0091816557446990875 0 0.0029913831872387482 -0.0052912084592871226 0 0.0088030871894733444 -0.023666954911981241 0 0.023938625388478789 -0.02370758139699539 0 0.01634056554470284 -0.037751989486596693 0 0.023938625388478789 -0.02370758139699539 0 0.01634056554470284 -0.037751989486596693 0 0.032024893082784597 -0.030240136945433631 0 0.022081846222858189 -0.0091816557446990875 0 0.0088030871894733444 -0.023666954911981241 0 0.023938625388478789 -0.02370758139699539 0 0.022081846222858189 -0.0091816557446990875 0 0.023938625388478789 -0.02370758139699539 0 0.035361702361924437 -0.01769697587610107 0 0.023938625388478789 -0.02370758139699539 0 0.032024893082784597 -0.030240136945433631 0 0.035361702361924437 -0.01769697587610107 0 0.01634056554470284 -0.037751989486596693 0 0.031481112199671757 -0.044845332546662758 0 0.032024893082784597 -0.030240136945433631 0 -0.0052093122701638937 -0.036875927911865523 0 -0.0020527242365353088 -0.057067134515462047 0 0.01634056554470284 -0.037751989486596693 0 -0.0052093122701638937 -0.036875927911865523 0 0.0088030871894733444 -0.023666954911981241 0 0.01634056554470284 -0.037751989486596693 0 -0.0020527242365353088 -0.057067134515462047 0 0.015930872590751891 -0.06411930176635984 0 0.01634056554470284 -0.037751989486596693 0 0.015930872590751891 -0.06411930176635984 0 0.032333812774862809 -0.06144324319499353 0 0.031481112199671757 -0.044845332546662758 0 0.015930872590751891 -0.06411930176635984 0 0.01634056554470284 -0.037751989486596693 0 0.031481112199671757 -0.044845332546662758 0 0.015930872590751891 -0.06411930176635984 0 0.031481112199671757 -0.044845332546662758 0 0.043373677960852189 -0.073866572573066197 0 0.032333812774862809 -0.06144324319499353 0 0.048932770214213828 -0.047088896342914487 0 0.043373677960852189 -0.073866572573066197 0 0.048932770214213828 -0.047088896342914487 0 0.032333812774862809 -0.06144324319499353 0 0.048932770214213828 -0.047088896342914487 0 0.031481112199671757 -0.044845332546662758 0 0.048932770214213828 -0.047088896342914487 0 0.061874342425578627 -0.06103640475076931 0 0.066643686698077978 -0.034913647354247089 0 0.043373677960852189 -0.073866572573066197 0 0.048932770214213828 -0.047088896342914487 0 0.061874342425578627 -0.06103640475076931 0 0.048932770214213828 -0.047088896342914487 0 0.054491862467575453 -0.02031122011276279 0 0.066643686698077978 -0.034913647354247089 0 0.048932770214213828 -0.047088896342914487 0 0.054491862467575453 -0.02031122011276279 0 0.031481112199671757 -0.044845332546662758 0 0.047031351808591693 -0.025571363326965611 0 0.031481112199671757 -0.044845332546662758 0 0.032024893082784597 -0.030240136945433631 0 0.047031351808591693 -0.025571363326965611 0 0.048932770214213828 -0.047088896342914487 0 0.031481112199671757 -0.044845332546662758 0 0.047031351808591693 -0.025571363326965611 0 0.032024893082784597 -0.030240136945433631 0 0.035361702361924437 -0.01769697587610107 0 0.047031351808591693 -0.025571363326965611 0 0.035361702361924437 -0.01769697587610107 0 0.047031351808591693 -0.025571363326965611 0 0.046961078531504899 -0.01190523707616931 0 0.048932770214213828 -0.047088896342914487 0 0.047031351808591693 -0.025571363326965611 0 0.054491862467575453 -0.02031122011276279 0 0.047031351808591693 -0.025571363326965611 0 0.054491862467575453 -0.02031122011276279 0 0.046961078531504899 -0.01190523707616931 0 0.060050954720937057 0.0064664561173888302 0 0.054491862467575453 -0.02031122011276279 0 0.046961078531504899 -0.01190523707616931 0 0.060050954720937057 0.0064664561173888302 0 0.046961078531504899 -0.01190523707616931 0 0.037869521298495842 -0.0024130821824058812 0 0.060050954720937057 0.0064664561173888302 0 0.054491862467575453 -0.02031122011276279 0 0.071413030970577329 -0.0087908899577248817 0 0.060050954720937057 0.0064664561173888302 0 0.054491862467575453 -0.02031122011276279 0 0.022081846222858189 -0.0091816557446990875 0 0.035361702361924437 -0.01769697587610107 0 0.037869521298495842 -0.0024130821824058812 0 0.035361702361924437 -0.01769697587610107 0 0.046961078531504899 -0.01190523707616931 0 0.037869521298495842 -0.0024130821824058812 0 0.092067821462080798 -0.00033441177277885892 0 0.084743786285809045 -0.0078475959578721503 0 0.073970768157536865 -0.00054468278966517819 0 0.092067821462080798 -0.00033441177277885892 0 0.084743786285809045 -0.0078475959578721503 0 0.096956349234887648 -0.011071094986956799 0 0.084743786285809045 -0.0078475959578721503 0 0.088205371169196495 -0.016459414080351009 0 0.096956349234887648 -0.011071094986956799 0 0.084743786285809045 -0.0078475959578721503 0 0.078648683751121939 -0.016593149660378361 0 0.088205371169196495 -0.016459414080351009 0 0.084743786285809045 -0.0078475959578721503 0 0.077194067291261284 -0.0084440795914101415 0 0.078648683751121939 -0.016593149660378361 0 0.084743786285809045 -0.0078475959578721503 0 0.073970768157536865 -0.00054468278966517819 0 0.077194067291261284 -0.0084440795914101415 0 0.073970768157536865 -0.00054468278966517819 0 0.071413030970577329 -0.0087908899577248817 0 0.077194067291261284 -0.0084440795914101415 0 0.071413030970577329 -0.0087908899577248817 0 0.077194067291261284 -0.0084440795914101415 0 0.078648683751121939 -0.016593149660378361 0 0.083242060441408208 -0.0257850282390601 0 0.078648683751121939 -0.016593149660378361 0 0.066643686698077978 -0.034913647354247089 0 0.054491862467575453 -0.02031122011276279 0 0.071413030970577329 -0.0087908899577248817 0 0.066643686698077978 -0.034913647354247089 0 0.071413030970577329 -0.0087908899577248817 0 0.078648683751121939 -0.016593149660378361 0 0.066643686698077978 -0.034913647354247089 0 0.071413030970577329 -0.0087908899577248817 0 0.066643686698077978 -0.034913647354247089 0 0.083242060441408208 -0.0257850282390601 0 0.078648683751121939 -0.016593149660378361 0 0.088205371169196495 -0.016459414080351009 0 0.083242060441408208 -0.0257850282390601 0 0.088205371169196495 -0.016459414080351009 0 0.097312774271146651 -0.02308126200656048 0 0.083242060441408208 -0.0257850282390601 0 0.092432977404088151 -0.036775260532468483 0 0.097312774271146651 -0.02308126200656048 0 0.092432977404088151 -0.036775260532468483 0 0.06641317012595005 -0.050593670309986787 0 0.092432977404088151 -0.036775260532468483 0 0.077182973667381097 -0.037016901608940611 0 0.06641317012595005 -0.050593670309986787 0 0.092432977404088151 -0.036775260532468483 0 0.06641317012595005 -0.050593670309986787 0 0.081321763522679086 -0.05254311091511106 0 0.083242060441408208 -0.0257850282390601 0 0.092432977404088151 -0.036775260532468483 0 0.077182973667381097 -0.037016901608940611 0 0.083242060441408208 -0.0257850282390601 0 0.077182973667381097 -0.037016901608940611 0 0.066643686698077978 -0.034913647354247089 0 0.077182973667381097 -0.037016901608940611 0 0.066643686698077978 -0.034913647354247089 0 0.06641317012595005 -0.050593670309986787 0 0.06641317012595005 -0.050593670309986787 0 0.072074136114402804 -0.059502121025220053 0 0.081321763522679086 -0.05254311091511106 0 0.061874342425578627 -0.06103640475076931 0 0.066643686698077978 -0.034913647354247089 0 0.061874342425578627 -0.06103640475076931 0 0.066643686698077978 -0.034913647354247089 0 0.06641317012595005 -0.050593670309986787 0 0.061874342425578627 -0.06103640475076931 0 0.06641317012595005 -0.050593670309986787 0 0.072074136114402804 -0.059502121025220053 0 0.072074136114402804 -0.059502121025220053 0 0.082972967386599566 -0.062095893725314211 0 0.081321763522679086 -0.05254311091511106 0 0.092432977404088151 -0.036775260532468483 0 0.081321763522679086 -0.05254311091511106 0 0.09271556658235483 -0.053748608982565747 0 0.082972967386599566 -0.062095893725314211 0 0.081321763522679086 -0.05254311091511106 0 0.09271556658235483 -0.053748608982565747 0 0.1085184244451773 -0.047375386707910618 0 0.098584064208129651 -0.071793922660872214 0 0.09271556658235483 -0.053748608982565747 0 0.1085184244451773 -0.047375386707910618 0 0.098584064208129651 -0.071793922660872214 0 0.1085184244451773 -0.047375386707910618 0 0.1218369245002557 -0.069250945312485962 0 0.1284886927996042 -0.053771474094935739 0 0.1085184244451773 -0.047375386707910618 0 0.1184527846822258 -0.022956850754949479 0 0.1085184244451773 -0.047375386707910618 0 0.12459973637144631 -0.039337064749058577 0 0.1284886927996042 -0.053771474094935739 0 0.1085184244451773 -0.047375386707910618 0 0.12459973637144631 -0.039337064749058577 0 0.1184527846822258 -0.022956850754949479 0 0.092432977404088151 -0.036775260532468483 0 0.09271556658235483 -0.053748608982565747 0 0.1085184244451773 -0.047375386707910618 0 0.092432977404088151 -0.036775260532468483 0 0.1085184244451773 -0.047375386707910618 0 0.1184527846822258 -0.022956850754949479 0 0.092432977404088151 -0.036775260532468483 0 0.1184527846822258 -0.022956850754949479 0 0.097312774271146651 -0.02308126200656048 0 0.10633316738938289 -0.01620532765575914 0 0.1184527846822258 -0.022956850754949479 0 0.092432977404088151 -0.036775260532468483 0 0.097312774271146651 -0.02308126200656048 0 0.1184527846822258 -0.022956850754949479 0 0.097312774271146651 -0.02308126200656048 0 0.10633316738938289 -0.01620532765575914 0 0.096956349234887648 -0.011071094986956799 0 0.088205371169196495 -0.016459414080351009 0 0.097312774271146651 -0.02308126200656048 0 0.096956349234887648 -0.011071094986956799 0 0.12459973637144631 -0.039337064749058577 0 0.1184527846822258 -0.022956850754949479 0 0.13187053208142241 -0.030011510859192091 0 0.10633316738938289 -0.01620532765575914 0 0.1184527846822258 -0.022956850754949479 0 0.1129183536867734 -0.0060336046019931373 0 0.12869539122038509 0.002219350835908105 0 0.1184527846822258 -0.022956850754949479 0 0.1129183536867734 -0.0060336046019931373 0 0.12869539122038509 0.002219350835908105 0 0.1184527846822258 -0.022956850754949479 0 0.1037614036936796 0.0018051551888032739 0 0.1129183536867734 -0.0060336046019931373 0 0.096956349234887648 -0.011071094986956799 0 0.10633316738938289 -0.01620532765575914 0 0.1129183536867734 -0.0060336046019931373 0 0.096956349234887648 -0.011071094986956799 0 0.1037614036936796 0.0018051551888032739 0 0.092067821462080798 -0.00033441177277885892 0 0.096956349234887648 -0.011071094986956799 0 0.088649703971082044 -0.096212458613833776 0 0.078715343734034438 -0.12063099456679539 0 0.088649703971082044 -0.096212458613833776 0 0.078715343734034438 -0.12063099456679539 0 0.06943927927713385 -0.1029078435052084 0 0.090638918558566303 -0.1346801766442367 0 0.078715343734034438 -0.12063099456679539 0 0.1020695004072603 -0.1169681559265718 0 0.088649703971082044 -0.096212458613833776 0 0.078715343734034438 -0.12063099456679539 0 0.1020695004072603 -0.1169681559265718 0 0.062283180342959259 -0.12859484082852179 0 0.078715343734034438 -0.12063099456679539 0 0.06943927927713385 -0.1029078435052084 0 0.088649703971082044 -0.096212458613833776 0 0.06943927927713385 -0.1029078435052084 0 0.069953728734893361 -0.076008251645664798 0 0.057104998153079289 -0.087159162147291525 0 0.06943927927713385 -0.1029078435052084 0 0.069953728734893361 -0.076008251645664798 0 0.061874342425578627 -0.06103640475076931 0 0.072074136114402804 -0.059502121025220053 0 0.069953728734893361 -0.076008251645664798 0 0.072074136114402804 -0.059502121025220053 0 0.082972967386599566 -0.062095893725314211 0 0.069953728734893361 -0.076008251645664798 0 0.057104998153079289 -0.087159162147291525 0 0.061874342425578627 -0.06103640475076931 0 0.069953728734893361 -0.076008251645664798 0 0.082972967386599566 -0.062095893725314211 0 0.069953728734893361 -0.076008251645664798 0 0.098584064208129651 -0.071793922660872214 0 0.082972967386599566 -0.062095893725314211 0 0.09271556658235483 -0.053748608982565747 0 0.098584064208129651 -0.071793922660872214 0 0.088649703971082044 -0.096212458613833776 0 0.069953728734893361 -0.076008251645664798 0 0.098584064208129651 -0.071793922660872214 0 0.088649703971082044 -0.096212458613833776 0 0.098584064208129651 -0.071793922660872214 0 0.088649703971082044 -0.096212458613833776 0 0.098584064208129651 -0.071793922660872214 0 0.1065010510555011 -0.099386695965923602 0 0.098584064208129651 -0.071793922660872214 0 0.1218369245002557 -0.069250945312485962 0 0.1244074629268619 -0.091732701540154407 0 0.1085184244451773 -0.047375386707910618 0 0.098584064208129651 -0.071793922660872214 0 0.1218369245002557 -0.069250945312485962 0 0.098584064208129651 -0.071793922660872214 0 0.1244074629268619 -0.091732701540154407 0 0.1065010510555011 -0.099386695965923602 0 0.1244074629268619 -0.091732701540154407 0 0.1065010510555011 -0.099386695965923602 0 0.12323912243264699 -0.1145505871361681 0 0.088649703971082044 -0.096212458613833776 0 0.1065010510555011 -0.099386695965923602 0 0.1020695004072603 -0.1169681559265718 0 0.1065010510555011 -0.099386695965923602 0 0.1020695004072603 -0.1169681559265718 0 0.12323912243264699 -0.1145505871361681 0 0.11446569296354379 -0.12653022323923321 0 0.1020695004072603 -0.1169681559265718 0 0.12323912243264699 -0.1145505871361681 0 0.12323912243264699 -0.1145505871361681 0 0.13685650676483671 -0.1211713932319218 0 0.12617980878852969 -0.1365240843804808 0 0.12323912243264699 -0.1145505871361681 0 0.13685650676483671 -0.1211713932319218 0 0.1364765886211716 -0.1078206350746917 0 0.13685650676483671 -0.1211713932319218 0 0.14932492811111869 -0.1145430552038417 0 0.1450794293830267 -0.13223316902504631 0 0.13685650676483671 -0.1211713932319218 0 0.14932492811111869 -0.1145430552038417 0 0.1364765886211716 -0.1078206350746917 0 0.14597859184017811 -0.097105537131485786 0 0.1570475219811209 -0.1057190379829907 0 0.16491724726766491 -0.095977935993531452 0 0.14932492811111869 -0.1145430552038417 0 0.14597859184017811 -0.097105537131485786 0 0.1570475219811209 -0.1057190379829907 0 0.14932492811111869 -0.1145430552038417 0 0.14597859184017811 -0.097105537131485786 0 0.1364765886211716 -0.1078206350746917 0 0.1244074629268619 -0.091732701540154407 0 0.14597859184017811 -0.097105537131485786 0 0.1364765886211716 -0.1078206350746917 0 0.1244074629268619 -0.091732701540154407 0 0.12323912243264699 -0.1145505871361681 0 0.1364765886211716 -0.1078206350746917 0 0.1244074629268619 -0.091732701540154407 0 0.14597859184017811 -0.097105537131485786 0 0.13736259236584311 -0.082239953115695943 0 0.1218369245002557 -0.069250945312485962 0 0.1244074629268619 -0.091732701540154407 0 0.13736259236584311 -0.082239953115695943 0 0.1218369245002557 -0.069250945312485962 0 0.13609586927826151 -0.067306720501091169 0 0.1284886927996042 -0.053771474094935739 0 0.1218369245002557 -0.069250945312485962 0 0.13736259236584311 -0.082239953115695943 0 0.13609586927826151 -0.067306720501091169 0 0.14970037952079349 -0.070281690566671912 0 0.16034631985876521 -0.065038639785975016 0 0.15582032906766949 -0.053627791943683972 0 0.13609586927826151 -0.067306720501091169 0 0.14970037952079349 -0.070281690566671912 0 0.14265294758673089 -0.056575974456184057 0 0.13736259236584311 -0.082239953115695943 0 0.13609586927826151 -0.067306720501091169 0 0.14970037952079349 -0.070281690566671912 0 0.14970037952079349 -0.070281690566671912 0 0.15252791201435639 -0.084314328558166826 0 0.16468074907730229 -0.075966525983449024 0 0.14597859184017811 -0.097105537131485786 0 0.15252791201435639 -0.084314328558166826 0 0.16491724726766491 -0.095977935993531452 0 0.14597859184017811 -0.097105537131485786 0 0.13736259236584311 -0.082239953115695943 0 0.15252791201435639 -0.084314328558166826 0 0.13736259236584311 -0.082239953115695943 0 0.14970037952079349 -0.070281690566671912 0 0.15252791201435639 -0.084314328558166826 0 0.15252791201435639 -0.084314328558166826 0 0.16468074907730229 -0.075966525983449024 0 0.16491724726766491 -0.095977935993531452 0 0.16468074907730229 -0.075966525983449024 0 0.17815504644555161 -0.084715096529614856 0 0.16491724726766491 -0.095977935993531452 0 0.14970037952079349 -0.070281690566671912 0 0.16034631985876521 -0.065038639785975016 0 0.16468074907730229 -0.075966525983449024 0 0.16034631985876521 -0.065038639785975016 0 0.16468074907730229 -0.075966525983449024 0 0.17169172199543281 -0.061559059707012351 0 0.16468074907730229 -0.075966525983449024 0 0.17628277865897349 -0.073123156814924151 0 0.17169172199543281 -0.061559059707012351 0 0.17628277865897349 -0.073123156814924151 0 0.18483916639642639 -0.06519560532717944 0 0.17169172199543281 -0.061559059707012351 0 0.16468074907730229 -0.075966525983449024 0 0.17628277865897349 -0.073123156814924151 0 0.17815504644555161 -0.084715096529614856 0 0.17628277865897349 -0.073123156814924151 0 0.18483916639642639 -0.06519560532717944 0 0.1904759927198747 -0.07664312737326541 0 0.17815504644555161 -0.084715096529614856 0 0.179671566541241 -0.096815735571285477 0 0.16491724726766491 -0.095977935993531452 0 0.17815504644555161 -0.084715096529614856 0 0.19098506177352331 -0.090989516906199081 0 0.1904759927198747 -0.07664312737326541 0 0.17628277865897349 -0.073123156814924151 0 0.17815504644555161 -0.084715096529614856 0 0.1904759927198747 -0.07664312737326541 0 0.17815504644555161 -0.084715096529614856 0 0.179671566541241 -0.096815735571285477 0 0.19098506177352331 -0.090989516906199081 0 0.179671566541241 -0.096815735571285477 0 0.18825343090776639 -0.1044930695883661 0 0.19098506177352331 -0.090989516906199081 0 0.179671566541241 -0.096815735571285477 0 0.17616734247979141 -0.10680076928402631 0 0.16491724726766491 -0.095977935993531452 0 0.179671566541241 -0.096815735571285477 0 0.17616734247979141 -0.10680076928402631 0 0.18825343090776639 -0.1044930695883661 0 0.18211191602549409 -0.11695533365030431 0 0.16645997326363521 -0.114470781754134 0 0.17493136137656509 -0.12817596485682239 0 0.17616734247979141 -0.10680076928402631 0 0.18211191602549409 -0.11695533365030431 0 0.18825343090776639 -0.1044930695883661 0 0.18211191602549409 -0.11695533365030431 0 0.19064044170861419 -0.12867748534588841 0 0.17493136137656509 -0.12817596485682239 0 0.17616734247979141 -0.10680076928402631 0 0.18211191602549409 -0.11695533365030431 0 0.16645997326363521 -0.114470781754134 0 0.14932492811111869 -0.1145430552038417 0 0.16645997326363521 -0.114470781754134 0 0.1570475219811209 -0.1057190379829907 0 0.14932492811111869 -0.1145430552038417 0 0.16645997326363521 -0.114470781754134 0 0.16023150781391221 -0.12971906167510419 0 0.16645997326363521 -0.114470781754134 0 0.16023150781391221 -0.12971906167510419 0 0.17493136137656509 -0.12817596485682239 0 0.17616734247979141 -0.10680076928402631 0 0.16645997326363521 -0.114470781754134 0 0.16491724726766491 -0.095977935993531452 0 0.16645997326363521 -0.114470781754134 0 0.1570475219811209 -0.1057190379829907 0 0.16491724726766491 -0.095977935993531452 0 0.14127080817823279 0.0033430821113621962 0 0.14854857140159661 -0.0069737994963625129 0 0.1335006780419114 -0.01496532512565635 0 0.14854857140159661 -0.0069737994963625129 0 0.1335006780419114 -0.01496532512565635 0 0.12869539122038509 0.002219350835908105 0 0.1184527846822258 -0.022956850754949479 0 0.1335006780419114 -0.01496532512565635 0 0.14127080817823279 0.0033430821113621962 0 0.12869539122038509 0.002219350835908105 0 0.1335006780419114 -0.01496532512565635 0 0.1335006780419114 -0.01496532512565635 0 0.13187053208142241 -0.030011510859192091 0 0.1478958102982465 -0.028354177811183379 0 0.1184527846822258 -0.022956850754949479 0 0.1335006780419114 -0.01496532512565635 0 0.13187053208142241 -0.030011510859192091 0 0.1184527846822258 -0.022956850754949479 0 0.1335006780419114 -0.01496532512565635 0 0.14854857140159661 -0.0069737994963625129 0 0.1478958102982465 -0.028354177811183379 0 0.16308714316328471 -0.019969638683906381 0 0.14854857140159661 -0.0069737994963625129 0 0.1335006780419114 -0.01496532512565635 0 0.1478958102982465 -0.028354177811183379 0 0.1478958102982465 -0.028354177811183379 0 0.1512561906805954 -0.041726313856635541 0 0.16420063619856909 -0.037716941596413138 0 0.1478958102982465 -0.028354177811183379 0 0.1512561906805954 -0.041726313856635541 0 0.13722825461575369 -0.042782752842884082 0 0.13187053208142241 -0.030011510859192091 0 0.1478958102982465 -0.028354177811183379 0 0.13722825461575369 -0.042782752842884082 0 0.12459973637144631 -0.039337064749058577 0 0.13187053208142241 -0.030011510859192091 0 0.13722825461575369 -0.042782752842884082 0 0.12459973637144631 -0.039337064749058577 0 0.13722825461575369 -0.042782752842884082 0 0.1284886927996042 -0.053771474094935739 0 0.13722825461575369 -0.042782752842884082 0 0.1284886927996042 -0.053771474094935739 0 0.14265294758673089 -0.056575974456184057 0 0.13609586927826151 -0.067306720501091169 0 0.1284886927996042 -0.053771474094935739 0 0.14265294758673089 -0.056575974456184057 0 0.14970037952079349 -0.070281690566671912 0 0.14265294758673089 -0.056575974456184057 0 0.15582032906766949 -0.053627791943683972 0 0.1512561906805954 -0.041726313856635541 0 0.13722825461575369 -0.042782752842884082 0 0.14265294758673089 -0.056575974456184057 0 0.1512561906805954 -0.041726313856635541 0 0.14265294758673089 -0.056575974456184057 0 0.15582032906766949 -0.053627791943683972 0 0.15582032906766949 -0.053627791943683972 0 0.17092844439923741 -0.049161815656930369 0 0.17169172199543281 -0.061559059707012351 0 0.16034631985876521 -0.065038639785975016 0 0.15582032906766949 -0.053627791943683972 0 0.17169172199543281 -0.061559059707012351 0 0.18483916639642639 -0.06519560532717944 0 0.17169172199543281 -0.061559059707012351 0 0.18292923393693131 -0.053328386326407469 0 0.17092844439923741 -0.049161815656930369 0 0.18292923393693131 -0.053328386326407469 0 0.18285112350680949 -0.040192920857617352 0 0.17092844439923741 -0.049161815656930369 0 0.17169172199543281 -0.061559059707012351 0 0.18292923393693131 -0.053328386326407469 0 0.17092844439923741 -0.049161815656930369 0 0.18285112350680949 -0.040192920857617352 0 0.16420063619856909 -0.037716941596413138 0 0.18285112350680949 -0.040192920857617352 0 0.16420063619856909 -0.037716941596413138 0 0.17574672445706899 -0.027415991682792979 0 0.18292923393693131 -0.053328386326407469 0 0.18285112350680949 -0.040192920857617352 0 0.19147158195701061 -0.046989148873439912 0 0.1512561906805954 -0.041726313856635541 0 0.15582032906766949 -0.053627791943683972 0 0.16420063619856909 -0.037716941596413138 0 0.15582032906766949 -0.053627791943683972 0 0.17092844439923741 -0.049161815656930369 0 0.16420063619856909 -0.037716941596413138 0 0.1478958102982465 -0.028354177811183379 0 0.16420063619856909 -0.037716941596413138 0 0.16308714316328471 -0.019969638683906381 0 0.16420063619856909 -0.037716941596413138 0 0.16308714316328471 -0.019969638683906381 0 0.17574672445706899 -0.027415991682792979 0 0.18285112350680949 -0.040192920857617352 0 0.17574672445706899 -0.027415991682792979 0 0.191302370396847 -0.023777876095868979 0 0.17574672445706899 -0.027415991682792979 0 0.1769934256149375 -0.01250634271852669 0 0.191302370396847 -0.023777876095868979 0 0.16308714316328471 -0.019969638683906381 0 0.17574672445706899 -0.027415991682792979 0 0.1769934256149375 -0.01250634271852669 0 0.18107755721158111 0.0054153016410935758 0 0.1769934256149375 -0.01250634271852669 0 0.16506726594281801 -0.00051261721513644809 0 0.18107755721158111 0.0054153016410935758 0 0.1769934256149375 -0.01250634271852669 0 0.19105429982604319 -0.0049549345427246441 0 0.1769934256149375 -0.01250634271852669 0 0.19105429982604319 -0.0049549345427246441 0 0.191302370396847 -0.023777876095868979 0 0.16308714316328471 -0.019969638683906381 0 0.1769934256149375 -0.01250634271852669 0 0.16506726594281801 -0.00051261721513644809 0 0.14854857140159661 -0.0069737994963625129 0 0.16308714316328471 -0.019969638683906381 0 0.16506726594281801 -0.00051261721513644809 0 0.20457007160887039 -0.0088418504407955512 0 0.19105429982604319 -0.0049549345427246441 0 0.191302370396847 -0.023777876095868979 0 0.20457007160887039 -0.0088418504407955512 0 0.191302370396847 -0.023777876095868979 0 0.20781206891976031 -0.032619795782065468 0 0.191302370396847 -0.023777876095868979 0 0.20781206891976031 -0.032619795782065468 0 0.19527961808500161 -0.036631044775952859 0 0.20457007160887039 -0.0088418504407955512 0 0.20781206891976031 -0.032619795782065468 0 0.20457007160887039 -0.0088418504407955512 0 0.20781206891976031 -0.032619795782065468 0 0.22396096554464959 -0.018491165692964381 0 0.21867749539734649 -0.040551696514230462 0 0.20781206891976031 -0.032619795782065468 0 0.22396096554464959 -0.018491165692964381 0 0.20781206891976031 -0.032619795782065468 0 0.20140680029753941 -0.047870140882831903 0 0.2110540662306486 -0.056397741123335628 0 0.21867749539734649 -0.040551696514230462 0 0.20781206891976031 -0.032619795782065468 0 0.2110540662306486 -0.056397741123335628 0 0.20781206891976031 -0.032619795782065468 0 0.2110540662306486 -0.056397741123335628 0 0.20781206891976031 -0.032619795782065468 0 0.19527961808500161 -0.036631044775952859 0 0.20140680029753941 -0.047870140882831903 0 0.18285112350680949 -0.040192920857617352 0 0.191302370396847 -0.023777876095868979 0 0.19527961808500161 -0.036631044775952859 0 0.18285112350680949 -0.040192920857617352 0 0.19527961808500161 -0.036631044775952859 0 0.19147158195701061 -0.046989148873439912 0 0.19527961808500161 -0.036631044775952859 0 0.20140680029753941 -0.047870140882831903 0 0.19147158195701061 -0.046989148873439912 0 0.20140680029753941 -0.047870140882831903 0 0.19147158195701061 -0.046989148873439912 0 0.19489113395877139 -0.056923251524389991 0 0.20140680029753941 -0.047870140882831903 0 0.19489113395877139 -0.056923251524389991 0 0.20695534045330721 -0.058656665396750352 0 0.18292923393693131 -0.053328386326407469 0 0.19147158195701061 -0.046989148873439912 0 0.19489113395877139 -0.056923251524389991 0 0.18483916639642639 -0.06519560532717944 0 0.18292923393693131 -0.053328386326407469 0 0.19489113395877139 -0.056923251524389991 0 0.19489113395877139 -0.056923251524389991 0 0.20695534045330721 -0.058656665396750352 0 0.21293330173477251 -0.070180713413375811 0 0.20695534045330721 -0.058656665396750352 0 0.2110540662306486 -0.056397741123335628 0 0.21293330173477251 -0.070180713413375811 0 0.20695534045330721 -0.058656665396750352 0 0.2110540662306486 -0.056397741123335628 0 0.20140680029753941 -0.047870140882831903 0 0.20695534045330721 -0.058656665396750352 0 0.2110540662306486 -0.056397741123335628 0 0.2110540662306486 -0.056397741123335628 0 0.2240777902443962 -0.059928809370641371 0 0.21293330173477251 -0.070180713413375811 0 0.21867749539734649 -0.040551696514230462 0 0.2110540662306486 -0.056397741123335628 0 0.2332701462295225 -0.044153827991350127 0 0.2110540662306486 -0.056397741123335628 0 0.2332701462295225 -0.044153827991350127 0 0.2110540662306486 -0.056397741123335628 0 0.2240777902443962 -0.059928809370641371 0 0.2332701462295225 -0.044153827991350127 0 0.2240777902443962 -0.059928809370641371 0 0.2357835419416078 -0.057679858595466482 0 0.2332701462295225 -0.044153827991350127 0 0.2240777902443962 -0.059928809370641371 0 0.2357835419416078 -0.057679858595466482 0 0.22910227916802139 -0.068044101486001526 0 0.25002440808248971 -0.049070108055649597 0 0.2357835419416078 -0.057679858595466482 0 0.2424790725628117 -0.068061140075458951 0 0.25002440808248971 -0.049070108055649597 0 0.2357835419416078 -0.057679858595466482 0 0.2332701462295225 -0.044153827991350127 0 0.25548622622839667 -0.03190991485936516 0 0.2332701462295225 -0.044153827991350127 0 0.2400510958640287 -0.02607265246062199 0 0.25002440808248971 -0.049070108055649597 0 0.25548622622839667 -0.03190991485936516 0 0.2332701462295225 -0.044153827991350127 0 0.25548622622839667 -0.03190991485936516 0 0.2332701462295225 -0.044153827991350127 0 0.21867749539734649 -0.040551696514230462 0 0.2332701462295225 -0.044153827991350127 0 0.22396096554464959 -0.018491165692964381 0 0.2332701462295225 -0.044153827991350127 0 0.22396096554464959 -0.018491165692964381 0 0.2400510958640287 -0.02607265246062199 0 0.22396096554464959 -0.018491165692964381 0 0.2400510958640287 -0.02607265246062199 0 0.24820666495033469 -0.010671503176887811 0 0.25548622622839667 -0.03190991485936516 0 0.2400510958640287 -0.02607265246062199 0 0.24820666495033469 -0.010671503176887811 0 0.22396096554464959 -0.018491165692964381 0 0.24820666495033469 -0.010671503176887811 0 0.22914471171673431 0.0072058749996883973 0 0.20457007160887039 -0.0088418504407955512 0 0.22396096554464959 -0.018491165692964381 0 0.22914471171673431 0.0072058749996883973 0 0.22396096554464959 -0.018491165692964381 0 0.24820666495033469 -0.010671503176887811 0 0.21624896733031909 -0.094498967791939767 0 0.20222576501332551 -0.11371128782285179 0 0.21956463292586609 -0.11881722217050369 0 0.21624896733031909 -0.094498967791939767 0 0.20222576501332551 -0.11371128782285179 0 0.20062140751382651 -0.097807834744219294 0 0.21624896733031909 -0.094498967791939767 0 0.21956463292586609 -0.11881722217050369 0 0.20222576501332551 -0.11371128782285179 0 0.21956463292586609 -0.11881722217050369 0 0.2046002191617709 -0.1291286805402049 0 0.18211191602549409 -0.11695533365030431 0 0.20222576501332551 -0.11371128782285179 0 0.19064044170861419 -0.12867748534588841 0 0.18211191602549409 -0.11695533365030431 0 0.20222576501332551 -0.11371128782285179 0 0.18825343090776639 -0.1044930695883661 0 0.20222576501332551 -0.11371128782285179 0 0.2046002191617709 -0.1291286805402049 0 0.19064044170861419 -0.12867748534588841 0 0.20222576501332551 -0.11371128782285179 0 0.18825343090776639 -0.1044930695883661 0 0.20062140751382651 -0.097807834744219294 0 0.18825343090776639 -0.1044930695883661 0 0.20062140751382651 -0.097807834744219294 0 0.19098506177352331 -0.090989516906199081 0 0.19098506177352331 -0.090989516906199081 0 0.1904759927198747 -0.07664312737326541 0 0.20325487441275469 -0.083938309880234513 0 0.20062140751382651 -0.097807834744219294 0 0.19098506177352331 -0.090989516906199081 0 0.20325487441275469 -0.083938309880234513 0 0.19489113395877139 -0.056923251524389991 0 0.20101211721766479 -0.070564760722070602 0 0.21293330173477251 -0.070180713413375811 0 0.18483916639642639 -0.06519560532717944 0 0.19489113395877139 -0.056923251524389991 0 0.19333433924095489 -0.067223107780407604 0 0.18483916639642639 -0.06519560532717944 0 0.19333433924095489 -0.067223107780407604 0 0.1904759927198747 -0.07664312737326541 0 0.19333433924095489 -0.067223107780407604 0 0.1904759927198747 -0.07664312737326541 0 0.20101211721766479 -0.070564760722070602 0 0.1904759927198747 -0.07664312737326541 0 0.20101211721766479 -0.070564760722070602 0 0.20325487441275469 -0.083938309880234513 0 0.19489113395877139 -0.056923251524389991 0 0.19333433924095489 -0.067223107780407604 0 0.20101211721766479 -0.070564760722070602 0 0.19489113395877139 -0.056923251524389991 0 0.21293330173477251 -0.070180713413375811 0 0.20101211721766479 -0.070564760722070602 0 0.21293330173477251 -0.070180713413375811 0 0.20325487441275469 -0.083938309880234513 0 0.2110540662306486 -0.056397741123335628 0 0.21293330173477251 -0.070180713413375811 0 0.21624896733031909 -0.094498967791939767 0 0.20062140751382651 -0.097807834744219294 0 0.20325487441275469 -0.083938309880234513 0 0.21624896733031909 -0.094498967791939767 0 0.21293330173477251 -0.070180713413375811 0 0.21624896733031909 -0.094498967791939767 0 0.21293330173477251 -0.070180713413375811 0 0.20325487441275469 -0.083938309880234513 0 0.21293330173477251 -0.070180713413375811 0 0.23507475022467961 -0.086450344267398033 0 0.21624896733031909 -0.094498967791939767 0 0.23507475022467961 -0.086450344267398033 0 0.227390257246045 -0.098419496278734961 0 0.21624896733031909 -0.094498967791939767 0 0.21293330173477251 -0.070180713413375811 0 0.23507475022467961 -0.086450344267398033 0 0.21293330173477251 -0.070180713413375811 0 0.2318672561294014 -0.075210598383450511 0 0.23507475022467961 -0.086450344267398033 0 0.21293330173477251 -0.070180713413375811 0 0.2318672561294014 -0.075210598383450511 0 0.22910227916802139 -0.068044101486001526 0 0.2240777902443962 -0.059928809370641371 0 0.21293330173477251 -0.070180713413375811 0 0.22910227916802139 -0.068044101486001526 0 0.25782929842336338 -0.063524329579946456 0 0.2424790725628117 -0.068061140075458951 0 0.23974687695672151 -0.083316692675018428 0 0.25782929842336338 -0.063524329579946456 0 0.23974687695672151 -0.083316692675018428 0 0.2357835419416078 -0.057679858595466482 0 0.22910227916802139 -0.068044101486001526 0 0.2424790725628117 -0.068061140075458951 0 0.2318672561294014 -0.075210598383450511 0 0.2424790725628117 -0.068061140075458951 0 0.23974687695672151 -0.083316692675018428 0 0.2318672561294014 -0.075210598383450511 0 0.22910227916802139 -0.068044101486001526 0 0.2424790725628117 -0.068061140075458951 0 0.25174049021884548 -0.087486636901796727 0 0.23507475022467961 -0.086450344267398033 0 0.23974687695672151 -0.083316692675018428 0 0.25721619871458618 -0.10271997512142091 0 0.25174049021884548 -0.087486636901796727 0 0.23507475022467961 -0.086450344267398033 0 0.2318672561294014 -0.075210598383450511 0 0.23507475022467961 -0.086450344267398033 0 0.23974687695672151 -0.083316692675018428 0 0.25174049021884548 -0.087486636901796727 0 0.25531582082939952 -0.079141346968200396 0 0.23974687695672151 -0.083316692675018428 0 0.25721619871458618 -0.10271997512142091 0 0.23507475022467961 -0.086450344267398033 0 0.25721619871458618 -0.10271997512142091 0 0.23507475022467961 -0.086450344267398033 0 0.23619877222175739 -0.10359668447002141 0 0.25721619871458618 -0.10271997512142091 0 0.23619877222175739 -0.10359668447002141 0 0.23946377219984241 -0.11864097079151539 0 0.23507475022467961 -0.086450344267398033 0 0.23619877222175739 -0.10359668447002141 0 0.227390257246045 -0.098419496278734961 0 0.21624896733031909 -0.094498967791939767 0 0.22203853920742411 -0.1091319885855806 0 0.21956463292586609 -0.11881722217050369 0 0.23619877222175739 -0.10359668447002141 0 0.227390257246045 -0.098419496278734961 0 0.22203853920742411 -0.1091319885855806 0 0.21624896733031909 -0.094498967791939767 0 0.227390257246045 -0.098419496278734961 0 0.22203853920742411 -0.1091319885855806 0 0.21956463292586609 -0.11881722217050369 0 0.22828008078628001 -0.1167339305568309 0 0.22171134568509709 -0.13456196646160831 0 0.22828008078628001 -0.1167339305568309 0 0.23946377219984241 -0.11864097079151539 0 0.22171134568509709 -0.13456196646160831 0 0.22203853920742411 -0.1091319885855806 0 0.21956463292586609 -0.11881722217050369 0 0.22828008078628001 -0.1167339305568309 0 0.22203853920742411 -0.1091319885855806 0 0.21956463292586609 -0.11881722217050369 0 0.23619877222175739 -0.10359668447002141 0 0.22203853920742411 -0.1091319885855806 0 0.22828008078628001 -0.1167339305568309 0 0.25721619871458618 -0.10271997512142091 0 0.23946377219984241 -0.11864097079151539 0 0.23619877222175739 -0.10359668447002141 0 0.22828008078628001 -0.1167339305568309 0 0.23946377219984241 -0.11864097079151539 0 0.23946377219984241 -0.11864097079151539 0 0.24289792203789021 -0.14188522053962821 0 0.22171134568509709 -0.13456196646160831 0 0.25875100621879649 -0.12504953296095059 0 0.23946377219984241 -0.11864097079151539 0 0.24289792203789021 -0.14188522053962821 0 0.24289792203789021 -0.14188522053962821 0 0.22486948703309839 -0.15772488276031341 0 0.23881498588114661 -0.15962363451221531 0 0.25179086874915613 -0.15330806089431401 0 0.24289792203789021 -0.14188522053962821 0 0.23881498588114661 -0.15962363451221531 0 0.22171134568509709 -0.13456196646160831 0 0.22486948703309839 -0.15772488276031341 0 0.24289792203789021 -0.14188522053962821 0 0.22171134568509709 -0.13456196646160831 0 0.22486948703309839 -0.15772488276031341 0 0.22171134568509709 -0.13456196646160831 0 0.213709999468469 -0.14173785300106509 0 0.22486948703309839 -0.15772488276031341 0 0.21956463292586609 -0.11881722217050369 0 0.22171134568509709 -0.13456196646160831 0 0.23946377219984241 -0.11864097079151539 0 0.22171134568509709 -0.13456196646160831 0 0.2046002191617709 -0.1291286805402049 0 0.213709999468469 -0.14173785300106509 0 0.1968602566925792 -0.1426995543607156 0 0.21956463292586609 -0.11881722217050369 0 0.22171134568509709 -0.13456196646160831 0 0.213709999468469 -0.14173785300106509 0 0.21956463292586609 -0.11881722217050369 0 0.213709999468469 -0.14173785300106509 0 0.21956463292586609 -0.11881722217050369 0 0.2046002191617709 -0.1291286805402049 0 0.213709999468469 -0.14173785300106509 0 0.22171134568509709 -0.13456196646160831 0 0.213709999468469 -0.14173785300106509 0 0.213709999468469 -0.14173785300106509 0 0.20824722427694711 -0.16312437606631999 0 0.213709999468469 -0.14173785300106509 0 0.19407678538748649 -0.15934560460131439 0 0.20824722427694711 -0.16312437606631999 0 0.213709999468469 -0.14173785300106509 0 0.19407678538748649 -0.15934560460131439 0 0.213709999468469 -0.14173785300106509 0 0.20824722427694711 -0.16312437606631999 0 0.22486948703309839 -0.15772488276031341 0 0.213709999468469 -0.14173785300106509 0 0.1968602566925792 -0.1426995543607156 0 0.19407678538748649 -0.15934560460131439 0 0.1968602566925792 -0.1426995543607156 0 0.1884212322022378 -0.149077921645975 0 0.19407678538748649 -0.15934560460131439 0 0.1968602566925792 -0.1426995543607156 0 0.1884212322022378 -0.149077921645975 0 0.18307819234208411 -0.13969202619167281 0 0.1968602566925792 -0.1426995543607156 0 0.19064044170861419 -0.12867748534588841 0 0.18307819234208411 -0.13969202619167281 0 0.2046002191617709 -0.1291286805402049 0 0.1968602566925792 -0.1426995543607156 0 0.19064044170861419 -0.12867748534588841 0 0.1975891341134994 -0.17200645858229099 0 0.20278444908542489 -0.1845108991315749 0 0.20824722427694711 -0.16312437606631999 0 0.1975891341134994 -0.17200645858229099 0 0.20278444908542489 -0.1845108991315749 0 0.19138362874008949 -0.18354069679484139 0 0.1975891341134994 -0.17200645858229099 0 0.19138362874008949 -0.18354069679484139 0 0.18671764231521409 -0.17466171805760611 0 0.1975891341134994 -0.17200645858229099 0 0.19407678538748649 -0.15934560460131439 0 0.18671764231521409 -0.17466171805760611 0 0.19407678538748649 -0.15934560460131439 0 0.18189982897357451 -0.16507207570290039 0 0.18671764231521409 -0.17466171805760611 0 0.1975891341134994 -0.17200645858229099 0 0.19407678538748649 -0.15934560460131439 0 0.20824722427694711 -0.16312437606631999 0 0.20824722427694711 -0.16312437606631999 0 0.21445913978545009 -0.1761020320364709 0 0.22486948703309839 -0.15772488276031341 0 0.20278444908542489 -0.1845108991315749 0 0.20824722427694711 -0.16312437606631999 0 0.20278444908542489 -0.1845108991315749 0 0.20824722427694711 -0.16312437606631999 0 0.21445913978545009 -0.1761020320364709 0 0.20278444908542489 -0.1845108991315749 0 0.21445913978545009 -0.1761020320364709 0 0.21573610901974849 -0.1934771937122704 0 0.21445913978545009 -0.1761020320364709 0 0.22802762838109941 -0.18088779905901861 0 0.21573610901974849 -0.1934771937122704 0 0.21445913978545009 -0.1761020320364709 0 0.22802762838109941 -0.18088779905901861 0 0.22486948703309839 -0.15772488276031341 0 0.22802762838109941 -0.18088779905901861 0 0.22486948703309839 -0.15772488276031341 0 0.23881498588114661 -0.15962363451221531 0 0.22802762838109941 -0.18088779905901861 0 0.22486948703309839 -0.15772488276031341 0 0.22802762838109941 -0.18088779905901861 0 0.23881498588114661 -0.15962363451221531 0 0.2486145811112937 -0.16884638692669571 0 0.25179086874915613 -0.15330806089431401 0 0.23881498588114661 -0.15962363451221531 0 0.2486145811112937 -0.16884638692669571 0 0.22802762838109941 -0.18088779905901861 0 0.2486145811112937 -0.16884638692669571 0 0.24543199639070409 -0.18264300804967451 0 0.22802762838109941 -0.18088779905901861 0 0.24543199639070409 -0.18264300804967451 0 0.24102615225291141 -0.19390585747176281 0 0.25554227415006853 -0.19222729937612171 0 0.24102615225291141 -0.19390585747176281 0 0.24494309261358449 -0.20972046551627541 0 0.25554227415006853 -0.19222729937612171 0 0.24543199639070409 -0.18264300804967451 0 0.24102615225291141 -0.19390585747176281 0 0.24102615225291141 -0.19390585747176281 0 0.24494309261358449 -0.20972046551627541 0 0.2311857697291004 -0.20405071535772401 0 0.24494309261358449 -0.20972046551627541 0 0.2343439110771009 -0.22721363165642941 0 0.24494309261358449 -0.20972046551627541 0 0.2311857697291004 -0.20405071535772401 0 0.2343439110771009 -0.22721363165642941 0 0.2311857697291004 -0.20405071535772401 0 0.22189087603119961 -0.21945642874092849 0 0.2343439110771009 -0.22721363165642941 0 0.2311857697291004 -0.20405071535772401 0 0.22189087603119961 -0.21945642874092849 0 0.21303228152943979 -0.21039843219874771 0 0.2311857697291004 -0.20405071535772401 0 0.2343439110771009 -0.22721363165642941 0 0.22802762838109941 -0.18088779905901861 0 0.2311857697291004 -0.20405071535772401 0 0.21573610901974849 -0.1934771937122704 0 0.2311857697291004 -0.20405071535772401 0 0.21573610901974849 -0.1934771937122704 0 0.21303228152943979 -0.21039843219874771 0 0.22802762838109941 -0.18088779905901861 0 0.2311857697291004 -0.20405071535772401 0 0.22802762838109941 -0.18088779905901861 0 0.24102615225291141 -0.19390585747176281 0 0.2311857697291004 -0.20405071535772401 0 0.23744775862660331 -0.2499783381945197 0 0.2343439110771009 -0.22721363165642941 0 0.25436638690304969 -0.22747799096314841 0 0.2484788525112992 -0.25384991982673899 0 0.2438199050162663 -0.23901021036905501 0 0.23744775862660331 -0.2499783381945197 0 0.2438199050162663 -0.23901021036905501 0 0.2343439110771009 -0.22721363165642941 0 0.2484788525112992 -0.25384991982673899 0 0.23744775862660331 -0.2499783381945197 0 0.2438199050162663 -0.23901021036905501 0 0.25436638690304969 -0.22747799096314841 0 0.24494309261358449 -0.20972046551627541 0 0.2343439110771009 -0.22721363165642941 0 0.25436638690304969 -0.22747799096314841 0 0.2438199050162663 -0.23901021036905501 0 0.2343439110771009 -0.22721363165642941 0 0.22055911473142151 -0.23059685877190289 0 0.2343439110771009 -0.22721363165642941 0 0.22428122575910839 -0.24382135042016631 0 0.22189087603119961 -0.21945642874092849 0 0.22055911473142151 -0.23059685877190289 0 0.2343439110771009 -0.22721363165642941 0 0.2343439110771009 -0.22721363165642941 0 0.22428122575910839 -0.24382135042016631 0 0.23744775862660331 -0.2499783381945197 0 0.2343439110771009 -0.22721363165642941 0 0.22428122575910839 -0.24382135042016631 0 0.22428122575910839 -0.24382135042016631 0 0.20853645925439809 -0.2499426345604043 0 0.21036122355834189 -0.23774918284279581 0 0.20853645925439809 -0.2499426345604043 0 0.21036122355834189 -0.23774918284279581 0 0.19894780114414509 -0.24424568885774631 0 0.22055911473142151 -0.23059685877190289 0 0.22428122575910839 -0.24382135042016631 0 0.21036122355834189 -0.23774918284279581 0 0.21036122355834189 -0.23774918284279581 0 0.2103333030889358 -0.22502250571983859 0 0.19978868506270589 -0.23115227545109221 0 0.22055911473142151 -0.23059685877190289 0 0.21036122355834189 -0.23774918284279581 0 0.2103333030889358 -0.22502250571983859 0 0.22189087603119961 -0.21945642874092849 0 0.22055911473142151 -0.23059685877190289 0 0.2103333030889358 -0.22502250571983859 0 0.19307254300483609 -0.2259710899482251 0 0.19978868506270589 -0.23115227545109221 0 0.1986544796614044 -0.2180279755232159 0 0.2103333030889358 -0.22502250571983859 0 0.19978868506270589 -0.23115227545109221 0 0.1986544796614044 -0.2180279755232159 0 0.18825302100827621 -0.22063667765570449 0 0.19307254300483609 -0.2259710899482251 0 0.1868608066229045 -0.22955091608719941 0 0.18825302100827621 -0.22063667765570449 0 0.19307254300483609 -0.2259710899482251 0 0.1986544796614044 -0.2180279755232159 0 0.19307254300483609 -0.2259710899482251 0 0.19978868506270589 -0.23115227545109221 0 0.19281136395418819 -0.23512435188015759 0 0.19307254300483609 -0.2259710899482251 0 0.19281136395418819 -0.23512435188015759 0 0.1868608066229045 -0.22955091608719941 0 0.19978868506270589 -0.23115227545109221 0 0.19281136395418819 -0.23512435188015759 0 0.19894780114414509 -0.24424568885774631 0 0.21036122355834189 -0.23774918284279581 0 0.19978868506270589 -0.23115227545109221 0 0.19894780114414509 -0.24424568885774631 0 0.19281136395418819 -0.23512435188015759 0 0.18760946069112969 -0.2429492766766933 0 0.1868608066229045 -0.22955091608719941 0 0.19281136395418819 -0.23512435188015759 0 0.18760946069112969 -0.2429492766766933 0 0.19894780114414509 -0.24424568885774631 0 0.1960021101174742 -0.256664134456286 0 0.18760946069112969 -0.2429492766766933 0 0.1960021101174742 -0.256664134456286 0 0.18760946069112969 -0.2429492766766933 0 0.19894780114414509 -0.24424568885774631 0 0.2005972037248808 -0.25405940417973438 0 0.20853645925439809 -0.2499426345604043 0 0.19894780114414509 -0.24424568885774631 0 0.20278444908542489 -0.1845108991315749 0 0.21573610901974849 -0.1934771937122704 0 0.19752255697774709 -0.20215586015685549 0 0.21573610901974849 -0.1934771937122704 0 0.21303228152943979 -0.21039843219874771 0 0.19752255697774709 -0.20215586015685549 0 0.22189087603119961 -0.21945642874092849 0 0.2103333030889358 -0.22502250571983859 0 0.21303228152943979 -0.21039843219874771 0 0.2103333030889358 -0.22502250571983859 0 0.21303228152943979 -0.21039843219874771 0 0.1986544796614044 -0.2180279755232159 0 0.1986544796614044 -0.2180279755232159 0 0.19090545886668639 -0.21133286753113911 0 0.19752255697774709 -0.20215586015685549 0 0.21303228152943979 -0.21039843219874771 0 0.1986544796614044 -0.2180279755232159 0 0.19752255697774709 -0.20215586015685549 0 0.18825302100827621 -0.22063667765570449 0 0.1986544796614044 -0.2180279755232159 0 0.19090545886668639 -0.21133286753113911 0 0.19090545886668639 -0.21133286753113911 0 0.19752255697774709 -0.20215586015685549 0 0.18720700022091169 -0.20410790289005629 0 0.20278444908542489 -0.1845108991315749 0 0.19138362874008949 -0.18354069679484139 0 0.19752255697774709 -0.20215586015685549 0 0.19752255697774709 -0.20215586015685549 0 0.1854194435388952 -0.19329751245859991 0 0.18720700022091169 -0.20410790289005629 0 0.19138362874008949 -0.18354069679484139 0 0.19752255697774709 -0.20215586015685549 0 0.1854194435388952 -0.19329751245859991 0 0.1854194435388952 -0.19329751245859991 0 0.17541973029353899 -0.19166918986259299 0 0.1813254483137228 -0.1838429891840829 0 0.1854194435388952 -0.19329751245859991 0 0.17541973029353899 -0.19166918986259299 0 0.1789882901644641 -0.20047052562813331 0 0.1789882901644641 -0.20047052562813331 0 0.17466054402329431 -0.2089023325861849 0 0.1681851477250168 -0.1986666133004687 0 0.17541973029353899 -0.19166918986259299 0 0.1789882901644641 -0.20047052562813331 0 0.1681851477250168 -0.1986666133004687 0 0.1854194435388952 -0.19329751245859991 0 0.1789882901644641 -0.20047052562813331 0 0.18720700022091169 -0.20410790289005629 0 0.1789882901644641 -0.20047052562813331 0 0.18720700022091169 -0.20410790289005629 0 0.18289023646509281 -0.21173592142986361 0 0.19090545886668639 -0.21133286753113911 0 0.18720700022091169 -0.20410790289005629 0 0.18289023646509281 -0.21173592142986361 0 0.17466054402329431 -0.2089023325861849 0 0.1640222344971112 -0.20440418367535909 0 0.17921681126478561 -0.22923441889710031 0 0.18289023646509281 -0.21173592142986361 0 0.17466054402329431 -0.2089023325861849 0 0.17921681126478561 -0.22923441889710031 0 0.18825302100827621 -0.22063667765570449 0 0.19090545886668639 -0.21133286753113911 0 0.18289023646509281 -0.21173592142986361 0 0.1789882901644641 -0.20047052562813331 0 0.18289023646509281 -0.21173592142986361 0 0.17466054402329431 -0.2089023325861849 0 0.1640222344971112 -0.20440418367535909 0 0.17921681126478561 -0.22923441889710031 0 0.17466054402329431 -0.2089023325861849 0 0.1640222344971112 -0.20440418367535909 0 0.1681851477250168 -0.1986666133004687 0 0.1640222344971112 -0.20440418367535909 0 0.1536364805520043 -0.18743229183821289 0 0.1640222344971112 -0.20440418367535909 0 0.16605863070481319 -0.19123841299592531 0 0.1536364805520043 -0.18743229183821289 0 0.17541973029353899 -0.19166918986259299 0 0.16605863070481319 -0.19123841299592531 0 0.1681851477250168 -0.1986666133004687 0 0.17541973029353899 -0.19166918986259299 0 0.16605863070481319 -0.19123841299592531 0 0.17242179882996039 -0.1842854931202261 0 0.1640222344971112 -0.20440418367535909 0 0.16605863070481319 -0.19123841299592531 0 0.1681851477250168 -0.1986666133004687 0 0.1640222344971112 -0.20440418367535909 0 0.1681851477250168 -0.1986666133004687 0 0.17701116387899951 -0.25279338993454598 0 0.18760946069112969 -0.2429492766766933 0 0.1704486841318304 -0.24141749868105519 0 0.18760946069112969 -0.2429492766766933 0 0.17921681126478561 -0.22923441889710031 0 0.1704486841318304 -0.24141749868105519 0 0.18760946069112969 -0.2429492766766933 0 0.17921681126478561 -0.22923441889710031 0 0.18825302100827621 -0.22063667765570449 0 0.18289023646509281 -0.21173592142986361 0 0.17921681126478561 -0.22923441889710031 0 0.18760946069112969 -0.2429492766766933 0 0.17921681126478561 -0.22923441889710031 0 0.1868608066229045 -0.22955091608719941 0 0.17921681126478561 -0.22923441889710031 0 0.1868608066229045 -0.22955091608719941 0 0.18825302100827621 -0.22063667765570449 0 0.17921681126478561 -0.22923441889710031 0 0.1868608066229045 -0.22955091608719941 0 0.17921681126478561 -0.22923441889710031 0 0.16309598376994419 -0.22856694117567919 0 0.1704486841318304 -0.24141749868105519 0 0.1640222344971112 -0.20440418367535909 0 0.16309598376994419 -0.22856694117567919 0 0.1469751562751028 -0.22789946345425921 0 0.17921681126478561 -0.22923441889710031 0 0.16309598376994419 -0.22856694117567919 0 0.1640222344971112 -0.20440418367535909 0 0.17921681126478561 -0.22923441889710031 0 0.16309598376994419 -0.22856694117567919 0 0.16309598376994419 -0.22856694117567919 0 0.1704486841318304 -0.24141749868105519 0 0.15377989969656641 -0.24057332335203899 0 0.15832738130462731 -0.2537591705193008 0 0.17701116387899951 -0.25279338993454598 0 0.1704486841318304 -0.24141749868105519 0 0.15832738130462731 -0.2537591705193008 0 0.1704486841318304 -0.24141749868105519 0 0.15377989969656641 -0.24057332335203899 0 0.13005229300132709 -0.25122354292990129 0 0.15832738130462731 -0.2537591705193008 0 0.15377989969656641 -0.24057332335203899 0 0.13005229300132709 -0.25122354292990129 0 0.15377989969656641 -0.24057332335203899 0 0.1469751562751028 -0.22789946345425921 0 0.16309598376994419 -0.22856694117567919 0 0.15377989969656641 -0.24057332335203899 0 0.1469751562751028 -0.22789946345425921 0 0.16309598376994419 -0.22856694117567919 0 0.1469751562751028 -0.22789946345425921 0 0.12311730452817291 -0.22691163671105011 0 0.1469751562751028 -0.22789946345425921 0 0.12311730452817291 -0.22691163671105011 0 0.1469751562751028 -0.22789946345425921 0 0.1365981685834384 -0.2140458083344346 0 0.12311730452817291 -0.22691163671105011 0 0.1365981685834384 -0.2140458083344346 0 0.12509200087224359 -0.21676833170735779 0 0.13005229300132709 -0.25122354292990129 0 0.12311730452817291 -0.22691163671105011 0 0.1469751562751028 -0.22789946345425921 0 0.13005229300132709 -0.25122354292990129 0 0.1469751562751028 -0.22789946345425921 0 0.1640222344971112 -0.20440418367535909 0 0.1472807941413953 -0.20358929573499171 0 0.1536364805520043 -0.18743229183821289 0 0.1472807941413953 -0.20358929573499171 0 0.13187092091143501 -0.1890841743188228 0 0.1536364805520043 -0.18743229183821289 0 0.1640222344971112 -0.20440418367535909 0 0.1469751562751028 -0.22789946345425921 0 0.1472807941413953 -0.20358929573499171 0 0.1640222344971112 -0.20440418367535909 0 0.1469751562751028 -0.22789946345425921 0 0.1469751562751028 -0.22789946345425921 0 0.1472807941413953 -0.20358929573499171 0 0.1365981685834384 -0.2140458083344346 0 0.1204911152159769 -0.20770794863657771 0 0.1365981685834384 -0.2140458083344346 0 0.12509200087224359 -0.21676833170735779 0 0.1204911152159769 -0.20770794863657771 0 0.1365981685834384 -0.2140458083344346 0 0.13187092091143501 -0.1890841743188228 0 0.1204911152159769 -0.20770794863657771 0 0.13187092091143501 -0.1890841743188228 0 0.1472807941413953 -0.20358929573499171 0 0.1365981685834384 -0.2140458083344346 0 0.13187092091143501 -0.1890841743188228 0 0.13187092091143501 -0.1890841743188228 0 0.1432507266068942 -0.17046040000106849 0 0.12847455560672219 -0.168849375265443 0 0.13187092091143501 -0.1890841743188228 0 0.1432507266068942 -0.17046040000106849 0 0.1536364805520043 -0.18743229183821289 0 0.1432507266068942 -0.17046040000106849 0 0.1536364805520043 -0.18743229183821289 0 0.1432507266068942 -0.17046040000106849 0 0.15641421433953481 -0.17131016571212621 0 0.13187092091143501 -0.1890841743188228 0 0.1536364805520043 -0.18743229183821289 0 0.1432507266068942 -0.17046040000106849 0 0.14773990182690641 -0.16311357981733199 0 0.15231303623804121 -0.1558215207820792 0 0.16015608302771889 -0.1589898427707179 0 0.1432507266068942 -0.17046040000106849 0 0.14773990182690641 -0.16311357981733199 0 0.15641421433953481 -0.17131016571212621 0 0.14773990182690641 -0.16311357981733199 0 0.15641421433953481 -0.17131016571212621 0 0.16015608302771889 -0.1589898427707179 0 0.1432507266068942 -0.17046040000106849 0 0.14773990182690641 -0.16311357981733199 0 0.14773990182690641 -0.16311357981733199 0 0.14470727158484251 -0.15323646208157979 0 0.15231303623804121 -0.1558215207820792 0 0.14773990182690641 -0.16311357981733199 0 0.13412479340576849 -0.1555472456916952 0 0.14470727158484251 -0.15323646208157979 0 0.1432507266068942 -0.17046040000106849 0 0.14773990182690641 -0.16311357981733199 0 0.13412479340576849 -0.1555472456916952 0 0.1143050861408222 -0.15568642978264419 0 0.12847455560672219 -0.168849375265443 0 0.13412479340576849 -0.1555472456916952 0 0.1432507266068942 -0.17046040000106849 0 0.13412479340576849 -0.1555472456916952 0 0.1432507266068942 -0.17046040000106849 0 0.12847455560672219 -0.168849375265443 0 0.13412479340576849 -0.1555472456916952 0 0.1402697440021681 -0.1439057252455096 0 0.13412479340576849 -0.1555472456916952 0 0.12617980878852969 -0.1365240843804808 0 0.1402697440021681 -0.1439057252455096 0 0.13412479340576849 -0.1555472456916952 0 0.14470727158484251 -0.15323646208157979 0 0.13685650676483671 -0.1211713932319218 0 0.12617980878852969 -0.1365240843804808 0 0.1450794293830267 -0.13223316902504631 0 0.1402697440021681 -0.1439057252455096 0 0.12617980878852969 -0.1365240843804808 0 0.1450794293830267 -0.13223316902504631 0 0.1450794293830267 -0.13223316902504631 0 0.15545790508828269 -0.14645400348075599 0 0.16023150781391221 -0.12971906167510419 0 0.14932492811111869 -0.1145430552038417 0 0.1450794293830267 -0.13223316902504631 0 0.16023150781391221 -0.12971906167510419 0 0.1402697440021681 -0.1439057252455096 0 0.14470727158484251 -0.15323646208157979 0 0.15545790508828269 -0.14645400348075599 0 0.1402697440021681 -0.1439057252455096 0 0.1450794293830267 -0.13223316902504631 0 0.15545790508828269 -0.14645400348075599 0 0.14470727158484251 -0.15323646208157979 0 0.15545790508828269 -0.14645400348075599 0 0.15231303623804121 -0.1558215207820792 0 0.15545790508828269 -0.14645400348075599 0 0.15231303623804121 -0.1558215207820792 0 0.16015608302771889 -0.1589898427707179 0 0.15545790508828269 -0.14645400348075599 0 0.16897554154687849 -0.15360171330780109 0 0.16015608302771889 -0.1589898427707179 0 0.15545790508828269 -0.14645400348075599 0 0.17013544966084479 -0.1424373957300247 0 0.16897554154687849 -0.15360171330780109 0 0.15545790508828269 -0.14645400348075599 0 0.17013544966084479 -0.1424373957300247 0 0.16023150781391221 -0.12971906167510419 0 0.17013544966084479 -0.1424373957300247 0 0.16023150781391221 -0.12971906167510419 0 0.17493136137656509 -0.12817596485682239 0 0.19064044170861419 -0.12867748534588841 0 0.17493136137656509 -0.12817596485682239 0 0.18307819234208411 -0.13969202619167281 0 0.17013544966084479 -0.1424373957300247 0 0.17493136137656509 -0.12817596485682239 0 0.18307819234208411 -0.13969202619167281 0 0.17013544966084479 -0.1424373957300247 0 0.16897554154687849 -0.15360171330780109 0 0.17966969438680139 -0.15457450143019699 0 0.17013544966084479 -0.1424373957300247 0 0.18307819234208411 -0.13969202619167281 0 0.17966969438680139 -0.15457450143019699 0 0.1884212322022378 -0.149077921645975 0 0.18307819234208411 -0.13969202619167281 0 0.17966969438680139 -0.15457450143019699 0 0.1884212322022378 -0.149077921645975 0 0.19407678538748649 -0.15934560460131439 0 0.17966969438680139 -0.15457450143019699 0 0.19407678538748649 -0.15934560460131439 0 0.17966969438680139 -0.15457450143019699 0 0.18189982897357451 -0.16507207570290039 0 0.16897554154687849 -0.15360171330780109 0 0.17966969438680139 -0.15457450143019699 0 0.17103570169243931 -0.16689217366673409 0 0.17966969438680139 -0.15457450143019699 0 0.18189982897357451 -0.16507207570290039 0 0.17103570169243931 -0.16689217366673409 0 0.18189982897357451 -0.16507207570290039 0 0.17659044616463901 -0.17560332481063101 0 0.17103570169243931 -0.16689217366673409 0 0.18189982897357451 -0.16507207570290039 0 0.18671764231521409 -0.17466171805760611 0 0.17659044616463901 -0.17560332481063101 0 0.18671764231521409 -0.17466171805760611 0 0.1813254483137228 -0.1838429891840829 0 0.17659044616463901 -0.17560332481063101 0 0.19138362874008949 -0.18354069679484139 0 0.1854194435388952 -0.19329751245859991 0 0.1813254483137228 -0.1838429891840829 0 0.19138362874008949 -0.18354069679484139 0 0.18671764231521409 -0.17466171805760611 0 0.1813254483137228 -0.1838429891840829 0 0.17541973029353899 -0.19166918986259299 0 0.1813254483137228 -0.1838429891840829 0 0.17242179882996039 -0.1842854931202261 0 0.1813254483137228 -0.1838429891840829 0 0.17242179882996039 -0.1842854931202261 0 0.17659044616463901 -0.17560332481063101 0 0.1536364805520043 -0.18743229183821289 0 0.16611243653447791 -0.17936700617907661 0 0.15641421433953481 -0.17131016571212621 0 0.16611243653447791 -0.17936700617907661 0 0.15641421433953481 -0.17131016571212621 0 0.17103570169243931 -0.16689217366673409 0 0.17659044616463901 -0.17560332481063101 0 0.16611243653447791 -0.17936700617907661 0 0.17103570169243931 -0.16689217366673409 0 0.17242179882996039 -0.1842854931202261 0 0.17659044616463901 -0.17560332481063101 0 0.16611243653447791 -0.17936700617907661 0 0.16605863070481319 -0.19123841299592531 0 0.17242179882996039 -0.1842854931202261 0 0.16611243653447791 -0.17936700617907661 0 0.16605863070481319 -0.19123841299592531 0 0.1536364805520043 -0.18743229183821289 0 0.16611243653447791 -0.17936700617907661 0 0.15641421433953481 -0.17131016571212621 0 0.16015608302771889 -0.1589898427707179 0 0.17103570169243931 -0.16689217366673409 0 0.16897554154687849 -0.15360171330780109 0 0.16015608302771889 -0.1589898427707179 0 0.17103570169243931 -0.16689217366673409 0 
</DataArray>
</Points>
<Cells>
<DataArray type="UInt32" Name="connectivity" format="ascii">
0 1 2 3 4 5 6 7 8 9 10 11 12 13 14 15 16 17 18 19 20 21 22 23 24 25 26 27 28 29 30 31 32 33 34 35 36 37 38 39 40 41 42 43 44 45 46 47 48 49 50 51 52 53 54 55 56 57 58 59 60 61 62 63 64 65 66 67 68 69 70 71 72 73 74 75 76 77 78 79 80 81 82 83 84 85 86 87 88 89 90 91 92 93 94 95 96 97 98 99 100 101 102 103 104 105 106 107 108 109 110 111 112 113 114 115 116 117 118 119 120 121 122 123 124 125 126 127 128 129 130 131 132 133 134 135 136 137 138 139 140 141 142 143 144 145 146 147 148 149 150 151 152 153 154 155 156 157 158 159 160 161 162 163 164 165 166 167 168 169 170 171 172 173 174 175 176 177 178 179 180 181 182 183 184 185 186 187 188 189 190 191 192 193 194 195 196 197 198 199 200 201 202 203 204 205 206 207 208 209 210 211 212 213 214 215 216 217 218 219 220 221 222 223 224 225 226 227 228 229 230 231 232 233 234 235 236 237 238 239 240 241 242 243 244 245 246 247 248 249 250 251 252 253 254 255 256 257 258 259 260 261 262 263 264 265 266 267 268 269 270 271 272 273 274 275 276 277 278 279 280 281 282 283 284 285 286 287 288 289 290 291 292 293 294 295 296 297 298 299 300 301 302 303 304 305 306 307 308 309 310 311 312 313 314 315 316 317 318 319 320 321 322 323 324 325 326 327 328 329 330 331 332 333 334 335 336 337 338 339 340 341 342 343 344 345 346 347 348 349 350 351 352 353 354 355 356 357 358 359 360 361 362 363 364 365 366 367 368 369 370 371 372 373 374 375 376 377 378 379 380 381 382 383 384 385 386 387 388 389 390 391 392 393 394 395 396 397 398 399 400 401 402 403 404 405 406 407 408 409 410 411 412 413 414 415 416 417 418 419 420 421 422 423 424 425 426 427 428 429 430 431 432 433 434 435 436 437 438 439 440 441 442 443 444 445 446 447 448 449 450 451 452 453 454 455 456 457 458 459 460 461 462 463 464 465 466 467 468 469 470 471 472 473 474 475 476 477 478 479 480 481 482 483 484 485 486 487 488 489 490 491 492 493 494 495 496 497 498 499 500 501 502 503 504 505 506 507 508 509 510 511 512 513 514 515 516 517 518 519 520 521 522 523 524 525 526 527 528 529 530 531 532 533 534 535 536 537 538 539 540 541 542 543 544 545 546 547 548 549 550 551 552 553 554 555 556 557 558 559 560 561 562 563 564 565 566 567 568 569 570 571 572 573 574 575 576 577 578 579 580 581 582 583 584 585 586 587 588 589 590 591 592 593 594 595 596 597 598 599 600 601 602 603 604 605 606 607 608 609 610 611 612 613 614 615 616 617 618 619 620 621 622 623 624 625 626 627 628 629 630 631 632 633 634 635 636 637 638 639 640 641 642 643 644 645 646 647 648 649 650 651 652 653 654 655 656 657 658 659 660 661 662 663 664 665 666 667 668 669 670 671 672 673 674 675 676 677 678 679 680 681 682 683 684 685 686 687 688 689 690 691 692 693 694 695 696 697 698 699 700 701 702 703 704 705 706 707 708 709 710 711 712 713 714 715 716 717 718 719 720 721 722 723 724 725 726 727 728 729 730 731 732 733 734 735 736 737 738 739 740 741 742 743 744 745 746 747 748 749 750 751 752 753 754 755 756 757 758 759 760 761 762 763 764 765 766 767 768 769 770 771 772 773 774 775 776 777 778 779 780 781 782 783 784 785 786 787 788 789 790 791 792 793 794 795 796 797 798 799 800 801 802 803 804 805 806 807 808 809 810 811 812 813 814 815 816 817 818 819 820 821 822 823 824 825 826 827 828 829 830 831 832 833 834 835 836 837 838 839 840 841 842 843 844 845 846 847 848 849 850 851 852 853 854 855 856 857 858 859 860 861 862 863 864 865 866 867 868 869 870 871 872 873 874 875 876 877 878 879 880 881 882 883 884 885 886 887 888 889 890 891 892 893 894 895 896 897 898 899 900 901 902 903 904 905 906 907 908 909 910 911 912 913 914 915 916 917 918 919 920 921 922 923 924 925 926 927 928 929 930 931 932 933 934 935 936 937 938 939 940 941 942 943 944 945 946 947 948 949 950 951 952 953 954 955 956 957 958 959 960 961 962 963 964 965 966 967 968 969 970 971 972 973 974 975 976 977 978 979 980 981 982 983 984 985 986 987 988 989 990 991 992 993 994 995 996 997 998 999 1000 1001 1002 1003 1004 1005 1006 1007 1008 1009 1010 1011 1012 1013 1014 1015 1016 1017 1018 1019 1020 1021 1022 1023 1024 1025 1026 1027 1028 1029 1030 1031 1032 1033 1034 1035 1036 1037 1038 1039 1040 1041 1042 1043 1044 1045 1046 1047 1048 1049 1050 1051 1052 1053 1054 1055 1056 1057 1058 1059 1060 1061 1062 1063 1064 1065 1066 1067 1068 1069 1070 1071 1072 1073 1074 1075 1076 1077 1078 1079 1080 1081 1082 1083 1084 1085 1086 1087 1088 1089 1090 1091 1092 1093 1094 1095 1096 1097 1098 1099 1100 1101 1102 1103 1104 1105 1106 1107 1108 1109 1110 1111 1112 1113 1114 1115 1116 1117 1118 1119 1120 1121 1122 1123 1124 1125 1126 1127 1128 1129 1130 1131 1132 1133 1134 1135 1136 1137 1138 1139 1140 1141 1142 1143 1144 1145 1146 1147 1148 1149 1150 1151 1152 1153 1154 1155 1156 1157 1158 1159 1160 1161 1162 1163 1164 1165 1166 1167 1168 1169 1170 1171 1172 1173 1174 1175 1176 1177 1178 1179 1180 1181 1182 1183 1184 1185 1186 1187 1188 1189 1190 1191 1192 1193 1194 1195 1196 1197 1198 1199 1200 1201 1202 1203 1204 1205 1206 1207 1208 1209 1210 1211 1212 1213 1214 1215 1216 1217 1218 1219 1220 1221 1222 1223 1224 1225 1226 1227 1228 1229 1230 1231 1232 1233 1234 1235 1236 1237 1238 1239 1240 1241 1242 1243 1244 1245 1246 1247 1248 1249 1250 1251 1252 1253 1254 1255 1256 1257 1258 1259 1260 1261 1262 1263 1264 1265 1266 1267 1268 1269 1270 1271 1272 1273 1274 1275 1276 1277 1278 1279 1280 1281 1282 1283 1284 1285 1286 1287 1288 1289 1290 1291 1292 1293 1294 1295 1296 1297 1298 1299 1300 1301 1302 1303 1304 1305 1306 1307 1308 1309 1310 1311 1312 1313 1314 1315 1316 1317 1318 1319 1320 1321 1322 1323 1324 1325 1326 1327 1328 1329 1330 1331 1332 1333 1334 1335 1336 1337 1338 1339 1340 1341 1342 1343 1344 1345 1346 1347 1348 1349 1350 1351 1352 1353 1354 1355 1356 1357 1358 1359 1360 1361 1362 1363 1364 1365 1366 1367 1368 1369 1370 1371 1372 1373 1374 1375 1376 1377 1378 1379 1380 1381 1382 1383 1384 1385 1386 1387 1388 1389 1390 1391 1392 1393 1394 1395 1396 1397 1398 1399 1400 1401 1402 1403 1404 1405 1406 1407 1408 1409 1410 1411 1412 1413 1414 1415 1416 1417 1418 1419 1420 1421 1422 1423 1424 1425 1426 1427 1428 1429 1430 1431 1432 1433 1434 1435 1436 1437 1438 1439 1440 1441 1442 1443 1444 1445 1446 1447 1448 1449 1450 1451 1452 1453 1454 1455 1456 1457 1458 1459 1460 1461 1462 1463 1464 1465 1466 1467 1468 1469 1470 1471 1472 1473 1474 1475 1476 1477 1478 1479 1480 1481 1482 1483 1484 1485 1486 1487 1488 1489 1490 1491 1492 1493 1494 1495 1496 1497 1498 1499 1500 1501 1502 1503 1504 1505 1506 1507 1508 1509 1510 1511 1512 1513 1514 1515 1516 1517 1518 1519 1520 1521 1522 1523 1524 1525 1526 1527 1528 1529 1530 1531 1532 1533 1534 1535 1536 1537 1538 1539 1540 1541 1542 1543 1544 1545 1546 1547 1548 1549 1550 1551 1552 1553 1554 1555 1556 1557 1558 1559 1560 1561 1562 1563 1564 1565 1566 1567 1568 1569 1570 1571 1572 1573 1574 1575 1576 1577 1578 1579 1580 1581 1582 1583 1584 1585 1586 1587 1588 1589 1590 1591 1592 1593 1594 1595 1596 1597 1598 1599 1600 1601 1602 1603 1604 1605 1606 1607 1608 1609 1610 1611 1612 1613 1614 1615 1616 1617 1618 1619 1620 1621 1622 1623 1624 1625 1626 1627 1628 1629 1630 1631 1632 1633 1634 1635 1636 1637 1638 1639 1640 1641 1642 1643 1644 1645 1646 1647 1648 1649 1650 1651 1652 1653 1654 1655 1656 1657 1658 1659 1660 1661 1662 1663 1664 1665 1666 1667 1668 1669 1670 1671 1672 1673 1674 1675 1676 1677 1678 1679 1680 1681 1682 1683 1684 1685 1686 1687 1688 1689 1690 1691 1692 1693 1694 1695 1696 1697 1698 1699 1700 1701 1702 1703 1704 1705 1706 1707 1708 1709 1710 1711 1712 1713 1714 1715 1716 1717 1718 1719 1720 1721 1722 1723 1724 1725 1726 1727 1728 1729 1730 1731 1732 1733 1734 1735 1736 1737 1738 1739 1740 1741 1742 1743 1744 1745 1746 1747 1748 1749 1750 1751 1752 1753 1754 1755 1756 1757 1758 1759 1760 1761 1762 1763 1764 1765 1766 1767 1768 1769 1770 1771 1772 1773 1774 1775 1776 1777 1778 1779 1780 1781 1782 1783 1784 1785 1786 1787 1788 1789 1790 1791 1792 1793 1794 1795 1796 1797 1798 1799 1800 1801 1802 1803 1804 1805 1806 1807 1808 1809 1810 1811 1812 1813 1814 1815 1816 1817 1818 1819 1820 1821 1822 1823 1824 1825 1826 1827 1828 1829 1830 1831 1832 1833 1834 1835 1836 1837 1838 1839 1840 1841 1842 1843 1844 1845 1846 1847 1848 1849 1850 1851 1852 1853 1854 1855 1856 1857 1858 1859 1860 1861 1862 1863 1864 1865 1866 1867 1868 1869 1870 1871 1872 1873 1874 1875 1876 1877 1878 1879 1880 1881 1882 1883 1884 1885 1886 1887 1888 1889 1890 1891 1892 1893 1894 1895 1896 1897 1898 1899 1900 1901 1902 1903 1904 1905 1906 1907 1908 1909 1910 1911 1912 1913 1914 1915 1916 1917 1918 1919 1920 1921 1922 1923 1924 1925 1926 1927 1928 1929 1930 1931 1932 1933 1934 1935 1936 1937 1938 1939 1940 1941 1942 1943 1944 1945 1946 1947 1948 1949 1950 1951 1952 1953 1954 1955 1956 1957 1958 1959 1960 1961 1962 1963 1964 1965 1966 1967 1968 1969 1970 1971 1972 1973 1974 1975 1976 1977 1978 1979 1980 1981 1982 1983 1984 1985 1986 1987 1988 1989 1990 1991 1992 1993 1994 1995 1996 1997 1998 1999 2000 2001 2002 2003 2004 2005 2006 2007 2008 2009 2010 2011 2012 2013 2014 2015 2016 2017 2018 2019 2020 2021 2022 2023 2024 2025 2026 2027 2028 2029 2030 2031 2032 2033 2034 2035 2036 2037 2038 2039 2040 2041 2042 2043 2044 2045 2046 2047 2048 2049 2050 2051 2052 2053 2054 2055 2056 2057 2058 2059 2060 2061 2062 2063 2064 2065 2066 2067 2068 2069 2070 2071 2072 2073 2074 2075 2076 2077 2078 2079 2080 2081 2082 2083 2084 2085 2086 2087 2088 2089 2090 2091 2092 2093 2094 2095 2096 2097 2098 2099 2100 2101 2102 2103 2104 2105 2106 2107 2108 2109 2110 2111 2112 2113 2114 2115 2116 2117 2118 2119 2120 2121 2122 2123 2124 2125 2126 2127 2128 2129 2130 2131 2132 2133 2134 2135 2136 2137 2138 2139 2140 2141 2142 2143 2144 2145 2146 2147 2148 2149 2150 2151 2152 2153 2154 2155 2156 2157 2158 2159 2160 2161 2162 2163 2164 2165 2166 2167 2168 2169 2170 2171 2172 2173 2174 2175 2176 2177 2178 2179 2180 2181 2182 2183 2184 2185 2186 2187 2188 2189 2190 2191 2192 2193 2194 2195 2196 2197 2198 2199 2200 2201 2202 2203 2204 2205 2206 2207 2208 2209 2210 2211 2212 2213 2214 2215 2216 2217 2218 2219 2220 2221 2222 2223 2224 2225 2226 2227 2228 2229 2230 2231 2232 2233 2234 2235 2236 2237 2238 2239 2240 2241 2242 2243 2244 2245 2246 2247 2248 2249 2250 2251 2252 2253 2254 2255 2256 2257 2258 2259 2260 2261 2262 2263 2264 2265 2266 2267 2268 2269 2270 2271 2272 2273 2274 2275 2276 2277 2278 2279 2280 2281 2282 2283 2284 2285 2286 2287 2288 2289 2290 2291 2292 2293 2294 2295 2296 2297 2298 2299 2300 2301 2302 2303 2304 2305 2306 2307 2308 2309 2310 2311 2312 2313 2314 2315 2316 2317 2318 2319 2320 2321 2322 2323 2324 2325 2326 2327 2328 2329 2330 2331 2332 2333 2334 2335 2336 2337 2338 2339 2340 2341 2342 2343 2344 2345 2346 2347 2348 2349 2350 2351 2352 2353 2354 2355 2356 2357 2358 2359 2360 2361 2362 2363 2364 2365 2366 2367 2368 2369 2370 2371 2372 2373 2374 2375 2376 2377 2378 2379 2380 2381 2382 2383 2384 2385 2386 2387 2388 2389 2390 2391 2392 2393 2394 2395 2396 2397 2398 2399 2400 2401 2402 2403 2404 2405 2406 2407 2408 2409 2410 2411 2412 2413 2414 2415 2416 2417 2418 2419 2420 2421 2422 2423 2424 2425 2426 2427 2428 2429 2430 2431 2432 2433 2434 2435 2436 2437 2438 2439 2440 2441 2442 2443 2444 2445 2446 2447 2448 2449 2450 2451 2452 2453 2454 2455 2456 2457 2458 2459 2460 2461 2462 2463 2464 2465 2466 2467 2468 2469 2470 2471 2472 2473 2474 2475 2476 2477 2478 2479 2480 2481 2482 2483 2484 2485 2486 2487 2488 2489 2490 2491 2492 2493 2494 2495 2496 2497 2498 2499 2500 2501 2502 2503 2504 2505 2506 2507 2508 2509 2510 2511 2512 2513 2514 2515 2516 2517 2518 2519 2520 2521 2522 2523 2524 2525 2526 2527 2528 2529 2530 2531 2532 2533 2534 2535 2536 2537 2538 2539 2540 2541 2542 2543 2544 2545 2546 2547 2548 2549 2550 2551 2552 2553 2554 2555 2556 2557 2558 2559 2560 2561 2562 2563 2564 2565 2566 2567 2568 2569 2570 2571 2572 2573 2574 2575 2576 2577 2578 2579 2580 2581 2582 2583 2584 2585 2586 2587 2588 2589 2590 2591 2592 2593 2594 2595 2596 2597 2598 2599 2600 2601 2602 2603 2604 2605 2606 2607 2608 2609 2610 2611 2612 2613 2614 2615 2616 2617 2618 2619 2620 2621 2622 2623 2624 2625 2626 2627 2628 2629 2630 2631 2632 2633 2634 2635 2636 2637 2638 2639 2640 2641 2642 2643 2644 2645 2646 2647 2648 2649 2650 2651 2652 2653 2654 2655 2656 2657 2658 2659 2660 2661 2662 2663 2664 2665 2666 2667 2668 2669 2670 2671 2672 2673 2674 2675 2676 2677 2678 2679 2680 2681 2682 2683 2684 2685 2686 2687 2688 2689 2690 2691 2692 2693 2694 2695 2696 2697 2698 2699 2700 2701 2702 2703 2704 2705 2706 2707 2708 2709 2710 2711 2712 2713 2714 2715 2716 2717 2718 2719 2720 2721 2722 2723 2724 2725 2726 2727 2728 2729 2730 2731 2732 2733 2734 2735 2736 2737 2738 2739 2740 2741 2742 2743 2744 2745 2746 2747 2748 2749 2750 2751 2752 2753 2754 2755 2756 2757 2758 2759 2760 2761 2762 2763 2764 2765 2766 2767 2768 2769 2770 2771 2772 2773 2774 2775 2776 2777 2778 2779 2780 2781 2782 2783 2784 2785 2786 2787 2788 2789 2790 2791 2792 2793 2794 2795 2796 2797 2798 2799 2800 2801 2802 2803 2804 2805 2806 2807 2808 2809 2810 2811 2812 2813 2814 2815 2816 2817 2818 2819 2820 2821 2822 2823 2824 2825 2826 2827 2828 2829 2830 2831 2832 2833 2834 2835 2836 2837 2838 2839 2840 2841 2842 2843 2844 2845 2846 2847 2848 2849 2850 2851 2852 2853 2854 2855 2856 2857 2858 2859 2860 2861 2862 2863 2864 2865 2866 2867 2868 2869 2870 2871 2872 2873 2874 2875 2876 2877 2878 2879 2880 2881 2882 2883 2884 2885 2886 2887 2888 2889 2890 2891 2892 2893 2894 2895 2896 2897 2898 2899 2900 2901 2902 2903 2904 2905 2906 2907 2908 2909 2910 2911 2912 2913 2914 2915 2916 2917 2918 2919 2920 2921 2922 2923 2924 2925 2926 2927 2928 2929 2930 2931 2932 2933 2934 2935 2936 2937 2938 2939 2940 2941 2942 2943 2944 2945 2946 2947 2948 2949 2950 2951 2952 2953 2954 2955 2956 2957 2958 2959 2960 2961 2962 2963 2964 2965 2966 2967 2968 2969 2970 2971 2972 2973 2974 2975 2976 2977 2978 2979 2980 2981 2982 2983 2984 2985 2986 2987 2988 2989 2990 2991 2992 2993 2994 2995 2996 2997 2998 2999 3000 3001 3002 3003 3004 3005 3006 3007 3008 3009 3010 3011 3012 3013 3014 3015 3016 3017 3018 3019 3020 3021 3022 3023 3024 3025 3026 3027 3028 3029 3030 3031 3032 3033 3034 3035 3036 3037 3038 3039 3040 3041 3042 3043 3044 3045 3046 3047 3048 3049 3050 3051 3052 3053 3054 3055 3056 3057 3058 3059 3060 3061 3062 3063 3064 3065 3066 3067 3068 3069 3070 3071 3072 3073 3074 3075 3076 3077 3078 3079 3080 3081 3082 3083 3084 3085 3086 3087 3088 3089 3090 3091 3092 3093 3094 3095 3096 3097 3098 3099 3100 3101 3102 3103 3104 3105 3106 3107 3108 3109 3110 3111 3112 3113 3114 3115 3116 3117 3118 3119 3120 3121 3122 3123 3124 3125 3126 3127 3128 3129 3130 3131 3132 3133 3134 3135 3136 3137 3138 3139 3140 3141 3142 3143 3144 3145 3146 3147 3148 3149 3150 3151 3152 3153 3154 3155 3156 3157 3158 3159 3160 3161 3162 3163 3164 3165 3166 3167 3168 3169 3170 3171 3172 3173 3174 3175 3176 3177 3178 3179 3180 3181 3182 3183 3184 3185 3186 3187 3188 3189 3190 3191 3192 3193 3194 3195 3196 3197 3198 3199 3200 3201 3202 3203 3204 3205 3206 3207 3208 3209 3210 3211 3212 3213 3214 3215 3216 3217 3218 3219 3220 3221 3222 3223 3224 3225 3226 3227 3228 3229 3230 3231 3232 3233 3234 3235 3236 3237 3238 3239 3240 3241 3242 3243 3244 3245 3246 3247 3248 3249 3250 3251 3252 3253 3254 3255 3256 3257 3258 3259 3260 3261 3262 3263 3264 3265 3266 3267 3268 3269 3270 3271 3272 3273 3274 3275 3276 3277 3278 3279 3280 3281 3282 3283 3284 3285 3286 3287 3288 3289 3290 3291 3292 3293 3294 3295 3296 3297 3298 3299 3300 3301 3302 3303 3304 3305 3306 3307 3308 3309 3310 3311 3312 3313 3314 3315 3316 3317 3318 3319 3320 3321 3322 3323 3324 3325 3326 3327 3328 3329 3330 3331 3332 3333 3334 3335 3336 3337 3338 3339 3340 3341 3342 3343 3344 3345 3346 3347 3348 3349 3350 3351 3352 3353 3354 3355 3356 3357 3358 3359 3360 3361 3362 3363 3364 3365 3366 3367 3368 3369 3370 3371 3372 3373 3374 3375 3376 3377 3378 3379 3380 3381 3382 3383 3384 3385 3386 3387 3388 3389 3390 3391 3392 3393 3394 3395 3396 3397 3398 3399 3400 3401 3402 3403 3404 3405 3406 3407 3408 3409 3410 3411 3412 3413 3414 3415 3416 3417 3418 3419 3420 3421 3422 3423 3424 3425 3426 3427 3428 3429 3430 3431 3432 3433 3434 3435 3436 3437 3438 3439 3440 3441 3442 3443 3444 3445 3446 3447 3448 3449 3450 3451 3452 3453 3454 3455 3456 3457 3458 3459 3460 3461 3462 3463 3464 3465 3466 3467 3468 3469 3470 3471 3472 3473 3474 3475 3476 3477 3478 3479 3480 3481 3482 3483 3484 3485 3486 3487 3488 3489 3490 3491 3492 3493 3494 3495 3496 3497 3498 3499 3500 3501 3502 3503 3504 3505 3506 3507 3508 3509 3510 3511 3512 3513 3514 3515 3516 3517 3518 3519 3520 3521 3522 3523 3524 3525 3526 3527 3528 3529 3530 3531 3532 3533 3534 3535 3536 3537 3538 3539 3540 3541 3542 3543 3544 3545 3546 3547 3548 3549 3550 3551 3552 3553 3554 3555 3556 3557 3558 3559 3560 3561 3562 3563 3564 3565 3566 3567 3568 3569 3570 3571 3572 3573 3574 3575 3576 3577 3578 3579 3580 3581 3582 3583 3584 3585 3586 3587 3588 3589 3590 3591 3592 3593 3594 3595 3596 3597 3598 3599 3600 3601 3602 3603 3604 3605 3606 3607 3608 3609 3610 3611 3612 3613 3614 3615 3616 3617 3618 3619 3620 3621 3622 3623 3624 3625 3626 3627 3628 3629 3630 3631 3632 3633 3634 3635 3636 3637 3638 3639 3640 3641 3642 3643 3644 3645 3646 3647 3648 3649 3650 3651 3652 3653 3654 3655 3656 3657 3658 3659 3660 3661 3662 3663 3664 3665 3666 3667 3668 3669 3670 3671 3672 3673 3674 3675 3676 3677 3678 3679 3680 3681 3682 3683 3684 3685 3686 3687 3688 3689 3690 3691 3692 3693 3694 3695 3696 3697 3698 3699 3700 3701 3702 3703 3704 3705 3706 3707 3708 3709 3710 3711 3712 3713 3714 3715 3716 3717 3718 3719 3720 3721 3722 3723 3724 3725 3726 3727 3728 3729 3730 3731 3732 3733 3734 3735 3736 3737 3738 3739 3740 3741 3742 3743 3744 3745 3746 3747 3748 3749 3750 3751 3752 3753 3754 3755 3756 3757 3758 3759 3760 3761 3762 3763 3764 3765 3766 3767 3768 3769 3770 3771 3772 3773 3774 3775 3776 3777 3778 3779 3780 3781 3782 3783 3784 3785 3786 3787 3788 3789 3790 3791 3792 3793 3794 3795 3796 3797 3798 3799 3800 3801 3802 3803 3804 3805 3806 3807 3808 3809 3810 3811 3812 3813 3814 3815 3816 3817 3818 3819 3820 3821 3822 3823 3824 3825 3826 3827 3828 3829 3830 3831 3832 3833 3834 3835 3836 3837 3838 3839 3840 3841 3842 3843 3844 3845 3846 3847 3848 3849 3850 3851 3852 3853 3854 3855 3856 3857 3858 3859 3860 3861 3862 3863 3864 3865 3866 3867 3868 3869 3870 3871 3872 3873 3874 3875 3876 3877 3878 3879 3880 3881 3882 3883 3884 3885 3886 3887 3888 3889 3890 3891 3892 3893 3894 3895 3896 3897 3898 3899 3900 3901 3902 3903 3904 3905 3906 3907 3908 3909 3910 3911 3912 3913 3914 3915 3916 3917 3918 3919 3920 3921 3922 3923 3924 3925 3926 3927 3928 3929 3930 3931 3932 3933 3934 3935 3936 3937 3938 3939 3940 3941 3942 3943 3944 3945 3946 3947 3948 3949 3950 3951 3952 3953 3954 3955 3956 3957 3958 3959 3960 3961 3962 3963 3964 3965 3966 3967 3968 3969 3970 3971 3972 3973 3974 3975 3976 3977 3978 3979 3980 3981 3982 3983 3984 3985 3986 3987 3988 3989 3990 3991 3992 3993 3994 3995 3996 3997 3998 3999 4000 4001 4002 4003 4004 4005 4006 4007 4008 4009 4010 4011 4012 4013 4014 4015 4016 4017 4018 4019 4020 4021 4022 4023 4024 4025 4026 4027 4028 4029 4030 4031 4032 4033 4034 4035 4036 4037 4038 4039 4040 4041 4042 4043 4044 4045 4046 4047 4048 4049 4050 4051 4052 4053 4054 4055 4056 4057 4058 4059 4060 4061 4062 4063 4064 4065 4066 4067 4068 4069 4070 4071 4072 4073 4074 4075 4076 4077 4078 4079 4080 4081 4082 4083 4084 4085 4086 4087 4088 4089 4090 4091 4092 4093 4094 4095 4096 4097 4098 4099 4100 4101 4102 4103 4104 4105 4106 4107 4108 4109 4110 4111 4112 4113 4114 4115 4116 4117 4118 4119 4120 4121 4122 4123 4124 4125 4126 4127 4128 4129 4130 4131 4132 4133 4134 4135 4136 4137 4138 4139 4140 4141 4142 4143 4144 4145 4146 4147 4148 4149 4150 4151 4152 4153 4154 4155 4156 4157 4158 4159 4160 4161 4162 4163 4164 4165 4166 4167 4168 4169 4170 4171 4172 4173 4174 4175 4176 4177 4178 4179 4180 4181 4182 4183 4184 4185 4186 4187 4188 4189 4190 4191 4192 4193 4194 4195 4196 4197 4198 4199 4200 4201 4202 4203 4204 4205 4206 4207 4208 4209 4210 4211 4212 4213 4214 4215 4216 4217 4218 4219 4220 4221 4222 4223 4224 4225 4226 4227 4228 4229 4230 4231 4232 4233 4234 4235 4236 4237 4238 4239 4240 4241 4242 4243 4244 4245 4246 4247 4248 4249 4250 4251 4252 4253 4254 4255 4256 4257 4258 4259 4260 4261 4262 4263 4264 4265 4266 4267 4268 4269 4270 4271 4272 4273 4274 4275 4276 4277 4278 4279 4280 4281 4282 4283 4284 4285 4286 4287 4288 4289 4290 4291 4292 4293 4294 4295 4296 4297 4298 4299 4300 4301 4302 4303 4304 4305 4306 4307 4308 4309 4310 4311 4312 4313 4314 4315 4316 4317 4318 4319 4320 4321 4322 4323 4324 4325 4326 4327 4328 4329 4330 4331 4332 4333 4334 4335 4336 4337 4338 4339 4340 4341 4342 4343 4344 4345 4346 4347 4348 4349 4350 4351 4352 4353 4354 4355 4356 4357 4358 4359 4360 4361 4362 4363 4364 4365 4366 4367 4368 4369 4370 4371 4372 4373 4374 4375 4376 4377 4378 4379 4380 4381 4382 4383 4384 4385 4386 4387 4388 4389 4390 4391 4392 4393 4394 4395 4396 4397 4398 4399 4400 4401 4402 4403 4404 4405 4406 4407 4408 4409 4410 4411 4412 4413 4414 4415 4416 4417 4418 4419 4420 4421 4422 4423 4424 4425 4426 4427 4428 4429 4430 4431 4432 4433 4434 4435 4436 4437 4438 4439 4440 4441 4442 4443 4444 4445 4446 4447 4448 4449 4450 4451 4452 4453 4454 4455 4456 4457 4458 4459 4460 4461 4462 4463 4464 4465 4466 4467 4468 4469 4470 4471 4472 4473 4474 4475 4476 4477 4478 4479 4480 4481 4482 4483 4484 4485 4486 4487 4488 4489 4490 4491 4492 4493 4494 4495 4496 4497 4498 4499 4500 4501 4502 4503 4504 4505 4506 4507 4508 4509 4510 4511 4512 4513 4514 4515 4516 4517 4518 4519 4520 4521 4522 4523 4524 4525 4526 4527 4528 4529 4530 4531 4532 4533 4534 4535 4536 4537 4538 4539 4540 4541 4542 4543 4544 4545 4546 4547 4548 4549 4550 4551 4552 4553 4554 4555 4556 4557 4558 4559 4560 4561 4562 4563 4564 4565 4566 4567 4568 4569 4570 4571 4572 4573 4574 4575 4576 4577 4578 4579 4580 4581 4582 4583 4584 4585 4586 4587 4588 4589 4590 4591 4592 4593 4594 4595 4596 4597 4598 4599 4600 4601 4602 4603 4604 4605 4606 4607 4608 4609 4610 4611 4612 4613 4614 4615 4616 4617 4618 4619 4620 4621 4622 4623 4624 4625 4626 4627 4628 4629 4630 4631 4632 4633 4634 4635 4636 4637 4638 4639 4640 4641 4642 4643 4644 4645 4646 4647 4648 4649 4650 4651 4652 4653 4654 4655 4656 4657 4658 4659 4660 4661 4662 4663 4664 4665 4666 4667 4668 4669 4670 4671 4672 4673 4674 4675 4676 4677 4678 4679 4680 4681 4682 4683 4684 4685 4686 4687 4688 4689 4690 4691 4692 4693 4694 4695 4696 4697 4698 4699 4700 4701 4702 4703 4704 4705 4706 4707 4708 4709 4710 4711 4712 4713 4714 4715 4716 4717 4718 4719 4720 4721 4722 4723 4724 4725 4726 4727 4728 4729 4730 4731 4732 4733 4734 4735 4736 4737 4738 4739 4740 4741 4742 4743 4744 4745 4746 4747 4748 4749 4750 4751 4752 4753 4754 4755 4756 4757 4758 4759 4760 4761 4762 4763 4764 4765 4766 4767 4768 4769 4770 4771 4772 4773 4774 4775 4776 4777 4778 4779 4780 4781 4782 4783 4784 4785 4786 4787 4788 4789 4790 4791 4792 4793 4794 4795 4796 4797 4798 4799 4800 4801 4802 4803 4804 4805 4806 4807 4808 4809 4810 4811 4812 4813 4814 4815 4816 4817 4818 4819 4820 4821 4822 4823 4824 4825 4826 4827 4828 4829 4830 4831 4832 4833 4834 4835 4836 4837 4838 4839 4840 4841 4842 4843 4844 4845 4846 4847 4848 4849 4850 4851 4852 4853 4854 4855 4856 4857 4858 4859 4860 4861 4862 4863 4864 4865 4866 4867 4868 4869 4870 4871 4872 4873 4874 4875 4876 4877 4878 4879 4880 4881 4882 4883 4884 4885 4886 4887 4888 4889 4890 4891 4892 4893 4894 4895 4896 4897 4898 4899 4900 4901 4902 4903 4904 4905 4906 4907 4908 4909 4910 4911 4912 4913 4914 4915 4916 4917 4918 4919 4920 4921 4922 4923 4924 4925 4926 4927 4928 4929 4930 4931 4932 4933 4934 4935 4936 4937 4938 4939 4940 4941 4942 4943 4944 4945 4946 4947 4948 4949 4950 4951 4952 4953 4954 4955 4956 4957 4958 4959 4960 4961 4962 4963 4964 4965 4966 4967 4968 4969 4970 4971 4972 4973 4974 4975 4976 4977 4978 4979 4980 4981 4982 4983 4984 4985 4986 4987 4988 4989 4990 4991 4992 4993 4994 4995 4996 4997 4998 4999 5000 5001 5002 5003 5004 5005 5006 5007 5008 5009 5010 5011 5012 5013 5014 5015 5016 5017 5018 5019 5020 5021 5022 5023 5024 5025 5026 5027 5028 5029 5030 5031 5032 5033 5034 5035 5036 5037 5038 5039 5040 5041 5042 5043 5044 5045 5046 5047 5048 5049 5050 5051 5052 5053 5054 5055 5056 5057 5058 5059 5060 5061 5062 5063 5064 5065 5066 5067 5068 5069 5070 5071 5072 5073 5074 5075 5076 5077 5078 5079 5080 5081 5082 5083 5084 5085 5086 5087 5088 5089 5090 5091 5092 5093 5094 5095 5096 5097 5098 5099 5100 5101 5102 5103 5104 5105 5106 5107 5108 5109 5110 5111 5112 5113 5114 5115 5116 5117 5118 5119 5120 5121 5122 5123 5124 5125 5126 5127 5128 5129 5130 5131 5132 5133 5134 5135 5136 5137 5138 5139 5140 5141 5142 5143 5144 5145 5146 5147 5148 5149 5150 5151 5152 5153 5154 5155 5156 5157 5158 5159 5160 5161 5162 5163 5164 5165 5166 5167 5168 5169 5170 5171 5172 5173 5174 5175 5176 5177 5178 5179 5180 5181 5182 5183 5184 5185 5186 5187 5188 5189 5190 5191 5192 5193 5194 5195 5196 5197 5198 5199 5200 5201 5202 5203 5204 5205 5206 5207 5208 5209 5210 5211 5212 5213 5214 5215 5216 5217 5218 5219 5220 5221 5222 5223 5224 5225 5226 5227 5228 5229 5230 5231 5232 5233 5234 5235 5236 5237 5238 5239 5240 5241 5242 5243 5244 5245 5246 5247 5248 5249 5250 5251 5252 5253 5254 5255 5256 5257 5258 5259 5260 5261 5262 5263 5264 5265 5266 5267 5268 5269 5270 5271 5272 5273 5274 5275 5276 5277 5278 5279 5280 5281 5282 5283 5284 5285 5286 5287 5288 5289 5290 5291 5292 5293 5294 5295 5296 5297 5298 5299 5300 5301 5302 5303 5304 5305 5306 5307 5308 5309 5310 5311 5312 5313 5314 5315 5316 5317 5318 5319 5320 5321 5322 5323 5324 5325 5326 5327 5328 5329 5330 5331 5332 5333 5334 5335 5336 5337 5338 5339 5340 5341 5342 5343 5344 5345 5346 5347 5348 5349 5350 5351 5352 5353 5354 5355 5356 5357 5358 5359 5360 5361 5362 5363 5364 5365 5366 5367 5368 5369 5370 5371 5372 5373 5374 5375 5376 5377 5378 5379 5380 5381 5382 5383 5384 5385 5386 5387 5388 5389 5390 5391 5392 5393 5394 5395 5396 5397 5398 5399 5400 5401 5402 5403 5404 5405 5406 5407 5408 5409 5410 5411 5412 5413 5414 5415 5416 5417 5418 5419 5420 5421 5422 5423 5424 5425 5426 5427 5428 5429 5430 5431 5432 5433 5434 5435 5436 5437 5438 5439 5440 5441 5442 5443 5444 5445 5446 5447 5448 5449 5450 5451 5452 5453 5454 5455 5456 5457 5458 5459 5460 5461 5462 5463 5464 5465 5466 5467 5468 5469 5470 5471 5472 5473 5474 5475 5476 5477 5478 5479 5480 5481 5482 5483 5484 5485 5486 5487 5488 5489 5490 5491 5492 5493 5494 5495 5496 5497 5498 5499 5500 5501 5502 5503 5504 5505 5506 5507 5508 5509 5510 5511 5512 5513 5514 5515 5516 5517 5518 5519 5520 5521 5522 5523 5524 5525 5526 5527 5528 5529 5530 5531 5532 5533 5534 5535 5536 5537 5538 5539 5540 5541 5542 5543 5544 5545 5546 5547 5548 5549 5550 5551 5552 5553 5554 5555 5556 5557 5558 5559 5560 5561 5562 5563 5564 5565 5566 5567 5568 5569 5570 5571 5572 5573 5574 5575 5576 5577 5578 5579 5580 5581 5582 5583 5584 5585 5586 5587 5588 5589 5590 5591 5592 5593 5594 5595 5596 5597 5598 5599 5600 5601 5602 5603 5604 5605 5606 5607 5608 5609 5610 5611 5612 5613 5614 5615 5616 5617 5618 5619 5620 5621 5622 5623 5624 5625 5626 5627 5628 5629 5630 5631 5632 5633 5634 5635 5636 5637 5638 5639 5640 5641 5642 5643 5644 5645 5646 5647 5648 5649 5650 5651 5652 5653 5654 5655 5656 5657 5658 5659 5660 5661 5662 5663 5664 5665 5666 5667 5668 5669 5670 5671 5672 5673 5674 5675 5676 5677 5678 5679 5680 5681 5682 5683 5684 5685 5686 5687 5688 5689 5690 5691 5692 5693 5694 5695 5696 5697 5698 5699 5700 5701 5702 5703 5704 5705 5706 5707 5708 5709 5710 5711 5712 5713 5714 5715 5716 5717 5718 5719 5720 5721 5722 5723 5724 5725 5726 5727 5728 5729 5730 5731 5732 5733 5734 5735 5736 5737 5738 5739 5740 5741 5742 5743 5744 5745 5746 5747 5748 5749 5750 5751 5752 5753 5754 5755 5756 5757 5758 5759 5760 5761 5762 5763 5764 5765 5766 5767 5768 5769 5770 5771 5772 5773 5774 5775 5776 5777 5778 5779 5780 5781 5782 5783 5784 5785 5786 5787 5788 5789 5790 5791 5792 5793 5794 5795 5796 5797 5798 5799 5800 5801 5802 5803 5804 5805 5806 5807 5808 5809 5810 5811 5812 5813 5814 5815 5816 5817 5818 5819 5820 5821 5822 5823 5824 5825 5826 5827 5828 5829 5830 5831 5832 5833 5834 5835 5836 5837 5838 5839 5840 5841 5842 5843 5844 5845 5846 5847 5848 5849 5850 5851 5852 5853 5854 5855 5856 5857 5858 5859 5860 5861 5862 5863 5864 5865 5866 5867 5868 5869 5870 5871 5872 5873 5874 5875 5876 5877 5878 5879 5880 5881 5882 5883 5884 5885 5886 5887 5888 5889 5890 5891 5892 5893 5894 5895 5896 5897 5898 5899 5900 5901 5902 5903 5904 5905 5906 5907 5908 5909 5910 5911 5912 5913 5914 5915 5916 5917 5918 5919 5920 5921 5922 5923 5924 5925 5926 5927 5928 5929 5930 5931 5932 5933 5934 5935 5936 5937 5938 5939 5940 5941 5942 5943 5944 5945 5946 5947 5948 5949 5950 5951 5952 5953 5954 5955 5956 5957 5958 5959 5960 5961 5962 5963 5964 5965 5966 5967 5968 5969 5970 5971 5972 5973 5974 5975 5976 5977 5978 5979 5980 5981 5982 5983 5984 5985 5986 5987 5988 5989 5990 5991 5992 5993 5994 5995 5996 5997 5998 5999 6000 6001 6002 6003 6004 6005 6006 6007 6008 6009 6010 6011 6012 6013 6014 6015 6016 6017 6018 6019 6020 6021 6022 6023 6024 6025 6026 6027 6028 6029 6030 6031 6032 6033 6034 6035 6036 6037 6038 6039 6040 6041 6042 6043 6044 6045 6046 6047 6048 6049 6050 6051 6052 6053 6054 6055 6056 6057 6058 6059 6060 6061 6062 6063 6064 6065 6066 6067 6068 6069 6070 6071 6072 6073 6074 6075 6076 6077 6078 6079 6080 6081 6082 6083 6084 6085 6086 6087 6088 6089 6090 6091 6092 6093 6094 6095 6096 6097 6098 6099 6100 6101 6102 6103 6104 6105 6106 6107 6108 6109 6110 6111 6112 6113 6114 6115 6116 6117 6118 6119 6120 6121 6122 6123 6124 6125 6126 6127 6128 6129 6130 6131 6132 6133 6134 6135 6136 6137 6138 6139 6140 6141 6142 6143 6144 6145 6146 6147 6148 6149 6150 6151 6152 6153 6154 6155 6156 6157 6158 6159 6160 6161 6162 6163 6164 6165 6166 6167 6168 6169 6170 6171 6172 6173 6174 6175 6176 6177 6178 6179 6180 6181 6182 6183 6184 6185 6186 6187 6188 6189 6190 6191 6192 6193 6194 6195 6196 6197 6198 6199 6200 6201 6202 6203 6204 6205 6206 6207 6208 6209 6210 6211 6212 6213 6214 6215 6216 6217 6218 6219 6220 6221 6222 6223 6224 6225 6226 6227 6228 6229 6230 6231 6232 6233 6234 6235 6236 6237 6238 6239 6240 6241 6242 6243 6244 6245 6246 6247 6248 6249 6250 6251 6252 6253 6254 6255 6256 6257 6258 6259 6260 6261 6262 6263 6264 6265 6266 6267 6268 6269 6270 6271 6272 6273 6274 6275 6276 6277 6278 6279 6280 6281 6282 6283 6284 6285 6286 6287 6288 6289 6290 6291 6292 6293 6294 6295 6296 6297 6298 6299 6300 6301 6302 6303 6304 6305 6306 6307 6308 6309 6310 6311 6312 6313 6314 6315 6316 6317 6318 6319 6320 6321 6322 6323 6324 6325 6326 6327 6328 6329 6330 6331 6332 6333 6334 6335 6336 6337 6338 6339 6340 6341 6342 6343 6344 6345 6346 6347 6348 6349 6350 6351 6352 6353 6354 6355 6356 6357 6358 6359 6360 6361 6362 6363 6364 6365 6366 6367 6368 6369 6370 6371 6372 6373 6374 6375 6376 6377 6378 6379 6380 6381 6382 6383 6384 6385 6386 6387 6388 6389 6390 6391 6392 6393 6394 6395 6396 6397 6398 6399 6400 6401 6402 6403 6404 6405 6406 6407 6408 6409 6410 6411 6412 6413 6414 6415 6416 6417 6418 6419 6420 6421 6422 6423 6424 6425 6426 6427 6428 6429 6430 6431 6432 6433 6434 6435 6436 6437 6438 6439 6440 6441 6442 6443 6444 6445 6446 6447 6448 6449 6450 6451 6452 6453 6454 6455 6456 6457 6458 6459 6460 6461 6462 6463 6464 6465 6466 6467 6468 6469 6470 6471 6472 6473 6474 6475 6476 6477 6478 6479 6480 6481 6482 6483 6484 6485 6486 6487 6488 6489 6490 6491 6492 6493 6494 6495 6496 6497 6498 6499 6500 6501 6502 6503 6504 6505 6506 6507 6508 6509 6510 6511 6512 6513 6514 6515 6516 6517 6518 6519 6520 6521 6522 6523 6524 6525 6526 6527 6528 6529 6530 6531 6532 6533 6534 6535 6536 6537 6538 6539 6540 6541 6542 6543 6544 6545 6546 6547 6548 6549 6550 6551 6552 6553 6554 6555 6556 6557 6558 6559 6560 6561 6562 6563 6564 6565 6566 6567 6568 6569 6570 6571 6572 6573 6574 6575 6576 6577 6578 6579 6580 6581 6582 6583 6584 6585 6586 6587 6588 6589 6590 6591 6592 6593 6594 6595 6596 6597 6598 6599 6600 6601 6602 6603 6604 6605 6606 6607 6608 6609 6610 6611 6612 6613 6614 6615 6616 6617 6618 6619 6620 6621 6622 6623 6624 6625 6626 6627 6628 6629 6630 6631 6632 6633 6634 6635 6636 6637 6638 6639 6640 6641 6642 6643 6644 6645 6646 6647 6648 6649 6650 6651 6652 6653 6654 6655 6656 6657 6658 6659 6660 6661 6662 6663 6664 6665 6666 6667 6668 6669 6670 6671 6672 6673 6674 6675 6676 6677 6678 6679 6680 6681 6682 6683 6684 6685 6686 6687 6688 6689 6690 6691 6692 6693 6694 6695 6696 6697 6698 6699 6700 6701 6702 6703 6704 6705 6706 6707 6708 6709 6710 6711 6712 6713 6714 6715 6716 6717 6718 6719 6720 6721 6722 6723 6724 6725 6726 6727 6728 6729 6730 6731 6732 6733 6734 6735 6736 6737 6738 6739 6740 6741 6742 6743 6744 6745 6746 6747 6748 6749 6750 6751 6752 6753 6754 6755 6756 6757 6758 6759 6760 6761 6762 6763 6764 6765 6766 6767 6768 6769 6770 6771 6772 6773 6774 6775 6776 6777 6778 6779 6780 6781 6782 6783 6784 6785 6786 6787 6788 6789 6790 6791 6792 6793 6794 6795 6796 6797 6798 6799 6800 6801 6802 6803 6804 6805 6806 6807 6808 6809 6810 6811 6812 6813 6814 6815 6816 6817 6818 6819 6820 6821 6822 6823 6824 6825 6826 6827 6828 6829 6830 6831 6832 6833 6834 6835 6836 6837 6838 6839 6840 6841 6842 6843 6844 6845 6846 6847 6848 6849 6850 6851 6852 6853 6854 6855 6856 6857 6858 6859 6860 6861 6862 6863 6864 6865 6866 6867 6868 6869 6870 6871 6872 6873 6874 6875 6876 6877 6878 6879 6880 6881 6882 6883 6884 6885 6886 6887 6888 6889 6890 6891 6892 6893 6894 6895 6896 6897 6898 6899 6900 6901 6902 6903 6904 6905 6906 6907 6908 6909 6910 6911 6912 6913 6914 6915 6916 6917 6918 6919 6920 6921 6922 6923 6924 6925 6926 6927 6928 6929 6930 6931 6932 6933 6934 6935 6936 6937 6938 6939 6940 6941 6942 6943 6944 6945 6946 6947 6948 6949 6950 6951 6952 6953 6954 6955 6956 6957 6958 6959 6960 6961 6962 6963 6964 6965 6966 6967 6968 6969 6970 6971 6972 6973 6974 6975 6976 6977 6978 6979 6980 6981 6982 6983 6984 6985 6986 6987 6988 6989 6990 6991 6992 6993 6994 6995 6996 6997 6998 6999 7000 7001 7002 7003 7004 7005 7006 7007 7008 7009 7010 7011 7012 7013 7014 7015 7016 7017 7018 7019 7020 7021 7022 7023 7024 7025 7026 7027 7028 7029 7030 7031 7032 7033 7034 7035 7036 7037 7038 7039 7040 7041 7042 7043 7044 7045 7046 7047 7048 7049 7050 7051 7052 7053 7054 7055 7056 7057 7058 7059 7060 7061 7062 7063 7064 7065 7066 7067 7068 7069 7070 7071 7072 7073 7074 7075 7076 7077 7078 7079 7080 7081 7082 7083 7084 7085 7086 7087 7088 7089 7090 7091 7092 7093 7094 7095 7096 7097 7098 7099 7100 7101 7102 7103 7104 7105 7106 7107 7108 7109 7110 7111 7112 7113 7114 7115 7116 7117 7118 7119 7120 7121 7122 7123 7124 7125 7126 7127 7128 7129 7130 7131 7132 7133 7134 7135 7136 7137 7138 7139 7140 7141 7142 7143 7144 7145 7146 7147 7148 7149 7150 7151 7152 7153 7154 7155 7156 7157 7158 7159 7160 7161 7162 7163 7164 7165 7166 7167 7168 7169 7170 7171 7172 7173 7174 7175 7176 7177 7178 7179 7180 7181 7182 7183 7184 7185 7186 7187 7188 7189 7190 7191 7192 7193 7194 7195 7196 7197 7198 7199 7200 7201 7202 7203 7204 7205 7206 7207 7208 7209 7210 7211 7212 7213 7214 7215 7216 7217 7218 7219 7220 7221 7222 7223 7224 7225 7226 7227 7228 7229 7230 7231 7232 7233 7234 7235 7236 7237 7238 7239 7240 7241 7242 7243 7244 7245 7246 7247 7248 7249 7250 7251 7252 7253 7254 7255 7256 7257 7258 7259 7260 7261 7262 7263 7264 7265 7266 7267 7268 7269 7270 7271 7272 7273 7274 7275 7276 7277 7278 7279 7280 7281 7282 7283 7284 7285 7286 7287 7288 7289 7290 7291 7292 7293 7294 7295 7296 7297 7298 7299 7300 7301 7302 7303 7304 7305 7306 7307 7308 7309 7310 7311 7312 7313 7314 7315 7316 7317 7318 7319 7320 7321 7322 7323 7324 7325 7326 7327 7328 7329 7330 7331 7332 7333 7334 7335 7336 7337 7338 7339 7340 7341 7342 7343 7344 7345 7346 7347 7348 7349 7350 7351 7352 7353 7354 7355 7356 7357 7358 7359 7360 7361 7362 7363 7364 7365 7366 7367 7368 7369 7370 7371 7372 7373 7374 7375 7376 7377 7378 7379 7380 7381 7382 7383 7384 7385 7386 7387 7388 7389 7390 7391 7392 7393 7394 7395 7396 7397 7398 7399 7400 7401 7402 7403 7404 7405 7406 7407 7408 7409 7410 7411 7412 7413 7414 7415 7416 7417 7418 7419 7420 7421 7422 7423 7424 7425 7426 7427 7428 7429 7430 7431 7432 7433 7434 7435 7436 7437 7438 7439 7440 7441 7442 7443 7444 7445 7446 7447 7448 7449 7450 7451 7452 7453 7454 7455 7456 7457 7458 7459 7460 7461 7462 7463 7464 7465 7466 7467 7468 7469 7470 7471 7472 7473 7474 7475 7476 7477 7478 7479 7480 7481 7482 7483 7484 7485 7486 7487 7488 7489 7490 7491 7492 7493 7494 7495 7496 7497 7498 7499 7500 7501 7502 7503 7504 7505 7506 7507 7508 7509 7510 7511 7512 7513 7514 7515 7516 7517 7518 7519 7520 7521 7522 7523 7524 7525 7526 7527 7528 7529 7530 7531 7532 7533 7534 7535 7536 7537 7538 7539 7540 7541 7542 7543 7544 7545 7546 7547 7548 7549 7550 7551 7552 7553 7554 7555 7556 7557 7558 7559 7560 7561 7562 7563 7564 7565 7566 7567 7568 7569 7570 7571 7572 7573 7574 7575 7576 7577 7578 7579 7580 7581 7582 7583 7584 7585 7586 7587 7588 7589 7590 7591 7592 7593 7594 7595 7596 7597 7598 7599 7600 7601 7602 7603 7604 7605 7606 7607 7608 7609 7610 7611 7612 7613 7614 7615 7616 7617 7618 7619 7620 7621 7622 7623 7624 7625 7626 7627 7628 7629 7630 7631 7632 7633 7634 7635 7636 7637 7638 7639 7640 7641 7642 7643 7644 7645 7646 7647 7648 7649 7650 7651 7652 7653 7654 7655 7656 7657 7658 7659 7660 7661 7662 7663 7664 7665 7666 7667 7668 7669 7670 7671 7672 7673 7674 7675 7676 7677 7678 7679 7680 7681 7682 7683 7684 7685 7686 7687 7688 7689 7690 7691 7692 7693 7694 7695 7696 7697 7698 7699 7700 7701 7702 7703 7704 7705 7706 7707 7708 7709 7710 7711 7712 7713 7714 7715 7716 7717 7718 7719 7720 7721 7722 7723 7724 7725 7726 7727 7728 7729 7730 7731 7732 7733 7734 7735 7736 7737 7738 7739 7740 7741 7742 7743 7744 7745 7746 7747 7748 7749 7750 7751 7752 7753 7754 7755 7756 7757 7758 7759 7760 7761 7762 7763 7764 7765 7766 7767 7768 7769 7770 7771 7772 7773 7774 7775 7776 7777 7778 7779 7780 7781 7782 7783 7784 7785 7786 7787 7788 7789 7790 7791 7792 7793 7794 7795 7796 7797 7798 7799 7800 7801 7802 7803 7804 7805 7806 7807 7808 7809 7810 7811 7812 7813 7814 7815 7816 7817 7818 7819 7820 7821 7822 7823 7824 7825 7826 7827 7828 7829 7830 7831 7832 7833 7834 7835 7836 7837 7838 7839 7840 7841 7842 7843 7844 7845 7846 7847 7848 7849 7850 7851 7852 7853 7854 7855 7856 7857 7858 7859 7860 7861 7862 7863 7864 7865 7866 7867 7868 7869 7870 7871 7872 7873 7874 7875 7876 7877 7878 7879 7880 7881 7882 7883 7884 7885 7886 7887 7888 7889 7890 7891 7892 7893 7894 7895 7896 7897 7898 7899 7900 7901 7902 7903 7904 7905 7906 7907 7908 7909 7910 7911 7912 7913 7914 7915 7916 7917 7918 7919 7920 7921 7922 7923 7924 7925 7926 7927 7928 7929 7930 7931 7932 7933 7934 7935 7936 7937 7938 7939 7940 7941 7942 7943 7944 7945 7946 7947 7948 7949 7950 7951 7952 7953 7954 7955 7956 7957 7958 7959 7960 7961 7962 7963 7964 7965 7966 7967 7968 7969 7970 7971 7972 7973 7974 7975 7976 7977 7978 7979 7980 7981 7982 7983 7984 7985 7986 7987 7988 7989 7990 7991 7992 7993 7994 7995 7996 7997 7998 7999 8000 8001 8002 8003 8004 8005 8006 8007 8008 8009 8010 8011 8012 8013 8014 8015 8016 8017 8018 8019 8020 8021 8022 8023 8024 8025 8026 8027 8028 8029 8030 8031 8032 8033 8034 8035 8036 8037 8038 8039 8040 8041 8042 8043 8044 8045 8046 8047 8048 8049 8050 8051 8052 8053 8054 8055 8056 8057 8058 8059 8060 8061 8062 8063 8064 8065 8066 8067 8068 8069 8070 8071 8072 8073 8074 8075 8076 8077 8078 8079 8080 8081 8082 8083 8084 8085 8086 8087 8088 8089 8090 8091 8092 8093 8094 8095 8096 8097 8098 8099 8100 8101 8102 8103 8104 8105 8106 8107 8108 8109 8110 8111 8112 8113 8114 8115 8116 8117 8118 8119 8120 8121 8122 8123 8124 8125 8126 8127 8128 8129 8130 8131 8132 8133 8134 8135 8136 8137 8138 8139 8140 8141 8142 8143 8144 8145 8146 8147 8148 8149 8150 8151 8152 8153 8154 8155 8156 8157 8158 8159 8160 8161 8162 8163 8164 8165 8166 8167 8168 8169 8170 8171 8172 8173 8174 8175 8176 8177 8178 8179 8180 8181 8182 8183 8184 8185 8186 8187 8188 8189 8190 8191 8192 8193 8194 8195 8196 8197 8198 8199 8200 8201 8202 8203 8204 8205 8206 8207 8208 8209 8210 8211 8212 8213 8214 8215 8216 8217 8218 8219 8220 8221 8222 8223 8224 8225 8226 8227 8228 8229 8230 8231 8232 8233 8234 8235 8236 8237 8238 8239 8240 8241 8242 8243 8244 8245 8246 8247 8248 8249 8250 8251 8252 8253 8254 8255 8256 8257 8258 8259 8260 8261 8262 8263 8264 8265 8266 8267 8268 8269 8270 8271 8272 8273 8274 8275 8276 8277 8278 8279 8280 8281 8282 8283 8284 8285 8286 8287 8288 8289 8290 8291 8292 8293 8294 8295 8296 8297 8298 8299 8300 8301 8302 8303 8304 8305 8306 8307 8308 8309 8310 8311 8312 8313 8314 8315 8316 8317 8318 8319 8320 8321 8322 8323 8324 8325 8326 8327 8328 8329 8330 8331 8332 8333 8334 8335 8336 8337 8338 8339 8340 8341 8342 8343 8344 8345 8346 8347 8348 8349 8350 8351 8352 8353 8354 8355 8356 8357 8358 8359 8360 8361 8362 8363 8364 8365 8366 8367 8368 8369 8370 8371 8372 8373 8374 8375 8376 8377 8378 8379 8380 8381 8382 8383 8384 8385 8386 8387 8388 8389 8390 8391 8392 8393 8394 8395 8396 8397 8398 8399 8400 8401 8402 8403 8404 8405 8406 8407 8408 8409 8410 8411 8412 8413 8414 8415 8416 8417 8418 8419 8420 8421 8422 8423 8424 8425 8426 8427 8428 8429 8430 8431 8432 8433 8434 8435 8436 8437 8438 8439 8440 8441 8442 8443 8444 8445 8446 8447 8448 8449 8450 8451 8452 8453 8454 8455 8456 8457 8458 8459 8460 8461 8462 8463 8464 8465 8466 8467 8468 8469 8470 8471 8472 8473 8474 8475 8476 8477 8478 8479 8480 8481 8482 8483 8484 8485 8486 8487 8488 8489 8490 8491 8492 8493 8494 8495 8496 8497 8498 8499 8500 8501 8502 8503 8504 8505 8506 8507 8508 8509 8510 8511 8512 8513 8514 8515 8516 8517 8518 8519 8520 8521 8522 8523 8524 8525 8526 8527 8528 8529 8530 8531 8532 8533 8534 8535 8536 8537 8538 8539 8540 8541 8542 8543 8544 8545 8546 8547 8548 8549 8550 8551 8552 8553 8554 8555 8556 8557 8558 8559 8560 8561 8562 8563 8564 8565 8566 8567 8568 8569 8570 8571 8572 8573 8574 8575 8576 8577 8578 8579 8580 8581 8582 8583 8584 8585 8586 8587 8588 8589 8590 8591 8592 8593 8594 8595 8596 8597 8598 8599 8600 8601 8602 8603 8604 8605 8606 8607 8608 8609 8610 8611 8612 8613 8614 8615 8616 8617 8618 8619 8620 8621 8622 8623 8624 8625 8626 8627 8628 8629 8630 8631 8632 8633 8634 8635 8636 8637 8638 8639 8640 8641 8642 8643 8644 8645 8646 8647 8648 8649 8650 8651 8652 8653 8654 8655 8656 8657 8658 8659 8660 8661 8662 8663 8664 8665 8666 8667 8668 8669 8670 8671 8672 8673 8674 8675 8676 8677 8678 8679 8680 8681 8682 8683 8684 8685 8686 8687 8688 8689 8690 8691 8692 8693 8694 8695 8696 8697 8698 8699 8700 8701 8702 8703 8704 8705 8706 8707 8708 8709 8710 8711 8712 8713 8714 8715 8716 8717 8718 8719 8720 8721 8722 8723 8724 8725 8726 8727 8728 8729 8730 8731 8732 8733 8734 8735 8736 8737 8738 8739 8740 8741 8742 8743 8744 8745 8746 8747 8748 8749 8750 8751 8752 8753 8754 8755 8756 8757 8758 8759 8760 8761 8762 8763 8764 8765 8766 8767 8768 8769 8770 8771 8772 8773 8774 8775 8776 8777 8778 8779 8780 8781 8782 8783 8784 8785 8786 8787 8788 8789 8790 8791 8792 8793 8794 8795 8796 8797 8798 8799 8800 8801 8802 8803 8804 8805 8806 8807 8808 8809 8810 8811 8812 8813 8814 8815 8816 8817 8818 8819 8820 8821 8822 8823 8824 8825 8826 8827 8828 8829 8830 8831 8832 8833 8834 8835 8836 8837 8838 8839 8840 8841 8842 8843 8844 8845 8846 8847 8848 8849 8850 8851 8852 8853 8854 8855 8856 8857 8858 8859 8860 8861 8862 8863 8864 8865 8866 8867 8868 8869 8870 8871 8872 8873 8874 8875 8876 8877 8878 8879 8880 8881 8882 8883 8884 8885 8886 8887 8888 8889 8890 8891 8892 8893 8894 8895 8896 8897 8898 8899 8900 8901 8902 8903 8904 8905 8906 8907 8908 8909 8910 8911 8912 8913 8914 8915 8916 8917 8918 8919 8920 8921 8922 8923 8924 8925 8926 8927 8928 8929 8930 8931 8932 8933 8934 8935 8936 8937 8938 8939 8940 8941 8942 8943 8944 8945 8946 8947 8948 8949 8950 8951 8952 8953 8954 8955 8956 8957 8958 8959 8960 8961 8962 8963 8964 8965 8966 8967 8968 8969 8970 8971 8972 8973 8974 8975 8976 8977 8978 8979 8980 8981 8982 8983 8984 8985 8986 8987 8988 8989 8990 8991 8992 8993 8994 8995 8996 8997 8998 8999 9000 9001 9002 9003 9004 9005 9006 9007 9008 9009 9010 9011 9012 9013 9014 9015 9016 9017 9018 9019 9020 9021 9022 9023 9024 9025 9026 9027 9028 9029 9030 9031 9032 9033 9034 9035 9036 9037 9038 9039 9040 9041 9042 9043 9044 9045 9046 9047 9048 9049 9050 9051 9052 9053 9054 9055 9056 9057 9058 9059 9060 9061 9062 9063 9064 9065 9066 9067 9068 9069 9070 9071 9072 9073 9074 9075 9076 9077 9078 9079 9080 9081 9082 9083 9084 9085 9086 9087 9088 9089 9090 9091 9092 9093 9094 9095 9096 9097 9098 9099 9100 9101 9102 9103 9104 9105 9106 9107 9108 9109 9110 9111 9112 9113 9114 9115 9116 9117 9118 9119 9120 9121 9122 9123 9124 9125 9126 9127 9128 9129 9130 9131 9132 9133 9134 9135 9136 9137 9138 9139 9140 9141 9142 9143 9144 9145 9146 9147 9148 9149 9150 9151 9152 9153 9154 9155 9156 9157 9158 9159 9160 9161 9162 9163 9164 9165 9166 9167 9168 9169 9170 9171 9172 9173 9174 9175 9176 9177 9178 9179 9180 9181 9182 9183 9184 9185 9186 9187 9188 9189 9190 9191 9192 9193 9194 9195 9196 9197 9198 9199 9200 9201 9202 9203 9204 9205 9206 9207 9208 9209 9210 9211 9212 9213 9214 9215 9216 9217 9218 9219 9220 9221 9222 9223 9224 9225 9226 9227 9228 9229 9230 9231 9232 9233 9234 9235 9236 9237 9238 9239 9240 9241 9242 9243 9244 9245 9246 9247 9248 9249 9250 9251 9252 9253 9254 9255 9256 9257 9258 9259 9260 9261 9262 9263 9264 9265 9266 9267 9268 9269 9270 9271 9272 9273 9274 9275 9276 9277 9278 9279 9280 9281 9282 9283 9284 9285 9286 9287 9288 9289 9290 9291 9292 9293 9294 9295 9296 9297 9298 9299 9300 9301 9302 9303 9304 9305 9306 9307 9308 9309 9310 9311 9312 9313 9314 9315 9316 9317 9318 9319 9320 9321 9322 9323 9324 9325 9326 9327 9328 9329 9330 9331 9332 9333 9334 9335 9336 9337 9338 9339 9340 9341 9342 9343 9344 9345 9346 9347 9348 9349 9350 9351 9352 9353 9354 9355 9356 9357 9358 9359 9360 9361 9362 9363 9364 9365 9366 9367 9368 9369 9370 9371 9372 9373 9374 9375 9376 9377 9378 9379 9380 9381 9382 9383 9384 9385 9386 9387 9388 9389 9390 9391 9392 9393 9394 9395 9396 9397 9398 9399 9400 9401 9402 9403 9404 9405 9406 9407 9408 9409 9410 9411 9412 9413 9414 9415 9416 9417 9418 9419 9420 9421 9422 9423 9424 9425 9426 9427 9428 9429 9430 9431 9432 9433 9434 9435 9436 9437 9438 9439 9440 9441 9442 9443 9444 9445 9446 9447 9448 9449 9450 9451 9452 9453 9454 9455 9456 9457 9458 9459 9460 9461 9462 9463 9464 9465 9466 9467 9468 9469 9470 9471 9472 9473 9474 9475 9476 9477 9478 9479 9480 9481 9482 9483 9484 9485 9486 9487 9488 9489 9490 9491 9492 9493 9494 9495 9496 9497 9498 9499 9500 9501 9502 9503 9504 9505 9506 9507 9508 9509 9510 9511 9512 9513 9514 9515 9516 9517 9518 9519 9520 9521 9522 9523 9524 9525 9526 9527 9528 9529 9530 9531 9532 9533 9534 9535 9536 9537 9538 9539 9540 9541 9542 9543 9544 9545 9546 9547 9548 9549 9550 9551 9552 9553 9554 9555 9556 9557 9558 9559 9560 9561 9562 9563 9564 9565 9566 9567 9568 9569 9570 9571 9572 9573 9574 9575 9576 9577 9578 9579 9580 9581 9582 9583 9584 9585 9586 9587 9588 9589 9590 9591 9592 9593 9594 9595 9596 9597 9598 9599 9600 9601 9602 9603 9604 9605 9606 9607 9608 9609 9610 9611 9612 9613 9614 9615 9616 9617 9618 9619 9620 9621 9622 9623 9624 9625 9626 9627 9628 9629 9630 9631 9632 9633 9634 9635 9636 9637 9638 9639 9640 9641 9642 9643 9644 9645 9646 9647 9648 9649 9650 9651 9652 9653 9654 9655 9656 9657 9658 9659 9660 9661 9662 9663 9664 9665 9666 9667 9668 9669 9670 9671 9672 9673 9674 9675 9676 9677 9678 9679 9680 9681 9682 9683 9684 9685 9686 9687 9688 9689 9690 9691 9692 9693 9694 9695 9696 9697 9698 9699 9700 9701 9702 9703 9704 9705 9706 9707 9708 9709 9710 9711 9712 9713 9714 9715 9716 9717 9718 9719 9720 9721 9722 9723 9724 9725 9726 9727 9728 9729 9730 9731 9732 9733 9734 9735 9736 9737 9738 9739 9740 9741 9742 9743 9744 9745 9746 9747 9748 9749 9750 9751 9752 9753 9754 9755 9756 9757 9758 9759 9760 9761 9762 9763 9764 9765 9766 9767 9768 9769 9770 9771 9772 9773 9774 9775 9776 9777 9778 9779 9780 9781 9782 9783 9784 9785 9786 9787 9788 9789 9790 9791 9792 9793 9794 9795 9796 9797 9798 9799 9800 9801 9802 9803 9804 9805 9806 9807 9808 9809 9810 9811 9812 9813 9814 9815 9816 9817 9818 9819 9820 9821 9822 9823 9824 9825 9826 9827 9828 9829 9830 9831 9832 9833 9834 9835 9836 9837 9838 9839 9840 9841 9842 9843 9844 9845 9846 9847 9848 9849 9850 9851 9852 9853 9854 9855 9856 9857 9858 9859 9860 9861 9862 9863 9864 9865 9866 9867 9868 9869 9870 9871 9872 9873 9874 9875 9876 9877 9878 9879 9880 9881 9882 9883 9884 9885 9886 9887 9888 9889 9890 9891 9892 9893 9894 9895 9896 9897 9898 9899 9900 9901 9902 9903 9904 9905 9906 9907 9908 9909 9910 9911 9912 9913 9914 9915 9916 9917 9918 9919 9920 9921 9922 9923 9924 9925 9926 9927 9928 9929 9930 9931 9932 9933 9934 9935 9936 9937 9938 9939 9940 9941 9942 9943 9944 9945 9946 9947 9948 9949 9950 9951 9952 9953 9954 9955 9956 9957 9958 9959 9960 9961 9962 9963 9964 9965 9966 9967 9968 9969 9970 9971 9972 9973 9974 9975 9976 9977 9978 9979 9980 9981 9982 9983 9984 9985 9986 9987 9988 9989 9990 9991 9992 9993 9994 9995 9996 9997 9998 9999 10000 10001 10002 10003 10004 10005 10006 10007 10008 10009 10010 10011 10012 10013 10014 10015 10016 10017 10018 10019 10020 10021 10022 10023 10024 10025 10026 10027 10028 10029 10030 10031 10032 10033 10034 10035 10036 10037 10038 10039 10040 10041 10042 10043 10044 10045 10046 10047 10048 10049 10050 10051 10052 10053 10054 10055 10056 10057 10058 10059 10060 10061 10062 10063 10064 10065 10066 10067 10068 10069 10070 10071 10072 10073 10074 10075 10076 10077 10078 10079 10080 10081 10082 10083 10084 10085 10086 10087 10088 10089 10090 10091 10092 10093 10094 10095 10096 10097 10098 10099 10100 10101 10102 10103 10104 10105 10106 10107 10108 10109 10110 10111 10112 10113 10114 10115 10116 10117 10118 10119 10120 10121 10122 10123 10124 10125 10126 10127 10128 10129 10130 10131 10132 10133 10134 10135 10136 10137 10138 10139 10140 10141 10142 10143 10144 10145 10146 10147 10148 10149 10150 10151 10152 10153 10154 10155 10156 10157 10158 10159 10160 10161 10162 10163 10164 10165 10166 10167 10168 10169 10170 10171 10172 10173 10174 10175 10176 10177 10178 10179 10180 10181 10182 10183 10184 10185 10186 10187 10188 10189 10190 10191 10192 10193 10194 10195 10196 10197 10198 10199 10200 10201 10202 10203 10204 10205 10206 10207 10208 10209 10210 10211 10212 10213 10214 10215 10216 10217 10218 10219 10220 10221 10222 10223 10224 10225 10226 10227 10228 10229 10230 10231 10232 10233 10234 10235 10236 10237 10238 10239 10240 10241 10242 10243 10244 10245 10246 10247 10248 10249 10250 10251 10252 10253 10254 10255 10256 10257 10258 10259 10260 10261 10262 10263 10264 10265 10266 10267 10268 10269 10270 10271 10272 10273 10274 10275 10276 10277 10278 10279 10280 10281 10282 10283 10284 10285 10286 10287 10288 10289 10290 10291 10292 10293 10294 10295 10296 10297 10298 10299 10300 10301 10302 10303 10304 10305 10306 10307 10308 10309 10310 10311 10312 10313 10314 10315 10316 10317 10318 10319 10320 10321 10322 10323 10324 10325 10326 10327 10328 10329 10330 10331 10332 10333 10334 10335 10336 10337 10338 10339 10340 10341 10342 10343 10344 10345 10346 10347 10348 10349 10350 10351 10352 10353 10354 10355 10356 10357 10358 10359 10360 10361 10362 10363 10364 10365 10366 10367 10368 10369 10370 10371 10372 10373 10374 10375 10376 10377 10378 10379 10380 10381 10382 10383 10384 10385 10386 10387 10388 10389 10390 10391 10392 10393 10394 10395 10396 10397 10398 10399 10400 10401 10402 10403 10404 10405 10406 10407 10408 10409 10410 10411 10412 10413 10414 10415 10416 10417 10418 10419 10420 10421 10422 10423 10424 10425 10426 10427 10428 10429 10430 10431 10432 10433 10434 10435 10436 10437 10438 10439 10440 10441 10442 10443 10444 10445 10446 10447 10448 10449 10450 10451 10452 10453 10454 10455 10456 10457 10458 10459 10460 10461 10462 10463 10464 10465 10466 10467 10468 10469 10470 10471 10472 10473 10474 10475 10476 10477 10478 10479 10480 10481 10482 10483 10484 10485 10486 10487 10488 10489 10490 10491 10492 10493 10494 10495 10496 10497 10498 10499 10500 10501 10502 10503 10504 10505 10506 10507 10508 10509 10510 10511 10512 10513 10514 10515 10516 10517 10518 10519 10520 10521 10522 10523 10524 10525 10526 10527 10528 10529 10530 10531 10532 10533 10534 10535 10536 10537 10538 10539 10540 10541 10542 10543 10544 10545 10546 10547 10548 10549 10550 10551 10552 10553 10554 10555 10556 10557 10558 10559 10560 10561 10562 10563 10564 10565 10566 10567 10568 10569 10570 10571 10572 10573 10574 10575 10576 10577 10578 10579 10580 10581 10582 10583 10584 10585 10586 10587 10588 10589 10590 10591 10592 10593 10594 10595 10596 10597 10598 10599 10600 10601 10602 10603 10604 10605 10606 10607 10608 10609 10610 10611 10612 10613 10614 10615 10616 10617 10618 10619 10620 10621 10622 10623 10624 10625 10626 10627 10628 10629 10630 10631 10632 10633 10634 10635 10636 10637 10638 10639 10640 10641 10642 10643 10644 10645 10646 10647 10648 10649 10650 10651 10652 10653 10654 10655 10656 10657 10658 10659 10660 10661 10662 10663 10664 10665 10666 10667 10668 10669 10670 10671 10672 10673 10674 10675 10676 10677 10678 10679 10680 10681 10682 10683 10684 10685 10686 10687 10688 10689 10690 10691 10692 10693 10694 10695 10696 10697 10698 10699 10700 10701 10702 10703 10704 10705 10706 10707 10708 10709 10710 10711 10712 10713 10714 10715 10716 10717 10718 10719 10720 10721 10722 10723 10724 10725 10726 10727 10728 10729 10730 10731 10732 10733 10734 10735 10736 10737 10738 10739 10740 10741 10742 10743 10744 10745 10746 10747 10748 10749 10750 10751 10752 10753 10754 10755 10756 10757 10758 10759 10760 10761 10762 10763 10764 10765 10766 10767 10768 10769 10770 10771 10772 10773 10774 10775 10776 10777 10778 10779 10780 10781 10782 10783 10784 10785 10786 10787 10788 10789 10790 10791 10792 10793 10794 10795 10796 10797 10798 10799 10800 10801 10802 10803 10804 10805 10806 10807 10808 10809 10810 10811 10812 10813 10814 10815 10816 10817 10818 10819 10820 10821 10822 10823 10824 10825 10826 10827 10828 10829 10830 10831 10832 10833 10834 10835 10836 10837 10838 10839 10840 10841 10842 10843 10844 10845 10846 10847 10848 10849 10850 10851 10852 10853 10854 10855 10856 10857 10858 10859 10860 10861 10862 10863 10864 10865 10866 10867 10868 10869 10870 10871 10872 10873 10874 10875 10876 10877 10878 10879 10880 10881 10882 10883 10884 10885 10886 10887 10888 10889 10890 10891 10892 10893 10894 10895 10896 10897 10898 10899 10900 10901 10902 10903 10904 10905 10906 10907 10908 10909 10910 10911 10912 10913 10914 10915 10916 10917 10918 10919 10920 10921 10922 10923 10924 10925 10926 10927 10928 10929 10930 10931 10932 10933 10934 10935 10936 10937 10938 10939 10940 10941 10942 10943 10944 10945 10946 10947 10948 10949 10950 10951 10952 10953 10954 10955 10956 10957 10958 10959 10960 10961 10962 10963 10964 10965 10966 10967 10968 10969 10970 10971 10972 10973 10974 10975 10976 10977 10978 10979 10980 10981 10982 10983 10984 10985 10986 10987 10988 10989 10990 10991 10992 10993 10994 10995 10996 10997 10998 10999 11000 11001 11002 11003 11004 11005 11006 11007 11008 11009 11010 11011 11012 11013 11014 11015 11016 11017 11018 11019 11020 11021 11022 11023 11024 11025 11026 11027 11028 11029 11030 11031 11032 11033 11034 11035 11036 11037 11038 11039 11040 11041 11042 11043 11044 11045 11046 11047 11048 11049 11050 11051 11052 11053 11054 11055 11056 11057 11058 11059 11060 11061 11062 11063 11064 11065 11066 11067 11068 11069 11070 11071 11072 11073 11074 11075 11076 11077 11078 11079 11080 11081 11082 11083 11084 11085 11086 11087 11088 11089 11090 11091 11092 11093 11094 11095 11096 11097 11098 11099 11100 11101 11102 11103 11104 11105 11106 11107 11108 11109 11110 11111 11112 11113 11114 11115 11116 11117 11118 11119 11120 11121 11122 11123 11124 11125 11126 11127 11128 11129 11130 11131 11132 11133 11134 11135 11136 11137 11138 11139 11140 11141 11142 11143 11144 11145 11146 11147 11148 11149 11150 11151 11152 11153 11154 11155 11156 11157 11158 11159 11160 11161 11162 11163 11164 11165 11166 11167 11168 11169 11170 11171 11172 11173 11174 11175 11176 11177 11178 11179 11180 11181 11182 11183 11184 11185 11186 11187 11188 11189 11190 11191 11192 11193 11194 11195 11196 11197 11198 11199 11200 11201 11202 11203 11204 11205 11206 11207 11208 11209 11210 11211 11212 11213 11214 11215 11216 11217 11218 11219 11220 11221 11222 11223 11224 11225 11226 11227 11228 11229 11230 11231 11232 11233 11234 11235 11236 11237 11238 11239 11240 11241 11242 11243 11244 11245 11246 11247 11248 11249 11250 11251 11252 11253 11254 11255 11256 11257 11258 11259 11260 11261 11262 11263 11264 11265 11266 11267 11268 11269 11270 11271 11272 11273 11274 11275 11276 11277 11278 11279 11280 11281 11282 11283 11284 11285 11286 11287 11288 11289 11290 11291 11292 11293 11294 11295 11296 11297 11298 11299 11300 11301 11302 11303 11304 11305 11306 11307 11308 11309 11310 11311 11312 11313 11314 11315 11316 11317 11318 11319 11320 11321 11322 11323 11324 11325 11326 11327 11328 11329 11330 11331 11332 11333 11334 11335 11336 11337 11338 11339 11340 11341 11342 11343 11344 11345 11346 11347 11348 11349 11350 11351 11352 11353 11354 11355 11356 11357 11358 11359 11360 11361 11362 11363 11364 11365 11366 11367 11368 11369 11370 11371 11372 11373 11374 11375 11376 11377 11378 11379 11380 11381 11382 11383 11384 11385 11386 11387 11388 11389 11390 11391 11392 11393 11394 11395 11396 11397 11398 11399 11400 11401 11402 11403 11404 11405 11406 11407 11408 11409 11410 11411 11412 11413 11414 11415 11416 11417 11418 11419 11420 11421 11422 11423 11424 11425 11426 11427 11428 11429 11430 11431 11432 11433 11434 11435 11436 11437 11438 11439 11440 11441 11442 11443 11444 11445 11446 11447 11448 11449 11450 11451 11452 11453 11454 11455 11456 11457 11458 11459 11460 11461 11462 11463 11464 11465 11466 11467 11468 11469 11470 11471 11472 11473 11474 11475 11476 11477 11478 11479 11480 11481 11482 11483 11484 11485 11486 11487 11488 11489 11490 11491 11492 11493 11494 11495 11496 11497 11498 11499 11500 11501 11502 11503 11504 11505 11506 11507 11508 11509 11510 11511 11512 11513 11514 11515 11516 11517 11518 11519 11520 11521 11522 11523 11524 11525 11526 11527 11528 11529 11530 11531 11532 11533 11534 11535 11536 11537 11538 11539 11540 11541 11542 11543 11544 11545 11546 11547 11548 11549 11550 11551 11552 11553 11554 11555 11556 11557 11558 11559 11560 11561 11562 11563 11564 11565 11566 11567 11568 11569 11570 11571 11572 11573 11574 11575 11576 11577 11578 11579 11580 11581 11582 11583 11584 11585 11586 11587 11588 11589 11590 11591 11592 11593 11594 11595 11596 11597 11598 11599 11600 11601 11602 11603 11604 11605 11606 11607 11608 11609 11610 11611 11612 11613 11614 11615 11616 11617 11618 11619 11620 11621 11622 11623 11624 11625 11626 11627 11628 11629 11630 11631 11632 11633 11634 11635 11636 11637 11638 11639 11640 11641 11642 11643 11644 11645 11646 11647 11648 11649 11650 11651 11652 11653 11654 11655 11656 11657 11658 11659 11660 11661 11662 11663 11664 11665 11666 11667 11668 11669 11670 11671 11672 11673 11674 11675 11676 11677 11678 11679 11680 11681 11682 11683 11684 11685 11686 11687 11688 11689 11690 11691 11692 11693 11694 11695 11696 11697 11698 11699 11700 11701 11702 11703 11704 11705 11706 11707 11708 11709 11710 11711 11712 11713 11714 11715 11716 11717 11718 11719 11720 11721 11722 11723 11724 11725 11726 11727 11728 11729 11730 11731 11732 11733 11734 11735 11736 11737 11738 11739 11740 11741 11742 11743 11744 11745 11746 11747 11748 11749 11750 11751 11752 11753 11754 11755 11756 11757 11758 11759 11760 11761 11762 11763 11764 11765 11766 11767 11768 11769 11770 11771 11772 11773 11774 11775 11776 11777 11778 11779 11780 11781 11782 11783 11784 11785 11786 11787 11788 11789 11790 11791 11792 11793 11794 11795 11796 11797 11798 11799 11800 11801 11802 11803 11804 11805 11806 11807 11808 11809 11810 11811 11812 11813 11814 11815 11816 11817 11818 11819 11820 11821 11822 11823 11824 11825 11826 11827 11828 11829 11830 11831 11832 11833 11834 11835 11836 11837 11838 11839 11840 11841 11842 11843 11844 11845 11846 11847 11848 11849 11850 11851 11852 11853 11854 11855 11856 11857 11858 11859 11860 11861 11862 11863 11864 11865 11866 11867 11868 11869 11870 11871 11872 11873 11874 11875 11876 11877 11878 11879 11880 11881 11882 11883 11884 11885 11886 11887 11888 11889 11890 11891 11892 11893 11894 11895 11896 11897 11898 11899 11900 11901 11902 11903 11904 11905 11906 11907 11908 11909 11910 11911 11912 11913 11914 11915 11916 11917 11918 11919 11920 11921 11922 11923 11924 11925 11926 11927 11928 11929 11930 11931 11932 11933 11934 11935 11936 11937 11938 11939 11940 11941 11942 11943 11944 11945 11946 11947 11948 11949 11950 11951 11952 11953 11954 11955 11956 11957 11958 11959 11960 11961 11962 11963 11964 11965 11966 11967 11968 11969 11970 11971 11972 11973 11974 11975 11976 11977 11978 11979 11980 11981 11982 11983 11984 11985 11986 11987 11988 11989 11990 11991 11992 11993 11994 11995 11996 11997 11998 11999 12000 12001 12002 12003 12004 12005 12006 12007 12008 12009 12010 12011 12012 12013 12014 12015 12016 12017 12018 12019 12020 12021 12022 12023 12024 12025 12026 12027 12028 12029 12030 12031 12032 12033 12034 12035 12036 12037 12038 12039 12040 12041 12042 12043 12044 12045 12046 12047 12048 12049 12050 12051 12052 12053 12054 12055 12056 12057 12058 12059 12060 12061 12062 12063 12064 12065 12066 12067 12068 12069 12070 12071 12072 12073 12074 12075 12076 12077 12078 12079 12080 12081 12082 12083 12084 12085 12086 12087 12088 12089 12090 12091 12092 12093 12094 12095 12096 12097 12098 12099 12100 12101 12102 12103 12104 12105 12106 12107 12108 12109 12110 12111 12112 12113 12114 12115 12116 12117 12118 12119 12120 12121 12122 12123 12124 12125 12126 12127 12128 12129 12130 12131 12132 12133 12134 12135 12136 12137 12138 12139 12140 12141 12142 12143 12144 12145 12146 12147 12148 12149 12150 12151 12152 12153 12154 12155 12156 12157 12158 12159 12160 12161 12162 12163 12164 12165 12166 12167 12168 12169 12170 12171 12172 12173 12174 12175 12176 12177 12178 12179 12180 12181 12182 12183 12184 12185 12186 12187 12188 12189 12190 12191 12192 12193 12194 12195 12196 12197 12198 12199 12200 12201 12202 12203 12204 12205 12206 12207 12208 12209 12210 12211 12212 12213 12214 12215 12216 12217 12218 12219 12220 12221 12222 12223 12224 12225 12226 12227 12228 12229 12230 12231 12232 12233 12234 12235 12236 12237 12238 12239 12240 12241 12242 12243 12244 12245 12246 12247 12248 12249 12250 12251 12252 12253 12254 12255 12256 12257 12258 12259 12260 12261 12262 12263 12264 12265 12266 12267 12268 12269 12270 12271 12272 12273 12274 12275 12276 12277 12278 12279 12280 12281 12282 12283 12284 12285 12286 12287 12288 12289 12290 12291 12292 12293 12294 12295 12296 12297 12298 12299 12300 12301 12302 12303 12304 12305 12306 12307 12308 12309 12310 12311 12312 12313 12314 12315 12316 12317 12318 12319 12320 12321 12322 12323 12324 12325 12326 12327 12328 12329 12330 12331 12332 12333 12334 12335 12336 12337 12338 12339 12340 12341 12342 12343 12344 12345 12346 12347 12348 12349 12350 12351 12352 12353 12354 12355 12356 12357 12358 12359 12360 12361 12362 12363 12364 12365 12366 12367 12368 12369 12370 12371 12372 12373 12374 12375 12376 12377 12378 12379 12380 12381 12382 12383 12384 12385 12386 12387 12388 12389 12390 12391 12392 12393 12394 12395 12396 12397 12398 12399 12400 12401 12402 12403 12404 12405 12406 12407 12408 12409 12410 12411 12412 12413 12414 12415 12416 12417 12418 12419 12420 12421 12422 12423 12424 12425 12426 12427 12428 12429 12430 12431 12432 12433 12434 12435 12436 12437 12438 12439 12440 12441 12442 12443 12444 12445 12446 12447 12448 12449 12450 12451 12452 12453 12454 12455 12456 12457 12458 12459 12460 12461 12462 12463 12464 12465 12466 12467 12468 12469 12470 12471 12472 12473 12474 12475 12476 12477 12478 12479 12480 12481 12482 12483 12484 12485 12486 12487 12488 12489 12490 12491 12492 12493 12494 12495 12496 12497 12498 12499 12500 12501 12502 12503 12504 12505 12506 12507 12508 12509 12510 12511 12512 12513 12514 12515 12516 12517 12518 12519 12520 12521 12522 12523 12524 12525 12526 12527 12528 12529 12530 12531 12532 12533 12534 12535 12536 12537 12538 12539 12540 12541 12542 12543 12544 12545 12546 12547 12548 12549 12550 12551 12552 12553 12554 12555 12556 12557 12558 12559 12560 12561 12562 12563 12564 12565 12566 12567 12568 12569 12570 12571 12572 12573 12574 12575 12576 12577 12578 12579 12580 12581 12582 12583 12584 12585 12586 12587 12588 12589 12590 12591 12592 12593 12594 12595 12596 12597 12598 12599 12600 12601 12602 12603 12604 12605 12606 12607 12608 12609 12610 12611 12612 12613 12614 12615 12616 12617 12618 12619 12620 12621 12622 12623 12624 12625 12626 12627 12628 12629 12630 12631 12632 12633 12634 12635 12636 12637 12638 12639 12640 12641 12642 12643 12644 12645 12646 12647 12648 12649 12650 12651 12652 12653 12654 12655 12656 12657 12658 12659 12660 12661 12662 12663 12664 12665 12666 12667 12668 12669 12670 12671 12672 12673 12674 12675 12676 12677 12678 12679 12680 12681 12682 12683 12684 12685 12686 12687 12688 12689 12690 12691 12692 12693 12694 12695 12696 12697 12698 12699 12700 12701 12702 12703 12704 12705 12706 12707 12708 12709 12710 12711 12712 12713 12714 12715 12716 12717 12718 12719 12720 12721 12722 12723 12724 12725 12726 12727 12728 12729 12730 12731 12732 12733 12734 12735 12736 12737 12738 12739 12740 12741 12742 12743 12744 12745 12746 12747 12748 12749 12750 12751 12752 12753 12754 12755 12756 12757 12758 12759 12760 12761 12762 12763 12764 12765 12766 12767 12768 12769 12770 12771 12772 12773 12774 12775 12776 12777 12778 12779 12780 12781 12782 12783 12784 12785 12786 12787 12788 12789 12790 12791 12792 12793 12794 12795 12796 12797 12798 12799 12800 12801 12802 12803 12804 12805 12806 12807 12808 12809 12810 12811 12812 12813 12814 12815 12816 12817 12818 12819 12820 12821 12822 12823 12824 12825 12826 12827 12828 12829 12830 12831 12832 12833 12834 12835 12836 12837 12838 12839 12840 12841 12842 12843 12844 12845 12846 12847 12848 12849 12850 12851 12852 12853 12854 12855 12856 12857 12858 12859 12860 12861 12862 12863 12864 12865 12866 12867 12868 12869 12870 12871 12872 12873 12874 12875 12876 12877 12878 12879 12880 12881 12882 12883 12884 12885 12886 12887 12888 12889 12890 12891 12892 12893 12894 12895 12896 12897 12898 12899 12900 12901 12902 12903 12904 12905 12906 12907 12908 12909 12910 12911 12912 12913 12914 12915 12916 12917 12918 12919 12920 12921 12922 12923 12924 12925 12926 12927 12928 12929 12930 12931 12932 12933 12934 12935 12936 12937 12938 12939 12940 12941 12942 12943 12944 12945 12946 12947 12948 12949 12950 12951 12952 12953 12954 12955 12956 12957 12958 12959 12960 12961 12962 12963 12964 12965 12966 12967 12968 12969 12970 12971 12972 12973 12974 12975 12976 12977 12978 12979 12980 12981 12982 12983 12984 12985 12986 12987 12988 12989 12990 12991 12992 12993 12994 12995 12996 12997 12998 12999 13000 13001 13002 13003 13004 13005 13006 13007 13008 13009 13010 13011 13012 13013 13014 13015 13016 13017 13018 13019 13020 13021 13022 13023 13024 13025 13026 13027 13028 13029 13030 13031 13032 13033 13034 13035 13036 13037 13038 13039 13040 13041 13042 13043 13044 13045 13046 13047 13048 13049 13050 13051 13052 13053 13054 13055 13056 13057 13058 13059 13060 13061 13062 13063 13064 13065 13066 13067 13068 13069 13070 13071 13072 13073 13074 13075 13076 13077 13078 13079 13080 13081 13082 13083 13084 13085 13086 13087 13088 13089 13090 13091 13092 13093 13094 13095 13096 13097 13098 13099 13100 13101 13102 13103 13104 13105 13106 13107 13108 13109 13110 13111 13112 13113 13114 13115 13116 13117 13118 13119 13120 13121 13122 13123 13124 13125 13126 13127 13128 13129 13130 13131 13132 13133 13134 13135 13136 13137 13138 13139 13140 13141 13142 13143 13144 13145 13146 13147 13148 13149 13150 13151 13152 13153 13154 13155 13156 13157 13158 13159 13160 13161 13162 13163 13164 13165 13166 13167 13168 13169 13170 13171 13172 13173 13174 13175 13176 13177 13178 13179 13180 13181 13182 13183 13184 13185 13186 13187 13188 13189 13190 13191 13192 13193 13194 13195 13196 13197 13198 13199 13200 13201 13202 13203 13204 13205 13206 13207 13208 13209 13210 13211 13212 13213 13214 13215 13216 13217 13218 13219 13220 13221 13222 13223 13224 13225 13226 13227 13228 13229 13230 13231 13232 13233 13234 13235 13236 13237 13238 13239 13240 13241 13242 13243 13244 13245 13246 13247 13248 13249 13250 13251 13252 13253 13254 13255 13256 13257 13258 13259 13260 13261 13262 13263 13264 13265 13266 13267 13268 13269 13270 13271 13272 13273 13274 13275 13276 13277 13278 13279 13280 13281 13282 13283 13284 13285 13286 13287 13288 13289 13290 13291 13292 13293 13294 13295 13296 13297 13298 13299 13300 13301 13302 13303 13304 13305 13306 13307 13308 13309 13310 13311 13312 13313 13314 13315 13316 13317 13318 13319 13320 13321 13322 13323 13324 13325 13326 13327 13328 13329 13330 13331 13332 13333 13334 13335 13336 13337 13338 13339 13340 13341 13342 13343 13344 13345 13346 13347 13348 13349 13350 13351 13352 13353 13354 13355 13356 13357 13358 13359 13360 13361 13362 13363 13364 13365 13366 13367 13368 13369 13370 13371 13372 13373 13374 13375 13376 13377 13378 13379 13380 13381 13382 13383 13384 13385 13386 13387 13388 13389 13390 13391 13392 13393 13394 13395 13396 13397 13398 13399 13400 13401 13402 13403 13404 13405 13406 13407 13408 13409 13410 13411 13412 13413 13414 13415 13416 13417 13418 13419 13420 13421 13422 13423 13424 13425 13426 13427 13428 13429 13430 13431 13432 13433 13434 13435 13436 13437 13438 13439 13440 13441 13442 13443 13444 13445 13446 13447 13448 13449 13450 13451 13452 13453 13454 13455 13456 13457 13458 13459 13460 13461 13462 13463 13464 13465 13466 13467 13468 13469 13470 13471 13472 13473 13474 13475 13476 13477 13478 13479 13480 13481 13482 13483 13484 13485 13486 13487 13488 13489 13490 13491 13492 13493 13494 13495 13496 13497 13498 13499 13500 13501 13502 13503 13504 13505 13506 13507 13508 13509 13510 13511 13512 13513 13514 13515 13516 13517 13518 13519 13520 13521 13522 13523 13524 13525 13526 13527 13528 13529 13530 13531 13532 13533 13534 13535 13536 13537 13538 13539 13540 13541 13542 13543 13544 13545 13546 13547 13548 13549 13550 13551 13552 13553 13554 13555 13556 13557 13558 13559 13560 13561 13562 13563 13564 13565 13566 13567 13568 13569 13570 13571 13572 13573 13574 13575 13576 13577 13578 13579 13580 13581 13582 13583 13584 13585 13586 13587 13588 13589 13590 13591 13592 13593 13594 13595 13596 13597 13598 13599 13600 13601 13602 13603 13604 13605 13606 13607 13608 13609 13610 13611 13612 13613 13614 13615 13616 13617 13618 13619 13620 13621 13622 13623 13624 13625 13626 13627 13628 13629 13630 13631 13632 13633 13634 13635 13636 13637 13638 13639 13640 13641 13642 13643 13644 13645 13646 13647 13648 13649 13650 13651 13652 13653 13654 13655 13656 13657 13658 13659 13660 13661 13662 13663 13664 13665 13666 13667 13668 13669 13670 13671 13672 13673 13674 13675 13676 13677 13678 13679 13680 13681 13682 13683 13684 13685 13686 13687 13688 13689 13690 13691 13692 13693 13694 13695 13696 13697 13698 13699 13700 13701 13702 13703 13704 13705 13706 13707 13708 13709 13710 13711 13712 13713 13714 13715 13716 13717 13718 13719 13720 13721 13722 13723 13724 13725 13726 13727 13728 13729 13730 13731 13732 13733 13734 13735 13736 13737 13738 13739 13740 13741 13742 13743 13744 13745 13746 13747 13748 13749 13750 13751 13752 13753 13754 13755 13756 13757 13758 13759 13760 13761 13762 13763 13764 13765 13766 13767 13768 13769 13770 13771 13772 13773 13774 13775 13776 13777 13778 13779 13780 13781 13782 13783 13784 13785 13786 13787 13788 13789 13790 13791 13792 13793 13794 13795 13796 13797 13798 13799 13800 13801 13802 13803 13804 13805 13806 13807 13808 13809 13810 13811 13812 13813 13814 13815 13816 13817 13818 13819 13820 13821 13822 13823 13824 13825 13826 13827 13828 13829 13830 13831 13832 13833 13834 13835 13836 13837 13838 13839 13840 13841 13842 13843 13844 13845 13846 13847 13848 13849 13850 13851 13852 13853 13854 13855 13856 13857 13858 13859 13860 13861 13862 13863 13864 13865 13866 13867 13868 13869 13870 13871 13872 13873 13874 13875 13876 13877 13878 13879 13880 13881 13882 13883 13884 13885 13886 13887 13888 13889 13890 13891 13892 13893 13894 13895 13896 13897 13898 13899 13900 13901 13902 13903 13904 13905 13906 13907 13908 13909 13910 13911 13912 13913 13914 13915 13916 13917 13918 13919 13920 13921 13922 13923 13924 13925 13926 13927 13928 13929 13930 13931 13932 13933 13934 13935 13936 13937 13938 13939 13940 13941 13942 13943 13944 13945 13946 13947 13948 13949 13950 13951 13952 13953 13954 13955 13956 13957 13958 13959 13960 13961 13962 13963 13964 13965 13966 13967 13968 13969 13970 13971 13972 13973 13974 13975 13976 13977 13978 13979 13980 13981 13982 13983 13984 13985 13986 13987 13988 13989 13990 13991 13992 13993 13994 13995 13996 13997 13998 13999 14000 14001 14002 14003 14004 14005 14006 14007 14008 14009 14010 14011 14012 14013 14014 14015 14016 14017 14018 14019 14020 14021 14022 14023 14024 14025 14026 14027 14028 14029 14030 14031 14032 14033 14034 14035 14036 14037 14038 14039 14040 14041 14042 14043 14044 14045 14046 14047 14048 14049 14050 14051 14052 14053 14054 14055 14056 14057 14058 14059 14060 14061 14062 14063 14064 14065 14066 14067 14068 14069 14070 14071 14072 14073 14074 14075 14076 14077 14078 14079 14080 14081 14082 14083 14084 14085 14086 14087 14088 14089 14090 14091 14092 14093 14094 14095 14096 14097 14098 14099 14100 14101 14102 14103 14104 14105 14106 14107 14108 14109 14110 14111 14112 14113 14114 14115 14116 14117 14118 14119 14120 14121 14122 14123 14124 14125 14126 14127 14128 14129 14130 14131 14132 14133 14134 14135 14136 14137 14138 14139 14140 14141 14142 14143 14144 14145 14146 14147 14148 14149 14150 14151 14152 14153 14154 14155 14156 14157 14158 14159 14160 14161 14162 14163 14164 14165 14166 14167 14168 14169 14170 14171 14172 14173 14174 14175 14176 14177 14178 14179 14180 14181 14182 14183 14184 14185 14186 14187 14188 14189 14190 14191 14192 14193 14194 14195 14196 14197 14198 14199 14200 14201 14202 14203 14204 14205 14206 14207 14208 14209 14210 14211 14212 14213 14214 14215 14216 14217 14218 14219 14220 14221 14222 14223 14224 14225 14226 14227 14228 14229 14230 14231 14232 14233 14234 14235 14236 14237 14238 14239 14240 14241 14242 14243 14244 14245 14246 14247 14248 14249 14250 14251 14252 14253 14254 14255 14256 14257 14258 14259 14260 14261 14262 14263 14264 14265 14266 14267 14268 14269 14270 14271 14272 14273 14274 14275 14276 14277 14278 14279 14280 14281 14282 14283 14284 14285 14286 14287 14288 14289 14290 14291 14292 14293 14294 14295 14296 14297 14298 14299 14300 14301 14302 14303 14304 14305 14306 14307 14308 14309 14310 14311 14312 14313 14314 14315 14316 14317 14318 14319 14320 14321 14322 14323 14324 14325 14326 14327 14328 14329 14330 14331 14332 14333 14334 14335 14336 14337 14338 14339 14340 14341 14342 14343 14344 14345 14346 14347 14348 14349 14350 14351 14352 14353 14354 14355 14356 14357 14358 14359 14360 14361 14362 14363 14364 14365 14366 14367 14368 14369 14370 14371 14372 14373 14374 14375 14376 14377 14378 14379 14380 14381 14382 14383 14384 14385 14386 14387 14388 14389 14390 14391 14392 14393 14394 14395 14396 14397 14398 14399 14400 14401 14402 14403 14404 14405 14406 14407 14408 14409 14410 14411 14412 14413 14414 14415 14416 14417 14418 14419 14420 14421 14422 14423 14424 14425 14426 14427 14428 14429 14430 14431 14432 14433 14434 14435 14436 14437 14438 14439 14440 14441 14442 14443 14444 14445 14446 14447 14448 14449 14450 14451 14452 14453 14454 14455 14456 14457 14458 14459 14460 14461 14462 14463 14464 14465 14466 14467 14468 14469 14470 14471 14472 14473 14474 14475 14476 14477 14478 14479 14480 14481 14482 14483 14484 14485 14486 14487 14488 14489 14490 14491 14492 14493 14494 14495 14496 14497 14498 14499 14500 14501 14502 14503 14504 14505 14506 14507 14508 14509 14510 14511 14512 14513 14514 14515 14516 14517 14518 14519 14520 14521 14522 14523 14524 14525 14526 14527 14528 14529 14530 14531 14532 14533 14534 14535 14536 14537 14538 14539 14540 14541 14542 14543 14544 14545 14546 14547 14548 14549 14550 14551 14552 14553 14554 14555 14556 14557 14558 14559 14560 14561 14562 14563 14564 14565 14566 14567 14568 14569 14570 14571 14572 14573 14574 14575 14576 14577 14578 14579 14580 14581 14582 14583 14584 14585 14586 14587 14588 14589 14590 14591 14592 14593 14594 14595 14596 14597 14598 14599 14600 14601 14602 14603 14604 14605 14606 14607 14608 14609 14610 14611 14612 14613 14614 14615 14616 14617 14618 14619 14620 14621 14622 14623 14624 14625 14626 14627 14628 14629 14630 14631 14632 14633 14634 14635 14636 14637 14638 14639 14640 14641 14642 14643 14644 14645 14646 14647 14648 14649 14650 14651 14652 14653 14654 14655 14656 14657 14658 14659 14660 14661 14662 14663 14664 14665 14666 14667 14668 14669 14670 14671 14672 14673 14674 14675 14676 14677 14678 14679 14680 14681 14682 14683 14684 14685 14686 14687 14688 14689 14690 14691 14692 14693 14694 14695 14696 14697 14698 14699 14700 14701 14702 14703 14704 14705 14706 14707 14708 14709 14710 14711 14712 14713 14714 14715 14716 14717 14718 14719 14720 14721 14722 14723 14724 14725 14726 14727 14728 14729 14730 14731 14732 14733 14734 14735 14736 14737 14738 14739 14740 14741 14742 14743 14744 14745 14746 14747 14748 14749 14750 14751 14752 14753 14754 14755 14756 14757 14758 14759 14760 14761 14762 14763 14764 14765 14766 14767 14768 14769 14770 14771 14772 14773 14774 14775 14776 14777 14778 14779 14780 14781 14782 14783 14784 14785 14786 14787 14788 14789 14790 14791 14792 14793 14794 14795 14796 14797 14798 14799 14800 14801 14802 14803 14804 14805 14806 14807 14808 14809 14810 14811 14812 14813 14814 14815 14816 14817 14818 14819 14820 14821 14822 14823 14824 14825 14826 14827 14828 14829 14830 14831 14832 14833 14834 14835 14836 14837 14838 14839 14840 14841 14842 14843 14844 14845 14846 14847 14848 14849 14850 14851 14852 14853 14854 14855 14856 14857 14858 14859 14860 14861 14862 14863 14864 14865 14866 14867 14868 14869 14870 14871 14872 14873 14874 14875 14876 14877 14878 14879 14880 14881 14882 14883 14884 14885 14886 14887 14888 14889 14890 14891 14892 14893 14894 14895 14896 14897 14898 14899 14900 14901 14902 14903 14904 14905 14906 14907 14908 14909 14910 14911 14912 14913 14914 14915 14916 14917 14918 14919 14920 14921 14922 14923 14924 14925 14926 14927 14928 14929 14930 14931 14932 14933 14934 14935 14936 14937 14938 14939 14940 14941 14942 14943 14944 14945 14946 14947 14948 14949 14950 14951 14952 14953 14954 14955 14956 14957 14958 14959 14960 14961 14962 14963 14964 14965 14966 14967 14968 14969 14970 14971 14972 14973 14974 14975 14976 14977 14978 14979 14980 14981 14982 14983 14984 14985 14986 14987 14988 14989 14990 14991 14992 14993 14994 14995 14996 14997 14998 14999 15000 15001 15002 15003 15004 15005 15006 15007 15008 15009 15010 15011 15012 15013 15014 15015 15016 15017 15018 15019 15020 15021 15022 15023 15024 15025 15026 15027 15028 15029 15030 15031 15032 15033 15034 15035 15036 15037 15038 15039 15040 15041 15042 15043 15044 15045 15046 15047 15048 15049 15050 15051 15052 15053 15054 15055 15056 15057 15058 15059 15060 15061 15062 15063 15064 15065 15066 15067 15068 15069 15070 15071 15072 15073 15074 15075 15076 15077 15078 15079 15080 15081 15082 15083 15084 15085 15086 15087 15088 15089 15090 15091 15092 15093 15094 15095 15096 15097 15098 15099 15100 15101 15102 15103 15104 15105 15106 15107 15108 15109 15110 15111 15112 15113 15114 15115 15116 15117 15118 15119 15120 15121 15122 15123 15124 15125 15126 15127 15128 15129 15130 15131 15132 15133 15134 15135 15136 15137 15138 15139 15140 15141 15142 15143 15144 15145 15146 15147 15148 15149 15150 15151 15152 15153 15154 15155 15156 15157 15158 15159 15160 15161 15162 15163 15164 15165 15166 15167 15168 15169 15170 15171 15172 15173 15174 15175 15176 15177 15178 15179 15180 15181 15182 15183 15184 15185 15186 15187 15188 15189 15190 15191 15192 15193 15194 15195 15196 15197 15198 15199 15200 15201 15202 15203 15204 15205 15206 15207 15208 15209 15210 15211 15212 15213 15214 15215 15216 15217 15218 15219 15220 15221 15222 15223 15224 15225 15226 15227 15228 15229 15230 15231 15232 15233 15234 15235 15236 15237 15238 15239 15240 15241 15242 15243 15244 15245 15246 15247 15248 15249 15250 15251 15252 15253 15254 15255 15256 15257 15258 15259 15260 15261 15262 15263 15264 15265 15266 15267 15268 15269 15270 15271 15272 15273 15274 15275 15276 15277 15278 15279 15280 15281 15282 15283 15284 15285 15286 15287 15288 15289 15290 15291 15292 15293 15294 15295 15296 15297 15298 15299 15300 15301 15302 15303 15304 15305 15306 15307 15308 15309 15310 15311 15312 15313 15314 15315 15316 15317 15318 15319 15320 15321 15322 15323 15324 15325 15326 15327 15328 15329 15330 15331 15332 15333 15334 15335 15336 15337 15338 15339 15340 15341 15342 15343 15344 15345 15346 15347 15348 15349 15350 15351 15352 15353 15354 15355 15356 15357 15358 15359 15360 15361 15362 15363 15364 15365 15366 15367 15368 15369 15370 15371 15372 15373 15374 15375 15376 15377 15378 15379 15380 15381 15382 15383 15384 15385 15386 15387 15388 15389 15390 15391 15392 15393 15394 15395 15396 15397 15398 15399 15400 15401 15402 15403 15404 15405 15406 15407 15408 15409 15410 15411 15412 15413 15414 15415 15416 15417 15418 15419 15420 15421 15422 15423 15424 15425 15426 15427 15428 15429 15430 15431 15432 15433 15434 15435 15436 15437 15438 15439 15440 15441 15442 15443 15444 15445 15446 15447 15448 15449 15450 15451 15452 15453 15454 15455 15456 15457 15458 15459 15460 15461 15462 15463 15464 15465 15466 15467 15468 15469 15470 15471 15472 15473 15474 15475 15476 15477 15478 15479 15480 15481 15482 15483 15484 15485 15486 15487 15488 15489 15490 15491 15492 15493 15494 15495 15496 15497 15498 15499 15500 15501 15502 15503 15504 15505 15506 15507 15508 15509 15510 15511 15512 15513 15514 15515 15516 15517 15518 15519 15520 15521 15522 15523 15524 15525 15526 15527 15528 15529 15530 15531 15532 15533 15534 15535 15536 15537 15538 15539 15540 15541 15542 15543 15544 15545 15546 15547 15548 15549 15550 15551 15552 15553 15554 15555 15556 15557 15558 15559 15560 15561 15562 15563 15564 15565 15566 15567 15568 15569 15570 15571 15572 15573 15574 15575 15576 15577 15578 15579 15580 15581 15582 15583 15584 15585 15586 15587 15588 15589 15590 15591 15592 15593 15594 15595 15596 15597 15598 15599 15600 15601 15602 15603 15604 15605 15606 15607 15608 15609 15610 15611 15612 15613 15614 15615 15616 15617 15618 15619 15620 15621 15622 15623 15624 15625 15626 15627 15628 15629 15630 15631 15632 15633 15634 15635 15636 15637 15638 15639 15640 15641 15642 15643 15644 15645 15646 15647 15648 15649 15650 15651 15652 15653 15654 15655 15656 15657 15658 15659 15660 15661 15662 15663 15664 15665 15666 15667 15668 15669 15670 15671 15672 15673 15674 15675 15676 15677 15678 15679 15680 15681 15682 15683 15684 15685 15686 15687 15688 15689 15690 15691 15692 15693 15694 15695 15696 15697 15698 15699 15700 15701 15702 15703 15704 15705 15706 15707 15708 15709 15710 15711 15712 15713 15714 15715 15716 15717 15718 15719 15720 15721 15722 15723 15724 15725 15726 15727 15728 15729 15730 15731 15732 15733 15734 15735 15736 15737 15738 15739 15740 15741 15742 15743 15744 15745 15746 15747 15748 15749 15750 15751 15752 15753 15754 15755 15756 15757 15758 15759 15760 15761 15762 15763 15764 15765 15766 15767 15768 15769 15770 15771 15772 15773 15774 15775 15776 15777 15778 15779 15780 15781 15782 15783 15784 15785 15786 15787 15788 15789 15790 15791 15792 15793 15794 15795 15796 15797 15798 15799 15800 15801 15802 15803 15804 15805 15806 15807 15808 15809 15810 15811 15812 15813 15814 15815 15816 15817 15818 15819 15820 15821 15822 15823 15824 15825 15826 15827 15828 15829 15830 15831 15832 15833 15834 15835 15836 15837 15838 15839 15840 15841 15842 15843 15844 15845 15846 15847 15848 15849 15850 15851 15852 15853 15854 15855 15856 15857 15858 15859 15860 15861 15862 15863 15864 15865 15866 15867 15868 15869 15870 15871 15872 15873 15874 15875 15876 15877 15878 15879 15880 15881 15882 15883 15884 15885 15886 15887 15888 15889 15890 15891 15892 15893 15894 15895 15896 15897 15898 15899 15900 15901 15902 15903 15904 15905 15906 15907 15908 15909 15910 15911 15912 15913 15914 15915 15916 15917 15918 15919 15920 15921 15922 15923 15924 15925 15926 15927 15928 15929 15930 15931 15932 15933 15934 15935 15936 15937 15938 15939 15940 15941 15942 15943 15944 15945 15946 15947 15948 15949 15950 15951 15952 15953 15954 15955 15956 15957 15958 15959 15960 15961 15962 15963 15964 15965 15966 15967 15968 15969 15970 15971 15972 15973 15974 15975 15976 15977 15978 15979 15980 15981 15982 15983 15984 15985 15986 15987 15988 15989 15990 15991 15992 15993 15994 15995 15996 15997 15998 15999 16000 16001 16002 16003 16004 16005 16006 16007 16008 16009 16010 16011 16012 16013 16014 16015 16016 16017 16018 16019 16020 16021 16022 16023 16024 16025 16026 16027 16028 16029 16030 16031 16032 16033 16034 16035 16036 16037 16038 16039 16040 16041 16042 16043 16044 16045 16046 16047 16048 16049 16050 16051 16052 16053 16054 16055 16056 16057 16058 16059 16060 16061 16062 16063 16064 16065 16066 16067 16068 16069 16070 16071 16072 16073 16074 16075 16076 16077 16078 16079 16080 16081 16082 16083 16084 16085 16086 16087 16088 16089 16090 16091 16092 16093 16094 16095 16096 16097 16098 16099 16100 16101 16102 16103 16104 16105 16106 16107 16108 16109 16110 16111 16112 16113 16114 16115 16116 16117 16118 16119 16120 16121 16122 16123 16124 16125 16126 16127 16128 16129 16130 16131 16132 16133 16134 16135 16136 16137 16138 16139 16140 16141 16142 16143 16144 16145 16146 16147 16148 16149 16150 16151 16152 16153 16154 16155 16156 16157 16158 16159 16160 16161 16162 16163 16164 16165 16166 16167 16168 16169 16170 16171 16172 16173 16174 16175 16176 16177 16178 16179 16180 16181 16182 16183 16184 16185 16186 16187 16188 16189 16190 16191 16192 16193 16194 16195 16196 16197 16198 16199 16200 16201 16202 16203 16204 16205 16206 16207 16208 16209 16210 16211 16212 16213 16214 16215 16216 16217 16218 16219 16220 16221 16222 16223 16224 16225 16226 16227 16228 16229 16230 16231 16232 16233 16234 16235 16236 16237 16238 16239 16240 16241 16242 16243 16244 16245 16246 16247 16248 16249 16250 16251 16252 16253 16254 16255 16256 16257 16258 16259 16260 16261 16262 16263 16264 16265 16266 16267 16268 16269 16270 16271 16272 16273 16274 16275 16276 16277 16278 16279 16280 16281 16282 16283 16284 16285 16286 16287 16288 16289 16290 16291 16292 16293 16294 16295 16296 16297 16298 16299 16300 16301 16302 16303 16304 16305 16306 16307 16308 16309 16310 16311 16312 16313 16314 16315 16316 16317 16318 16319 16320 16321 16322 16323 16324 16325 16326 16327 16328 16329 16330 16331 16332 16333 16334 16335 16336 16337 16338 16339 16340 16341 16342 16343 16344 16345 16346 16347 16348 16349 16350 16351 16352 16353 16354 16355 16356 16357 16358 16359 16360 16361 16362 16363 16364 16365 16366 16367 16368 16369 16370 16371 16372 16373 16374 16375 16376 16377 16378 16379 16380 16381 16382 16383 16384 16385 16386 16387 16388 16389 16390 16391 16392 16393 16394 16395 16396 16397 16398 16399 16400 16401 16402 16403 16404 16405 16406 16407 16408 16409 16410 16411 16412 16413 16414 16415 16416 16417 16418 16419 16420 16421 16422 16423 16424 16425 16426 16427 16428 16429 16430 16431 16432 16433 16434 16435 16436 16437 16438 16439 16440 16441 16442 16443 16444 16445 16446 16447 16448 16449 16450 16451 16452 16453 16454 16455 16456 16457 16458 16459 16460 16461 16462 16463 16464 16465 16466 16467 16468 16469 16470 16471 16472 16473 16474 16475 16476 16477 16478 16479 16480 16481 16482 16483 16484 16485 16486 16487 16488 16489 16490 16491 16492 16493 16494 16495 16496 16497 16498 16499 16500 16501 16502 16503 16504 16505 16506 16507 16508 16509 16510 16511 16512 16513 16514 16515 16516 16517 16518 16519 16520 16521 16522 16523 16524 16525 16526 16527 16528 16529 16530 16531 16532 16533 16534 16535 16536 16537 16538 16539 16540 16541 16542 16543 16544 16545 16546 16547 16548 16549 16550 16551 16552 16553 16554 16555 16556 16557 16558 16559 16560 16561 16562 16563 16564 16565 16566 16567 16568 16569 16570 16571 16572 16573 16574 16575 16576 16577 16578 16579 16580 16581 16582 16583 16584 16585 16586 16587 16588 16589 16590 16591 16592 16593 16594 16595 16596 16597 16598 16599 16600 16601 16602 16603 16604 16605 16606 16607 16608 16609 16610 16611 16612 16613 16614 16615 16616 16617 16618 16619 16620 16621 16622 16623 16624 16625 16626 16627 16628 16629 16630 16631 16632 16633 16634 16635 16636 16637 16638 16639 16640 16641 16642 16643 16644 16645 16646 16647 16648 16649 16650 16651 16652 16653 16654 16655 16656 16657 16658 16659 16660 16661 16662 16663 16664 16665 16666 16667 16668 16669 16670 16671 16672 16673 16674 16675 16676 16677 16678 16679 16680 16681 16682 16683 16684 16685 16686 16687 16688 16689 16690 16691 16692 16693 16694 16695 16696 16697 16698 16699 16700 16701 16702 16703 16704 16705 16706 16707 16708 16709 16710 16711 16712 16713 16714 16715 16716 16717 16718 16719 16720 16721 16722 16723 16724 16725 16726 16727 16728 16729 16730 16731 16732 16733 16734 16735 16736 16737 16738 16739 16740 16741 16742 16743 16744 16745 16746 16747 16748 16749 16750 16751 16752 16753 16754 16755 16756 16757 16758 16759 16760 16761 16762 16763 16764 16765 16766 16767 16768 16769 16770 16771 16772 16773 16774 16775 16776 16777 16778 16779 16780 16781 16782 16783 16784 16785 16786 16787 16788 16789 16790 16791 16792 16793 16794 16795 16796 16797 16798 16799 16800 16801 16802 16803 16804 16805 16806 16807 16808 16809 16810 16811 16812 16813 16814 16815 16816 16817 16818 16819 16820 16821 16822 16823 16824 16825 16826 16827 16828 16829 16830 16831 16832 16833 16834 16835 16836 16837 16838 16839 16840 16841 16842 16843 16844 16845 16846 16847 16848 16849 16850 16851 16852 16853 16854 16855 16856 16857 16858 16859 16860 16861 16862 16863 16864 16865 16866 16867 16868 16869 16870 16871 16872 16873 16874 16875 16876 16877 16878 16879 16880 16881 16882 16883 16884 16885 16886 16887 16888 16889 16890 16891 16892 16893 16894 16895 16896 16897 16898 16899 16900 16901 16902 16903 16904 16905 16906 16907 16908 16909 16910 16911 16912 16913 16914 16915 16916 16917 16918 16919 16920 16921 16922 16923 16924 16925 16926 16927 16928 16929 16930 16931 16932 16933 16934 16935 16936 16937 16938 16939 16940 16941 16942 16943 16944 16945 16946 16947 16948 16949 16950 16951 16952 16953 16954 16955 16956 16957 16958 16959 16960 16961 16962 16963 16964 16965 16966 16967 16968 16969 16970 16971 16972 16973 16974 16975 16976 16977 16978 16979 16980 16981 16982 16983 16984 16985 16986 16987 16988 16989 16990 16991 16992 16993 16994 16995 16996 16997 16998 16999 17000 17001 17002 17003 17004 17005 17006 17007 17008 17009 17010 17011 17012 17013 17014 17015 17016 17017 17018 17019 17020 17021 17022 17023 17024 17025 17026 17027 17028 17029 17030 17031 17032 17033 17034 17035 17036 17037 17038 17039 17040 17041 17042 17043 17044 17045 17046 17047 17048 17049 17050 17051 17052 17053 17054 17055 17056 17057 17058 17059 17060 17061 17062 17063 17064 17065 17066 17067 17068 17069 17070 17071 17072 17073 17074 17075 17076 17077 17078 17079 17080 17081 17082 17083 17084 17085 17086 17087 17088 17089 17090 17091 17092 17093 17094 17095 17096 17097 17098 17099 17100 17101 17102 17103 17104 17105 17106 17107 17108 17109 17110 17111 17112 17113 17114 17115 17116 17117 17118 17119 17120 17121 17122 17123 17124 17125 17126 17127 17128 17129 17130 17131 17132 17133 17134 17135 17136 17137 17138 17139 17140 17141 17142 17143 17144 17145 17146 17147 17148 17149 17150 17151 17152 17153 17154 17155 17156 17157 17158 17159 17160 17161 17162 17163 17164 17165 17166 17167 17168 17169 17170 17171 17172 17173 17174 17175 17176 17177 17178 17179 17180 17181 17182 17183 17184 17185 17186 17187 17188 17189 17190 17191 17192 17193 17194 17195 17196 17197 17198 17199 17200 17201 17202 17203 17204 17205 17206 17207 17208 17209 17210 17211 17212 17213 17214 17215 17216 17217 17218 17219 17220 17221 17222 17223 17224 17225 17226 17227 17228 17229 17230 17231 17232 17233 17234 17235 17236 17237 17238 17239 17240 17241 17242 17243 17244 17245 17246 17247 17248 17249 17250 17251 17252 17253 17254 17255 17256 17257 17258 17259 17260 17261 17262 17263 17264 17265 17266 17267 17268 17269 17270 17271 17272 17273 17274 17275 17276 17277 17278 17279 17280 17281 17282 17283 17284 17285 17286 17287 17288 17289 17290 17291 17292 17293 17294 17295 17296 17297 17298 17299 17300 17301 17302 17303 17304 17305 17306 17307 17308 17309 17310 17311 17312 17313 17314 17315 17316 17317 17318 17319 17320 17321 17322 17323 17324 17325 17326 17327 17328 17329 17330 17331 17332 17333 17334 17335 17336 17337 17338 17339 17340 17341 17342 17343 17344 17345 17346 17347 17348 17349 17350 17351 17352 17353 17354 17355 17356 17357 17358 17359 17360 17361 17362 17363 17364 17365 17366 17367 17368 17369 17370 17371 17372 17373 17374 17375 17376 17377 17378 17379 17380 17381 17382 17383 17384 17385 17386 17387 17388 17389 17390 17391 17392 17393 17394 17395 17396 17397 17398 17399 17400 17401 17402 17403 17404 17405 17406 17407 17408 17409 17410 17411 17412 17413 17414 17415 17416 17417 17418 17419 17420 17421 17422 17423 17424 17425 17426 17427 17428 17429 17430 17431 17432 17433 17434 17435 17436 17437 17438 17439 17440 17441 17442 17443 17444 17445 17446 17447 17448 17449 17450 17451 17452 17453 17454 17455 17456 17457 17458 17459 17460 17461 17462 17463 17464 17465 17466 17467 17468 17469 17470 17471 17472 17473 17474 17475 17476 17477 17478 17479 17480 17481 17482 17483 17484 17485 17486 17487 17488 17489 17490 17491 17492 17493 17494 17495 17496 17497 17498 17499 17500 17501 17502 17503 17504 17505 17506 17507 17508 17509 17510 17511 17512 17513 17514 17515 17516 17517 17518 17519 17520 17521 17522 17523 17524 17525 17526 17527 17528 17529 17530 17531 17532 17533 17534 17535 17536 17537 17538 17539 17540 17541 17542 17543 17544 17545 17546 17547 17548 17549 17550 17551 17552 17553 17554 17555 17556 17557 17558 17559 17560 17561 17562 17563 17564 17565 17566 17567 17568 17569 17570 17571 17572 17573 17574 17575 17576 17577 17578 17579 17580 17581 17582 17583 17584 17585 17586 17587 17588 17589 17590 17591 17592 17593 17594 17595 17596 17597 17598 17599 17600 17601 17602 17603 17604 17605 17606 17607 17608 17609 17610 17611 17612 17613 17614 17615 17616 17617 17618 17619 17620 17621 17622 17623 17624 17625 17626 17627 17628 17629 17630 17631 17632 17633 17634 17635 17636 17637 17638 17639 17640 17641 17642 17643 17644 17645 17646 17647 17648 17649 17650 17651 17652 17653 17654 17655 17656 17657 17658 17659 17660 17661 17662 17663 17664 17665 17666 17667 17668 17669 17670 17671 17672 17673 17674 17675 17676 17677 17678 17679 17680 17681 17682 17683 17684 17685 17686 17687 17688 17689 17690 17691 17692 17693 17694 17695 17696 17697 17698 17699 17700 17701 17702 17703 17704 17705 17706 17707 17708 17709 17710 17711 17712 17713 17714 17715 17716 17717 17718 17719 17720 17721 17722 17723 17724 17725 17726 17727 17728 17729 17730 17731 17732 17733 17734 17735 17736 17737 17738 17739 17740 17741 17742 17743 17744 17745 17746 17747 17748 17749 17750 17751 17752 17753 17754 17755 17756 17757 17758 17759 17760 17761 17762 17763 17764 17765 17766 17767 17768 17769 17770 17771 17772 17773 17774 17775 17776 17777 17778 17779 17780 17781 17782 17783 17784 17785 17786 17787 17788 17789 17790 17791 17792 17793 17794 17795 17796 17797 17798 17799 17800 17801 17802 17803 17804 17805 17806 17807 17808 17809 17810 17811 17812 17813 17814 17815 17816 17817 17818 17819 17820 17821 17822 17823 17824 17825 17826 17827 17828 17829 17830 17831 17832 17833 17834 17835 17836 17837 17838 17839 17840 17841 17842 17843 17844 17845 17846 17847 17848 17849 17850 17851 17852 17853 17854 17855 17856 17857 17858 17859 17860 17861 17862 17863 17864 17865 17866 17867 17868 17869 17870 17871 17872 17873 17874 17875 17876 17877 17878 17879 17880 17881 17882 17883 17884 17885 17886 17887 17888 17889 17890 17891 17892 17893 17894 17895 17896 17897 17898 17899 17900 17901 17902 17903 17904 17905 17906 17907 17908 17909 17910 17911 17912 17913 17914 17915 17916 17917 17918 17919 17920 17921 17922 17923 17924 17925 17926 17927 17928 17929 17930 17931 17932 17933 17934 17935 17936 17937 17938 17939 17940 17941 17942 17943 17944 17945 17946 17947 17948 17949 17950 17951 17952 17953 17954 17955 17956 17957 17958 17959 17960 17961 17962 17963 17964 17965 17966 17967 17968 17969 17970 17971 17972 17973 17974 17975 17976 17977 17978 17979 17980 17981 17982 17983 17984 17985 17986 17987 17988 17989 17990 17991 17992 17993 17994 17995 17996 17997 17998 17999 18000 18001 18002 18003 18004 18005 18006 18007 18008 18009 18010 18011 18012 18013 18014 18015 18016 18017 18018 18019 18020 18021 18022 18023 18024 18025 18026 18027 18028 18029 18030 18031 18032 18033 18034 18035 18036 18037 18038 18039 18040 18041 18042 18043 18044 18045 18046 18047 18048 18049 18050 18051 18052 18053 18054 18055 18056 18057 18058 18059 18060 18061 18062 18063 18064 18065 18066 18067 18068 18069 18070 18071 18072 18073 18074 18075 18076 18077 18078 18079 18080 18081 18082 18083 18084 18085 18086 18087 18088 18089 18090 18091 18092 18093 18094 18095 18096 18097 18098 18099 18100 18101 18102 18103 18104 18105 18106 18107 18108 18109 18110 18111 18112 18113 18114 18115 18116 18117 18118 18119 18120 18121 18122 18123 18124 18125 18126 18127 18128 18129 18130 18131 18132 18133 18134 18135 18136 18137 18138 18139 18140 18141 18142 18143 18144 18145 18146 18147 18148 18149 18150 18151 18152 18153 18154 18155 18156 18157 18158 18159 18160 18161 18162 18163 18164 18165 18166 18167 18168 18169 18170 18171 18172 18173 18174 18175 18176 18177 18178 18179 18180 18181 18182 18183 18184 18185 18186 18187 18188 18189 18190 18191 18192 18193 18194 18195 18196 18197 18198 18199 18200 18201 18202 18203 18204 18205 18206 18207 18208 18209 18210 18211 18212 18213 18214 18215 18216 18217 18218 18219 18220 18221 18222 18223 18224 18225 18226 18227 18228 18229 18230 18231 18232 18233 18234 18235 18236 18237 18238 18239 18240 18241 18242 18243 18244 18245 18246 18247 18248 18249 18250 18251 18252 18253 18254 18255 18256 18257 18258 18259 18260 18261 18262 18263 18264 18265 18266 18267 18268 18269 18270 18271 18272 18273 18274 18275 18276 18277 18278 18279 18280 18281 18282 18283 18284 18285 18286 18287 18288 18289 18290 18291 18292 18293 18294 18295 18296 18297 18298 18299 18300 18301 18302 18303 18304 18305 18306 18307 18308 18309 18310 18311 18312 18313 18314 18315 18316 18317 18318 18319 18320 18321 18322 18323 18324 18325 18326 18327 18328 18329 18330 18331 18332 18333 18334 18335 18336 18337 18338 18339 18340 18341 18342 18343 18344 18345 18346 18347 18348 18349 18350 18351 18352 18353 18354 18355 18356 18357 18358 18359 18360 18361 18362 18363 18364 18365 18366 18367 18368 18369 18370 18371 18372 18373 18374 18375 18376 18377 18378 18379 18380 18381 18382 18383 18384 18385 18386 18387 18388 18389 18390 18391 18392 18393 18394 18395 18396 18397 18398 18399 18400 18401 18402 18403 18404 18405 18406 18407 18408 18409 18410 18411 18412 18413 18414 18415 18416 18417 18418 18419 18420 18421 18422 18423 18424 18425 18426 18427 18428 18429 18430 18431 18432 18433 18434 18435 18436 18437 18438 18439 18440 18441 18442 18443 18444 18445 18446 18447 18448 18449 18450 18451 18452 18453 18454 18455 18456 18457 18458 18459 18460 18461 18462 18463 18464 18465 18466 18467 18468 18469 18470 18471 18472 18473 18474 18475 18476 18477 18478 18479 18480 18481 18482 18483 18484 18485 18486 18487 18488 18489 18490 18491 18492 18493 18494 18495 18496 18497 18498 18499 18500 18501 18502 18503 18504 18505 18506 18507 18508 18509 18510 18511 18512 18513 18514 18515 18516 18517 18518 18519 18520 18521 18522 18523 18524 18525 18526 18527 18528 18529 18530 18531 18532 18533 18534 18535 18536 18537 18538 18539 18540 18541 18542 18543 18544 18545 18546 18547 18548 18549 18550 18551 18552 18553 18554 18555 18556 18557 18558 18559 18560 18561 18562 18563 18564 18565 18566 18567 18568 18569 18570 18571 18572 18573 18574 18575 18576 18577 18578 18579 18580 18581 18582 18583 18584 18585 18586 18587 18588 18589 18590 18591 18592 18593 18594 18595 18596 18597 18598 18599 18600 18601 18602 18603 18604 18605 18606 18607 18608 18609 18610 18611 18612 18613 18614 18615 18616 18617 18618 18619 18620 18621 18622 18623 18624 18625 18626 18627 18628 18629 18630 18631 18632 18633 18634 18635 18636 18637 18638 18639 18640 18641 18642 18643 18644 18645 18646 18647 18648 18649 18650 18651 18652 18653 18654 18655 18656 18657 18658 18659 18660 18661 18662 18663 18664 18665 18666 18667 18668 18669 18670 18671 18672 18673 18674 18675 18676 18677 18678 18679 18680 18681 18682 18683 18684 18685 18686 18687 18688 18689 18690 18691 18692 18693 18694 18695 18696 18697 18698 18699 18700 18701 18702 18703 18704 18705 18706 18707 18708 18709 18710 18711 18712 18713 18714 18715 18716 18717 18718 18719 18720 18721 18722 18723 18724 18725 18726 18727 18728 18729 18730 18731 18732 18733 18734 18735 18736 18737 18738 18739 18740 18741 18742 18743 18744 18745 18746 18747 18748 18749 18750 18751 18752 18753 18754 18755 18756 18757 18758 18759 18760 18761 18762 18763 18764 18765 18766 18767 18768 18769 18770 18771 18772 18773 18774 18775 18776 18777 18778 18779 18780 18781 18782 18783 18784 18785 18786 18787 18788 18789 18790 18791 18792 18793 18794 18795 18796 18797 18798 18799 18800 18801 18802 18803 18804 18805 18806 18807 18808 18809 18810 18811 18812 18813 18814 18815 18816 18817 18818 18819 18820 18821 18822 18823 18824 18825 18826 18827 18828 18829 18830 18831 18832 18833 18834 18835 18836 18837 18838 18839 18840 18841 18842 18843 18844 18845 18846 18847 18848 18849 18850 18851 18852 18853 18854 18855 18856 18857 18858 18859 18860 18861 18862 18863 18864 18865 18866 18867 18868 18869 18870 18871 18872 18873 18874 18875 18876 18877 18878 18879 18880 18881 18882 18883 18884 18885 18886 18887 18888 18889 18890 18891 18892 18893 18894 18895 18896 18897 18898 18899 18900 18901 18902 18903 18904 18905 18906 18907 18908 18909 18910 18911 18912 18913 18914 18915 18916 18917 18918 18919 18920 18921 18922 18923 18924 18925 18926 18927 18928 18929 18930 18931 18932 18933 18934 18935 18936 18937 18938 18939 18940 18941 18942 18943 18944 18945 18946 18947 18948 18949 18950 18951 18952 18953 18954 18955 18956 18957 18958 18959 18960 18961 18962 18963 18964 18965 18966 18967 18968 18969 18970 18971 18972 18973 18974 18975 18976 18977 18978 18979 18980 18981 18982 18983 18984 18985 18986 18987 18988 18989 18990 18991 18992 18993 18994 18995 18996 18997 18998 18999 19000 19001 19002 19003 19004 19005 19006 19007 19008 19009 19010 19011 19012 19013 19014 19015 19016 19017 19018 19019 19020 19021 19022 19023 19024 19025 19026 19027 19028 19029 19030 19031 19032 19033 19034 19035 19036 19037 19038 19039 19040 19041 19042 19043 19044 19045 19046 19047 19048 19049 19050 19051 19052 19053 19054 19055 19056 19057 19058 19059 19060 19061 19062 19063 19064 19065 19066 19067 19068 19069 19070 19071 19072 19073 19074 19075 19076 19077 19078 19079 19080 19081 19082 19083 19084 19085 19086 19087 19088 19089 19090 19091 19092 19093 19094 19095 19096 19097 19098 19099 19100 19101 19102 19103 19104 19105 19106 19107 19108 19109 19110 19111 19112 19113 19114 19115 19116 19117 19118 19119 19120 19121 19122 19123 19124 19125 19126 19127 19128 19129 19130 19131 19132 19133 19134 19135 19136 19137 19138 19139 19140 19141 19142 19143 19144 19145 19146 19147 19148 19149 19150 19151 19152 19153 19154 19155 19156 19157 19158 19159 19160 19161 19162 19163 19164 19165 19166 19167 19168 19169 19170 19171 19172 19173 19174 19175 19176 19177 19178 19179 19180 19181 19182 19183 19184 19185 19186 19187 19188 19189 19190 19191 19192 19193 19194 19195 19196 19197 19198 19199 19200 19201 19202 19203 19204 19205 19206 19207 19208 19209 19210 19211 19212 19213 19214 19215 19216 19217 19218 19219 19220 19221 19222 19223 19224 19225 19226 19227 19228 19229 19230 19231 19232 19233 19234 19235 19236 19237 19238 19239 19240 19241 19242 19243 19244 19245 19246 19247 19248 19249 19250 19251 19252 19253 19254 19255 19256 19257 19258 19259 19260 19261 19262 19263 19264 19265 19266 19267 19268 19269 19270 19271 19272 19273 19274 19275 19276 19277 19278 19279 19280 19281 19282 19283 19284 19285 19286 19287 19288 19289 19290 19291 19292 19293 19294 19295 19296 19297 19298 19299 19300 19301 19302 19303 19304 19305 19306 19307 19308 19309 19310 19311 19312 19313 19314 19315 19316 19317 19318 19319 19320 19321 19322 19323 19324 19325 19326 19327 19328 19329 19330 19331 19332 19333 19334 19335 19336 19337 19338 19339 19340 19341 19342 19343 19344 19345 19346 19347 19348 19349 19350 19351 19352 19353 19354 19355 19356 19357 19358 19359 19360 19361 19362 19363 19364 19365 19366 19367 19368 19369 19370 19371 19372 19373 19374 19375 19376 19377 19378 19379 19380 19381 19382 19383 19384 19385 19386 19387 19388 19389 19390 19391 19392 19393 19394 19395 19396 19397 19398 19399 19400 19401 19402 19403 19404 19405 19406 19407 19408 19409 19410 19411 19412 19413 19414 19415 19416 19417 19418 19419 19420 19421 19422 19423 19424 19425 19426 19427 19428 19429 19430 19431 19432 19433 19434 19435 19436 19437 19438 19439 19440 19441 19442 19443 19444 19445 19446 19447 19448 19449 19450 19451 19452 19453 19454 19455 19456 19457 19458 19459 19460 19461 19462 19463 19464 19465 19466 19467 19468 19469 19470 19471 19472 19473 19474 19475 19476 19477 19478 19479 19480 19481 19482 19483 19484 19485 19486 19487 19488 19489 19490 19491 19492 19493 19494 19495 19496 19497 19498 19499 19500 19501 19502 19503 19504 19505 19506 19507 19508 19509 19510 19511 19512 19513 19514 19515 19516 19517 19518 19519 19520 19521 19522 19523 19524 19525 19526 19527 19528 19529 19530 19531 19532 19533 19534 19535 19536 19537 19538 19539 19540 19541 19542 19543 19544 19545 19546 19547 19548 19549 19550 19551 19552 19553 19554 19555 19556 19557 19558 19559 19560 19561 19562 19563 19564 19565 19566 19567 19568 19569 19570 19571 19572 19573 19574 19575 19576 19577 19578 19579 19580 19581 19582 19583 19584 19585 19586 19587 19588 19589 19590 19591 19592 19593 19594 19595 19596 19597 19598 19599 19600 19601 19602 19603 19604 19605 19606 19607 19608 19609 19610 19611 19612 19613 19614 19615 19616 19617 19618 19619 19620 19621 19622 19623 19624 19625 19626 19627 19628 19629 19630 19631 19632 19633 19634 19635 19636 19637 19638 19639 19640 19641 19642 19643 19644 19645 19646 19647 19648 19649 19650 19651 19652 19653 19654 19655 19656 19657 19658 19659 19660 19661 19662 19663 19664 19665 19666 19667 19668 19669 19670 19671 19672 19673 19674 19675 19676 19677 19678 19679 19680 19681 19682 19683 19684 19685 19686 19687 19688 19689 19690 19691 19692 19693 19694 19695 19696 19697 19698 19699 19700 19701 19702 19703 19704 19705 19706 19707 19708 19709 19710 19711 19712 19713 19714 19715 19716 19717 19718 19719 19720 19721 19722 19723 19724 19725 19726 19727 19728 19729 19730 19731 19732 19733 19734 19735 19736 19737 19738 19739 19740 19741 19742 19743 19744 19745 19746 19747 19748 19749 19750 19751 19752 19753 19754 19755 19756 19757 19758 19759 19760 19761 19762 19763 19764 19765 19766 19767 19768 19769 19770 19771 19772 19773 19774 19775 19776 19777 19778 19779 19780 19781 19782 19783 19784 19785 19786 19787 19788 19789 19790 19791 19792 19793 19794 19795 19796 19797 19798 19799 19800 19801 19802 19803 19804 19805 19806 19807 19808 19809 19810 19811 19812 19813 19814 19815 19816 19817 19818 19819 19820 19821 19822 19823 19824 19825 19826 19827 19828 19829 19830 19831 19832 19833 19834 19835 19836 19837 19838 19839 19840 19841 19842 19843 19844 19845 19846 19847 19848 19849 19850 19851 19852 19853 19854 19855 19856 19857 19858 19859 19860 19861 19862 19863 19864 19865 19866 19867 19868 19869 19870 19871 19872 19873 19874 19875 19876 19877 19878 19879 19880 19881 19882 19883 19884 19885 19886 19887 19888 19889 19890 19891 19892 19893 19894 19895 19896 19897 19898 19899 19900 19901 19902 19903 19904 19905 19906 19907 19908 19909 19910 19911 19912 19913 19914 19915 19916 19917 19918 19919 19920 19921 19922 19923 19924 19925 19926 19927 19928 19929 19930 19931 19932 19933 19934 19935 19936 19937 19938 19939 19940 19941 19942 19943 19944 19945 19946 19947 19948 19949 19950 19951 19952 19953 19954 19955 19956 19957 19958 19959 19960 19961 19962 19963 19964 19965 19966 19967 19968 19969 19970 19971 19972 19973 19974 19975 19976 19977 19978 19979 19980 19981 19982 19983 19984 19985 19986 19987 19988 19989 19990 19991 19992 19993 19994 19995 19996 19997 19998 19999 20000 20001 20002 20003 20004 20005 20006 20007 20008 20009 20010 20011 20012 20013 20014 20015 20016 20017 20018 20019 20020 20021 20022 20023 20024 20025 20026 20027 20028 20029 20030 20031 20032 20033 20034 20035 20036 20037 20038 20039 20040 20041 20042 20043 20044 20045 20046 20047 20048 20049 20050 20051 20052 20053 20054 20055 20056 20057 20058 20059 20060 20061 20062 20063 20064 20065 20066 20067 20068 20069 20070 20071 20072 20073 20074 20075 20076 20077 20078 20079 20080 20081 20082 20083 20084 20085 20086 20087 20088 20089 20090 20091 20092 20093 20094 20095 20096 20097 20098 20099 20100 20101 20102 20103 20104 20105 20106 20107 20108 20109 20110 20111 20112 20113 20114 20115 20116 20117 20118 20119 20120 20121 20122 20123 20124 20125 20126 20127 20128 20129 20130 20131 20132 20133 20134 20135 20136 20137 20138 20139 20140 20141 20142 20143 20144 20145 20146 20147 20148 20149 20150 20151 20152 20153 20154 20155 20156 20157 20158 20159 20160 20161 20162 20163 20164 20165 20166 20167 20168 20169 20170 20171 20172 20173 20174 20175 20176 20177 20178 20179 20180 20181 20182 20183 20184 20185 20186 20187 20188 20189 20190 20191 20192 20193 20194 20195 20196 20197 20198 20199 20200 20201 20202 20203 20204 20205 20206 20207 20208 20209 20210 20211 20212 20213 20214 20215 20216 20217 20218 20219 20220 20221 20222 20223 20224 20225 20226 20227 20228 20229 20230 20231 20232 20233 20234 20235 20236 20237 20238 20239 20240 20241 20242 20243 20244 20245 20246 20247 20248 20249 20250 20251 20252 20253 20254 20255 20256 20257 20258 20259 20260 20261 20262 20263 20264 20265 20266 20267 20268 20269 20270 20271 20272 20273 20274 20275 20276 20277 20278 20279 20280 20281 20282 20283 20284 20285 20286 20287 20288 20289 20290 20291 20292 20293 20294 20295 20296 20297 20298 20299 20300 20301 20302 20303 20304 20305 20306 20307 20308 20309 20310 20311 20312 20313 20314 20315 20316 20317 20318 20319 20320 20321 20322 20323 20324 20325 20326 20327 20328 20329 20330 20331 20332 20333 20334 20335 20336 20337 20338 20339 20340 20341 20342 20343 20344 20345 20346 20347 20348 20349 20350 20351 20352 20353 20354 20355 20356 20357 20358 20359 20360 20361 20362 20363 20364 20365 20366 20367 20368 20369 20370 20371 20372 20373 20374 20375 20376 20377 20378 20379 20380 20381 20382 20383 20384 20385 20386 20387 20388 20389 20390 20391 20392 20393 20394 20395 20396 20397 20398 20399 20400 20401 20402 20403 20404 20405 20406 20407 20408 20409 20410 20411 20412 20413 20414 20415 20416 20417 20418 20419 20420 20421 20422 20423 20424 20425 20426 20427 20428 20429 20430 20431 20432 20433 20434 20435 20436 20437 20438 20439 20440 20441 20442 20443 20444 20445 20446 20447 20448 20449 20450 20451 20452 20453 20454 20455 20456 20457 20458 20459 20460 20461 20462 20463 20464 20465 20466 20467 20468 20469 20470 20471 20472 20473 20474 20475 20476 20477 20478 20479 20480 20481 20482 20483 20484 20485 20486 20487 20488 20489 20490 20491 20492 20493 20494 20495 20496 20497 20498 20499 20500 20501 20502 20503 20504 20505 20506 20507 20508 20509 20510 20511 20512 20513 20514 20515 20516 20517 20518 20519 20520 20521 20522 20523 20524 20525 20526 20527 20528 20529 20530 20531 20532 20533 20534 20535 20536 20537 20538 20539 20540 20541 20542 20543 20544 20545 20546 20547 20548 20549 20550 20551 20552 20553 20554 20555 20556 20557 20558 20559 20560 20561 20562 20563 20564 20565 20566 20567 20568 20569 20570 20571 20572 20573 20574 20575 20576 20577 20578 20579 20580 20581 20582 20583 20584 20585 20586 20587 20588 20589 20590 20591 20592 20593 20594 20595 20596 20597 20598 20599 20600 20601 20602 20603 20604 20605 20606 20607 20608 20609 20610 20611 20612 20613 20614 20615 20616 20617 20618 20619 20620 20621 20622 20623 20624 20625 20626 20627 20628 20629 20630 20631 20632 20633 20634 20635 20636 20637 20638 20639 20640 20641 20642 20643 20644 20645 20646 20647 20648 20649 20650 20651 20652 20653 20654 20655 20656 20657 20658 20659 20660 20661 20662 20663 20664 20665 20666 20667 20668 20669 20670 20671 20672 20673 20674 20675 20676 20677 20678 20679 20680 20681 20682 20683 20684 20685 20686 20687 20688 20689 20690 20691 20692 20693 20694 20695 20696 20697 20698 20699 20700 20701 20702 20703 20704 20705 20706 20707 20708 20709 20710 20711 20712 20713 20714 20715 20716 20717 20718 20719 20720 20721 20722 20723 20724 20725 20726 20727 20728 20729 20730 20731 20732 20733 20734 20735 20736 20737 20738 20739 20740 20741 20742 20743 20744 20745 20746 20747 20748 20749 20750 20751 20752 20753 20754 20755 20756 20757 20758 20759 20760 20761 20762 20763 20764 20765 20766 20767 20768 20769 20770 20771 20772 20773 20774 20775 20776 20777 20778 20779 20780 20781 20782 20783 20784 20785 20786 20787 20788 20789 20790 20791 20792 20793 20794 20795 20796 20797 20798 20799 20800 20801 20802 20803 20804 20805 20806 20807 20808 20809 20810 20811 20812 20813 20814 20815 20816 20817 20818 20819 20820 20821 20822 20823 20824 20825 20826 20827 20828 20829 20830 20831 20832 20833 20834 20835 20836 20837 20838 20839 20840 20841 20842 20843 20844 20845 20846 20847 20848 20849 20850 20851 20852 20853 20854 20855 20856 20857 20858 20859 20860 20861 20862 20863 20864 20865 20866 20867 20868 20869 20870 20871 20872 20873 20874 20875 20876 20877 20878 20879 20880 20881 20882 20883 20884 20885 20886 20887 20888 20889 20890 20891 20892 20893 20894 20895 20896 20897 20898 20899 20900 20901 20902 20903 20904 20905 20906 20907 20908 20909 20910 20911 20912 20913 20914 20915 20916 20917 20918 20919 20920 20921 20922 20923 20924 20925 20926 20927 20928 20929 20930 20931 20932 20933 20934 20935 20936 20937 20938 20939 20940 20941 20942 20943 20944 20945 20946 20947 20948 20949 20950 20951 20952 20953 20954 20955 20956 20957 20958 20959 20960 20961 20962 20963 20964 20965 20966 20967 20968 20969 20970 20971 20972 20973 20974 20975 20976 20977 20978 20979 20980 20981 20982 20983 20984 20985 20986 20987 20988 20989 20990 20991 20992 20993 20994 20995 20996 20997 20998 20999 21000 21001 21002 21003 21004 21005 21006 21007 21008 21009 21010 21011 21012 21013 21014 21015 21016 21017 21018 21019 21020 21021 21022 21023 21024 21025 21026 21027 21028 21029 21030 21031 21032 21033 21034 21035 21036 21037 21038 21039 21040 21041 21042 21043 21044 21045 21046 21047 21048 21049 21050 21051 21052 21053 21054 21055 21056 21057 21058 21059 21060 21061 21062 21063 21064 21065 21066 21067 21068 21069 21070 21071 21072 21073 21074 21075 21076 21077 21078 21079 21080 21081 21082 21083 21084 21085 21086 21087 21088 21089 21090 21091 21092 21093 21094 21095 21096 21097 21098 21099 21100 21101 21102 21103 21104 21105 21106 21107 21108 21109 21110 21111 21112 21113 21114 21115 21116 21117 21118 21119 21120 21121 21122 21123 21124 21125 21126 21127 21128 21129 21130 21131 21132 21133 21134 21135 21136 21137 21138 21139 21140 21141 21142 21143 21144 21145 21146 21147 21148 21149 21150 21151 21152 21153 21154 21155 21156 21157 21158 21159 21160 21161 21162 21163 21164 21165 21166 21167 21168 21169 21170 21171 21172 21173 21174 21175 21176 21177 21178 21179 21180 21181 21182 21183 21184 21185 21186 21187 21188 21189 21190 21191 21192 21193 21194 21195 21196 21197 21198 21199 21200 21201 21202 21203 21204 21205 21206 21207 21208 21209 21210 21211 21212 21213 21214 21215 21216 21217 21218 21219 21220 21221 21222 21223 21224 21225 21226 21227 21228 21229 21230 21231 21232 21233 21234 21235 21236 21237 21238 21239 21240 21241 21242 21243 21244 21245 21246 21247 21248 21249 21250 21251 21252 21253 21254 21255 21256 21257 21258 21259 21260 21261 21262 21263 21264 21265 21266 21267 21268 21269 21270 21271 21272 21273 21274 21275 21276 21277 21278 21279 21280 21281 21282 21283 21284 21285 21286 21287 21288 21289 21290 21291 21292 21293 21294 21295 21296 21297 21298 21299 21300 21301 21302 21303 21304 21305 21306 21307 21308 21309 21310 21311 21312 21313 21314 21315 21316 21317 21318 21319 21320 21321 21322 21323 21324 21325 21326 21327 21328 21329 21330 21331 21332 21333 21334 21335 21336 21337 21338 21339 21340 21341 21342 21343 21344 21345 21346 21347 21348 21349 21350 21351 21352 21353 21354 21355 21356 21357 21358 21359 21360 21361 21362 21363 21364 21365 21366 21367 21368 21369 21370 21371 21372 21373 21374 21375 21376 21377 21378 21379 21380 21381 21382 21383 21384 21385 21386 21387 21388 21389 21390 21391 21392 21393 21394 21395 21396 21397 21398 21399 21400 21401 21402 21403 21404 21405 21406 21407 21408 21409 21410 21411 21412 21413 21414 21415 21416 21417 21418 21419 21420 21421 21422 21423 21424 21425 21426 21427 21428 21429 21430 21431 21432 21433 21434 21435 21436 21437 21438 21439 21440 21441 21442 21443 21444 21445 21446 21447 21448 21449 21450 21451 21452 21453 21454 21455 21456 21457 21458 21459 21460 21461 21462 21463 21464 21465 21466 21467 21468 21469 21470 21471 21472 21473 21474 21475 21476 21477 21478 21479 21480 21481 21482 21483 21484 21485 21486 21487 21488 21489 21490 21491 21492 21493 21494 21495 21496 21497 21498 21499 21500 21501 21502 21503 21504 21505 21506 21507 21508 21509 21510 21511 21512 21513 21514 21515 21516 21517 21518 21519 21520 21521 21522 21523 21524 21525 21526 21527 21528 21529 21530 21531 21532 21533 21534 21535 21536 21537 21538 21539 21540 21541 21542 21543 21544 21545 21546 21547 21548 21549 21550 21551 21552 21553 21554 21555 21556 21557 21558 21559 21560 21561 21562 21563 21564 21565 21566 21567 21568 21569 21570 21571 21572 21573 21574 21575 21576 21577 21578 21579 21580 21581 21582 21583 21584 21585 21586 21587 21588 21589 21590 21591 21592 21593 21594 21595 21596 21597 21598 21599 21600 21601 21602 21603 21604 21605 21606 21607 21608 21609 21610 21611 21612 21613 21614 21615 21616 21617 21618 21619 21620 21621 21622 21623 21624 21625 21626 21627 21628 21629 21630 21631 21632 21633 21634 21635 21636 21637 21638 21639 21640 21641 21642 21643 21644 21645 21646 21647 21648 21649 21650 21651 21652 21653 21654 21655 21656 21657 21658 21659 21660 21661 21662 21663 21664 21665 21666 21667 21668 21669 21670 21671 21672 21673 21674 21675 21676 21677 21678 21679 21680 21681 21682 21683 21684 21685 21686 21687 21688 21689 21690 21691 21692 21693 21694 21695 21696 21697 21698 21699 21700 21701 21702 21703 21704 21705 21706 21707 21708 21709 21710 21711 21712 21713 21714 21715 21716 21717 21718 21719 21720 21721 21722 21723 21724 21725 21726 21727 21728 21729 21730 21731 21732 21733 21734 21735 21736 21737 21738 21739 21740 21741 21742 21743 21744 21745 21746 21747 21748 21749 21750 21751 21752 21753 21754 21755 21756 21757 21758 21759 21760 21761 21762 21763 21764 21765 21766 21767 21768 21769 21770 21771 21772 21773 21774 21775 21776 21777 21778 21779 21780 21781 21782 21783 21784 21785 21786 21787 21788 21789 21790 21791 21792 21793 21794 21795 21796 21797 21798 21799 21800 21801 21802 21803 21804 21805 21806 21807 21808 21809 21810 21811 21812 21813 21814 21815 21816 21817 21818 21819 21820 21821 21822 21823 21824 21825 21826 21827 21828 21829 21830 21831 21832 21833 21834 21835 21836 21837 21838 21839 21840 21841 21842 21843 21844 21845 21846 21847 21848 21849 21850 21851 21852 21853 21854 21855 21856 21857 21858 21859 21860 21861 21862 21863 21864 21865 21866 21867 21868 21869 21870 21871 21872 21873 21874 21875 21876 21877 21878 21879 21880 21881 21882 21883 21884 21885 21886 21887 21888 21889 21890 21891 21892 21893 21894 21895 21896 21897 21898 21899 21900 21901 21902 21903 21904 21905 21906 21907 21908 21909 21910 21911 21912 21913 21914 21915 21916 21917 21918 21919 21920 21921 21922 21923 21924 21925 21926 21927 21928 21929 21930 21931 21932 21933 21934 21935 21936 21937 21938 21939 21940 21941 21942 21943 21944 21945 21946 21947 21948 21949 21950 21951 21952 21953 21954 21955 21956 21957 21958 21959 21960 21961 21962 21963 21964 21965 21966 21967 21968 21969 21970 21971 21972 21973 21974 21975 21976 21977 21978 21979 21980 21981 21982 21983 21984 21985 21986 21987 21988 21989 21990 21991 21992 21993 21994 21995 21996 21997 21998 21999 22000 22001 22002 22003 22004 22005 22006 22007 22008 22009 22010 22011 22012 22013 22014 22015 22016 22017 22018 22019 22020 22021 22022 22023 22024 22025 22026 22027 22028 22029 22030 22031 22032 22033 22034 22035 22036 22037 22038 22039 22040 22041 22042 22043 22044 22045 22046 22047 22048 22049 22050 22051 22052 22053 22054 22055 22056 22057 22058 22059 22060 22061 22062 22063 22064 22065 22066 22067 22068 22069 22070 22071 22072 22073 22074 22075 22076 22077 22078 22079 22080 22081 22082 22083 22084 22085 22086 22087 22088 22089 22090 22091 22092 22093 22094 22095 22096 22097 22098 22099 22100 22101 22102 22103 22104 22105 22106 22107 22108 22109 22110 22111 22112 22113 22114 22115 22116 22117 22118 22119 22120 22121 22122 22123 22124 22125 22126 22127 22128 22129 22130 22131 22132 22133 22134 22135 22136 22137 22138 22139 22140 22141 22142 22143 22144 22145 22146 22147 22148 22149 22150 22151 22152 22153 22154 22155 22156 22157 22158 22159 22160 22161 22162 22163 22164 22165 22166 22167 22168 22169 22170 22171 22172 22173 22174 22175 22176 22177 22178 22179 22180 22181 22182 22183 22184 22185 22186 22187 22188 22189 22190 22191 22192 22193 22194 22195 22196 22197 22198 22199 22200 22201 22202 22203 22204 22205 22206 22207 22208 22209 22210 22211 22212 22213 22214 22215 22216 22217 22218 22219 22220 22221 22222 22223 22224 22225 22226 22227 22228 22229 22230 22231 22232 22233 22234 22235 22236 22237 22238 22239 22240 22241 22242 22243 22244 22245 22246 22247 22248 22249 22250 22251 22252 22253 22254 22255 22256 22257 22258 22259 22260 22261 22262 22263 22264 22265 22266 22267 22268 22269 22270 22271 22272 22273 22274 22275 22276 22277 22278 22279 22280 22281 22282 22283 22284 22285 22286 22287 22288 22289 22290 22291 22292 22293 22294 22295 22296 22297 22298 22299 22300 22301 22302 22303 22304 22305 22306 22307 22308 22309 22310 22311 22312 22313 22314 22315 22316 22317 22318 22319 22320 22321 22322 22323 22324 22325 22326 22327 22328 22329 22330 22331 22332 22333 22334 22335 22336 22337 22338 22339 22340 22341 22342 22343 22344 22345 22346 22347 22348 22349 22350 22351 22352 22353 22354 22355 22356 22357 22358 22359 22360 22361 22362 22363 22364 22365 22366 22367 22368 22369 22370 22371 22372 22373 22374 22375 22376 22377 22378 22379 22380 22381 22382 22383 22384 22385 22386 22387 22388 22389 22390 22391 22392 22393 22394 22395 22396 22397 22398 22399 22400 22401 22402 22403 22404 22405 22406 22407 22408 22409 22410 22411 22412 22413 22414 22415 22416 22417 22418 22419 22420 22421 22422 22423 22424 22425 22426 22427 22428 22429 22430 22431 22432 22433 22434 22435 22436 22437 22438 22439 22440 22441 22442 22443 22444 22445 22446 22447 22448 22449 22450 22451 22452 22453 22454 22455 22456 22457 22458 22459 22460 22461 22462 22463 22464 22465 22466 22467 22468 22469 22470 22471 22472 22473 22474 22475 22476 22477 22478 22479 22480 22481 22482 22483 22484 22485 22486 22487 22488 22489 22490 22491 22492 22493 22494 22495 22496 22497 22498 22499 22500 22501 22502 22503 22504 22505 22506 22507 22508 22509 22510 22511 22512 22513 22514 22515 22516 22517 22518 22519 22520 22521 22522 22523 22524 22525 22526 22527 22528 22529 22530 22531 22532 22533 22534 22535 22536 22537 22538 22539 22540 22541 22542 22543 22544 22545 22546 22547 22548 22549 22550 22551 22552 22553 22554 22555 22556 22557 22558 22559 22560 22561 22562 22563 22564 22565 22566 22567 22568 22569 22570 22571 22572 22573 22574 22575 22576 22577 22578 22579 22580 22581 22582 22583 22584 22585 22586 22587 22588 22589 22590 22591 22592 22593 22594 22595 22596 22597 22598 22599 22600 22601 22602 22603 22604 22605 22606 22607 22608 22609 22610 22611 22612 22613 22614 22615 22616 22617 22618 22619 22620 22621 22622 22623 22624 22625 22626 22627 22628 22629 22630 22631 22632 22633 22634 22635 22636 22637 22638 22639 22640 22641 22642 22643 22644 22645 22646 22647 22648 22649 22650 22651 22652 22653 22654 22655 22656 22657 22658 22659 22660 22661 22662 22663 22664 22665 22666 22667 22668 22669 22670 22671 22672 22673 22674 22675 22676 22677 22678 22679 22680 22681 22682 22683 22684 22685 22686 22687 22688 22689 22690 22691 22692 22693 22694 22695 22696 22697 22698 22699 22700 22701 22702 22703 22704 22705 22706 22707 22708 22709 22710 22711 22712 22713 22714 22715 22716 22717 22718 22719 22720 22721 22722 22723 22724 22725 22726 22727 22728 22729 22730 22731 22732 22733 22734 22735 22736 22737 22738 22739 22740 22741 22742 22743 22744 22745 22746 22747 22748 22749 22750 22751 22752 22753 22754 22755 22756 22757 22758 22759 22760 22761 22762 22763 22764 22765 22766 22767 22768 22769 22770 22771 22772 22773 22774 22775 22776 22777 22778 22779 22780 22781 22782 22783 22784 22785 22786 22787 22788 22789 22790 22791 22792 22793 22794 22795 22796 22797 22798 22799 22800 22801 22802 22803 22804 22805 22806 22807 22808 22809 22810 22811 22812 22813 22814 22815 22816 22817 22818 22819 22820 22821 22822 22823 22824 22825 22826 22827 22828 22829 22830 22831 22832 22833 22834 22835 22836 22837 22838 22839 22840 22841 22842 22843 22844 22845 22846 22847 22848 22849 22850 22851 22852 22853 22854 22855 22856 22857 22858 22859 22860 22861 22862 22863 22864 22865 22866 22867 22868 22869 22870 22871 22872 22873 22874 22875 22876 22877 22878 22879 22880 22881 22882 22883 22884 22885 22886 22887 22888 22889 22890 22891 22892 22893 22894 22895 22896 22897 22898 22899 22900 22901 22902 22903 22904 22905 22906 22907 22908 22909 22910 22911 22912 22913 22914 22915 22916 22917 22918 22919 22920 22921 22922 22923 22924 22925 22926 22927 22928 22929 22930 22931 22932 22933 22934 22935 22936 22937 22938 22939 22940 22941 22942 22943 22944 22945 22946 22947 22948 22949 22950 22951 22952 22953 22954 22955 22956 22957 22958 22959 22960 22961 22962 22963 22964 22965 22966 22967 22968 22969 22970 22971 22972 22973 22974 22975 22976 22977 22978 22979 22980 22981 22982 22983 22984 22985 22986 22987 22988 22989 22990 22991 22992 22993 22994 22995 22996 22997 22998 22999 23000 23001 23002 23003 23004 23005 23006 23007 23008 23009 23010 23011 23012 23013 23014 23015 23016 23017 23018 23019 23020 23021 23022 23023 23024 23025 23026 23027 23028 23029 23030 23031 23032 23033 23034 23035 23036 23037 23038 23039 23040 23041 23042 23043 23044 23045 23046 23047 23048 23049 23050 23051 23052 23053 23054 23055 23056 23057 23058 23059 23060 23061 23062 23063 23064 23065 23066 23067 23068 23069 23070 23071 23072 23073 23074 23075 23076 23077 23078 23079 23080 23081 23082 23083 23084 23085 23086 23087 23088 23089 23090 23091 23092 23093 23094 23095 23096 23097 23098 23099 23100 23101 23102 23103 23104 23105 23106 23107 23108 23109 23110 23111 23112 23113 23114 23115 23116 23117 23118 23119 23120 23121 23122 23123 23124 23125 23126 23127 23128 23129 23130 23131 23132 23133 23134 23135 23136 23137 23138 23139 23140 23141 23142 23143 23144 23145 23146 23147 23148 23149 23150 23151 23152 23153 23154 23155 23156 23157 23158 23159 23160 23161 23162 23163 23164 23165 23166 23167 23168 23169 23170 23171 23172 23173 23174 23175 23176 23177 23178 23179 23180 23181 23182 23183 23184 23185 23186 23187 23188 23189 23190 23191 23192 23193 23194 23195 23196 23197 23198 23199 23200 23201 23202 23203 23204 23205 23206 23207 23208 23209 23210 23211 23212 23213 23214 23215 23216 23217 23218 23219 23220 23221 23222 23223 23224 23225 23226 23227 23228 23229 23230 23231 23232 23233 23234 23235 23236 23237 23238 23239 23240 23241 23242 23243 23244 23245 23246 23247 23248 23249 23250 23251 23252 23253 23254 23255 23256 23257 23258 23259 23260 23261 23262 23263 23264 23265 23266 23267 23268 23269 23270 23271 23272 23273 23274 23275 23276 23277 23278 23279 23280 23281 23282 23283 23284 23285 23286 23287 23288 23289 23290 23291 23292 23293 23294 23295 23296 23297 23298 23299 23300 23301 23302 23303 23304 23305 23306 23307 23308 23309 23310 23311 23312 23313 23314 23315 23316 23317 23318 23319 23320 23321 23322 23323 23324 23325 23326 23327 23328 23329 23330 23331 23332 23333 23334 23335 23336 23337 23338 23339 23340 23341 23342 23343 23344 23345 23346 23347 23348 23349 23350 23351 23352 23353 23354 23355 23356 23357 23358 23359 23360 23361 23362 23363 23364 23365 23366 23367 23368 23369 23370 23371 23372 23373 23374 23375 23376 23377 23378 23379 23380 23381 23382 23383 23384 23385 23386 23387 23388 23389 23390 23391 23392 23393 23394 23395 23396 23397 23398 23399 23400 23401 23402 23403 23404 23405 23406 23407 23408 23409 23410 23411 23412 23413 23414 23415 23416 23417 23418 23419 23420 23421 23422 23423 23424 23425 23426 23427 23428 23429 23430 23431 23432 23433 23434 23435 23436 23437 23438 23439 23440 23441 23442 23443 23444 23445 23446 23447 23448 23449 23450 23451 23452 23453 23454 23455 23456 23457 23458 23459 23460 23461 23462 23463 23464 23465 23466 23467 23468 23469 23470 23471 23472 23473 23474 23475 23476 23477 23478 23479 23480 23481 23482 23483 23484 23485 23486 23487 23488 23489 23490 23491 23492 23493 23494 23495 23496 23497 23498 23499 23500 23501 23502 23503 23504 23505 23506 23507 23508 23509 23510 23511 23512 23513 23514 23515 23516 23517 23518 23519 23520 23521 23522 23523 23524 23525 23526 23527 23528 23529 23530 23531 23532 23533 23534 23535 23536 23537 23538 23539 23540 23541 23542 23543 23544 23545 23546 23547 23548 23549 23550 23551 23552 23553 23554 23555 23556 23557 23558 23559 23560 23561 23562 23563 23564 23565 23566 23567 23568 23569 23570 23571 23572 23573 23574 23575 23576 23577 23578 23579 23580 23581 23582 23583 23584 23585 23586 23587 23588 23589 23590 23591 23592 23593 23594 23595 23596 23597 23598 23599 23600 23601 23602 23603 23604 23605 23606 23607 23608 23609 23610 23611 23612 23613 23614 23615 23616 23617 23618 23619 23620 23621 23622 23623 23624 23625 23626 23627 23628 23629 23630 23631 23632 23633 23634 23635 23636 23637 23638 23639 23640 23641 23642 23643 23644 23645 23646 23647 23648 23649 23650 23651 23652 23653 23654 23655 23656 23657 23658 23659 23660 23661 23662 23663 23664 23665 23666 23667 23668 23669 23670 23671 23672 23673 23674 23675 23676 23677 23678 23679 23680 23681 23682 23683 23684 23685 23686 23687 23688 23689 23690 23691 23692 23693 23694 23695 23696 23697 23698 23699 23700 23701 23702 23703 23704 23705 23706 23707 23708 23709 23710 23711 23712 23713 23714 23715 23716 23717 23718 23719 23720 23721 23722 23723 23724 23725 23726 23727 23728 23729 23730 23731 23732 23733 23734 23735 23736 23737 23738 23739 23740 23741 23742 23743 23744 23745 23746 23747 23748 23749 23750 23751 23752 23753 23754 23755 23756 23757 23758 23759 23760 23761 23762 23763 23764 23765 23766 23767 23768 23769 23770 23771 23772 23773 23774 23775 23776 23777 23778 23779 23780 23781 23782 23783 23784 23785 23786 23787 23788 23789 23790 23791 23792 23793 23794 23795 23796 23797 23798 23799 23800 23801 23802 23803 23804 23805 23806 23807 23808 23809 23810 23811 23812 23813 23814 23815 23816 23817 23818 23819 23820 23821 23822 23823 23824 23825 23826 23827 23828 23829 23830 23831 23832 23833 23834 23835 23836 23837 23838 23839 23840 23841 23842 23843 23844 23845 23846 23847 23848 23849 23850 23851 23852 23853 23854 23855 23856 23857 23858 23859 23860 23861 23862 23863 23864 23865 23866 23867 23868 23869 23870 23871 23872 23873 23874 23875 23876 23877 23878 23879 23880 23881 23882 23883 23884 23885 23886 23887 23888 23889 23890 23891 23892 23893 23894 23895 23896 23897 23898 23899 23900 23901 23902 23903 23904 23905 23906 23907 23908 23909 23910 23911 23912 23913 23914 23915 23916 23917 23918 23919 23920 23921 23922 23923 23924 23925 23926 23927 23928 23929 23930 23931 23932 23933 23934 23935 23936 23937 23938 23939 23940 23941 23942 23943 23944 23945 23946 23947 23948 23949 23950 23951 23952 23953 23954 23955 23956 23957 23958 23959 23960 23961 23962 23963 23964 23965 23966 23967 23968 23969 23970 23971 23972 23973 23974 23975 23976 23977 23978 23979 23980 23981 23982 23983 23984 23985 23986 23987 23988 23989 23990 23991 23992 23993 23994 23995 23996 23997 23998 23999 24000 24001 24002 24003 24004 24005 24006 24007 24008 24009 24010 24011 24012 24013 24014 24015 24016 24017 24018 24019 24020 24021 24022 24023 24024 24025 24026 24027 24028 24029 24030 24031 24032 24033 24034 24035 24036 24037 24038 24039 24040 24041 24042 24043 24044 24045 24046 24047 24048 24049 24050 24051 24052 24053 24054 24055 24056 24057 24058 24059 24060 24061 24062 24063 24064 24065 24066 24067 24068 24069 24070 24071 24072 24073 24074 24075 24076 24077 24078 24079 24080 24081 24082 24083 24084 24085 24086 24087 24088 24089 24090 24091 24092 24093 24094 24095 24096 24097 24098 24099 24100 24101 24102 24103 24104 24105 24106 24107 24108 24109 24110 24111 24112 24113 24114 24115 24116 24117 24118 24119 24120 24121 24122 24123 24124 24125 24126 24127 24128 24129 24130 24131 24132 24133 24134 24135 24136 24137 24138 24139 24140 24141 24142 24143 24144 24145 24146 24147 24148 24149 24150 24151 24152 24153 24154 24155 24156 24157 24158 24159 24160 24161 24162 24163 24164 24165 24166 24167 24168 24169 24170 24171 24172 24173 24174 24175 24176 24177 24178 24179 24180 24181 24182 24183 24184 24185 24186 24187 24188 24189 24190 24191 24192 24193 24194 24195 24196 24197 24198 24199 24200 24201 24202 24203 24204 24205 24206 24207 24208 24209 24210 24211 24212 24213 24214 24215 24216 24217 24218 24219 24220 24221 24222 24223 24224 24225 24226 24227 24228 24229 24230 24231 24232 24233 24234 24235 24236 24237 24238 24239 24240 24241 24242 24243 24244 24245 24246 24247 24248 24249 24250 24251 24252 24253 24254 24255 24256 24257 24258 24259 24260 24261 24262 24263 24264 24265 24266 24267 24268 24269 24270 24271 24272 24273 24274 24275 24276 24277 24278 24279 24280 24281 24282 24283 24284 24285 24286 24287 24288 24289 24290 24291 24292 24293 24294 24295 24296 24297 24298 24299 24300 24301 24302 24303 24304 24305 24306 24307 24308 24309 24310 24311 24312 24313 24314 24315 24316 24317 24318 24319 24320 24321 24322 24323 24324 24325 24326 24327 24328 24329 24330 24331 24332 24333 24334 24335 24336 24337 24338 24339 24340 24341 24342 24343 24344 24345 24346 24347 24348 24349 24350 24351 24352 24353 24354 24355 24356 24357 24358 24359 24360 24361 24362 24363 24364 24365 24366 24367 24368 24369 24370 24371 24372 24373 24374 24375 24376 24377 24378 24379 24380 24381 24382 24383 24384 24385 24386 24387 24388 24389 24390 24391 24392 24393 24394 24395 24396 24397 24398 24399 24400 24401 24402 24403 24404 24405 24406 24407 24408 24409 24410 24411 24412 24413 24414 24415 24416 24417 24418 24419 24420 24421 24422 24423 24424 24425 24426 24427 24428 24429 24430 24431 24432 24433 24434 24435 24436 24437 24438 24439 24440 24441 24442 24443 24444 24445 24446 24447 24448 24449 24450 24451 24452 24453 24454 24455 24456 24457 24458 24459 24460 24461 24462 24463 24464 24465 24466 24467 24468 24469 24470 24471 24472 24473 24474 24475 24476 24477 24478 24479 24480 24481 24482 24483 24484 24485 24486 24487 24488 24489 24490 24491 24492 24493 24494 24495 24496 24497 24498 24499 24500 24501 24502 24503 24504 24505 24506 24507 24508 24509 24510 24511 24512 24513 24514 24515 24516 24517 24518 24519 24520 24521 24522 24523 24524 24525 24526 24527 24528 24529 24530 24531 24532 24533 24534 24535 24536 24537 24538 24539 24540 24541 24542 24543 24544 24545 24546 24547 24548 24549 24550 24551 24552 24553 24554 24555 24556 24557 24558 24559 24560 24561 24562 24563 24564 24565 24566 24567 24568 24569 24570 24571 24572 24573 24574 24575 24576 24577 24578 24579 24580 24581 24582 24583 24584 24585 24586 24587 24588 24589 24590 24591 24592 24593 24594 24595 24596 24597 24598 24599 24600 24601 24602 24603 24604 24605 24606 24607 24608 24609 24610 24611 24612 24613 24614 24615 24616 24617 24618 24619 24620 24621 24622 24623 24624 24625 24626 24627 24628 24629 24630 24631 24632 24633 24634 24635 24636 24637 24638 24639 24640 24641 24642 24643 24644 24645 24646 24647 24648 24649 24650 24651 24652 24653 24654 24655 24656 24657 24658 24659 24660 24661 24662 24663 24664 24665 24666 24667 24668 24669 24670 24671 24672 24673 24674 24675 24676 24677 24678 24679 24680 24681 24682 24683 24684 24685 24686 24687 24688 24689 24690 24691 24692 24693 24694 24695 24696 24697 24698 24699 24700 24701 24702 24703 24704 24705 24706 24707 24708 24709 24710 24711 24712 24713 24714 24715 24716 24717 24718 24719 24720 24721 24722 24723 24724 24725 24726 24727 24728 24729 24730 24731 24732 24733 24734 24735 24736 24737 24738 24739 24740 24741 24742 24743 24744 24745 24746 24747 24748 24749 24750 24751 24752 24753 24754 24755 24756 24757 24758 24759 24760 24761 24762 24763 24764 24765 24766 24767 24768 24769 24770 24771 24772 24773 24774 24775 24776 24777 24778 24779 24780 24781 24782 24783 24784 24785 24786 24787 24788 24789 24790 24791 24792 24793 24794 24795 24796 24797 24798 24799 24800 24801 24802 24803 24804 24805 24806 24807 24808 24809 24810 24811 24812 24813 24814 24815 24816 24817 24818 24819 24820 24821 24822 24823 24824 24825 24826 24827 24828 24829 24830 24831 24832 24833 24834 24835 24836 24837 24838 24839 24840 24841 24842 24843 24844 24845 24846 24847 24848 24849 24850 24851 24852 24853 24854 24855 24856 24857 24858 24859 24860 24861 24862 24863 24864 24865 24866 24867 24868 24869 24870 24871 24872 24873 24874 24875 24876 24877 24878 24879 24880 24881 24882 24883 24884 24885 24886 24887 24888 24889 24890 24891 24892 24893 24894 24895 24896 24897 24898 24899 24900 24901 24902 24903 24904 24905 24906 24907 24908 24909 24910 24911 24912 24913 24914 24915 24916 24917 24918 24919 24920 24921 24922 24923 24924 24925 24926 24927 24928 24929 24930 24931 24932 24933 24934 24935 24936 24937 24938 24939 24940 24941 24942 24943 24944 24945 24946 24947 24948 24949 24950 24951 24952 24953 24954 24955 24956 24957 24958 24959 24960 24961 24962 24963 24964 24965 24966 24967 24968 24969 24970 24971 24972 24973 24974 24975 24976 24977 24978 24979 24980 24981 24982 24983 24984 24985 24986 24987 24988 24989 24990 24991 24992 24993 24994 24995 24996 24997 24998 24999 25000 25001 25002 25003 25004 25005 25006 25007 25008 25009 25010 25011 25012 25013 25014 25015 25016 25017 25018 25019 25020 25021 25022 25023 25024 25025 25026 25027 25028 25029 25030 25031 25032 25033 25034 25035 25036 25037 25038 25039 25040 25041 25042 25043 25044 25045 25046 25047 25048 25049 25050 25051 25052 25053 25054 25055 25056 25057 25058 25059 25060 25061 25062 25063 25064 25065 25066 25067 25068 25069 25070 25071 25072 25073 25074 25075 25076 25077 25078 25079 25080 25081 25082 25083 25084 25085 25086 25087 25088 25089 25090 25091 25092 25093 25094 25095 25096 25097 25098 25099 25100 25101 25102 25103 25104 25105 25106 25107 25108 25109 25110 25111 25112 25113 25114 25115 25116 25117 25118 25119 25120 25121 25122 25123 25124 25125 25126 25127 25128 25129 25130 25131 25132 25133 25134 25135 25136 25137 25138 25139 25140 25141 25142 25143 25144 25145 25146 25147 25148 25149 25150 25151 25152 25153 25154 25155 25156 25157 25158 25159 25160 25161 25162 25163 25164 25165 25166 25167 25168 25169 25170 25171 25172 25173 25174 25175 25176 25177 25178 25179 25180 25181 25182 25183 25184 25185 25186 25187 25188 25189 25190 25191 25192 25193 25194 25195 25196 25197 25198 25199 25200 25201 25202 25203 25204 25205 25206 25207 25208 25209 25210 25211 25212 25213 25214 25215 25216 25217 25218 25219 25220 25221 25222 25223 25224 25225 25226 25227 25228 25229 25230 25231 25232 25233 25234 25235 25236 25237 25238 25239 25240 25241 25242 25243 25244 25245 25246 25247 25248 25249 25250 25251 25252 25253 25254 25255 25256 25257 25258 25259 25260 25261 25262 25263 25264 25265 25266 25267 25268 25269 25270 25271 25272 25273 25274 25275 25276 25277 25278 25279 25280 25281 25282 25283 25284 25285 25286 25287 25288 25289 25290 25291 25292 25293 25294 25295 25296 25297 25298 25299 25300 25301 25302 25303 25304 25305 25306 25307 25308 25309 25310 25311 25312 25313 25314 25315 25316 25317 25318 25319 25320 25321 25322 25323 25324 25325 25326 25327 25328 25329 25330 25331 25332 25333 25334 25335 25336 25337 25338 25339 25340 25341 25342 25343 25344 25345 25346 25347 25348 25349 25350 25351 25352 25353 25354 25355 25356 25357 25358 25359 25360 25361 25362 25363 25364 25365 25366 25367 25368 25369 25370 25371 25372 25373 25374 25375 25376 25377 25378 25379 25380 25381 25382 25383 25384 25385 25386 25387 25388 25389 25390 25391 25392 25393 25394 25395 25396 25397 25398 25399 25400 25401 25402 25403 25404 25405 25406 25407 25408 25409 25410 25411 25412 25413 25414 25415 25416 25417 25418 25419 25420 25421 25422 25423 25424 25425 25426 25427 25428 25429 25430 25431 25432 25433 25434 25435 25436 25437 25438 25439 25440 25441 25442 25443 25444 25445 25446 25447 25448 25449 25450 25451 25452 25453 25454 25455 25456 25457 25458 25459 25460 25461 25462 25463 25464 25465 25466 25467 25468 25469 25470 25471 25472 25473 25474 25475 25476 25477 25478 25479 25480 25481 25482 25483 25484 25485 25486 25487 25488 25489 25490 25491 25492 25493 25494 25495 25496 25497 25498 25499 25500 25501 25502 25503 25504 25505 25506 25507 25508 25509 25510 25511 25512 25513 25514 25515 25516 25517 25518 25519 25520 25521 25522 25523 25524 25525 25526 25527 25528 25529 25530 25531 25532 25533 25534 25535 25536 25537 25538 25539 25540 25541 25542 25543 25544 25545 25546 25547 25548 25549 25550 25551 25552 25553 25554 25555 25556 25557 25558 25559 25560 25561 25562 25563 25564 25565 25566 25567 25568 25569 25570 25571 25572 25573 25574 25575 25576 25577 25578 25579 25580 25581 25582 25583 25584 25585 25586 25587 25588 25589 25590 25591 25592 25593 25594 25595 25596 25597 25598 25599 25600 25601 25602 25603 25604 25605 25606 25607 25608 25609 25610 25611 25612 25613 25614 25615 25616 25617 25618 25619 25620 25621 25622 25623 25624 25625 25626 25627 25628 25629 25630 25631 25632 25633 25634 25635 25636 25637 25638 25639 25640 25641 25642 25643 25644 25645 25646 25647 25648 25649 25650 25651 25652 25653 25654 25655 25656 25657 25658 25659 25660 25661 25662 25663 25664 25665 25666 25667 25668 25669 25670 25671 25672 25673 25674 25675 25676 25677 25678 25679 25680 25681 25682 25683 25684 25685 25686 25687 25688 25689 25690 25691 25692 25693 25694 25695 25696 25697 25698 25699 25700 25701 25702 25703 25704 25705 25706 25707 25708 25709 25710 25711 25712 25713 25714 25715 25716 25717 25718 25719 25720 25721 25722 25723 25724 25725 25726 25727 25728 25729 25730 25731 25732 25733 25734 25735 25736 25737 25738 25739 25740 25741 25742 25743 25744 25745 25746 25747 25748 25749 25750 25751 25752 25753 25754 25755 25756 25757 25758 25759 25760 25761 25762 25763 25764 25765 25766 25767 25768 25769 25770 25771 25772 25773 25774 25775 25776 25777 25778 25779 25780 25781 25782 25783 25784 25785 25786 25787 25788 25789 25790 25791 25792 25793 25794 25795 25796 25797 25798 25799 25800 25801 25802 25803 25804 25805 25806 25807 25808 25809 25810 25811 25812 25813 25814 25815 25816 25817 25818 25819 25820 25821 25822 25823 25824 25825 25826 25827 25828 25829 25830 25831 25832 25833 25834 25835 25836 25837 25838 25839 25840 25841 25842 25843 25844 25845 25846 25847 25848 25849 25850 25851 25852 25853 25854 25855 25856 25857 25858 25859 25860 25861 25862 25863 25864 25865 25866 25867 25868 25869 25870 25871 25872 25873 25874 25875 25876 25877 25878 25879 25880 25881 25882 25883 25884 25885 25886 25887 25888 25889 25890 25891 25892 25893 25894 25895 25896 25897 25898 25899 25900 25901 25902 25903 25904 25905 25906 25907 25908 25909 25910 25911 25912 25913 25914 25915 25916 25917 25918 25919 25920 25921 25922 25923 25924 25925 25926 25927 25928 25929 25930 25931 25932 25933 25934 25935 25936 25937 25938 25939 25940 25941 25942 25943 25944 25945 25946 25947 25948 25949 25950 25951 25952 25953 25954 25955 25956 25957 25958 25959 25960 25961 25962 25963 25964 25965 25966 25967 25968 25969 25970 25971 25972 25973 25974 25975 25976 25977 25978 25979 25980 25981 25982 25983 25984 25985 25986 25987 25988 25989 25990 25991 25992 25993 25994 25995 25996 25997 25998 25999 26000 26001 26002 26003 26004 26005 26006 26007 26008 26009 26010 26011 26012 26013 26014 26015 26016 26017 26018 26019 26020 26021 26022 26023 26024 26025 26026 26027 26028 26029 26030 26031 26032 26033 26034 26035 26036 26037 26038 26039 26040 26041 26042 26043 26044 26045 26046 26047 26048 26049 26050 26051 26052 26053 26054 26055 26056 26057 26058 26059 26060 26061 26062 26063 26064 26065 26066 26067 26068 26069 26070 26071 26072 26073 26074 26075 26076 26077 26078 26079 26080 26081 26082 26083 26084 26085 26086 26087 26088 26089 26090 26091 26092 26093 26094 26095 26096 26097 26098 26099 26100 26101 26102 26103 26104 26105 26106 26107 26108 26109 26110 26111 26112 26113 26114 26115 26116 26117 26118 26119 26120 26121 26122 26123 26124 26125 26126 26127 26128 26129 26130 26131 26132 26133 26134 26135 26136 26137 26138 26139 26140 26141 26142 26143 26144 26145 26146 26147 26148 26149 26150 26151 26152 26153 26154 26155 26156 26157 26158 26159 26160 26161 26162 26163 26164 26165 26166 26167 26168 26169 26170 26171 26172 26173 26174 26175 26176 26177 26178 26179 26180 26181 26182 26183 26184 26185 26186 26187 26188 26189 26190 26191 26192 26193 26194 26195 26196 26197 26198 26199 26200 26201 26202 26203 26204 26205 26206 26207 26208 26209 26210 26211 26212 26213 26214 26215 26216 26217 26218 26219 26220 26221 26222 26223 26224 26225 26226 26227 26228 26229 26230 26231 26232 26233 26234 26235 26236 26237 26238 26239 26240 26241 26242 26243 26244 26245 26246 26247 26248 26249 26250 26251 26252 26253 26254 26255 26256 26257 26258 26259 26260 26261 26262 26263 26264 26265 26266 26267 26268 26269 26270 26271 26272 26273 26274 26275 26276 26277 26278 26279 26280 26281 26282 26283 26284 26285 26286 26287 26288 26289 26290 26291 26292 26293 26294 26295 26296 26297 26298 26299 26300 26301 26302 26303 26304 26305 26306 26307 26308 26309 26310 26311 26312 26313 26314 26315 26316 26317 26318 26319 26320 26321 26322 26323 26324 26325 26326 26327 26328 26329 26330 26331 26332 26333 26334 26335 26336 26337 26338 26339 26340 26341 26342 26343 26344 26345 26346 26347 26348 26349 26350 26351 26352 26353 26354 26355 26356 26357 26358 26359 26360 26361 26362 26363 26364 26365 26366 26367 26368 26369 26370 26371 26372 26373 26374 26375 26376 26377 26378 26379 26380 26381 26382 26383 26384 26385 26386 26387 26388 26389 26390 26391 26392 26393 26394 26395 26396 26397 26398 26399 26400 26401 26402 26403 26404 26405 26406 26407 26408 26409 26410 26411 26412 26413 26414 26415 26416 26417 26418 26419 26420 26421 26422 26423 26424 26425 26426 26427 26428 26429 26430 26431 26432 26433 26434 26435 26436 26437 26438 26439 26440 26441 26442 26443 26444 26445 26446 26447 26448 26449 26450 26451 26452 26453 26454 26455 26456 26457 26458 26459 26460 26461 26462 26463 26464 26465 26466 26467 26468 26469 26470 26471 26472 26473 26474 26475 26476 26477 26478 26479 26480 26481 26482 26483 26484 26485 26486 26487 26488 26489 26490 26491 26492 26493 26494 26495 26496 26497 26498 26499 26500 26501 26502 26503 26504 26505 26506 26507 26508 26509 26510 26511 26512 26513 26514 26515 26516 26517 26518 26519 26520 26521 26522 26523 26524 26525 26526 26527 26528 26529 26530 26531 26532 26533 26534 26535 26536 26537 26538 26539 26540 26541 26542 26543 26544 26545 26546 26547 26548 26549 26550 26551 26552 26553 26554 26555 26556 26557 26558 26559 26560 26561 26562 26563 26564 26565 26566 26567 26568 26569 26570 26571 26572 26573 26574 26575 26576 26577 26578 26579 26580 26581 26582 26583 26584 26585 26586 26587 26588 26589 26590 26591 26592 26593 26594 26595 26596 26597 26598 26599 26600 26601 26602 26603 26604 26605 26606 26607 26608 26609 26610 26611 26612 26613 26614 26615 26616 26617 26618 26619 26620 26621 26622 26623 26624 26625 26626 26627 26628 26629 26630 26631 26632 26633 26634 26635 26636 26637 26638 26639 26640 26641 26642 26643 26644 26645 26646 26647 26648 26649 26650 26651 26652 26653 26654 26655 26656 26657 26658 26659 26660 26661 26662 26663 26664 26665 26666 26667 26668 26669 26670 26671 26672 26673 26674 26675 26676 26677 26678 26679 26680 26681 26682 26683 26684 26685 26686 26687 26688 26689 26690 26691 26692 26693 26694 26695 26696 26697 26698 26699 26700 26701 26702 26703 26704 26705 26706 26707 26708 26709 26710 26711 26712 26713 26714 26715 26716 26717 26718 26719 26720 26721 26722 26723 26724 26725 26726 26727 26728 26729 26730 26731 26732 26733 26734 26735 26736 26737 26738 26739 26740 26741 26742 26743 26744 26745 26746 26747 26748 26749 26750 26751 26752 26753 26754 26755 26756 26757 26758 26759 26760 26761 26762 26763 26764 26765 26766 26767 26768 26769 26770 26771 26772 26773 26774 26775 26776 26777 26778 26779 26780 26781 26782 26783 26784 26785 26786 26787 26788 26789 26790 26791 26792 26793 26794 26795 26796 26797 26798 26799 26800 26801 26802 26803 26804 26805 26806 26807 26808 26809 26810 26811 26812 26813 26814 26815 26816 26817 26818 26819 26820 26821 26822 26823 26824 26825 26826 26827 26828 26829 26830 26831 26832 26833 26834 26835 26836 26837 26838 26839 26840 26841 26842 26843 26844 26845 26846 26847 26848 26849 26850 26851 26852 26853 26854 26855 26856 26857 26858 26859 26860 26861 26862 26863 26864 26865 26866 26867 26868 26869 26870 26871 26872 26873 26874 26875 26876 26877 26878 26879 26880 26881 26882 26883 26884 26885 26886 26887 26888 26889 26890 26891 26892 26893 26894 26895 26896 26897 26898 26899 26900 26901 26902 26903 26904 26905 26906 26907 26908 26909 26910 26911 26912 26913 26914 26915 26916 26917 26918 26919 26920 26921 26922 26923 26924 26925 26926 26927 26928 26929 26930 26931 26932 26933 26934 26935 26936 26937 26938 26939 26940 26941 26942 26943 26944 26945 26946 26947 26948 26949 26950 26951 26952 26953 26954 26955 26956 26957 26958 26959 26960 26961 26962 26963 26964 26965 26966 26967 26968 26969 26970 26971 26972 26973 26974 26975 26976 26977 26978 26979 26980 26981 26982 26983 26984 26985 26986 26987 26988 26989 26990 26991 26992 26993 26994 26995 26996 26997 26998 26999 27000 27001 27002 27003 27004 27005 27006 27007 27008 27009 27010 27011 27012 27013 27014 27015 27016 27017 27018 27019 27020 27021 27022 27023 27024 27025 27026 27027 27028 27029 27030 27031 27032 27033 27034 27035 27036 27037 27038 27039 27040 27041 27042 27043 27044 27045 27046 27047 27048 27049 27050 27051 27052 27053 27054 27055 27056 27057 27058 27059 27060 27061 27062 27063 27064 27065 27066 27067 27068 27069 27070 27071 27072 27073 27074 27075 27076 27077 27078 27079 27080 27081 27082 27083 27084 27085 27086 27087 27088 27089 27090 27091 27092 27093 27094 27095 27096 27097 27098 27099 27100 27101 27102 27103 27104 27105 27106 27107 27108 27109 27110 27111 27112 27113 27114 27115 27116 27117 27118 27119 27120 27121 27122 27123 27124 27125 27126 27127 27128 27129 27130 27131 27132 27133 27134 27135 27136 27137 27138 27139 27140 27141 27142 27143 27144 27145 27146 27147 27148 27149 27150 27151 27152 27153 27154 27155 27156 27157 27158 27159 27160 27161 27162 27163 27164 27165 27166 27167 27168 27169 27170 27171 27172 27173 27174 27175 27176 27177 27178 27179 27180 27181 27182 27183 27184 27185 27186 27187 27188 27189 27190 27191 27192 27193 27194 27195 27196 27197 27198 27199 27200 27201 27202 27203 27204 27205 27206 27207 27208 27209 27210 27211 27212 27213 27214 27215 27216 27217 27218 27219 27220 27221 27222 27223 27224 27225 27226 27227 27228 27229 27230 27231 27232 27233 27234 27235 27236 27237 27238 27239 27240 27241 27242 27243 27244 27245 27246 27247 27248 27249 27250 27251 27252 27253 27254 27255 27256 27257 27258 27259 27260 27261 27262 27263 27264 27265 27266 27267 27268 27269 27270 27271 27272 27273 27274 27275 27276 27277 27278 27279 27280 27281 27282 27283 27284 27285 27286 27287 27288 27289 27290 27291 27292 27293 27294 27295 27296 27297 27298 27299 27300 27301 27302 27303 27304 27305 27306 27307 27308 27309 27310 27311 27312 27313 27314 27315 27316 27317 27318 27319 27320 27321 27322 27323 27324 27325 27326 27327 27328 27329 27330 27331 27332 27333 27334 27335 27336 27337 27338 27339 27340 27341 27342 27343 27344 27345 27346 27347 27348 27349 27350 27351 27352 27353 27354 27355 27356 27357 27358 27359 27360 27361 27362 27363 27364 27365 27366 27367 27368 27369 27370 27371 27372 27373 27374 27375 27376 27377 27378 27379 27380 27381 27382 27383 27384 27385 27386 27387 27388 27389 27390 27391 27392 27393 27394 27395 27396 27397 27398 27399 27400 27401 27402 27403 27404 27405 27406 27407 27408 27409 27410 27411 27412 27413 27414 27415 27416 27417 27418 27419 27420 27421 27422 27423 27424 27425 27426 27427 27428 27429 27430 27431 27432 27433 27434 27435 27436 27437 27438 27439 27440 27441 27442 27443 27444 27445 27446 27447 27448 27449 27450 27451 27452 27453 27454 27455 27456 27457 27458 27459 27460 27461 27462 27463 27464 27465 27466 27467 27468 27469 27470 27471 27472 27473 27474 27475 27476 27477 27478 27479 27480 27481 27482 27483 27484 27485 27486 27487 27488 27489 27490 27491 27492 27493 27494 27495 27496 27497 27498 27499 27500 27501 27502 27503 27504 27505 27506 27507 27508 27509 27510 27511 27512 27513 27514 27515 27516 27517 27518 27519 27520 27521 27522 27523 27524 27525 27526 27527 27528 27529 27530 27531 27532 27533 27534 27535 27536 27537 27538 27539 27540 27541 27542 27543 27544 27545 27546 27547 27548 27549 27550 27551 27552 27553 27554 27555 27556 27557 27558 27559 27560 27561 27562 27563 27564 27565 27566 27567 27568 27569 27570 27571 27572 27573 27574 27575 27576 27577 27578 27579 27580 27581 27582 27583 27584 27585 27586 27587 27588 27589 27590 27591 27592 27593 27594 27595 27596 27597 27598 27599 27600 27601 27602 27603 27604 27605 27606 27607 27608 27609 27610 27611 27612 27613 27614 27615 27616 27617 27618 27619 27620 27621 27622 27623 27624 27625 27626 27627 27628 27629 27630 27631 27632 27633 27634 27635 27636 27637 27638 27639 27640 27641 27642 27643 27644 27645 27646 27647 27648 27649 27650 27651 27652 27653 27654 27655 27656 27657 27658 27659 27660 27661 27662 27663 27664 27665 27666 27667 27668 27669 27670 27671 27672 27673 27674 27675 27676 27677 27678 27679 27680 27681 27682 27683 27684 27685 27686 27687 27688 27689 27690 27691 27692 27693 27694 27695 27696 27697 27698 27699 27700 27701 27702 27703 27704 27705 27706 27707 27708 27709 27710 27711 27712 27713 27714 27715 27716 27717 27718 27719 27720 27721 27722 27723 27724 27725 27726 27727 27728 27729 27730 27731 27732 27733 27734 27735 27736 27737 27738 27739 27740 27741 27742 27743 27744 27745 27746 27747 27748 27749 27750 27751 27752 27753 27754 27755 27756 27757 27758 27759 27760 27761 27762 27763 27764 27765 27766 27767 27768 27769 27770 27771 27772 27773 27774 27775 27776 27777 27778 27779 27780 27781 27782 27783 27784 27785 27786 27787 27788 27789 27790 27791 27792 27793 27794 27795 27796 27797 27798 27799 27800 27801 27802 27803 27804 27805 27806 27807 27808 27809 27810 27811 27812 27813 27814 27815 27816 27817 27818 27819 27820 27821 27822 27823 27824 27825 27826 27827 27828 27829 27830 27831 27832 27833 27834 27835 27836 27837 27838 27839 27840 27841 27842 27843 27844 27845 27846 27847 27848 27849 27850 27851 27852 27853 27854 27855 27856 27857 27858 27859 27860 27861 27862 27863 27864 27865 27866 27867 27868 27869 27870 27871 27872 27873 27874 27875 27876 27877 27878 27879 27880 27881 27882 27883 27884 27885 27886 27887 27888 27889 27890 27891 27892 27893 27894 27895 27896 27897 27898 27899 27900 27901 27902 27903 27904 27905 27906 27907 27908 27909 27910 27911 27912 27913 27914 27915 27916 27917 27918 27919 27920 27921 27922 27923 27924 27925 27926 27927 27928 27929 27930 27931 27932 27933 27934 27935 27936 27937 27938 27939 27940 27941 27942 27943 27944 27945 27946 27947 27948 27949 27950 27951 27952 27953 27954 27955 27956 27957 27958 27959 27960 27961 27962 27963 27964 27965 27966 27967 27968 27969 27970 27971 27972 27973 27974 27975 27976 27977 27978 27979 27980 27981 27982 27983 27984 27985 27986 27987 27988 27989 27990 27991 27992 27993 27994 27995 27996 27997 27998 27999 28000 28001 28002 28003 28004 28005 28006 28007 28008 28009 28010 28011 28012 28013 28014 28015 28016 28017 28018 28019 28020 28021 28022 28023 28024 28025 28026 28027 28028 28029 28030 28031 28032 28033 28034 28035 28036 28037 28038 28039 28040 28041 28042 28043 28044 28045 28046 28047 28048 28049 28050 28051 28052 28053 28054 28055 28056 28057 28058 28059 28060 28061 28062 28063 28064 28065 28066 28067 28068 28069 28070 28071 28072 28073 28074 28075 28076 28077 28078 28079 28080 28081 28082 28083 28084 28085 28086 28087 28088 28089 28090 28091 28092 28093 28094 28095 28096 28097 28098 28099 28100 28101 28102 28103 28104 28105 28106 28107 28108 28109 28110 28111 28112 28113 28114 28115 28116 28117 28118 28119 28120 28121 28122 28123 28124 28125 28126 28127 28128 28129 28130 28131 28132 28133 28134 28135 28136 28137 28138 28139 28140 28141 28142 28143 28144 28145 28146 28147 28148 28149 28150 28151 28152 28153 28154 28155 28156 28157 28158 28159 28160 28161 28162 28163 28164 28165 28166 28167 28168 28169 28170 28171 28172 28173 28174 28175 28176 28177 28178 28179 28180 28181 28182 28183 28184 28185 28186 28187 28188 28189 28190 28191 28192 28193 28194 28195 28196 28197 28198 28199 28200 28201 28202 28203 28204 28205 28206 28207 28208 28209 28210 28211 28212 28213 28214 28215 28216 28217 28218 28219 28220 28221 28222 28223 28224 28225 28226 28227 28228 28229 28230 28231 28232 28233 28234 28235 28236 28237 28238 28239 28240 28241 28242 28243 28244 28245 28246 28247 28248 28249 28250 28251 28252 28253 28254 28255 28256 28257 28258 28259 28260 28261 28262 28263 28264 28265 28266 28267 28268 28269 28270 28271 28272 28273 28274 28275 28276 28277 28278 28279 28280 28281 28282 28283 28284 28285 28286 28287 28288 28289 28290 28291 28292 28293 28294 28295 28296 28297 28298 28299 28300 28301 28302 28303 28304 28305 28306 28307 28308 28309 28310 28311 28312 28313 28314 28315 28316 28317 28318 28319 28320 28321 28322 28323 28324 28325 28326 28327 28328 28329 28330 28331 28332 28333 28334 28335 28336 28337 28338 28339 28340 28341 28342 28343 28344 28345 28346 28347 28348 28349 28350 28351 28352 28353 28354 28355 28356 28357 28358 28359 28360 28361 28362 28363 28364 28365 28366 28367 28368 28369 28370 28371 28372 28373 28374 28375 28376 28377 28378 28379 28380 28381 28382 28383 28384 28385 28386 28387 28388 28389 28390 28391 28392 28393 28394 28395 28396 28397 28398 28399 28400 28401 28402 28403 28404 28405 28406 28407 28408 28409 28410 28411 28412 28413 28414 28415 28416 28417 28418 28419 28420 28421 28422 28423 28424 28425 28426 28427 28428 28429 28430 28431 28432 28433 28434 28435 28436 28437 28438 28439 28440 28441 28442 28443 28444 28445 28446 28447 28448 28449 28450 28451 28452 28453 28454 28455 28456 28457 28458 28459 28460 28461 28462 28463 28464 28465 28466 28467 28468 28469 28470 28471 28472 28473 28474 28475 28476 28477 28478 28479 28480 28481 28482 28483 28484 28485 28486 28487 28488 28489 28490 28491 28492 28493 28494 28495 28496 28497 28498 28499 28500 28501 28502 28503 28504 28505 28506 28507 28508 28509 28510 28511 28512 28513 28514 28515 28516 28517 28518 28519 28520 28521 28522 28523 28524 28525 28526 28527 28528 28529 28530 28531 28532 28533 28534 28535 28536 28537 28538 28539 28540 28541 28542 28543 28544 28545 28546 28547 28548 28549 28550 28551 28552 28553 28554 28555 28556 28557 28558 28559 28560 28561 28562 28563 28564 28565 28566 28567 28568 28569 28570 28571 28572 28573 28574 28575 28576 28577 28578 28579 28580 28581 28582 28583 28584 28585 28586 28587 28588 28589 28590 28591 28592 28593 28594 28595 28596 28597 28598 28599 28600 28601 28602 28603 28604 28605 28606 28607 28608 28609 28610 28611 28612 28613 28614 28615 28616 28617 28618 28619 28620 28621 28622 28623 28624 28625 28626 28627 28628 28629 28630 28631 28632 28633 28634 28635 28636 28637 28638 28639 28640 28641 28642 28643 28644 28645 28646 28647 28648 28649 28650 28651 28652 28653 28654 28655 28656 28657 28658 28659 28660 28661 28662 28663 28664 28665 28666 28667 28668 28669 28670 28671 28672 28673 28674 28675 28676 28677 28678 28679 28680 28681 28682 28683 28684 28685 28686 28687 28688 28689 28690 28691 28692 28693 28694 28695 28696 28697 28698 28699 28700 28701 28702 28703 28704 28705 28706 28707 28708 28709 28710 28711 28712 28713 28714 28715 28716 28717 28718 28719 28720 28721 28722 28723 28724 28725 28726 28727 28728 28729 28730 28731 28732 28733 28734 28735 28736 28737 28738 28739 28740 28741 28742 28743 28744 28745 28746 28747 28748 28749 28750 28751 28752 28753 28754 28755 28756 28757 28758 28759 28760 28761 28762 28763 28764 28765 28766 28767 28768 28769 28770 28771 28772 28773 28774 28775 28776 28777 28778 28779 28780 28781 28782 28783 28784 28785 28786 28787 28788 28789 28790 28791 28792 28793 28794 28795 28796 28797 28798 28799 
</DataArray>
<DataArray type="UInt32" Name="offsets" format="ascii">
3 6 9 11 14 17 19 22 25 28 31 34 37 40 43 45 47 50 53 56 59 61 64 67 69 71 74 76 79 81 84 87 90 92 95 98 101 104 107 110 113 116 119 122 125 128 131 133 135 138 141 144 147 150 153 156 159 162 165 168 171 174 177 180 183 186 189 192 195 198 200 203 206 208 211 214 217 220 223 226 229 232 235 238 241 244 247 250 253 255 258 261 264 267 270 272 275 278 281 284 286 288 291 294 297 300 303 306 309 312 314 316 319 322 324 327 330 332 335 337 340 342 345 347 350 353 356 358 361 363 366 368 371 374 376 379 382 385 388 391 393 396 399 402 405 407 409 412 414 417 419 421 423 426 429 432 435 438 441 444 447 450 453 456 459 462 465 468 471 474 476 479 482 485 488 491 494 497 500 503 506 509 512 515 518 521 524 527 530 533 536 539 542 545 548 551 553 556 559 562 565 568 571 573 576 579 582 585 588 591 594 596 599 602 605 608 610 613 615 618 621 624 627 630 633 636 639 642 645 648 651 654 657 660 663 666 669 672 675 678 681 684 686 689 692 695 698 701 704 707 710 713 716 719 722 725 728 731 733 735 737 740 743 746 749 752 755 757 760 763 766 769 771 773 776 779 782 785 787 789 792 795 797 799 802 805 807 810 813 816 819 821 823 826 829 832 835 838 841 844 846 849 851 854 857 860 863 866 869 871 874 877 880 883 886 888 891 894 897 900 903 906 909 912 915 918 921 924 926 929 932 934 937 940 943 946 949 952 955 958 961 964 967 970 973 976 979 982 985 988 991 994 997 1000 1003 1006 1009 1012 1015 1018 1021 1024 1027 1030 1033 1036 1039 1042 1045 1047 1050 1053 1056 1059 1062 1065 1068 1071 1074 1077 1079 1082 1085 1088 1090 1093 1095 1098 1101 1104 1107 1110 1112 1115 1118 1121 1124 1126 1129 1132 1135 1138 1141 1144 1147 1150 1153 1155 1158 1161 1164 1166 1169 1172 1175 1177 1180 1183 1186 1188 1191 1194 1197 1200 1203 1206 1209 1212 1215 1218 1220 1223 1226 1229 1232 1235 1238 1241 1244 1247 1250 1253 1255 1258 1261 1264 1267 1270 1273 1276 1278 1281 1284 1287 1290 1293 1296 1298 1300 1303 1306 1309 1311 1314 1317 1320 1323 1326 1329 1332 1335 1338 1341 1344 1347 1350 1353 1356 1359 1362 1365 1368 1371 1374 1377 1380 1383 1386 1389 1392 1395 1398 1401 1404 1406 1409 1412 1415 1418 1421 1424 1427 1430 1433 1436 1439 1442 1445 1448 1451 1454 1457 1460 1463 1466 1469 1472 1474 1477 1479 1482 1485 1488 1491 1494 1496 1499 1502 1505 1508 1510 1513 1516 1519 1521 1524 1527 1530 1533 1536 1539 1542 1545 1548 1551 1554 1557 1559 1562 1565 1568 1571 1574 1577 1580 1583 1586 1589 1592 1595 1598 1601 1604 1607 1610 1612 1615 1618 1621 1624 1627 1630 1633 1636 1639 1642 1645 1648 1651 1654 1657 1660 1663 1666 1668 1670 1673 1676 1679 1682 1685 1688 1691 1694 1697 1700 1703 1706 1709 1712 1715 1718 1721 1724 1727 1730 1733 1736 1739 1742 1745 1748 1751 1754 1757 1760 1763 1766 1769 1772 1775 1778 1781 1784 1787 1790 1793 1796 1799 1802 1805 1808 1811 1814 1817 1819 1822 1824 1827 1830 1833 1836 1839 1842 1845 1848 1850 1853 1855 1857 1860 1863 1866 1869 1872 1875 1878 1880 1883 1886 1888 1891 1893 1896 1899 1902 1904 1907 1909 1911 1914 1917 1920 1922 1925 1927 1930 1933 1936 1939 1942 1945 1948 1951 1954 1957 1960 1963 1966 1969 1972 1975 1978 1981 1984 1987 1990 1993 1996 1999 2002 2005 2008 2011 2014 2017 2020 2023 2026 2029 2032 2035 2038 2041 2044 2047 2050 2053 2056 2059 2062 2065 2068 2071 2074 2077 2080 2083 2086 2089 2092 2095 2098 2101 2104 2107 2110 2113 2116 2119 2122 2125 2128 2131 2134 2137 2140 2143 2146 2149 2152 2155 2158 2161 2164 2167 2169 2172 2175 2178 2181 2183 2186 2189 2192 2195 2198 2201 2204 2206 2209 2212 2215 2218 2221 2224 2227 2230 2233 2236 2239 2242 2245 2248 2251 2254 2256 2259 2262 2264 2267 2269 2272 2274 2277 2280 2283 2286 2289 2292 2295 2298 2300 2303 2306 2309 2311 2314 2316 2319 2322 2324 2327 2330 2333 2335 2337 2340 2343 2346 2349 2352 2355 2358 2361 2364 2367 2370 2373 2376 2379 2382 2385 2388 2391 2394 2397 2400 2403 2406 2409 2412 2415 2417 2420 2423 2426 2429 2432 2435 2437 2440 2443 2446 2448 2451 2454 2457 2460 2463 2466 2468 2471 2474 2477 2480 2483 2486 2489 2492 2495 2498 2500 2503 2506 2508 2511 2514 2516 2519 2522 2525 2528 2531 2534 2537 2540 2542 2545 2548 2551 2554 2557 2560 2563 2566 2569 2572 2575 2577 2580 2583 2586 2589 2591 2594 2597 2600 2602 2605 2608 2611 2614 2617 2620 2623 2626 2629 2632 2635 2638 2641 2644 2647 2650 2653 2656 2659 2662 2665 2668 2671 2674 2677 2680 2682 2684 2687 2690 2693 2696 2698 2701 2703 2705 2708 2711 2714 2717 2720 2722 2724 2727 2729 2732 2734 2737 2740 2743 2746 2749 2752 2755 2757 2760 2763 2766 2769 2772 2775 2778 2781 2784 2787 2790 2793 2796 2799 2802 2805 2808 2810 2813 2816 2819 2822 2825 2828 2831 2834 2837 2840 2842 2845 2848 2851 2853 2856 2859 2861 2864 2867 2870 2873 2876 2879 2882 2885 2888 2891 2894 2897 2900 2903 2906 2909 2912 2915 2918 2921 2924 2927 2930 2933 2935 2937 2940 2943 2946 2948 2951 2954 2957 2960 2962 2965 2968 2971 2974 2976 2979 2982 2985 2988 2991 2994 2997 3000 3003 3005 3008 3011 3014 3017 3020 3023 3026 3029 3032 3035 3038 3041 3043 3046 3049 3052 3055 3058 3061 3063 3066 3069 3072 3074 3076 3079 3082 3085 3088 3090 3093 3096 3098 3101 3104 3107 3110 3113 3116 3119 3122 3125 3128 3131 3134 3137 3140 3143 3146 3149 3152 3155 3158 3161 3164 3167 3170 3172 3175 3178 3181 3184 3187 3190 3193 3196 3199 3201 3204 3206 3209 3212 3215 3218 3221 3224 3227 3229 3232 3235 3237 3240 3243 3246 3249 3252 3255 3258 3261 3264 3266 3269 3272 3275 3277 3280 3283 3286 3289 3292 3295 3298 3301 3304 3307 3310 3313 3316 3319 3322 3325 3328 3331 3334 3337 3339 3342 3344 3347 3350 3353 3355 3358 3361 3364 3366 3369 3372 3375 3378 3381 3384 3386 3388 3391 3393 3395 3398 3401 3404 3407 3410 3413 3416 3419 3422 3425 3428 3431 3434 3437 3439 3442 3444 3447 3450 3453 3456 3458 3461 3464 3467 3470 3473 3475 3478 3481 3484 3487 3489 3492 3495 3498 3500 3502 3505 3508 3510 3513 3516 3519 3522 3525 3528 3531 3533 3536 3539 3542 3545 3548 3551 3554 3557 3559 3562 3565 3568 3571 3574 3577 3580 3583 3585 3588 3590 3592 3595 3598 3601 3604 3606 3609 3611 3614 3617 3620 3623 3626 3629 3632 3635 3638 3641 3644 3647 3650 3653 3656 3659 3662 3664 3667 3670 3673 3676 3679 3682 3685 3688 3691 3694 3697 3699 3702 3705 3708 3711 3713 3716 3719 3721 3724 3727 3730 3732 3735 3738 3740 3743 3746 3749 3752 3755 3758 3761 3764 3767 3770 3773 3776 3779 3782 3785 3788 3791 3794 3797 3800 3803 3806 3809 3812 3815 3818 3821 3824 3827 3830 3833 3836 3839 3841 3844 3847 3850 3853 3856 3859 3862 3865 3868 3871 3874 3877 3880 3883 3886 3889 3892 3895 3898 3901 3904 3907 3910 3913 3916 3919 3922 3925 3928 3931 3934 3937 3940 3943 3946 3949 3952 3955 3958 3961 3964 3967 3970 3973 3976 3979 3982 3984 3987 3990 3993 3996 3999 4002 4005 4008 4011 4014 4017 4019 4022 4025 4028 4031 4034 4037 4040 4043 4046 4049 4052 4054 4057 4060 4062 4065 4068 4070 4073 4075 4078 4080 4083 4086 4088 4091 4093 4096 4098 4100 4102 4105 4108 4111 4113 4116 4119 4122 4125 4127 4130 4133 4136 4139 4141 4144 4147 4150 4153 4156 4159 4162 4165 4168 4171 4174 4177 4180 4183 4186 4189 4191 4194 4197 4200 4203 4206 4209 4212 4215 4218 4221 4224 4227 4230 4233 4236 4239 4242 4245 4248 4251 4254 4257 4260 4263 4266 4269 4272 4275 4278 4281 4284 4287 4290 4293 4296 4298 4301 4304 4307 4310 4313 4316 4319 4322 4325 4328 4331 4334 4337 4340 4343 4346 4349 4352 4355 4358 4360 4363 4366 4369 4372 4375 4378 4381 4384 4386 4389 4392 4395 4398 4401 4403 4406 4409 4412 4415 4418 4420 4423 4426 4429 4432 4435 4438 4441 4444 4447 4450 4453 4456 4459 4461 4464 4467 4470 4473 4476 4479 4482 4485 4488 4491 4494 4497 4499 4502 4505 4508 4511 4514 4517 4520 4523 4526 4529 4532 4535 4538 4541 4544 4547 4550 4553 4556 4559 4562 4565 4568 4571 4574 4577 4580 4583 4586 4589 4592 4595 4598 4601 4604 4607 4610 4613 4615 4618 4621 4624 4627 4630 4633 4636 4639 4642 4644 4646 4649 4652 4655 4657 4660 4663 4665 4668 4671 4673 4676 4679 4681 4684 4687 4689 4692 4695 4698 4701 4704 4707 4709 4712 4715 4718 4720 4723 4725 4728 4731 4733 4736 4738 4741 4743 4746 4748 4751 4754 4756 4759 4761 4764 4767 4770 4773 4776 4778 4781 4784 4787 4790 4793 4796 4799 4802 4805 4807 4810 4813 4815 4818 4821 4824 4827 4830 4833 4836 4839 4842 4845 4847 4850 4853 4856 4859 4862 4865 4868 4871 4874 4876 4879 4882 4885 4888 4890 4892 4895 4897 4900 4902 4905 4907 4910 4913 4916 4919 4922 4925 4928 4931 4934 4937 4940 4942 4945 4948 4951 4954 4957 4960 4963 4966 4969 4972 4975 4978 4981 4984 4987 4990 4992 4995 4998 5000 5003 5006 5009 5012 5014 5017 5020 5023 5026 5029 5032 5035 5037 5040 5043 5046 5049 5052 5055 5058 5061 5064 5067 5070 5073 5076 5078 5080 5083 5085 5088 5091 5094 5097 5100 5103 5106 5108 5111 5114 5117 5119 5122 5124 5127 5130 5133 5136 5139 5142 5145 5148 5151 5154 5157 5160 5163 5165 5168 5171 5174 5177 5179 5182 5185 5188 5190 5193 5196 5199 5202 5205 5208 5210 5213 5216 5219 5222 5224 5227 5229 5232 5235 5238 5241 5244 5246 5248 5251 5254 5257 5259 5262 5265 5268 5271 5274 5277 5280 5283 5286 5289 5292 5294 5297 5300 5303 5305 5308 5311 5314 5316 5319 5322 5325 5328 5331 5334 5337 5340 5343 5346 5349 5352 5355 5358 5361 5363 5365 5368 5371 5374 5376 5379 5382 5385 5388 5391 5394 5396 5399 5402 5405 5408 5411 5414 5417 5419 5422 5424 5427 5430 5433 5436 5438 5440 5443 5446 5448 5451 5453 5456 5458 5461 5464 5466 5468 5471 5474 5477 5480 5483 5485 5488 5490 5493 5496 5498 5501 5503 5505 5508 5510 5513 5516 5519 5522 5524 5527 5530 5533 5535 5538 5541 5544 5546 5549 5551 5554 5557 5559 5562 5565 5567 5570 5572 5575 5577 5580 5583 5586 5589 5592 5594 5596 5599 5602 5605 5608 5611 5614 5616 5619 5622 5625 5628 5630 5633 5636 5638 5641 5643 5646 5649 5652 5654 5657 5660 5663 5665 5668 5671 5674 5677 5680 5682 5685 5688 5690 5693 5696 5699 5702 5704 5707 5710 5713 5716 5719 5721 5723 5726 5729 5731 5734 5737 5740 5742 5744 5747 5750 5752 5754 5756 5759 5762 5764 5766 5769 5772 5775 5777 5780 5782 5785 5788 5790 5793 5796 5798 5801 5804 5807 5810 5813 5816 5819 5822 5824 5827 5830 5832 5835 5838 5841 5844 5847 5850 5853 5856 5858 5861 5864 5867 5869 5872 5875 5878 5881 5883 5886 5889 5892 5894 5897 5899 5902 5904 5907 5910 5913 5916 5919 5922 5924 5927 5930 5933 5936 5939 5942 5945 5948 5951 5954 5957 5960 5963 5965 5967 5970 5973 5976 5978 5981 5984 5987 5990 5993 5995 5998 6001 6004 6006 6009 6012 6015 6018 6021 6023 6026 6029 6031 6034 6037 6040 6043 6046 6049 6052 6055 6058 6060 6063 6066 6069 6072 6075 6078 6081 6084 6087 6090 6093 6096 6099 6102 6105 6108 6111 6114 6117 6120 6123 6126 6129 6132 6135 6138 6141 6143 6146 6149 6152 6155 6158 6161 6163 6166 6169 6172 6175 6178 6181 6184 6187 6190 6192 6195 6198 6200 6203 6206 6209 6212 6214 6217 6220 6223 6226 6229 6232 6235 6238 6241 6244 6247 6250 6253 6256 6259 6262 6265 6268 6271 6274 6277 6280 6283 6286 6289 6292 6295 6298 6301 6304 6307 6309 6312 6315 6318 6321 6324 6327 6330 6333 6335 6338 6341 6344 6347 6350 6353 6355 6358 6361 6364 6367 6370 6373 6376 6379 6382 6385 6388 6391 6394 6397 6400 6403 6405 6408 6411 6414 6417 6420 6422 6425 6428 6431 6434 6437 6439 6442 6445 6448 6451 6454 6457 6460 6463 6466 6469 6472 6475 6478 6481 6484 6487 6490 6493 6496 6499 6502 6505 6508 6510 6513 6516 6519 6522 6525 6528 6531 6534 6536 6539 6542 6545 6548 6551 6554 6557 6560 6563 6566 6569 6572 6575 6578 6581 6584 6587 6590 6593 6596 6599 6602 6605 6608 6611 6613 6616 6619 6622 6625 6627 6630 6633 6636 6639 6641 6644 6647 6650 6653 6656 6659 6662 6665 6668 6671 6674 6677 6680 6683 6685 6688 6691 6694 6697 6700 6703 6706 6709 6712 6715 6718 6721 6724 6727 6730 6733 6736 6739 6742 6745 6748 6751 6754 6757 6760 6763 6765 6768 6770 6773 6776 6779 6782 6785 6787 6790 6793 6796 6799 6802 6805 6808 6811 6814 6817 6820 6823 6826 6829 6832 6835 6838 6841 6844 6846 6849 6852 6855 6857 6860 6863 6866 6869 6872 6875 6878 6880 6883 6886 6889 6892 6894 6897 6899 6902 6904 6907 6909 6912 6915 6918 6921 6924 6927 6930 6933 6936 6939 6942 6945 6948 6951 6954 6957 6960 6963 6966 6969 6972 6975 6978 6981 6984 6987 6990 6993 6996 6999 7002 7005 7008 7011 7014 7017 7020 7023 7026 7029 7032 7035 7038 7041 7044 7047 7050 7053 7056 7059 7062 7065 7068 7071 7074 7077 7080 7083 7086 7089 7092 7095 7098 7101 7104 7107 7110 7113 7116 7119 7121 7124 7126 7129 7132 7135 7138 7141 7144 7147 7150 7153 7156 7159 7162 7165 7167 7170 7173 7176 7179 7181 7184 7187 7190 7193 7196 7199 7202 7205 7208 7211 7214 7217 7220 7223 7226 7229 7232 7235 7238 7241 7244 7247 7250 7253 7256 7259 7262 7265 7268 7271 7274 7277 7280 7283 7286 7289 7292 7294 7297 7300 7303 7306 7309 7312 7315 7318 7320 7323 7326 7329 7332 7335 7338 7341 7344 7347 7350 7353 7356 7359 7361 7364 7367 7369 7372 7375 7378 7381 7384 7386 7389 7392 7395 7398 7401 7403 7406 7409 7412 7415 7418 7420 7423 7426 7429 7432 7435 7438 7441 7444 7447 7450 7453 7456 7459 7462 7465 7468 7470 7473 7476 7478 7481 7484 7487 7490 7493 7496 7499 7502 7505 7508 7511 7514 7517 7520 7523 7526 7529 7532 7535 7538 7541 7544 7547 7550 7553 7556 7559 7562 7565 7568 7571 7574 7577 7580 7583 7586 7588 7591 7594 7597 7600 7603 7606 7609 7612 7615 7618 7621 7623 7626 7629 7631 7634 7636 7639 7642 7644 7647 7650 7653 7656 7659 7662 7665 7668 7671 7674 7677 7680 7683 7686 7689 7692 7695 7697 7699 7702 7705 7708 7711 7713 7716 7718 7721 7723 7726 7729 7731 7734 7737 7740 7743 7745 7748 7751 7753 7756 7758 7761 7764 7767 7770 7773 7776 7779 7782 7785 7788 7791 7794 7797 7800 7803 7806 7809 7812 7815 7818 7821 7824 7827 7830 7833 7836 7839 7842 7845 7848 7851 7854 7857 7860 7863 7866 7869 7872 7875 7878 7881 7884 7887 7890 7893 7896 7899 7901 7904 7907 7910 7912 7915 7918 7921 7923 7926 7928 7931 7934 7936 7939 7942 7944 7947 7950 7953 7956 7959 7962 7965 7967 7970 7973 7976 7979 7981 7983 7986 7989 7992 7995 7998 8001 8004 8007 8010 8013 8016 8019 8022 8025 8028 8031 8034 8037 8040 8043 8046 8048 8051 8054 8057 8060 8063 8066 8069 8072 8075 8078 8081 8084 8087 8090 8093 8096 8099 8102 8105 8108 8111 8114 8117 8120 8123 8126 8129 8132 8135 8138 8141 8144 8147 8150 8153 8156 8159 8162 8165 8167 8170 8173 8175 8178 8181 8184 8187 8190 8193 8196 8199 8202 8205 8208 8211 8214 8217 8220 8222 8225 8228 8231 8234 8237 8240 8243 8246 8249 8252 8255 8258 8261 8264 8267 8270 8273 8276 8279 8282 8285 8288 8291 8294 8297 8300 8303 8306 8309 8312 8315 8318 8321 8324 8327 8330 8333 8336 8339 8342 8345 8348 8351 8354 8357 8360 8363 8366 8369 8372 8375 8378 8381 8384 8387 8390 8393 8396 8399 8402 8404 8407 8410 8413 8416 8419 8422 8425 8428 8431 8433 8436 8439 8442 8445 8448 8451 8454 8457 8460 8463 8466 8468 8471 8474 8477 8480 8483 8486 8489 8492 8495 8498 8501 8504 8507 8509 8511 8513 8516 8519 8522 8525 8528 8531 8534 8536 8539 8542 8545 8548 8551 8553 8556 8559 8562 8565 8568 8571 8574 8577 8580 8583 8586 8589 8592 8595 8598 8601 8604 8607 8610 8613 8616 8619 8622 8625 8628 8631 8634 8637 8640 8643 8646 8649 8652 8655 8658 8661 8664 8666 8669 8672 8675 8677 8680 8683 8686 8689 8692 8695 8698 8701 8704 8707 8710 8713 8716 8719 8722 8725 8727 8729 8732 8735 8738 8740 8742 8745 8748 8751 8754 8757 8760 8763 8766 8769 8772 8775 8778 8780 8783 8786 8789 8792 8795 8798 8801 8804 8807 8810 8813 8816 8819 8822 8825 8828 8831 8834 8837 8840 8843 8846 8849 8852 8855 8858 8861 8864 8867 8870 8873 8876 8879 8882 8885 8888 8891 8893 8896 8899 8902 8905 8908 8911 8914 8917 8919 8922 8925 8928 8931 8934 8937 8940 8942 8945 8948 8951 8954 8957 8960 8963 8966 8969 8972 8975 8978 8981 8984 8986 8989 8992 8995 8997 9000 9002 9005 9008 9011 9014 9017 9020 9023 9026 9029 9031 9034 9037 9040 9043 9046 9048 9051 9054 9057 9060 9063 9066 9069 9072 9075 9078 9081 9084 9087 9090 9093 9096 9099 9102 9105 9108 9110 9113 9116 9119 9122 9125 9127 9130 9133 9136 9139 9142 9145 9148 9150 9153 9156 9158 9161 9164 9167 9170 9173 9176 9178 9181 9184 9187 9190 9193 9196 9198 9201 9204 9207 9210 9213 9216 9219 9222 9225 9228 9231 9234 9237 9240 9243 9246 9249 9252 9255 9258 9261 9264 9267 9270 9273 9276 9279 9282 9285 9287 9290 9293 9296 9299 9301 9304 9307 9309 9312 9315 9318 9320 9323 9326 9328 9331 9334 9337 9340 9343 9346 9349 9352 9355 9358 9361 9364 9367 9370 9373 9376 9379 9382 9384 9387 9390 9393 9396 9398 9401 9404 9407 9409 9412 9415 9417 9420 9423 9426 9429 9432 9435 9438 9441 9444 9447 9450 9453 9456 9459 9462 9465 9468 9471 9474 9477 9480 9483 9486 9489 9492 9495 9498 9501 9504 9507 9510 9513 9516 9519 9522 9525 9528 9531 9534 9537 9540 9543 9546 9549 9552 9555 9558 9561 9564 9567 9570 9573 9576 9579 9582 9585 9588 9591 9594 9597 9600 9602 9605 9608 9611 9614 9617 9620 9623 9626 9628 9631 9634 9637 9640 9643 9646 9649 9652 9655 9658 9661 9664 9667 9670 9673 9676 9679 9682 9685 9688 9691 9694 9697 9700 9703 9706 9709 9712 9714 9717 9720 9723 9726 9729 9732 9735 9738 9741 9744 9747 9750 9753 9756 9759 9762 9765 9768 9771 9774 9777 9779 9782 9784 9787 9790 9792 9794 9797 9800 9802 9804 9807 9810 9812 9815 9818 9821 9824 9826 9829 9832 9834 9837 9840 9842 9845 9848 9851 9854 9857 9860 9863 9866 9869 9872 9875 9878 9881 9884 9886 9889 9892 9895 9898 9901 9904 9907 9910 9913 9916 9918 9921 9924 9926 9929 9932 9935 9938 9941 9943 9946 9948 9951 9954 9956 9959 9961 9964 9966 9969 9972 9975 9978 9981 9984 9987 9990 9993 9996 9999 10002 10005 10008 10011 10014 10016 10019 10022 10024 10027 10030 10033 10036 10038 10041 10044 10047 10050 10053 10056 10059 10062 10065 10068 10071 10074 10077 10080 10083 10086 10089 10091 10094 10097 10100 10103 10106 10109 10112 10115 10118 10120 10123 10126 10129 10132 10135 10138 10141 10144 10147 10150 10153 10156 10159 10162 10164 10167 10170 10172 10175 10178 10180 10183 10186 10189 10191 10194 10197 10200 10203 10206 10209 10212 10215 10218 10221 10223 10226 10228 10231 10234 10237 10240 10243 10245 10248 10251 10254 10257 10260 10263 10266 10269 10272 10274 10277 10280 10283 10286 10289 10292 10295 10298 10301 10304 10307 10309 10312 10315 10317 10320 10323 10326 10329 10332 10335 10338 10341 10344 10346 10349 10352 10355 10358 10361 10364 10367 10370 10372 10374 10377 10380 10383 10386 10389 10392 10395 10398 10401 10404 10407 10410 10413 10416 10419 10422 10425 10428 10431 10434 10437 10440 10443 10446 10449 10451 10454 10457 10460 10463 10466 10469 10472 10475 10478 10481 10484 10487 10490 10493 10496 10499 10502 10505 10508 10511 10514 10517 10520 10523 10526 10529 10532 10535 10538 10541 10544 10547 10550 10553 10556 10559 10562 10565 10568 10571 10574 10577 10580 10583 10586 10589 10592 10595 10598 10601 10604 10607 10610 10612 10615 10618 10620 10623 10626 10628 10630 10633 10636 10639 10642 10644 10647 10650 10653 10656 10659 10662 10665 10668 10671 10674 10677 10680 10683 10685 10688 10691 10694 10697 10700 10703 10706 10709 10712 10715 10718 10721 10724 10727 10730 10733 10736 10738 10741 10743 10746 10749 10751 10754 10757 10760 10763 10766 10769 10772 10775 10778 10780 10783 10786 10788 10791 10794 10797 10799 10802 10804 10807 10810 10813 10816 10819 10822 10825 10828 10831 10834 10837 10840 10843 10846 10849 10852 10855 10857 10860 10863 10866 10869 10871 10874 10877 10880 10883 10886 10889 10892 10895 10898 10901 10904 10907 10910 10912 10915 10918 10921 10924 10927 10930 10933 10936 10939 10942 10945 10948 10951 10954 10957 10960 10963 10966 10969 10972 10975 10978 10981 10984 10987 10990 10993 10996 10999 11002 11005 11008 11011 11014 11017 11020 11023 11025 11028 11030 11033 11035 11038 11041 11043 11046 11049 11051 11054 11057 11060 11062 11065 11068 11071 11073 11076 11079 11082 11085 11088 11090 11093 11096 11098 11101 11104 11107 11110 11112 11115 11118 11121 11124 11127 11130 11133 11136 11139 11142 11145 11148 11151 11154 11156 11159 11162 11165 11168 11171 11174 11177 11180 11183 11186 11189 11192 11195 11198 11201 11204 11207 11210 11213 11216 11219 11222 11225 11228 11231 11233 11235 11238 11241 11244 11247 11250 11253 11256 11259 11262 11265 11268 11271 11273 11275 11278 11281 11284 11287 11290 11293 11296 11299 11302 11305 11308 11311 11314 11317 11320 11323 11326 11329 11332 11335 11338 11341 11344 11347 11350 11353 11356 11359 11362 11365 11368 11371 11374 11377 11380 11383 11386 11389 11392 11395 11398 11401 11404 11407 11410 11413 11416 11419 11422 11425 11428 11431 11433 11436 11439 11442 11445 11448 11450 11453 11456 11459 11461 11464 11467 11469 11471 11474 11476 11478 11481 11484 11487 11490 11492 11495 11498 11501 11504 11507 11510 11513 11516 11519 11522 11525 11528 11531 11534 11537 11540 11542 11545 11548 11551 11553 11556 11559 11562 11565 11568 11571 11574 11577 11580 11583 11586 11588 11591 11594 11596 11599 11601 11604 11607 11609 11612 11615 11617 11620 11623 11626 11629 11632 11635 11638 11641 11644 11647 11650 11653 11656 11659 11662 11665 11668 11671 11674 11677 11680 11683 11686 11689 11692 11694 11696 11699 11702 11705 11707 11710 11713 11715 11718 11721 11724 11727 11730 11733 11736 11739 11742 11745 11748 11751 11754 11757 11760 11763 11766 11769 11772 11775 11778 11781 11784 11787 11790 11792 11795 11798 11800 11803 11806 11809 11812 11815 11817 11820 11823 11825 11828 11831 11834 11837 11840 11843 11845 11848 11851 11854 11857 11860 11862 11865 11868 11871 11874 11877 11880 11883 11886 11889 11892 11895 11898 11901 11904 11907 11910 11913 11916 11919 11922 11925 11928 11931 11934 11937 11940 11943 11946 11949 11952 11955 11958 11961 11964 11967 11970 11973 11976 11979 11982 11985 11988 11991 11994 11997 12000 12003 12006 12009 12012 12015 12018 12021 12024 12027 12030 12033 12036 12039 12041 12044 12047 12050 12052 12055 12058 12061 12064 12066 12069 12072 12075 12078 12081 12084 12087 12090 12093 12096 12099 12102 12105 12108 12111 12114 12117 12120 12123 12126 12129 12132 12135 12138 12141 12144 12147 12150 12153 12156 12159 12162 12165 12168 12171 12174 12177 12179 12182 12185 12188 12191 12194 12197 12200 12203 12206 12209 12212 12215 12217 12220 12223 12226 12229 12232 12235 12238 12241 12244 12246 12249 12251 12254 12257 12260 12263 12266 12269 12272 12274 12276 12279 12282 12284 12287 12290 12293 12296 12299 12302 12305 12308 12310 12313 12316 12319 12322 12325 12328 12331 12334 12337 12340 12343 12346 12349 12352 12355 12358 12361 12364 12367 12370 12373 12376 12379 12382 12385 12388 12391 12394 12397 12400 12403 12406 12408 12411 12414 12416 12419 12422 12425 12428 12430 12433 12436 12439 12441 12444 12447 12450 12452 12455 12458 12461 12464 12467 12469 12471 12474 12477 12480 12483 12486 12488 12491 12493 12495 12498 12501 12504 12507 12510 12513 12516 12519 12522 12525 12528 12531 12534 12537 12540 12543 12546 12549 12552 12555 12558 12561 12564 12567 12570 12573 12576 12579 12582 12585 12588 12591 12594 12597 12599 12602 12605 12608 12611 12614 12617 12620 12623 12625 12628 12631 12634 12637 12640 12643 12646 12649 12652 12655 12658 12661 12664 12667 12670 12673 12676 12679 12682 12685 12688 12691 12694 12697 12700 12703 12706 12709 12712 12715 12718 12721 12724 12727 12730 12733 12736 12739 12742 12745 12748 12751 12754 12757 12760 12763 12766 12769 12772 12775 12778 12781 12784 12786 12789 12792 12795 12798 12801 12804 12806 12809 12812 12815 12818 12821 12823 12825 12828 12831 12834 12837 12840 12843 12846 12849 12852 12855 12858 12860 12863 12866 12869 12872 12875 12878 12881 12883 12886 12889 12892 12895 12898 12901 12904 12907 12909 12912 12915 12918 12921 12924 12926 12929 12932 12935 12938 12941 12944 12947 12950 12953 12956 12959 12962 12965 12968 12970 12973 12976 12979 12982 12985 12988 12991 12994 12996 12999 13002 13005 13007 13010 13013 13016 13019 13022 13025 13027 13030 13033 13036 13039 13042 13045 13048 13051 13054 13057 13060 13063 13066 13069 13071 13073 13076 13078 13081 13084 13087 13090 13093 13096 13099 13102 13104 13107 13110 13113 13115 13118 13120 13123 13125 13127 13129 13132 13135 13138 13141 13143 13146 13148 13151 13154 13156 13159 13162 13165 13168 13171 13173 13176 13179 13181 13184 13187 13190 13193 13196 13199 13202 13204 13207 13210 13213 13215 13217 13220 13223 13226 13228 13230 13233 13236 13239 13241 13244 13246 13249 13252 13254 13257 13260 13263 13266 13268 13271 13274 13277 13279 13282 13285 13287 13290 13293 13296 13299 13302 13305 13307 13310 13313 13316 13319 13322 13325 13328 13331 13334 13337 13340 13343 13346 13348 13351 13354 13357 13360 13363 13365 13368 13371 13374 13377 13380 13383 13386 13389 13392 13395 13398 13401 13404 13407 13410 13413 13415 13418 13421 13424 13427 13430 13433 13436 13439 13442 13445 13448 13451 13453 13456 13459 13462 13464 13467 13470 13472 13475 13478 13481 13484 13487 13490 13493 13496 13499 13502 13505 13507 13510 13512 13515 13518 13521 13524 13527 13530 13533 13536 13539 13542 13545 13548 13551 13554 13557 13560 13562 13565 13568 13571 13574 13577 13580 13583 13586 13588 13591 13594 13597 13600 13603 13606 13609 13612 13615 13618 13621 13624 13627 13630 13633 13636 13639 13642 13645 13648 13651 13654 13657 13660 13663 13666 13669 13672 13675 13678 13681 13684 13687 13690 13693 13696 13699 13702 13705 13708 13711 13714 13717 13720 13723 13726 13729 13732 13735 13738 13741 13744 13747 13750 13753 13755 13758 13761 13763 13766 13769 13772 13775 13778 13781 13784 13787 13790 13793 13796 13799 13802 13805 13808 13811 13814 13817 13820 13823 13825 13828 13831 13834 13837 13839 13842 13845 13848 13851 13854 13856 13858 13861 13864 13866 13868 13871 13873 13876 13879 13882 13885 13888 13891 13894 13897 13900 13903 13906 13909 13912 13915 13918 13921 13924 13927 13930 13933 13936 13939 13942 13945 13948 13951 13954 13957 13960 13962 13965 13968 13971 13973 13976 13979 13981 13984 13987 13990 13993 13995 13998 14001 14003 14006 14009 14012 14014 14016 14019 14022 14025 14028 14031 14034 14037 14040 14043 14046 14049 14052 14055 14057 14060 14063 14065 14068 14071 14074 14077 14080 14082 14085 14087 14090 14093 14096 14099 14101 14104 14107 14110 14112 14115 14118 14121 14124 14127 14130 14133 14136 14139 14141 14144 14146 14148 14151 14153 14155 14158 14161 14164 14167 14170 14173 14176 14179 14182 14185 14188 14191 14193 14196 14199 14202 14205 14208 14210 14212 14214 14217 14220 14223 14226 14229 14231 14234 14237 14239 14242 14245 14248 14251 14254 14257 14260 14263 14266 14269 14271 14274 14277 14280 14283 14286 14289 14292 14295 14298 14301 14303 14306 14309 14312 14314 14317 14320 14323 14326 14329 14332 14335 14338 14341 14344 14346 14349 14352 14354 14357 14359 14362 14365 14367 14370 14373 14375 14378 14380 14383 14386 14388 14391 14393 14396 14399 14401 14404 14407 14410 14412 14415 14418 14421 14424 14426 14429 14432 14435 14438 14440 14442 14445 14448 14451 14454 14457 14460 14462 14465 14468 14471 14474 14477 14480 14483 14486 14489 14492 14494 14497 14500 14503 14506 14508 14511 14514 14517 14520 14523 14526 14529 14531 14534 14537 14540 14542 14544 14547 14549 14552 14555 14558 14561 14564 14566 14569 14571 14574 14576 14578 14580 14583 14585 14588 14591 14594 14596 14599 14602 14605 14608 14611 14614 14617 14619 14622 14625 14628 14631 14634 14637 14640 14643 14646 14648 14651 14654 14657 14660 14662 14665 14668 14671 14674 14677 14680 14683 14686 14689 14692 14695 14697 14700 14703 14706 14709 14712 14715 14717 14720 14723 14726 14728 14731 14734 14737 14740 14743 14746 14749 14752 14755 14758 14761 14764 14767 14770 14772 14775 14778 14781 14784 14787 14789 14792 14795 14798 14801 14804 14807 14809 14812 14814 14817 14820 14822 14825 14828 14831 14834 14837 14839 14842 14844 14847 14850 14853 14856 14858 14861 14864 14867 14869 14872 14875 14878 14881 14884 14887 14890 14893 14896 14898 14901 14903 14906 14909 14912 14915 14918 14920 14923 14926 14929 14932 14934 14937 14940 14943 14946 14948 14950 14953 14955 14958 14961 14963 14966 14969 14971 14974 14976 14979 14982 14985 14988 14991 14993 14996 14999 15002 15005 15008 15011 15014 15017 15020 15023 15026 15029 15032 15034 15037 15040 15043 15046 15049 15052 15055 15057 15060 15063 15066 15069 15072 15075 15078 15081 15084 15087 15090 15093 15096 15099 15101 15104 15106 15108 15111 15114 15117 15120 15123 15126 15129 15132 15135 15138 15141 15144 15147 15150 15153 15156 15159 15162 15165 15168 15170 15173 15176 15179 15182 15184 15187 15190 15193 15196 15199 15202 15205 15208 15211 15214 15217 15220 15223 15226 15229 15232 15234 15237 15240 15243 15246 15249 15252 15255 15257 15260 15263 15266 15269 15272 15275 15277 15280 15282 15285 15288 15290 15293 15296 15299 15302 15304 15307 15310 15313 15316 15318 15321 15324 15327 15329 15332 15335 15338 15341 15344 15347 15350 15352 15355 15358 15361 15364 15367 15370 15372 15375 15378 15381 15384 15386 15389 15392 15395 15398 15401 15404 15407 15410 15413 15415 15418 15421 15424 15427 15429 15432 15435 15438 15440 15443 15446 15449 15452 15455 15458 15461 15463 15466 15468 15471 15474 15477 15480 15482 15485 15488 15490 15492 15495 15498 15500 15503 15505 15508 15511 15513 15515 15518 15521 15523 15526 15529 15532 15535 15537 15540 15543 15546 15549 15552 15554 15556 15559 15562 15565 15568 15571 15574 15577 15580 15582 15585 15588 15590 15592 15594 15597 15600 15603 15605 15608 15610 15613 15616 15619 15622 15624 15627 15630 15633 15636 15639 15642 15645 15648 15651 15654 15657 15660 15663 15666 15669 15672 15675 15677 15680 15683 15685 15688 15691 15694 15697 15700 15703 15706 15709 15712 15715 15718 15720 15723 15726 15729 15732 15735 15738 15741 15744 15747 15750 15752 15755 15758 15760 15763 15766 15769 15772 15775 15778 15781 15784 15787 15790 15793 15796 15798 15801 15804 15807 15810 15813 15816 15819 15821 15824 15827 15830 15833 15835 15838 15841 15844 15847 15850 15853 15856 15858 15860 15863 15866 15869 15872 15874 15876 15879 15881 15883 15886 15889 15892 15895 15898 15901 15903 15905 15908 15911 15914 15917 15919 15922 15924 15927 15930 15933 15936 15939 15942 15945 15948 15951 15954 15956 15959 15962 15965 15968 15971 15973 15976 15979 15982 15985 15988 15991 15994 15997 16000 16003 16006 16009 16012 16014 16017 16020 16022 16024 16027 16030 16032 16034 16037 16040 16043 16045 16047 16050 16053 16056 16058 16061 16064 16066 16068 16071 16074 16077 16080 16083 16086 16089 16092 16095 16097 16100 16103 16106 16108 16111 16113 16116 16118 16121 16123 16126 16129 16132 16135 16138 16141 16143 16146 16148 16151 16154 16156 16159 16162 16165 16168 16171 16174 16177 16180 16183 16185 16188 16191 16194 16196 16199 16202 16205 16208 16211 16214 16217 16220 16223 16226 16229 16232 16235 16238 16241 16244 16246 16249 16251 16254 16257 16260 16263 16266 16269 16272 16275 16278 16280 16283 16285 16288 16291 16294 16296 16299 16302 16304 16307 16310 16313 16316 16319 16322 16325 16328 16331 16334 16336 16339 16342 16344 16347 16350 16353 16356 16359 16361 16364 16367 16369 16372 16375 16378 16381 16384 16387 16390 16393 16396 16399 16402 16405 16408 16411 16414 16417 16420 16423 16425 16428 16431 16434 16436 16439 16442 16444 16447 16450 16452 16455 16458 16461 16464 16467 16470 16472 16475 16478 16481 16484 16487 16490 16493 16496 16499 16502 16505 16508 16510 16513 16516 16519 16522 16525 16528 16531 16534 16537 16540 16543 16546 16549 16551 16554 16557 16559 16562 16565 16568 16570 16573 16576 16579 16582 16585 16588 16591 16594 16597 16600 16602 16605 16608 16611 16614 16617 16620 16623 16626 16629 16632 16635 16638 16641 16643 16646 16649 16652 16655 16658 16661 16664 16667 16670 16673 16676 16679 16682 16685 16688 16691 16694 16697 16700 16703 16706 16709 16712 16715 16718 16721 16723 16726 16729 16731 16734 16737 16740 16742 16745 16748 16751 16754 16757 16760 16763 16766 16769 16772 16775 16778 16781 16784 16786 16789 16792 16795 16798 16801 16803 16805 16807 16810 16813 16816 16818 16821 16824 16827 16830 16833 16836 16839 16842 16845 16847 16850 16853 16856 16859 16862 16865 16868 16871 16873 16876 16879 16882 16885 16888 16890 16893 16896 16899 16902 16905 16907 16910 16913 16915 16918 16921 16924 16927 16929 16932 16935 16938 16941 16944 16947 16950 16953 16956 16959 16962 16965 16968 16971 16974 16977 16980 16983 16986 16989 16992 16995 16998 17001 17004 17007 17010 17012 17015 17017 17020 17023 17026 17029 17032 17035 17037 17040 17043 17046 17049 17052 17055 17058 17061 17064 17067 17070 17073 17076 17079 17082 17085 17088 17091 17094 17097 17100 17103 17106 17108 17111 17114 17117 17120 17122 17125 17128 17131 17134 17137 17140 17143 17146 17149 17152 17155 17158 17160 17163 17166 17168 17171 17174 17177 17180 17183 17186 17188 17190 17193 17196 17199 17202 17204 17206 17209 17212 17215 17218 17221 17224 17227 17230 17233 17236 17239 17241 17243 17246 17249 17251 17253 17256 17259 17262 17265 17267 17270 17273 17276 17279 17282 17285 17288 17291 17294 17296 17299 17302 17305 17308 17311 17314 17317 17320 17323 17326 17329 17332 17335 17338 17341 17344 17347 17350 17353 17356 17359 17362 17365 17368 17370 17373 17376 17378 17381 17384 17386 17389 17391 17394 17397 17399 17401 17404 17406 17409 17412 17414 17416 17419 17422 17425 17428 17431 17434 17437 17440 17443 17446 17449 17452 17455 17458 17461 17464 17467 17470 17473 17476 17479 17482 17485 17488 17491 17494 17497 17500 17503 17506 17508 17511 17514 17517 17520 17522 17525 17528 17530 17533 17536 17539 17542 17544 17547 17550 17553 17556 17559 17562 17565 17568 17570 17572 17575 17578 17580 17582 17585 17587 17590 17593 17596 17599 17601 17604 17607 17610 17613 17616 17619 17622 17625 17628 17630 17633 17635 17638 17641 17644 17647 17650 17653 17656 17659 17662 17665 17668 17671 17674 17677 17680 17683 17686 17689 17692 17695 17698 17701 17703 17706 17709 17712 17714 17717 17720 17723 17726 17728 17731 17734 17737 17740 17743 17745 17748 17750 17753 17756 17759 17762 17764 17767 17769 17772 17775 17777 17780 17783 17786 17789 17792 17794 17796 17798 17801 17804 17806 17809 17812 17815 17818 17820 17822 17825 17828 17830 17832 17835 17838 17841 17844 17846 17848 17851 17854 17856 17859 17862 17865 17867 17870 17873 17875 17878 17881 17883 17886 17889 17892 17895 17898 17900 17902 17905 17908 17911 17914 17917 17920 17923 17926 17929 17932 17935 17938 17941 17944 17947 17949 17952 17955 17958 17960 17963 17966 17969 17972 17974 17977 17980 17983 17986 17989 17992 17995 17998 18001 18004 18007 18010 18013 18016 18019 18022 18025 18027 18030 18032 18034 18037 18040 18042 18045 18048 18051 18053 18056 18059 18062 18065 18068 18071 18074 18077 18080 18083 18085 18088 18091 18094 18097 18100 18103 18106 18109 18112 18115 18118 18121 18124 18127 18130 18133 18136 18139 18142 18145 18148 18151 18154 18157 18160 18163 18166 18169 18172 18175 18178 18181 18184 18187 18190 18193 18196 18199 18202 18205 18208 18211 18214 18217 18219 18222 18225 18227 18230 18233 18236 18239 18242 18245 18248 18251 18254 18257 18260 18262 18265 18268 18271 18274 18277 18279 18282 18284 18287 18290 18293 18296 18299 18302 18305 18308 18310 18313 18316 18319 18322 18325 18328 18330 18333 18336 18338 18341 18343 18346 18349 18351 18354 18356 18359 18362 18365 18368 18371 18373 18376 18379 18382 18385 18388 18391 18394 18397 18400 18403 18406 18409 18412 18415 18417 18420 18423 18426 18429 18431 18434 18437 18440 18443 18446 18449 18452 18455 18458 18460 18463 18466 18469 18472 18475 18478 18481 18484 18487 18490 18493 18496 18499 18502 18505 18508 18511 18514 18517 18520 18523 18526 18529 18532 18535 18538 18541 18543 18546 18549 18552 18555 18558 18561 18564 18567 18570 18573 18576 18579 18582 18585 18587 18590 18592 18595 18598 18601 18603 18606 18608 18611 18613 18616 18619 18622 18625 18628 18631 18634 18637 18640 18643 18646 18649 18652 18655 18658 18661 18664 18667 18670 18673 18676 18679 18682 18685 18688 18691 18694 18697 18700 18703 18706 18709 18711 18714 18717 18719 18722 18725 18728 18731 18734 18737 18740 18742 18745 18748 18751 18754 18757 18760 18763 18766 18769 18772 18775 18778 18781 18784 18787 18790 18793 18796 18799 18802 18805 18808 18811 18813 18816 18819 18821 18824 18827 18830 18833 18835 18838 18841 18844 18847 18850 18853 18856 18859 18862 18865 18868 18871 18873 18876 18879 18882 18885 18888 18890 18893 18896 18899 18902 18904 18907 18910 18913 18916 18919 18922 18925 18928 18931 18934 18937 18940 18943 18945 18948 18951 18954 18957 18960 18963 18966 18969 18972 18975 18978 18981 18984 18986 18989 18992 18995 18998 19001 19004 19007 19010 19013 19016 19019 19022 19025 19028 19031 19034 19037 19040 19042 19045 19048 19051 19054 19057 19060 19063 19066 19069 19072 19075 19078 19081 19084 19087 19089 19091 19094 19097 19100 19103 19106 19109 19112 19115 19118 19120 19123 19126 19129 19132 19135 19138 19141 19143 19146 19149 19152 19155 19158 19161 19164 19166 19169 19172 19175 19178 19180 19183 19186 19189 19191 19194 19197 19200 19203 19206 19208 19211 19214 19217 19220 19223 19225 19228 19231 19234 19237 19240 19243 19246 19249 19251 19254 19256 19259 19262 19265 19268 19271 19273 19276 19279 19282 19285 19288 19291 19293 19296 19299 19302 19304 19307 19310 19312 19315 19318 19321 19324 19327 19330 19332 19335 19338 19340 19343 19346 19349 19352 19354 19357 19360 19363 19366 19369 19372 19375 19378 19381 19384 19387 19390 19393 19396 19399 19402 19405 19408 19410 19413 19416 19419 19422 19425 19428 19431 19434 19437 19440 19443 19446 19449 19452 19455 19458 19461 19463 19466 19469 19472 19474 19477 19480 19482 19484 19487 19490 19493 19496 19499 19502 19505 19508 19511 19514 19517 19519 19522 19525 19528 19531 19534 19537 19540 19543 19545 19548 19550 19553 19556 19559 19561 19564 19567 19570 19573 19576 19578 19581 19584 19586 19589 19592 19595 19598 19601 19604 19607 19610 19613 19616 19619 19622 19625 19628 19630 19632 19635 19638 19641 19644 19647 19649 19652 19655 19658 19661 19664 19667 19670 19673 19675 19678 19681 19683 19686 19689 19692 19694 19697 19699 19702 19705 19708 19711 19714 19717 19720 19723 19726 19729 19732 19734 19737 19740 19743 19745 19748 19750 19753 19756 19758 19761 19763 19766 19769 19771 19774 19777 19780 19783 19786 19789 19792 19795 19798 19801 19804 19807 19809 19812 19815 19817 19820 19823 19826 19828 19831 19833 19836 19839 19842 19845 19848 19851 19854 19857 19860 19863 19866 19869 19872 19874 19876 19879 19882 19885 19888 19891 19893 19896 19899 19901 19904 19907 19909 19912 19915 19918 19920 19923 19926 19929 19932 19935 19938 19941 19944 19946 19949 19952 19954 19956 19959 19962 19965 19968 19971 19973 19976 19979 19981 19984 19987 19990 19992 19994 19997 20000 20003 20006 20009 20011 20014 20016 20019 20022 20025 20028 20031 20034 20037 20040 20043 20045 20048 20051 20053 20056 20059 20062 20065 20068 20071 20074 20077 20079 20082 20085 20088 20091 20094 20097 20099 20102 20105 20108 20110 20113 20116 20119 20122 20124 20127 20130 20133 20136 20139 20142 20145 20148 20151 20154 20157 20159 20162 20165 20167 20170 20173 20176 20179 20182 20185 20187 20190 20193 20196 20199 20202 20205 20208 20211 20213 20216 20219 20221 20223 20226 20229 20232 20235 20238 20240 20243 20246 20249 20252 20255 20258 20261 20263 20266 20269 20271 20274 20277 20280 20283 20286 20289 20291 20294 20297 20300 20302 20305 20308 20311 20314 20317 20320 20323 20326 20329 20332 20335 20338 20340 20343 20345 20348 20350 20353 20356 20359 20361 20364 20367 20370 20373 20376 20379 20381 20384 20387 20390 20393 20396 20399 20402 20405 20408 20411 20414 20417 20419 20422 20425 20427 20429 20432 20435 20438 20441 20443 20446 20449 20452 20454 20456 20459 20462 20465 20468 20470 20473 20476 20479 20481 20484 20486 20488 20491 20494 20496 20498 20501 20504 20507 20510 20513 20515 20518 20520 20523 20525 20527 20530 20533 20536 20539 20542 20545 20548 20551 20554 20556 20558 20560 20563 20566 20568 20571 20574 20576 20579 20582 20585 20588 20591 20594 20597 20600 20602 20604 20607 20610 20613 20615 20618 20621 20624 20626 20629 20632 20634 20637 20640 20643 20646 20649 20652 20655 20658 20661 20664 20667 20670 20673 20676 20679 20682 20685 20688 20690 20693 20696 20699 20702 20705 20708 20711 20714 20717 20719 20722 20725 20728 20731 20734 20737 20740 20743 20746 20749 20751 20753 20756 20759 20762 20765 20768 20770 20773 20776 20779 20782 20785 20788 20791 20794 20797 20800 20803 20805 20808 20810 20813 20816 20818 20821 20824 20826 20829 20832 20835 20838 20841 20844 20847 20850 20853 20856 20859 20862 20865 20868 20871 20874 20877 20879 20882 20885 20888 20891 20894 20897 20900 20903 20906 20909 20912 20915 20918 20921 20924 20927 20930 20933 20936 20939 20942 20945 20948 20951 20954 20956 20959 20962 20965 20968 20971 20974 20977 20980 20983 20986 20989 20992 20995 20997 21000 21002 21005 21008 21011 21014 21017 21020 21023 21026 21029 21032 21035 21038 21041 21044 21047 21050 21053 21056 21059 21062 21065 21068 21071 21074 21077 21080 21083 21086 21089 21092 21095 21098 21101 21104 21106 21109 21111 21114 21117 21119 21122 21125 21128 21130 21133 21136 21139 21142 21145 21148 21151 21154 21157 21160 21163 21166 21169 21172 21175 21178 21181 21184 21187 21189 21191 21194 21197 21200 21203 21206 21209 21211 21214 21216 21219 21222 21225 21228 21231 21234 21236 21239 21242 21244 21247 21249 21252 21255 21258 21261 21264 21267 21270 21273 21276 21279 21282 21285 21288 21291 21294 21297 21299 21302 21304 21307 21310 21313 21316 21319 21322 21325 21328 21330 21332 21335 21338 21340 21343 21346 21349 21352 21354 21357 21359 21362 21365 21367 21370 21373 21376 21379 21382 21385 21388 21390 21392 21395 21398 21401 21403 21406 21409 21411 21414 21416 21419 21421 21423 21426 21429 21432 21435 21438 21440 21443 21446 21449 21452 21455 21458 21460 21463 21466 21468 21471 21474 21477 21480 21483 21486 21489 21492 21495 21497 21499 21502 21504 21507 21509 21512 21515 21517 21520 21523 21526 21529 21532 21535 21538 21541 21544 21546 21549 21552 21555 21558 21560 21563 21566 21569 21572 21575 21578 21581 21584 21587 21589 21591 21594 21597 21600 21603 21606 21609 21612 21615 21618 21621 21624 21627 21630 21633 21636 21639 21642 21645 21648 21651 21654 21657 21660 21663 21666 21669 21672 21675 21678 21681 21683 21686 21688 21691 21694 21697 21700 21703 21705 21707 21710 21712 21714 21717 21720 21723 21726 21729 21732 21735 21738 21741 21744 21747 21750 21753 21755 21758 21761 21764 21767 21770 21773 21776 21779 21782 21785 21788 21791 21794 21797 21800 21803 21806 21808 21811 21814 21816 21819 21822 21825 21828 21831 21834 21837 21839 21842 21845 21848 21851 21854 21857 21860 21863 21866 21869 21872 21875 21878 21880 21883 21886 21889 21892 21895 21898 21900 21903 21906 21909 21912 21915 21918 21921 21924 21927 21930 21933 21936 21939 21942 21945 21948 21951 21953 21956 21959 21962 21965 21968 21971 21974 21977 21980 21983 21986 21989 21992 21994 21997 22000 22003 22005 22008 22011 22014 22017 22020 22023 22026 22029 22031 22034 22037 22040 22043 22046 22049 22051 22054 22057 22060 22063 22065 22068 22071 22074 22076 22079 22082 22085 22088 22090 22093 22096 22099 22102 22105 22108 22111 22113 22116 22119 22122 22124 22127 22130 22133 22135 22138 22141 22144 22147 22150 22153 22156 22158 22161 22164 22166 22169 22172 22175 22178 22181 22184 22187 22190 22193 22196 22199 22202 22205 22208 22211 22214 22217 22220 22223 22226 22229 22232 22235 22238 22241 22244 22247 22250 22253 22256 22259 22262 22265 22268 22271 22274 22277 22280 22283 22286 22289 22292 22294 22297 22300 22302 22305 22308 22310 22313 22316 22319 22321 22324 22327 22330 22333 22336 22338 22340 22343 22345 22347 22350 22353 22356 22359 22362 22365 22368 22371 22374 22377 22380 22383 22386 22389 22392 22395 22398 22400 22403 22406 22409 22412 22415 22418 22421 22424 22427 22430 22433 22436 22439 22442 22445 22448 22451 22454 22457 22460 22463 22466 22469 22472 22475 22478 22481 22484 22487 22489 22492 22495 22498 22501 22503 22506 22509 22512 22515 22518 22521 22524 22526 22529 22531 22534 22537 22540 22542 22545 22548 22551 22554 22557 22560 22563 22566 22569 22572 22575 22578 22581 22584 22587 22590 22593 22596 22599 22602 22605 22608 22611 22614 22617 22620 22623 22626 22629 22632 22635 22638 22641 22644 22647 22650 22653 22656 22659 22662 22665 22668 22671 22673 22675 22678 22680 22683 22685 22688 22691 22694 22697 22699 22702 22705 22708 22711 22714 22717 22720 22723 22726 22729 22732 22735 22738 22741 22744 22747 22749 22752 22755 22757 22760 22763 22766 22769 22772 22775 22778 22781 22784 22787 22790 22793 22796 22799 22802 22804 22807 22810 22813 22816 22818 22821 22824 22827 22830 22833 22835 22838 22841 22844 22847 22850 22853 22856 22859 22862 22865 22868 22871 22873 22876 22879 22881 22884 22887 22890 22893 22895 22898 22901 22904 22907 22910 22913 22916 22919 22922 22924 22927 22930 22933 22936 22939 22942 22945 22948 22951 22954 22957 22960 22963 22966 22969 22972 22975 22978 22981 22984 22987 22990 22993 22996 22999 23002 23005 23007 23010 23013 23016 23019 23021 23024 23027 23030 23033 23036 23039 23042 23045 23047 23050 23052 23055 23058 23061 23063 23066 23069 23072 23075 23078 23081 23084 23087 23090 23093 23096 23098 23101 23104 23107 23109 23112 23115 23118 23121 23124 23127 23129 23131 23134 23137 23140 23143 23146 23149 23152 23155 23158 23161 23164 23167 23170 23173 23176 23179 23182 23184 23187 23190 23193 23196 23199 23202 23205 23207 23210 23213 23216 23219 23222 23225 23228 23231 23234 23237 23240 23243 23245 23248 23251 23254 23257 23260 23262 23264 23267 23269 23272 23275 23277 23280 23283 23286 23289 23292 23294 23297 23300 23303 23305 23308 23310 23313 23316 23319 23321 23323 23326 23329 23332 23335 23338 23341 23344 23347 23350 23353 23356 23359 23362 23365 23368 23371 23374 23377 23380 23383 23386 23389 23391 23394 23397 23400 23403 23406 23409 23412 23414 23417 23420 23423 23426 23428 23431 23434 23436 23439 23442 23445 23448 23451 23454 23456 23459 23462 23465 23468 23471 23474 23476 23479 23482 23485 23488 23491 23494 23497 23499 23502 23505 23508 23511 23514 23517 23520 23523 23525 23528 23531 23534 23537 23540 23543 23545 23548 23551 23554 23557 23560 23562 23565 23568 23571 23573 23576 23579 23582 23584 23587 23590 23593 23596 23599 23602 23605 23608 23611 23614 23617 23620 23623 23626 23629 23632 23635 23638 23641 23644 23646 23649 23652 23655 23658 23661 23663 23666 23669 23671 23673 23676 23679 23682 23685 23687 23690 23693 23695 23698 23701 23704 23707 23710 23713 23716 23719 23721 23724 23727 23730 23732 23735 23738 23741 23744 23747 23749 23752 23755 23758 23760 23763 23766 23768 23771 23774 23777 23780 23783 23786 23789 23792 23795 23798 23801 23804 23807 23810 23813 23816 23819 23822 23825 23827 23830 23833 23836 23839 23842 23844 23847 23850 23852 23855 23858 23861 23864 23867 23870 23873 23875 23878 23881 23884 23887 23890 23893 23896 23899 23902 23905 23908 23910 23913 23916 23919 23922 23924 23926 23929 23932 23935 23938 23940 23943 23946 23948 23951 23954 23957 23960 23963 23966 23968 23971 23974 23977 23980 23983 23986 23989 23992 23995 23998 24001 24004 24007 24010 24013 24016 24019 24022 24025 24028 24031 24034 24037 24040 24043 24046 24049 24051 24054 24057 24059 24062 24065 24068 24070 24073 24076 24079 24082 24085 24088 24091 24094 24097 24100 24102 24105 24108 24111 24113 24116 24119 24122 24125 24128 24130 24132 24135 24138 24141 24144 24146 24149 24152 24155 24157 24160 24163 24166 24169 24172 24175 24178 24181 24184 24187 24190 24192 24195 24198 24201 24204 24207 24210 24213 24216 24219 24222 24225 24228 24231 24234 24236 24239 24242 24245 24247 24250 24253 24256 24259 24262 24264 24267 24270 24273 24275 24277 24280 24283 24285 24288 24291 24294 24297 24300 24303 24306 24308 24311 24314 24317 24320 24322 24325 24328 24331 24334 24337 24340 24343 24346 24348 24351 24354 24356 24359 24362 24365 24368 24371 24374 24377 24380 24383 24386 24389 24392 24395 24398 24401 24404 24407 24410 24413 24416 24419 24422 24425 24428 24431 24434 24436 24439 24442 24445 24447 24450 24453 24456 24459 24462 24465 24468 24471 24474 24477 24480 24483 24486 24489 24492 24495 24498 24501 24504 24506 24509 24512 24514 24517 24519 24522 24525 24528 24531 24534 24537 24540 24542 24545 24548 24550 24553 24556 24559 24561 24564 24567 24570 24573 24576 24578 24581 24584 24587 24590 24593 24596 24599 24602 24605 24607 24610 24612 24614 24616 24619 24622 24625 24627 24630 24633 24635 24638 24641 24644 24647 24650 24653 24656 24659 24662 24665 24668 24671 24674 24676 24679 24682 24685 24688 24691 24694 24697 24700 24702 24705 24708 24711 24714 24716 24719 24722 24725 24728 24730 24733 24736 24739 24742 24745 24748 24751 24754 24757 24759 24762 24765 24768 24771 24773 24776 24779 24781 24784 24787 24790 24793 24795 24798 24801 24803 24806 24808 24811 24814 24817 24820 24823 24826 24829 24832 24835 24838 24841 24844 24847 24850 24853 24856 24859 24862 24865 24868 24871 24874 24877 24880 24883 24886 24889 24892 24895 24898 24901 24904 24907 24910 24913 24916 24919 24922 24925 24928 24931 24934 24937 24940 24943 24946 24949 24952 24954 24957 24959 24962 24965 24967 24970 24973 24976 24979 24982 24985 24988 24990 24993 24996 24998 25001 25004 25007 25010 25013 25015 25018 25021 25024 25026 25029 25032 25035 25038 25041 25044 25047 25050 25052 25055 25058 25060 25063 25066 25069 25072 25075 25078 25081 25084 25087 25090 25093 25096 25098 25101 25104 25107 25110 25113 25115 25118 25121 25124 25127 25130 25132 25135 25138 25141 25144 25147 25150 25153 25155 25158 25160 25163 25166 25169 25171 25174 25177 25180 25182 25185 25188 25191 25194 25197 25200 25203 25205 25208 25211 25214 25217 25220 25222 25225 25228 25231 25234 25237 25239 25242 25245 25247 25250 25253 25255 25258 25260 25263 25266 25269 25272 25274 25277 25280 25283 25285 25288 25291 25294 25297 25299 25302 25305 25308 25311 25314 25317 25320 25323 25326 25329 25332 25335 25337 25340 25342 25344 25347 25350 25353 25355 25358 25361 25364 25367 25370 25373 25376 25378 25381 25384 25387 25390 25393 25396 25398 25401 25403 25406 25409 25412 25414 25417 25420 25423 25426 25429 25432 25435 25438 25441 25444 25447 25450 25453 25456 25459 25462 25465 25468 25471 25473 25476 25478 25481 25484 25486 25489 25492 25494 25497 25500 25503 25506 25509 25512 25515 25518 25521 25524 25527 25530 25532 25535 25538 25541 25544 25547 25550 25552 25555 25558 25561 25564 25566 25569 25572 25575 25578 25581 25584 25587 25590 25593 25596 25599 25602 25605 25608 25611 25613 25616 25619 25622 25625 25628 25630 25633 25636 25639 25642 25644 25647 25650 25653 25656 25659 25662 25665 25667 25670 25673 25675 25678 25681 25684 25687 25690 25693 25695 25698 25701 25704 25706 25709 25712 25714 25717 25720 25723 25726 25729 25732 25735 25738 25740 25742 25745 25748 25750 25753 25755 25758 25760 25763 25766 25769 25772 25775 25777 25780 25782 25785 25788 25791 25793 25796 25799 25802 25805 25808 25811 25814 25817 25819 25822 25825 25828 25831 25834 25837 25840 25843 25846 25849 25852 25855 25858 25861 25863 25866 25869 25872 25875 25878 25881 25884 25886 25889 25892 25895 25897 25900 25903 25906 25909 25911 25913 25916 25919 25922 25924 25927 25930 25933 25936 25938 25941 25944 25946 25949 25952 25955 25958 25961 25963 25966 25969 25972 25975 25978 25981 25984 25987 25990 25993 25996 25999 26001 26004 26007 26010 26013 26016 26019 26022 26025 26028 26031 26034 26037 26040 26043 26046 26049 26052 26055 26058 26061 26064 26067 26070 26073 26076 26079 26082 26085 26088 26091 26094 26097 26100 26103 26106 26109 26112 26115 26117 26120 26122 26125 26128 26131 26134 26137 26140 26143 26146 26149 26152 26155 26158 26161 26164 26167 26170 26172 26175 26178 26181 26184 26187 26190 26193 26196 26199 26202 26205 26208 26211 26214 26217 26220 26223 26226 26229 26232 26235 26238 26241 26244 26247 26250 26253 26256 26259 26262 26265 26268 26271 26274 26277 26280 26283 26286 26289 26292 26295 26298 26301 26304 26307 26310 26313 26316 26319 26322 26325 26328 26331 26334 26337 26340 26343 26346 26349 26352 26355 26358 26361 26364 26367 26369 26372 26375 26378 26381 26384 26387 26390 26393 26396 26399 26402 26405 26408 26411 26414 26417 26420 26423 26426 26429 26432 26435 26438 26441 26444 26447 26450 26453 26456 26459 26462 26465 26467 26470 26473 26476 26478 26481 26483 26486 26489 26492 26495 26498 26501 26503 26506 26509 26512 26514 26517 26520 26523 26526 26528 26530 26532 26535 26538 26541 26544 26546 26548 26550 26552 26555 26558 26561 26563 26566 26568 26571 26573 26576 26579 26582 26585 26588 26591 26594 26597 26599 26602 26605 26608 26610 26613 26616 26619 26622 26625 26628 26631 26634 26637 26640 26642 26645 26647 26650 26653 26656 26659 26661 26664 26667 26670 26673 26676 26679 26682 26685 26688 26691 26694 26697 26700 26703 26705 26708 26710 26713 26716 26718 26721 26723 26726 26729 26732 26735 26738 26740 26743 26745 26748 26751 26754 26757 26760 26763 26766 26768 26771 26774 26777 26780 26783 26786 26789 26792 26795 26798 26801 26804 26807 26810 26813 26816 26819 26822 26825 26828 26831 26834 26837 26840 26843 26846 26848 26851 26854 26857 26860 26863 26865 26868 26871 26874 26877 26880 26883 26886 26889 26892 26895 26898 26901 26904 26907 26910 26913 26915 26918 26921 26924 26927 26930 26933 26936 26939 26942 26944 26947 26950 26953 26956 26959 26962 26964 26966 26969 26972 26975 26978 26981 26984 26987 26990 26993 26996 26999 27002 27005 27007 27010 27013 27016 27019 27021 27024 27026 27029 27032 27035 27037 27040 27043 27046 27049 27052 27055 27058 27061 27064 27067 27070 27073 27075 27077 27080 27083 27086 27089 27091 27094 27097 27100 27102 27105 27108 27111 27114 27117 27120 27123 27126 27129 27132 27135 27137 27140 27143 27146 27149 27151 27154 27156 27158 27161 27163 27166 27169 27172 27175 27178 27181 27184 27187 27190 27193 27196 27199 27202 27205 27208 27211 27214 27217 27220 27223 27226 27229 27232 27235 27238 27241 27244 27246 27249 27252 27255 27258 27261 27264 27267 27270 27273 27275 27278 27281 27283 27286 27289 27292 27294 27297 27300 27303 27306 27309 27312 27315 27317 27320 27323 27326 27329 27332 27335 27338 27340 27343 27345 27348 27351 27354 27357 27360 27363 27366 27369 27372 27375 27378 27381 27384 27387 27390 27392 27395 27398 27401 27403 27406 27409 27412 27414 27417 27419 27422 27425 27428 27431 27433 27436 27439 27442 27445 27448 27451 27454 27457 27460 27463 27466 27469 27472 27475 27477 27480 27482 27485 27488 27491 27494 27496 27498 27501 27504 27507 27510 27513 27516 27519 27522 27525 27527 27530 27533 27536 27539 27542 27545 27548 27551 27554 27557 27560 27563 27566 27568 27571 27574 27577 27579 27582 27585 27588 27591 27594 27597 27599 27602 27605 27608 27611 27614 27616 27619 27622 27624 27627 27630 27633 27636 27638 27641 27644 27647 27650 27653 27656 27659 27661 27664 27667 27670 27672 27675 27678 27681 27684 27687 27690 27693 27696 27699 27702 27705 27708 27710 27713 27716 27719 27722 27725 27728 27731 27734 27737 27740 27743 27746 27749 27752 27755 27758 27761 27764 27767 27770 27773 27776 27779 27782 27785 27788 27791 27794 27797 27800 27803 27806 27809 27812 27815 27818 27821 27824 27827 27830 27833 27836 27839 27842 27845 27848 27851 27854 27857 27860 27863 27866 27869 27871 27874 27877 27880 27883 27885 27888 27891 27894 27897 27900 27903 27906 27909 27912 27915 27918 27921 27924 27927 27930 27933 27936 27939 27942 27945 27948 27951 27954 27957 27960 27963 27966 27969 27972 27975 27978 27981 27984 27987 27990 27992 27995 27998 28001 28004 28006 28009 28012 28015 28018 28021 28024 28027 28030 28033 28036 28038 28041 28044 28047 28049 28052 28055 28058 28061 28064 28067 28070 28072 28075 28078 28081 28084 28086 28089 28092 28095 28098 28100 28103 28106 28109 28112 28115 28118 28121 28124 28127 28130 28133 28136 28139 28142 28144 28147 28149 28152 28154 28157 28159 28162 28165 28168 28171 28174 28177 28179 28182 28185 28188 28191 28194 28197 28200 28202 28205 28208 28211 28214 28217 28220 28223 28226 28229 28231 28234 28236 28239 28242 28245 28248 28251 28253 28256 28259 28261 28263 28266 28269 28271 28274 28276 28278 28281 28283 28286 28289 28292 28295 28298 28301 28304 28307 28310 28313 28316 28319 28322 28324 28327 28330 28333 28336 28339 28341 28344 28347 28350 28353 28356 28359 28362 28364 28367 28370 28373 28375 28378 28381 28383 28386 28388 28391 28394 28397 28400 28403 28406 28409 28411 28414 28417 28420 28423 28426 28429 28432 28435 28438 28441 28444 28447 28450 28453 28456 28459 28462 28464 28467 28470 28473 28476 28479 28482 28485 28488 28491 28494 28497 28500 28503 28506 28509 28512 28515 28518 28521 28524 28527 28530 28533 28536 28538 28541 28543 28546 28549 28552 28555 28557 28560 28563 28565 28568 28571 28573 28576 28579 28582 28584 28587 28590 28593 28596 28599 28602 28605 28607 28609 28612 28615 28618 28620 28623 28626 28629 28631 28634 28637 28640 28642 28645 28648 28650 28652 28655 28658 28661 28664 28667 28669 28672 28675 28678 28681 28683 28686 28689 28692 28695 28698 28701 28704 28707 28710 28713 28716 28719 28722 28725 28728 28731 28734 28737 28740 28743 28746 28749 28752 28755 28758 28761 28764 28767 28770 28773 28776 28779 28782 28785 28788 28791 28794 28797 28800 
</DataArray>
<DataArray type="UInt32" Name="types" format="ascii">
5 5 5 3 5 5 3 5 5 5 5 5 5 5 5 3 3 5 5 5 5 3 5 5 3 3 5 3 5 3 5 5 5 3 5 5 5 5 5 5 5 5 5 5 5 5 5 3 3 5 5 5 5 5 5 5 5 5 5 5 5 5 5 5 5 5 5 5 5 5 3 5 5 3 5 5 5 5 5 5 5 5 5 5 5 5 5 5 5 3 5 5 5 5 5 3 5 5 5 5 3 3 5 5 5 5 5 5 5 5 3 3 5 5 3 5 5 3 5 3 5 3 5 3 5 5 5 3 5 3 5 3 5 5 3 5 5 5 5 5 3 5 5 5 5 3 3 5 3 5 3 3 3 5 5 5 5 5 5 5 5 5 5 5 5 5 5 5 5 5 3 5 5 5 5 5 5 5 5 5 5 5 5 5 5 5 5 5 5 5 5 5 5 5 5 5 3 5 5 5 5 5 5 3 5 5 5 5 5 5 5 3 5 5 5 5 3 5 3 5 5 5 5 5 5 5 5 5 5 5 5 5 5 5 5 5 5 5 5 5 5 5 3 5 5 5 5 5 5 5 5 5 5 5 5 5 5 5 3 3 3 5 5 5 5 5 5 3 5 5 5 5 3 3 5 5 5 5 3 3 5 5 3 3 5 5 3 5 5 5 5 3 3 5 5 5 5 5 5 5 3 5 3 5 5 5 5 5 5 3 5 5 5 5 5 3 5 5 5 5 5 5 5 5 5 5 5 5 3 5 5 3 5 5 5 5 5 5 5 5 5 5 5 5 5 5 5 5 5 5 5 5 5 5 5 5 5 5 5 5 5 5 5 5 5 5 5 5 5 3 5 5 5 5 5 5 5 5 5 5 3 5 5 5 3 5 3 5 5 5 5 5 3 5 5 5 5 3 5 5 5 5 5 5 5 5 5 3 5 5 5 3 5 5 5 3 5 5 5 3 5 5 5 5 5 5 5 5 5 5 3 5 5 5 5 5 5 5 5 5 5 5 3 5 5 5 5 5 5 5 3 5 5 5 5 5 5 3 3 5 5 5 3 5 5 5 5 5 5 5 5 5 5 5 5 5 5 5 5 5 5 5 5 5 5 5 5 5 5 5 5 5 5 5 3 5 5 5 5 5 5 5 5 5 5 5 5 5 5 5 5 5 5 5 5 5 5 3 5 3 5 5 5 5 5 3 5 5 5 5 3 5 5 5 3 5 5 5 5 5 5 5 5 5 5 5 5 3 5 5 5 5 5 5 5 5 5 5 5 5 5 5 5 5 5 3 5 5 5 5 5 5 5 5 5 5 5 5 5 5 5 5 5 5 3 3 5 5 5 5 5 5 5 5 5 5 5 5 5 5 5 5 5 5 5 5 5 5 5 5 5 5 5 5 5 5 5 5 5 5 5 5 5 5 5 5 5 5 5 5 5 5 5 5 5 3 5 3 5 5 5 5 5 5 5 5 3 5 3 3 5 5 5 5 5 5 5 3 5 5 3 5 3 5 5 5 3 5 3 3 5 5 5 3 5 3 5 5 5 5 5 5 5 5 5 5 5 5 5 5 5 5 5 5 5 5 5 5 5 5 5 5 5 5 5 5 5 5 5 5 5 5 5 5 5 5 5 5 5 5 5 5 5 5 5 5 5 5 5 5 5 5 5 5 5 5 5 5 5 5 5 5 5 5 5 5 5 5 5 5 5 5 5 5 5 5 3 5 5 5 5 3 5 5 5 5 5 5 5 3 5 5 5 5 5 5 5 5 5 5 5 5 5 5 5 5 3 5 5 3 5 3 5 3 5 5 5 5 5 5 5 5 3 5 5 5 3 5 3 5 5 3 5 5 5 3 3 5 5 5 5 5 5 5 5 5 5 5 5 5 5 5 5 5 5 5 5 5 5 5 5 5 5 3 5 5 5 5 5 5 3 5 5 5 3 5 5 5 5 5 5 3 5 5 5 5 5 5 5 5 5 5 3 5 5 3 5 5 3 5 5 5 5 5 5 5 5 3 5 5 5 5 5 5 5 5 5 5 5 3 5 5 5 5 3 5 5 5 3 5 5 5 5 5 5 5 5 5 5 5 5 5 5 5 5 5 5 5 5 5 5 5 5 5 5 3 3 5 5 5 5 3 5 3 3 5 5 5 5 5 3 3 5 3 5 3 5 5 5 5 5 5 5 3 5 5 5 5 5 5 5 5 5 5 5 5 5 5 5 5 5 3 5 5 5 5 5 5 5 5 5 5 3 5 5 5 3 5 5 3 5 5 5 5 5 5 5 5 5 5 5 5 5 5 5 5 5 5 5 5 5 5 5 5 3 3 5 5 5 3 5 5 5 5 3 5 5 5 5 3 5 5 5 5 5 5 5 5 5 3 5 5 5 5 5 5 5 5 5 5 5 5 3 5 5 5 5 5 5 3 5 5 5 3 3 5 5 5 5 3 5 5 3 5 5 5 5 5 5 5 5 5 5 5 5 5 5 5 5 5 5 5 5 5 5 5 5 3 5 5 5 5 5 5 5 5 5 3 5 3 5 5 5 5 5 5 5 3 5 5 3 5 5 5 5 5 5 5 5 5 3 5 5 5 3 5 5 5 5 5 5 5 5 5 5 5 5 5 5 5 5 5 5 5 5 3 5 3 5 5 5 3 5 5 5 3 5 5 5 5 5 5 3 3 5 3 3 5 5 5 5 5 5 5 5 5 5 5 5 5 5 3 5 3 5 5 5 5 3 5 5 5 5 5 3 5 5 5 5 3 5 5 5 3 3 5 5 3 5 5 5 5 5 5 5 3 5 5 5 5 5 5 5 5 3 5 5 5 5 5 5 5 5 3 5 3 3 5 5 5 5 3 5 3 5 5 5 5 5 5 5 5 5 5 5 5 5 5 5 5 5 3 5 5 5 5 5 5 5 5 5 5 5 3 5 5 5 5 3 5 5 3 5 5 5 3 5 5 3 5 5 5 5 5 5 5 5 5 5 5 5 5 5 5 5 5 5 5 5 5 5 5 5 5 5 5 5 5 5 5 5 5 3 5 5 5 5 5 5 5 5 5 5 5 5 5 5 5 5 5 5 5 5 5 5 5 5 5 5 5 5 5 5 5 5 5 5 5 5 5 5 5 5 5 5 5 5 5 5 5 3 5 5 5 5 5 5 5 5 5 5 5 3 5 5 5 5 5 5 5 5 5 5 5 3 5 5 3 5 5 3 5 3 5 3 5 5 3 5 3 5 3 3 3 5 5 5 3 5 5 5 5 3 5 5 5 5 3 5 5 5 5 5 5 5 5 5 5 5 5 5 5 5 5 3 5 5 5 5 5 5 5 5 5 5 5 5 5 5 5 5 5 5 5 5 5 5 5 5 5 5 5 5 5 5 5 5 5 5 5 3 5 5 5 5 5 5 5 5 5 5 5 5 5 5 5 5 5 5 5 5 3 5 5 5 5 5 5 5 5 3 5 5 5 5 5 3 5 5 5 5 5 3 5 5 5 5 5 5 5 5 5 5 5 5 5 3 5 5 5 5 5 5 5 5 5 5 5 5 3 5 5 5 5 5 5 5 5 5 5 5 5 5 5 5 5 5 5 5 5 5 5 5 5 5 5 5 5 5 5 5 5 5 5 5 5 5 5 3 5 5 5 5 5 5 5 5 5 3 3 5 5 5 3 5 5 3 5 5 3 5 5 3 5 5 3 5 5 5 5 5 5 3 5 5 5 3 5 3 5 5 3 5 3 5 3 5 3 5 5 3 5 3 5 5 5 5 5 3 5 5 5 5 5 5 5 5 5 3 5 5 3 5 5 5 5 5 5 5 5 5 5 3 5 5 5 5 5 5 5 5 5 3 5 5 5 5 3 3 5 3 5 3 5 3 5 5 5 5 5 5 5 5 5 5 5 3 5 5 5 5 5 5 5 5 5 5 5 5 5 5 5 5 3 5 5 3 5 5 5 5 3 5 5 5 5 5 5 5 3 5 5 5 5 5 5 5 5 5 5 5 5 5 3 3 5 3 5 5 5 5 5 5 5 3 5 5 5 3 5 3 5 5 5 5 5 5 5 5 5 5 5 5 5 3 5 5 5 5 3 5 5 5 3 5 5 5 5 5 5 3 5 5 5 5 3 5 3 5 5 5 5 5 3 3 5 5 5 3 5 5 5 5 5 5 5 5 5 5 5 3 5 5 5 3 5 5 5 3 5 5 5 5 5 5 5 5 5 5 5 5 5 5 5 3 3 5 5 5 3 5 5 5 5 5 5 3 5 5 5 5 5 5 5 3 5 3 5 5 5 5 3 3 5 5 3 5 3 5 3 5 5 3 3 5 5 5 5 5 3 5 3 5 5 3 5 3 3 5 3 5 5 5 5 3 5 5 5 3 5 5 5 3 5 3 5 5 3 5 5 3 5 3 5 3 5 5 5 5 5 3 3 5 5 5 5 5 5 3 5 5 5 5 3 5 5 3 5 3 5 5 5 3 5 5 5 3 5 5 5 5 5 3 5 5 3 5 5 5 5 3 5 5 5 5 5 3 3 5 5 3 5 5 5 3 3 5 5 3 3 3 5 5 3 3 5 5 5 3 5 3 5 5 3 5 5 3 5 5 5 5 5 5 5 5 3 5 5 3 5 5 5 5 5 5 5 5 3 5 5 5 3 5 5 5 5 3 5 5 5 3 5 3 5 3 5 5 5 5 5 5 3 5 5 5 5 5 5 5 5 5 5 5 5 5 3 3 5 5 5 3 5 5 5 5 5 3 5 5 5 3 5 5 5 5 5 3 5 5 3 5 5 5 5 5 5 5 5 5 3 5 5 5 5 5 5 5 5 5 5 5 5 5 5 5 5 5 5 5 5 5 5 5 5 5 5 5 3 5 5 5 5 5 5 3 5 5 5 5 5 5 5 5 5 3 5 5 3 5 5 5 5 3 5 5 5 5 5 5 5 5 5 5 5 5 5 5 5 5 5 5 5 5 5 5 5 5 5 5 5 5 5 5 5 3 5 5 5 5 5 5 5 5 3 5 5 5 5 5 5 3 5 5 5 5 5 5 5 5 5 5 5 5 5 5 5 5 3 5 5 5 5 5 3 5 5 5 5 5 3 5 5 5 5 5 5 5 5 5 5 5 5 5 5 5 5 5 5 5 5 5 5 5 3 5 5 5 5 5 5 5 5 3 5 5 5 5 5 5 5 5 5 5 5 5 5 5 5 5 5 5 5 5 5 5 5 5 5 3 5 5 5 5 3 5 5 5 5 3 5 5 5 5 5 5 5 5 5 5 5 5 5 5 3 5 5 5 5 5 5 5 5 5 5 5 5 5 5 5 5 5 5 5 5 5 5 5 5 5 5 3 5 3 5 5 5 5 5 3 5 5 5 5 5 5 5 5 5 5 5 5 5 5 5 5 5 5 5 3 5 5 5 3 5 5 5 5 5 5 5 3 5 5 5 5 3 5 3 5 3 5 3 5 5 5 5 5 5 5 5 5 5 5 5 5 5 5 5 5 5 5 5 5 5 5 5 5 5 5 5 5 5 5 5 5 5 5 5 5 5 5 5 5 5 5 5 5 5 5 5 5 5 5 5 5 5 5 5 5 5 5 5 5 5 5 5 5 5 5 5 5 5 3 5 3 5 5 5 5 5 5 5 5 5 5 5 5 5 3 5 5 5 5 3 5 5 5 5 5 5 5 5 5 5 5 5 5 5 5 5 5 5 5 5 5 5 5 5 5 5 5 5 5 5 5 5 5 5 5 5 5 3 5 5 5 5 5 5 5 5 3 5 5 5 5 5 5 5 5 5 5 5 5 5 3 5 5 3 5 5 5 5 5 3 5 5 5 5 5 3 5 5 5 5 5 3 5 5 5 5 5 5 5 5 5 5 5 5 5 5 5 5 3 5 5 3 5 5 5 5 5 5 5 5 5 5 5 5 5 5 5 5 5 5 5 5 5 5 5 5 5 5 5 5 5 5 5 5 5 5 5 5 3 5 5 5 5 5 5 5 5 5 5 5 3 5 5 3 5 3 5 5 3 5 5 5 5 5 5 5 5 5 5 5 5 5 5 5 5 5 3 3 5 5 5 5 3 5 3 5 3 5 5 3 5 5 5 5 3 5 5 3 5 3 5 5 5 5 5 5 5 5 5 5 5 5 5 5 5 5 5 5 5 5 5 5 5 5 5 5 5 5 5 5 5 5 5 5 5 5 5 5 5 5 5 5 5 5 5 5 5 3 5 5 5 3 5 5 5 3 5 3 5 5 3 5 5 3 5 5 5 5 5 5 5 3 5 5 5 5 3 3 5 5 5 5 5 5 5 5 5 5 5 5 5 5 5 5 5 5 5 5 5 3 5 5 5 5 5 5 5 5 5 5 5 5 5 5 5 5 5 5 5 5 5 5 5 5 5 5 5 5 5 5 5 5 5 5 5 5 5 5 5 3 5 5 3 5 5 5 5 5 5 5 5 5 5 5 5 5 5 5 3 5 5 5 5 5 5 5 5 5 5 5 5 5 5 5 5 5 5 5 5 5 5 5 5 5 5 5 5 5 5 5 5 5 5 5 5 5 5 5 5 5 5 5 5 5 5 5 5 5 5 5 5 5 5 5 5 5 5 5 5 3 5 5 5 5 5 5 5 5 5 3 5 5 5 5 5 5 5 5 5 5 5 3 5 5 5 5 5 5 5 5 5 5 5 5 5 3 3 3 5 5 5 5 5 5 5 3 5 5 5 5 5 3 5 5 5 5 5 5 5 5 5 5 5 5 5 5 5 5 5 5 5 5 5 5 5 5 5 5 5 5 5 5 5 5 5 5 5 5 5 3 5 5 5 3 5 5 5 5 5 5 5 5 5 5 5 5 5 5 5 5 3 3 5 5 5 3 3 5 5 5 5 5 5 5 5 5 5 5 5 3 5 5 5 5 5 5 5 5 5 5 5 5 5 5 5 5 5 5 5 5 5 5 5 5 5 5 5 5 5 5 5 5 5 5 5 5 5 3 5 5 5 5 5 5 5 5 3 5 5 5 5 5 5 5 3 5 5 5 5 5 5 5 5 5 5 5 5 5 5 3 5 5 5 3 5 3 5 5 5 5 5 5 5 5 5 3 5 5 5 5 5 3 5 5 5 5 5 5 5 5 5 5 5 5 5 5 5 5 5 5 5 5 3 5 5 5 5 5 3 5 5 5 5 5 5 5 3 5 5 3 5 5 5 5 5 5 3 5 5 5 5 5 5 3 5 5 5 5 5 5 5 5 5 5 5 5 5 5 5 5 5 5 5 5 5 5 5 5 5 5 5 5 5 3 5 5 5 5 3 5 5 3 5 5 5 3 5 5 3 5 5 5 5 5 5 5 5 5 5 5 5 5 5 5 5 5 5 3 5 5 5 5 3 5 5 5 3 5 5 3 5 5 5 5 5 5 5 5 5 5 5 5 5 5 5 5 5 5 5 5 5 5 5 5 5 5 5 5 5 5 5 5 5 5 5 5 5 5 5 5 5 5 5 5 5 5 5 5 5 5 5 5 5 5 5 5 5 5 5 5 5 3 5 5 5 5 5 5 5 5 3 5 5 5 5 5 5 5 5 5 5 5 5 5 5 5 5 5 5 5 5 5 5 5 5 5 5 5 5 3 5 5 5 5 5 5 5 5 5 5 5 5 5 5 5 5 5 5 5 5 5 3 5 3 5 5 3 3 5 5 3 3 5 5 3 5 5 5 5 3 5 5 3 5 5 3 5 5 5 5 5 5 5 5 5 5 5 5 5 5 3 5 5 5 5 5 5 5 5 5 5 3 5 5 3 5 5 5 5 5 3 5 3 5 5 3 5 3 5 3 5 5 5 5 5 5 5 5 5 5 5 5 5 5 5 5 3 5 5 3 5 5 5 5 3 5 5 5 5 5 5 5 5 5 5 5 5 5 5 5 5 5 3 5 5 5 5 5 5 5 5 5 3 5 5 5 5 5 5 5 5 5 5 5 5 5 5 3 5 5 3 5 5 3 5 5 5 3 5 5 5 5 5 5 5 5 5 5 3 5 3 5 5 5 5 5 3 5 5 5 5 5 5 5 5 5 3 5 5 5 5 5 5 5 5 5 5 5 3 5 5 3 5 5 5 5 5 5 5 5 5 3 5 5 5 5 5 5 5 5 3 3 5 5 5 5 5 5 5 5 5 5 5 5 5 5 5 5 5 5 5 5 5 5 5 5 5 3 5 5 5 5 5 5 5 5 5 5 5 5 5 5 5 5 5 5 5 5 5 5 5 5 5 5 5 5 5 5 5 5 5 5 5 5 5 5 5 5 5 5 5 5 5 5 5 5 5 5 5 5 5 3 5 5 3 5 5 3 3 5 5 5 5 3 5 5 5 5 5 5 5 5 5 5 5 5 5 3 5 5 5 5 5 5 5 5 5 5 5 5 5 5 5 5 5 3 5 3 5 5 3 5 5 5 5 5 5 5 5 5 3 5 5 3 5 5 5 3 5 3 5 5 5 5 5 5 5 5 5 5 5 5 5 5 5 5 5 3 5 5 5 5 3 5 5 5 5 5 5 5 5 5 5 5 5 5 3 5 5 5 5 5 5 5 5 5 5 5 5 5 5 5 5 5 5 5 5 5 5 5 5 5 5 5 5 5 5 5 5 5 5 5 5 5 3 5 3 5 3 5 5 3 5 5 3 5 5 5 3 5 5 5 3 5 5 5 5 5 3 5 5 3 5 5 5 5 3 5 5 5 5 5 5 5 5 5 5 5 5 5 5 3 5 5 5 5 5 5 5 5 5 5 5 5 5 5 5 5 5 5 5 5 5 5 5 5 5 3 3 5 5 5 5 5 5 5 5 5 5 5 5 3 3 5 5 5 5 5 5 5 5 5 5 5 5 5 5 5 5 5 5 5 5 5 5 5 5 5 5 5 5 5 5 5 5 5 5 5 5 5 5 5 5 5 5 5 5 5 5 5 5 5 5 5 5 3 5 5 5 5 5 3 5 5 5 3 5 5 3 3 5 3 3 5 5 5 5 3 5 5 5 5 5 5 5 5 5 5 5 5 5 5 5 5 3 5 5 5 3 5 5 5 5 5 5 5 5 5 5 5 3 5 5 3 5 3 5 5 3 5 5 3 5 5 5 5 5 5 5 5 5 5 5 5 5 5 5 5 5 5 5 5 5 5 5 5 5 3 3 5 5 5 3 5 5 3 5 5 5 5 5 5 5 5 5 5 5 5 5 5 5 5 5 5 5 5 5 5 5 5 5 3 5 5 3 5 5 5 5 5 3 5 5 3 5 5 5 5 5 5 3 5 5 5 5 5 3 5 5 5 5 5 5 5 5 5 5 5 5 5 5 5 5 5 5 5 5 5 5 5 5 5 5 5 5 5 5 5 5 5 5 5 5 5 5 5 5 5 5 5 5 5 5 5 5 5 5 5 5 5 5 5 5 5 5 5 3 5 5 5 3 5 5 5 5 3 5 5 5 5 5 5 5 5 5 5 5 5 5 5 5 5 5 5 5 5 5 5 5 5 5 5 5 5 5 5 5 5 5 5 5 5 5 3 5 5 5 5 5 5 5 5 5 5 5 5 3 5 5 5 5 5 5 5 5 5 3 5 3 5 5 5 5 5 5 5 3 3 5 5 3 5 5 5 5 5 5 5 5 3 5 5 5 5 5 5 5 5 5 5 5 5 5 5 5 5 5 5 5 5 5 5 5 5 5 5 5 5 5 5 5 5 3 5 5 3 5 5 5 5 3 5 5 5 3 5 5 5 3 5 5 5 5 5 3 3 5 5 5 5 5 3 5 3 3 5 5 5 5 5 5 5 5 5 5 5 5 5 5 5 5 5 5 5 5 5 5 5 5 5 5 5 5 5 5 5 5 5 5 3 5 5 5 5 5 5 5 5 3 5 5 5 5 5 5 5 5 5 5 5 5 5 5 5 5 5 5 5 5 5 5 5 5 5 5 5 5 5 5 5 5 5 5 5 5 5 5 5 5 5 5 5 5 5 5 5 5 5 5 5 5 5 3 5 5 5 5 5 5 3 5 5 5 5 5 3 3 5 5 5 5 5 5 5 5 5 5 5 3 5 5 5 5 5 5 5 3 5 5 5 5 5 5 5 5 3 5 5 5 5 5 3 5 5 5 5 5 5 5 5 5 5 5 5 5 5 3 5 5 5 5 5 5 5 5 3 5 5 5 3 5 5 5 5 5 5 3 5 5 5 5 5 5 5 5 5 5 5 5 5 5 3 3 5 3 5 5 5 5 5 5 5 5 3 5 5 5 3 5 3 5 3 3 3 5 5 5 5 3 5 3 5 5 3 5 5 5 5 5 3 5 5 3 5 5 5 5 5 5 5 3 5 5 5 3 3 5 5 5 3 3 5 5 5 3 5 3 5 5 3 5 5 5 5 3 5 5 5 3 5 5 3 5 5 5 5 5 5 3 5 5 5 5 5 5 5 5 5 5 5 5 5 3 5 5 5 5 5 3 5 5 5 5 5 5 5 5 5 5 5 5 5 5 5 5 3 5 5 5 5 5 5 5 5 5 5 5 5 3 5 5 5 3 5 5 3 5 5 5 5 5 5 5 5 5 5 5 3 5 3 5 5 5 5 5 5 5 5 5 5 5 5 5 5 5 5 3 5 5 5 5 5 5 5 5 3 5 5 5 5 5 5 5 5 5 5 5 5 5 5 5 5 5 5 5 5 5 5 5 5 5 5 5 5 5 5 5 5 5 5 5 5 5 5 5 5 5 5 5 5 5 5 5 5 5 5 5 5 5 5 5 3 5 5 3 5 5 5 5 5 5 5 5 5 5 5 5 5 5 5 5 5 5 5 5 3 5 5 5 5 3 5 5 5 5 5 3 3 5 5 3 3 5 3 5 5 5 5 5 5 5 5 5 5 5 5 5 5 5 5 5 5 5 5 5 5 5 5 5 5 5 5 5 3 5 5 5 3 5 5 3 5 5 5 5 3 5 5 3 5 5 5 3 3 5 5 5 5 5 5 5 5 5 5 5 5 5 3 5 5 3 5 5 5 5 5 3 5 3 5 5 5 5 3 5 5 5 3 5 5 5 5 5 5 5 5 5 3 5 3 3 5 3 3 5 5 5 5 5 5 5 5 5 5 5 5 3 5 5 5 5 5 3 3 3 5 5 5 5 5 3 5 5 3 5 5 5 5 5 5 5 5 5 5 3 5 5 5 5 5 5 5 5 5 5 3 5 5 5 3 5 5 5 5 5 5 5 5 5 5 3 5 5 3 5 3 5 5 3 5 5 3 5 3 5 5 3 5 3 5 5 3 5 5 5 3 5 5 5 5 3 5 5 5 5 3 3 5 5 5 5 5 5 3 5 5 5 5 5 5 5 5 5 5 3 5 5 5 5 3 5 5 5 5 5 5 5 3 5 5 5 3 3 5 3 5 5 5 5 5 3 5 3 5 3 3 3 5 3 5 5 5 3 5 5 5 5 5 5 5 3 5 5 5 5 5 5 5 5 5 3 5 5 5 5 3 5 5 5 5 5 5 5 5 5 5 5 3 5 5 5 5 5 5 3 5 5 5 3 5 5 5 5 5 5 5 5 5 5 5 5 5 5 3 5 5 5 5 5 3 5 5 5 5 5 5 3 5 3 5 5 3 5 5 5 5 5 3 5 3 5 5 5 5 3 5 5 5 3 5 5 5 5 5 5 5 5 5 3 5 3 5 5 5 5 5 3 5 5 5 5 3 5 5 5 5 3 3 5 3 5 5 3 5 5 3 5 3 5 5 5 5 5 3 5 5 5 5 5 5 5 5 5 5 5 5 5 3 5 5 5 5 5 5 5 3 5 5 5 5 5 5 5 5 5 5 5 5 5 5 3 5 3 3 5 5 5 5 5 5 5 5 5 5 5 5 5 5 5 5 5 5 5 5 3 5 5 5 5 3 5 5 5 5 5 5 5 5 5 5 5 5 5 5 5 5 3 5 5 5 5 5 5 5 3 5 5 5 5 5 5 3 5 3 5 5 3 5 5 5 5 3 5 5 5 5 3 5 5 5 3 5 5 5 5 5 5 5 3 5 5 5 5 5 5 3 5 5 5 5 3 5 5 5 5 5 5 5 5 5 3 5 5 5 5 3 5 5 5 3 5 5 5 5 5 5 5 3 5 3 5 5 5 5 3 5 5 3 3 5 5 3 5 3 5 5 3 3 5 5 3 5 5 5 5 3 5 5 5 5 5 3 3 5 5 5 5 5 5 5 5 3 5 5 3 3 3 5 5 5 3 5 3 5 5 5 5 3 5 5 5 5 5 5 5 5 5 5 5 5 5 5 5 5 5 3 5 5 3 5 5 5 5 5 5 5 5 5 5 5 3 5 5 5 5 5 5 5 5 5 5 3 5 5 3 5 5 5 5 5 5 5 5 5 5 5 5 3 5 5 5 5 5 5 5 3 5 5 5 5 3 5 5 5 5 5 5 5 3 3 5 5 5 5 3 3 5 3 3 5 5 5 5 5 5 3 3 5 5 5 5 3 5 3 5 5 5 5 5 5 5 5 5 5 3 5 5 5 5 5 3 5 5 5 5 5 5 5 5 5 5 5 5 5 3 5 5 3 3 5 5 3 3 5 5 5 3 3 5 5 5 3 5 5 3 3 5 5 5 5 5 5 5 5 5 3 5 5 5 3 5 3 5 3 5 3 5 5 5 5 5 5 3 5 3 5 5 3 5 5 5 5 5 5 5 5 5 3 5 5 5 3 5 5 5 5 5 5 5 5 5 5 5 5 5 5 5 5 3 5 3 5 5 5 5 5 5 5 5 5 3 5 3 5 5 5 3 5 5 3 5 5 5 5 5 5 5 5 5 5 3 5 5 3 5 5 5 5 5 3 5 5 3 5 5 5 5 5 5 5 5 5 5 5 5 5 5 5 5 5 5 3 5 5 5 3 5 5 3 5 5 3 5 5 5 5 5 5 3 5 5 5 5 5 5 5 5 5 5 5 5 3 5 5 5 5 5 5 5 5 5 5 5 5 5 3 5 5 3 5 5 5 3 5 5 5 5 5 5 5 5 5 5 3 5 5 5 5 5 5 5 5 5 5 5 5 5 3 5 5 5 5 5 5 5 5 5 5 5 5 5 5 5 5 5 5 5 5 5 5 5 5 5 5 3 5 5 3 5 5 5 3 5 5 5 5 5 5 5 5 5 5 5 5 5 5 3 5 5 5 5 5 3 3 3 5 5 5 3 5 5 5 5 5 5 5 5 5 3 5 5 5 5 5 5 5 5 3 5 5 5 5 5 3 5 5 5 5 5 3 5 5 3 5 5 5 5 3 5 5 5 5 5 5 5 5 5 5 5 5 5 5 5 5 5 5 5 5 5 5 5 5 5 5 5 3 5 3 5 5 5 5 5 5 3 5 5 5 5 5 5 5 5 5 5 5 5 5 5 5 5 5 5 5 5 5 5 5 3 5 5 5 5 3 5 5 5 5 5 5 5 5 5 5 5 5 3 5 5 3 5 5 5 5 5 5 3 3 5 5 5 5 3 3 5 5 5 5 5 5 5 5 5 5 5 3 3 5 5 3 3 5 5 5 5 3 5 5 5 5 5 5 5 5 5 3 5 5 5 5 5 5 5 5 5 5 5 5 5 5 5 5 5 5 5 5 5 5 5 5 3 5 5 3 5 5 3 5 3 5 5 3 3 5 3 5 5 3 3 5 5 5 5 5 5 5 5 5 5 5 5 5 5 5 5 5 5 5 5 5 5 5 5 5 5 5 5 5 5 3 5 5 5 5 3 5 5 3 5 5 5 5 3 5 5 5 5 5 5 5 5 3 3 5 5 3 3 5 3 5 5 5 5 3 5 5 5 5 5 5 5 5 5 3 5 3 5 5 5 5 5 5 5 5 5 5 5 5 5 5 5 5 5 5 5 5 5 5 3 5 5 5 3 5 5 5 5 3 5 5 5 5 5 3 5 3 5 5 5 5 3 5 3 5 5 3 5 5 5 5 5 3 3 3 5 5 3 5 5 5 5 3 3 5 5 3 3 5 5 5 5 3 3 5 5 3 5 5 5 3 5 5 3 5 5 3 5 5 5 5 5 3 3 5 5 5 5 5 5 5 5 5 5 5 5 5 5 5 3 5 5 5 3 5 5 5 5 3 5 5 5 5 5 5 5 5 5 5 5 5 5 5 5 5 5 3 5 3 3 5 5 3 5 5 5 3 5 5 5 5 5 5 5 5 5 5 3 5 5 5 5 5 5 5 5 5 5 5 5 5 5 5 5 5 5 5 5 5 5 5 5 5 5 5 5 5 5 5 5 5 5 5 5 5 5 5 5 5 5 5 5 3 5 5 3 5 5 5 5 5 5 5 5 5 5 5 3 5 5 5 5 5 3 5 3 5 5 5 5 5 5 5 5 3 5 5 5 5 5 5 3 5 5 3 5 3 5 5 3 5 3 5 5 5 5 5 3 5 5 5 5 5 5 5 5 5 5 5 5 5 5 3 5 5 5 5 3 5 5 5 5 5 5 5 5 5 3 5 5 5 5 5 5 5 5 5 5 5 5 5 5 5 5 5 5 5 5 5 5 5 5 5 5 5 3 5 5 5 5 5 5 5 5 5 5 5 5 5 5 3 5 3 5 5 5 3 5 3 5 3 5 5 5 5 5 5 5 5 5 5 5 5 5 5 5 5 5 5 5 5 5 5 5 5 5 5 5 5 5 5 5 5 3 5 5 3 5 5 5 5 5 5 5 3 5 5 5 5 5 5 5 5 5 5 5 5 5 5 5 5 5 5 5 5 5 5 5 3 5 5 3 5 5 5 5 3 5 5 5 5 5 5 5 5 5 5 5 5 3 5 5 5 5 5 3 5 5 5 5 3 5 5 5 5 5 5 5 5 5 5 5 5 5 3 5 5 5 5 5 5 5 5 5 5 5 5 5 3 5 5 5 5 5 5 5 5 5 5 5 5 5 5 5 5 5 5 3 5 5 5 5 5 5 5 5 5 5 5 5 5 5 5 3 3 5 5 5 5 5 5 5 5 5 3 5 5 5 5 5 5 5 3 5 5 5 5 5 5 5 3 5 5 5 5 3 5 5 5 3 5 5 5 5 5 3 5 5 5 5 5 3 5 5 5 5 5 5 5 5 3 5 3 5 5 5 5 5 3 5 5 5 5 5 5 3 5 5 5 3 5 5 3 5 5 5 5 5 5 3 5 5 3 5 5 5 5 3 5 5 5 5 5 5 5 5 5 5 5 5 5 5 5 5 5 5 3 5 5 5 5 5 5 5 5 5 5 5 5 5 5 5 5 5 3 5 5 5 3 5 5 3 3 5 5 5 5 5 5 5 5 5 5 5 3 5 5 5 5 5 5 5 5 3 5 3 5 5 5 3 5 5 5 5 5 3 5 5 3 5 5 5 5 5 5 5 5 5 5 5 5 5 5 3 3 5 5 5 5 5 3 5 5 5 5 5 5 5 5 3 5 5 3 5 5 5 3 5 3 5 5 5 5 5 5 5 5 5 5 5 3 5 5 5 3 5 3 5 5 3 5 3 5 5 3 5 5 5 5 5 5 5 5 5 5 5 5 3 5 5 3 5 5 5 3 5 3 5 5 5 5 5 5 5 5 5 5 5 5 5 3 3 5 5 5 5 5 3 5 5 3 5 5 3 5 5 5 3 5 5 5 5 5 5 5 5 3 5 5 3 3 5 5 5 5 5 3 5 5 3 5 5 5 3 3 5 5 5 5 5 3 5 3 5 5 5 5 5 5 5 5 5 3 5 5 3 5 5 5 5 5 5 5 5 3 5 5 5 5 5 5 3 5 5 5 3 5 5 5 5 3 5 5 5 5 5 5 5 5 5 5 5 3 5 5 3 5 5 5 5 5 5 3 5 5 5 5 5 5 5 5 3 5 5 3 3 5 5 5 5 5 3 5 5 5 5 5 5 5 3 5 5 3 5 5 5 5 5 5 3 5 5 5 3 5 5 5 5 5 5 5 5 5 5 5 5 3 5 3 5 3 5 5 5 3 5 5 5 5 5 5 3 5 5 5 5 5 5 5 5 5 5 5 5 3 5 5 3 3 5 5 5 5 3 5 5 5 3 3 5 5 5 5 3 5 5 5 3 5 3 3 5 5 3 3 5 5 5 5 5 3 5 3 5 3 3 5 5 5 5 5 5 5 5 5 3 3 3 5 5 3 5 5 3 5 5 5 5 5 5 5 5 3 3 5 5 5 3 5 5 5 3 5 5 3 5 5 5 5 5 5 5 5 5 5 5 5 5 5 5 5 5 5 3 5 5 5 5 5 5 5 5 5 3 5 5 5 5 5 5 5 5 5 5 3 3 5 5 5 5 5 3 5 5 5 5 5 5 5 5 5 5 5 3 5 3 5 5 3 5 5 3 5 5 5 5 5 5 5 5 5 5 5 5 5 5 5 5 5 3 5 5 5 5 5 5 5 5 5 5 5 5 5 5 5 5 5 5 5 5 5 5 5 5 5 3 5 5 5 5 5 5 5 5 5 5 5 5 5 3 5 3 5 5 5 5 5 5 5 5 5 5 5 5 5 5 5 5 5 5 5 5 5 5 5 5 5 5 5 5 5 5 5 5 5 5 3 5 3 5 5 3 5 5 5 3 5 5 5 5 5 5 5 5 5 5 5 5 5 5 5 5 5 5 5 3 3 5 5 5 5 5 5 3 5 3 5 5 5 5 5 5 3 5 5 3 5 3 5 5 5 5 5 5 5 5 5 5 5 5 5 5 5 5 3 5 3 5 5 5 5 5 5 5 5 3 3 5 5 3 5 5 5 5 3 5 3 5 5 3 5 5 5 5 5 5 5 3 3 5 5 5 3 5 5 3 5 3 5 3 3 5 5 5 5 5 3 5 5 5 5 5 5 3 5 5 3 5 5 5 5 5 5 5 5 5 3 3 5 3 5 3 5 5 3 5 5 5 5 5 5 5 5 5 3 5 5 5 5 3 5 5 5 5 5 5 5 5 5 3 3 5 5 5 5 5 5 5 5 5 5 5 5 5 5 5 5 5 5 5 5 5 5 5 5 5 5 5 5 5 5 3 5 3 5 5 5 5 5 3 3 5 3 3 5 5 5 5 5 5 5 5 5 5 5 5 5 3 5 5 5 5 5 5 5 5 5 5 5 5 5 5 5 5 5 3 5 5 3 5 5 5 5 5 5 5 3 5 5 5 5 5 5 5 5 5 5 5 5 5 3 5 5 5 5 5 5 3 5 5 5 5 5 5 5 5 5 5 5 5 5 5 5 5 5 3 5 5 5 5 5 5 5 5 5 5 5 5 5 3 5 5 5 3 5 5 5 5 5 5 5 5 3 5 5 5 5 5 5 3 5 5 5 5 3 5 5 5 3 5 5 5 5 3 5 5 5 5 5 5 5 3 5 5 5 3 5 5 5 3 5 5 5 5 5 5 5 3 5 5 3 5 5 5 5 5 5 5 5 5 5 5 5 5 5 5 5 5 5 5 5 5 5 5 5 5 5 5 5 5 5 5 5 5 5 5 5 5 5 5 5 5 5 3 5 5 3 5 5 3 5 5 5 3 5 5 5 5 5 3 3 5 3 3 5 5 5 5 5 5 5 5 5 5 5 5 5 5 5 5 5 3 5 5 5 5 5 5 5 5 5 5 5 5 5 5 5 5 5 5 5 5 5 5 5 5 5 5 5 5 5 3 5 5 5 5 3 5 5 5 5 5 5 5 3 5 3 5 5 5 3 5 5 5 5 5 5 5 5 5 5 5 5 5 5 5 5 5 5 5 5 5 5 5 5 5 5 5 5 5 5 5 5 5 5 5 5 5 5 5 5 5 5 5 3 3 5 3 5 3 5 5 5 5 3 5 5 5 5 5 5 5 5 5 5 5 5 5 5 5 5 3 5 5 3 5 5 5 5 5 5 5 5 5 5 5 5 5 5 5 3 5 5 5 5 3 5 5 5 5 5 3 5 5 5 5 5 5 5 5 5 5 5 5 3 5 5 3 5 5 5 5 3 5 5 5 5 5 5 5 5 5 3 5 5 5 5 5 5 5 5 5 5 5 5 5 5 5 5 5 5 5 5 5 5 5 5 5 5 5 3 5 5 5 5 3 5 5 5 5 5 5 5 5 3 5 3 5 5 5 3 5 5 5 5 5 5 5 5 5 5 5 3 5 5 5 3 5 5 5 5 5 5 3 3 5 5 5 5 5 5 5 5 5 5 5 5 5 5 5 5 5 3 5 5 5 5 5 5 5 3 5 5 5 5 5 5 5 5 5 5 5 5 3 5 5 5 5 5 3 3 5 3 5 5 3 5 5 5 5 5 3 5 5 5 3 5 3 5 5 5 3 3 5 5 5 5 5 5 5 5 5 5 5 5 5 5 5 5 5 5 5 5 5 5 3 5 5 5 5 5 5 5 3 5 5 5 5 3 5 5 3 5 5 5 5 5 5 3 5 5 5 5 5 5 3 5 5 5 5 5 5 5 3 5 5 5 5 5 5 5 5 3 5 5 5 5 5 5 3 5 5 5 5 5 3 5 5 5 3 5 5 5 3 5 5 5 5 5 5 5 5 5 5 5 5 5 5 5 5 5 5 5 5 3 5 5 5 5 5 3 5 5 3 3 5 5 5 5 3 5 5 3 5 5 5 5 5 5 5 5 3 5 5 5 3 5 5 5 5 5 3 5 5 5 3 5 5 3 5 5 5 5 5 5 5 5 5 5 5 5 5 5 5 5 5 5 5 3 5 5 5 5 5 3 5 5 3 5 5 5 5 5 5 5 3 5 5 5 5 5 5 5 5 5 5 5 3 5 5 5 5 3 3 5 5 5 5 3 5 5 3 5 5 5 5 5 5 3 5 5 5 5 5 5 5 5 5 5 5 5 5 5 5 5 5 5 5 5 5 5 5 5 5 5 5 3 5 5 3 5 5 5 3 5 5 5 5 5 5 5 5 5 5 3 5 5 5 3 5 5 5 5 5 3 3 5 5 5 5 3 5 5 5 3 5 5 5 5 5 5 5 5 5 5 5 3 5 5 5 5 5 5 5 5 5 5 5 5 5 5 3 5 5 5 3 5 5 5 5 5 3 5 5 5 3 3 5 5 3 5 5 5 5 5 5 5 3 5 5 5 5 3 5 5 5 5 5 5 5 5 3 5 5 3 5 5 5 5 5 5 5 5 5 5 5 5 5 5 5 5 5 5 5 5 5 5 5 5 5 5 3 5 5 5 3 5 5 5 5 5 5 5 5 5 5 5 5 5 5 5 5 5 5 5 3 5 5 3 5 3 5 5 5 5 5 5 5 3 5 5 3 5 5 5 3 5 5 5 5 5 3 5 5 5 5 5 5 5 5 5 3 5 3 3 3 5 5 5 3 5 5 3 5 5 5 5 5 5 5 5 5 5 5 5 5 3 5 5 5 5 5 5 5 5 3 5 5 5 5 3 5 5 5 5 3 5 5 5 5 5 5 5 5 5 3 5 5 5 5 3 5 5 3 5 5 5 5 3 5 5 3 5 3 5 5 5 5 5 5 5 5 5 5 5 5 5 5 5 5 5 5 5 5 5 5 5 5 5 5 5 5 5 5 5 5 5 5 5 5 5 5 5 5 5 5 5 5 5 5 5 5 3 5 3 5 5 3 5 5 5 5 5 5 5 3 5 5 3 5 5 5 5 5 3 5 5 5 3 5 5 5 5 5 5 5 5 3 5 5 3 5 5 5 5 5 5 5 5 5 5 5 5 3 5 5 5 5 5 3 5 5 5 5 5 3 5 5 5 5 5 5 5 3 5 3 5 5 5 3 5 5 5 3 5 5 5 5 5 5 5 3 5 5 5 5 5 3 5 5 5 5 5 3 5 5 3 5 5 3 5 3 5 5 5 5 3 5 5 5 3 5 5 5 5 3 5 5 5 5 5 5 5 5 5 5 5 5 3 5 3 3 5 5 5 3 5 5 5 5 5 5 5 3 5 5 5 5 5 5 3 5 3 5 5 5 3 5 5 5 5 5 5 5 5 5 5 5 5 5 5 5 5 5 5 5 3 5 3 5 5 3 5 5 3 5 5 5 5 5 5 5 5 5 5 5 5 3 5 5 5 5 5 5 3 5 5 5 5 3 5 5 5 5 5 5 5 5 5 5 5 5 5 5 5 3 5 5 5 5 5 3 5 5 5 5 3 5 5 5 5 5 5 5 3 5 5 3 5 5 5 5 5 5 3 5 5 5 3 5 5 3 5 5 5 5 5 5 5 5 3 3 5 5 3 5 3 5 3 5 5 5 5 5 3 5 3 5 5 5 3 5 5 5 5 5 5 5 5 3 5 5 5 5 5 5 5 5 5 5 5 5 5 5 3 5 5 5 5 5 5 5 3 5 5 5 3 5 5 5 5 3 3 5 5 5 3 5 5 5 5 3 5 5 3 5 5 5 5 5 3 5 5 5 5 5 5 5 5 5 5 5 5 3 5 5 5 5 5 5 5 5 5 5 5 5 5 5 5 5 5 5 5 5 5 5 5 5 5 5 5 5 5 5 5 5 5 5 5 5 5 5 3 5 3 5 5 5 5 5 5 5 5 5 5 5 5 5 5 5 5 3 5 5 5 5 5 5 5 5 5 5 5 5 5 5 5 5 5 5 5 5 5 5 5 5 5 5 5 5 5 5 5 5 5 5 5 5 5 5 5 5 5 5 5 5 5 5 5 5 5 5 5 5 5 5 5 5 5 5 5 5 5 5 5 5 5 3 5 5 5 5 5 5 5 5 5 5 5 5 5 5 5 5 5 5 5 5 5 5 5 5 5 5 5 5 5 5 5 5 3 5 5 5 3 5 3 5 5 5 5 5 5 3 5 5 5 3 5 5 5 5 3 3 3 5 5 5 5 3 3 3 3 5 5 5 3 5 3 5 3 5 5 5 5 5 5 5 5 3 5 5 5 3 5 5 5 5 5 5 5 5 5 5 3 5 3 5 5 5 5 3 5 5 5 5 5 5 5 5 5 5 5 5 5 5 3 5 3 5 5 3 5 3 5 5 5 5 5 3 5 3 5 5 5 5 5 5 5 3 5 5 5 5 5 5 5 5 5 5 5 5 5 5 5 5 5 5 5 5 5 5 5 5 5 5 3 5 5 5 5 5 3 5 5 5 5 5 5 5 5 5 5 5 5 5 5 5 5 3 5 5 5 5 5 5 5 5 5 3 5 5 5 5 5 5 3 3 5 5 5 5 5 5 5 5 5 5 5 5 5 3 5 5 5 5 3 5 3 5 5 5 3 5 5 5 5 5 5 5 5 5 5 5 5 3 3 5 5 5 5 3 5 5 5 3 5 5 5 5 5 5 5 5 5 5 5 3 5 5 5 5 3 5 3 3 5 3 5 5 5 5 5 5 5 5 5 5 5 5 5 5 5 5 5 5 5 5 5 5 5 5 5 5 5 3 5 5 5 5 5 5 5 5 5 3 5 5 3 5 5 5 3 5 5 5 5 5 5 5 3 5 5 5 5 5 5 5 3 5 3 5 5 5 5 5 5 5 5 5 5 5 5 5 5 5 3 5 5 5 3 5 5 5 3 5 3 5 5 5 5 3 5 5 5 5 5 5 5 5 5 5 5 5 5 5 3 5 3 5 5 5 5 3 3 5 5 5 5 5 5 5 5 5 3 5 5 5 5 5 5 5 5 5 5 5 5 5 3 5 5 5 3 5 5 5 5 5 5 3 5 5 5 5 5 3 5 5 3 5 5 5 5 3 5 5 5 5 5 5 5 3 5 5 5 3 5 5 5 5 5 5 5 5 5 5 5 5 3 5 5 5 5 5 5 5 5 5 5 5 5 5 5 5 5 5 5 5 5 5 5 5 5 5 5 5 5 5 5 5 5 5 5 5 5 5 5 5 5 5 5 5 5 5 5 5 5 5 5 5 5 5 3 5 5 5 5 3 5 5 5 5 5 5 5 5 5 5 5 5 5 5 5 5 5 5 5 5 5 5 5 5 5 5 5 5 5 5 5 5 5 5 5 3 5 5 5 5 3 5 5 5 5 5 5 5 5 5 5 3 5 5 5 3 5 5 5 5 5 5 5 3 5 5 5 5 3 5 5 5 5 3 5 5 5 5 5 5 5 5 5 5 5 5 5 5 3 5 3 5 3 5 3 5 5 5 5 5 5 3 5 5 5 5 5 5 5 3 5 5 5 5 5 5 5 5 5 3 5 3 5 5 5 5 5 3 5 5 3 3 5 5 3 5 3 3 5 3 5 5 5 5 5 5 5 5 5 5 5 5 5 3 5 5 5 5 5 3 5 5 5 5 5 5 5 3 5 5 5 3 5 5 3 5 3 5 5 5 5 5 5 5 3 5 5 5 5 5 5 5 5 5 5 5 5 5 5 5 5 5 3 5 5 5 5 5 5 5 5 5 5 5 5 5 5 5 5 5 5 5 5 5 5 5 5 3 5 3 5 5 5 5 3 5 5 3 5 5 3 5 5 5 3 5 5 5 5 5 5 5 3 3 5 5 5 3 5 5 5 3 5 5 5 3 5 5 3 3 5 5 5 5 5 3 5 5 5 5 3 5 5 5 5 5 5 5 5 5 5 5 5 5 5 5 5 5 5 5 5 5 5 5 5 5 5 5 5 5 5 5 5 5 5 5 5 5 5 5 
</DataArray>
</Cells>
<PointData Scalars="" Vectors="displacement," Tensors="">
<DataArray type="Float64" Name="displacement" NumberOfComponents="3" format="ascii">
-0.034998580510503641 -0.034197678288660285 0 -0.035000318045211823 -0.034997101312128097 0 -0.033781205381379228 -0.035233556685486105 0 -0.035000318045211823 -0.034997101312128097 0 -0.033781205381379228 -0.035233556685486105 0 -0.031173955772930365 -0.034999658248948289 0 -0.033676305800011651 -0.036134486998326588 0 -0.033178538281359062 -0.036120112574303503 0 -0.03259480106949382 -0.036794088561641285 0 -0.033795941984795221 -0.035197707952108408 0 -0.03274756687882107 -0.03649460636560245 0 -0.033781205381379228 -0.035233556685486105 0 -0.033676305800011651 -0.036134486998326588 0 -0.033178538281359062 -0.036120112574303503 0 -0.034998580510503641 -0.034197678288660285 0 -0.033781205381379228 -0.035233556685486105 0 -0.033676305800011651 -0.036134486998326588 0 -0.034999440435885085 -0.034192747159005096 0 -0.035294256341909191 -0.034468656361286092 0 -0.035000009952376822 -0.034192137875242203 0 -0.036352786055806767 -0.033150475701809866 0 -0.034999954741358322 -0.033068177990331744 0 -0.034999954741358322 -0.033068177990331744 0 -0.034999991155101655 -0.031944562796488364 0 -0.036030313213236791 -0.032134367635151921 0 -0.036352786055806767 -0.033150475701809866 0 -0.034999954741358322 -0.033068177990331744 0 -0.036030313213236791 -0.032134367635151921 0 -0.036352786055806767 -0.033150475701809866 0 -0.036885007930525099 -0.032218297604501539 0 -0.036030313213236791 -0.032134367635151921 0 -0.036352786055806767 -0.033150475701809866 0 -0.036885007930525099 -0.032218297604501539 0 -0.037618967494710852 -0.032220579909587141 0 -0.036885007930525099 -0.032218297604501539 0 -0.036030313213236791 -0.032134367635151921 0 -0.036744230481575407 -0.031432640882551696 0 -0.035771705410385247 -0.031652261681323193 0 -0.034684583633996582 -0.030845932027430471 0 -0.035869604771735772 -0.030620823334527543 0 -0.036030313213236791 -0.032134367635151921 0 -0.036744230481575407 -0.031432640882551696 0 -0.035793877831197328 -0.030698704941538164 0 -0.036449164972394761 -0.031579572809034777 0 -0.035556650372420694 -0.030584904470709676 0 -0.035000336582852849 -0.03194394543455472 0 -0.035556650372420694 -0.030584904470709676 0 -0.034999997450946438 -0.031944304690808167 0 -0.034999995567363253 -0.0298662055207429 0 -0.035863044284183326 -0.030514909698760615 0 -0.034999991155101655 -0.031944562796488364 0 -0.036030313213236791 -0.032134367635151921 0 -0.035793877831197328 -0.030698704941538164 0 -0.030506111692735548 -0.036237824546615324 0 -0.030625335441391933 -0.036220269875353026 0 -0.03046211948210328 -0.036249067484965695 0 -0.036753965964851781 -0.031115291052700739 0 -0.036729006506254325 -0.032473288754999441 0 -0.03796425921942001 -0.030939900209067072 0 -0.033433134849051527 -0.035030278806542275 0 -0.034405103622565304 -0.033471177636086119 0 -0.035771705410385247 -0.031652261681323193 0 -0.036753965964851781 -0.031115291052700739 0 -0.036729006506254325 -0.032473288754999441 0 -0.035771705410385247 -0.031652261681323193 0 -0.036753965964851781 -0.031115291052700739 0 -0.035869604771735772 -0.030620823334527543 0 -0.035294256341909191 -0.034468656361286092 0 -0.033433134849051527 -0.035030278806542275 0 -0.036449164972394761 -0.031579572809034777 0 -0.033433134849051527 -0.035030278806542275 0 -0.036885007930525099 -0.032218297604501539 0 -0.036744230481575407 -0.031432640882551696 0 -0.037618967494710852 -0.032220579909587141 0 -0.03274756687882107 -0.03649460636560245 0 -0.033433134849051527 -0.035030278806542275 0 -0.032792483636201929 -0.036240360197218255 0 -0.031958262775045425 -0.037278727924618005 0 -0.031667875861861712 -0.036311371515891457 0 -0.033433134849051527 -0.035030278806542275 0 -0.030295463200894133 -0.036382933976696993 0 -0.031958262775045425 -0.037278727924618005 0 -0.03066488127913938 -0.036311195738371986 0 -0.031667875861861712 -0.036311371515891457 0 -0.030478796730751309 -0.036243391409609443 0 -0.030535794389577108 -0.03625221160007501 0 -0.03066488127913938 -0.036311195738371986 0 -0.030506111692735548 -0.036237824546615324 0 -0.030478796730751309 -0.036243391409609443 0 -0.030535794389577108 -0.03625221160007501 0 -0.029651807777949322 -0.036826149448464587 0 -0.033433134849051527 -0.035030278806542275 0 -0.030506111692735548 -0.036237824546615324 0 -0.030535794389577108 -0.03625221160007501 0 -0.030252229699225627 -0.036236146067607104 0 -0.030535794389577108 -0.03625221160007501 0 -0.03066488127913938 -0.036311195738371986 0 -0.030252229699225627 -0.036236146067607104 0 -0.03066488127913938 -0.036311195738371986 0 -0.031173955772930365 -0.034999658248948289 0 -0.030053276230396823 -0.035925085263657758 0 -0.03066488127913938 -0.036311195738371986 0 -0.031667875861861712 -0.036311371515891457 0 -0.031173955772930365 -0.034999658248948289 0 -0.033781205381379228 -0.035233556685486105 0 -0.032792483636201929 -0.036240360197218255 0 -0.031173955772930365 -0.034999658248948289 0 -0.032792483636201929 -0.036240360197218255 0 -0.031667875861861712 -0.036311371515891457 0 -0.031173955772930365 -0.034999658248948289 0 -0.031173955772930365 -0.034999658248948289 0 -0.028978538290040663 -0.035440755717741287 0 -0.026211580175192328 -0.034999976609867568 0 -0.031173955772930365 -0.034999658248948289 0 -0.028978538290040663 -0.035440755717741287 0 -0.030053276230396823 -0.035925085263657758 0 -0.028978538290040663 -0.035440755717741287 0 -0.029557084640629634 -0.035947908385565254 0 -0.030053276230396823 -0.035925085263657758 0 -0.028978538290040663 -0.035440755717741287 0 -0.029557084640629634 -0.035947908385565254 0 -0.029170593585696503 -0.035680923820445368 0 -0.03066488127913938 -0.036311195738371986 0 -0.030053276230396823 -0.035925085263657758 0 -0.030252229699225627 -0.036236146067607104 0 -0.029557084640629634 -0.035947908385565254 0 -0.030053276230396823 -0.035925085263657758 0 -0.030252229699225627 -0.036236146067607104 0 -0.028978538290040663 -0.035440755717741287 0 -0.027165210408234327 -0.035728353975729724 0 -0.026211580175192328 -0.034999976609867568 0 -0.028383181679201171 -0.035646175071670026 0 -0.025868655620955212 -0.0355627613505545 0 -0.02883446016240573 -0.035475622264400215 0 -0.028383181679201171 -0.035646175071670026 0 -0.028978538290040663 -0.035440755717741287 0 -0.029087798723829921 -0.035588765089560603 0 -0.029170593585696503 -0.035680923820445368 0 -0.029557084640629634 -0.035947908385565254 0 -0.029266506309139462 -0.035888661903141147 0 -0.029170593585696503 -0.035680923820445368 0 -0.029266506309139462 -0.035888661903141147 0 -0.029170593585696503 -0.035680923820445368 0 -0.029030507912190244 -0.035754157826098538 0 -0.029087798723829921 -0.035588765089560603 0 -0.029030507912190244 -0.035754157826098538 0 -0.028660296515546954 -0.035569630138808657 0 -0.029087798723829921 -0.035588765089560603 0 -0.029170593585696503 -0.035680923820445368 0 -0.029030507912190244 -0.035754157826098538 0 -0.02906641180930283 -0.036011463894891294 0 -0.028808424928027123 -0.036047787027633969 0 -0.028838654380653393 -0.036249378366664219 0 -0.02906641180930283 -0.036011463894891294 0 -0.028826974567651199 -0.035879262688130048 0 -0.028808424928027123 -0.036047787027633969 0 -0.029030507912190244 -0.035754157826098538 0 -0.02906641180930283 -0.036011463894891294 0 -0.028826974567651199 -0.035879262688130048 0 -0.029266506309139462 -0.035888661903141147 0 -0.029030507912190244 -0.035754157826098538 0 -0.02906641180930283 -0.036011463894891294 0 -0.02906641180930283 -0.036011463894891294 0 -0.029355134725546111 -0.036128074602006004 0 -0.029202166498482181 -0.036242318284564118 0 -0.029557084640629634 -0.035947908385565254 0 -0.029266506309139462 -0.035888661903141147 0 -0.029561478400922648 -0.036099371310786957 0 -0.029266506309139462 -0.035888661903141147 0 -0.02906641180930283 -0.036011463894891294 0 -0.029355134725546111 -0.036128074602006004 0 -0.029266506309139462 -0.035888661903141147 0 -0.029355134725546111 -0.036128074602006004 0 -0.029561478400922648 -0.036099371310786957 0 -0.029355134725546111 -0.036128074602006004 0 -0.029561478400922648 -0.036099371310786957 0 -0.029572058785717271 -0.036219570834716719 0 -0.029561478400922648 -0.036099371310786957 0 -0.029572058785717271 -0.036219570834716719 0 -0.029819250211373605 -0.03624958430674266 0 -0.029572058785717271 -0.036219570834716719 0 -0.02968311946419026 -0.036332181929769759 0 -0.029459964570281352 -0.036296250269322643 0 -0.029572058785717271 -0.036219570834716719 0 -0.02968311946419026 -0.036332181929769759 0 -0.029819250211373605 -0.03624958430674266 0 -0.029459964570281352 -0.036296250269322643 0 -0.029343140893249204 -0.036369582195189244 0 -0.029493008297645097 -0.036386516725844559 0 -0.02968311946419026 -0.036332181929769759 0 -0.029459964570281352 -0.036296250269322643 0 -0.029493008297645097 -0.036386516725844559 0 -0.029355134725546111 -0.036128074602006004 0 -0.029572058785717271 -0.036219570834716719 0 -0.029459964570281352 -0.036296250269322643 0 -0.029355134725546111 -0.036128074602006004 0 -0.029459964570281352 -0.036296250269322643 0 -0.029202166498482181 -0.036242318284564118 0 -0.027412075952775811 -0.036250888939080315 0 -0.024640498404901554 -0.03584816089232408 0 -0.022252939823806432 -0.036499711353649981 0 -0.021419622831699965 -0.036945315486197103 0 -0.020640669908137281 -0.035563899388421367 0 -0.029202166498482181 -0.036242318284564118 0 -0.02924126384918975 -0.036484166912911439 0 -0.028838654380653393 -0.036249378366664219 0 -0.028521136081642525 -0.036464810543275807 0 -0.027412075952775811 -0.036250888939080315 0 -0.029459964570281352 -0.036296250269322643 0 -0.029202166498482181 -0.036242318284564118 0 -0.029343140893249204 -0.036369582195189244 0 -0.02906641180930283 -0.036011463894891294 0 -0.029202166498482181 -0.036242318284564118 0 -0.028838654380653393 -0.036249378366664219 0 -0.030252229699225627 -0.036236146067607104 0 -0.029872265151228258 -0.036181378517322282 0 -0.030185255838079034 -0.036267923989999985 0 -0.029557084640629634 -0.035947908385565254 0 -0.030252229699225627 -0.036236146067607104 0 -0.029872265151228258 -0.036181378517322282 0 -0.029557084640629634 -0.035947908385565254 0 -0.029561478400922648 -0.036099371310786957 0 -0.029872265151228258 -0.036181378517322282 0 -0.029561478400922648 -0.036099371310786957 0 -0.029872265151228258 -0.036181378517322282 0 -0.029819250211373605 -0.03624958430674266 0 -0.029872265151228258 -0.036181378517322282 0 -0.029819250211373605 -0.03624958430674266 0 -0.030185255838079034 -0.036267923989999985 0 -0.02968311946419026 -0.036332181929769759 0 -0.029819250211373605 -0.03624958430674266 0 -0.029972466420425319 -0.036339408406108178 0 -0.029819250211373605 -0.03624958430674266 0 -0.030185255838079034 -0.036267923989999985 0 -0.029972466420425319 -0.036339408406108178 0 -0.030185255838079034 -0.036267923989999985 0 -0.030217159015302256 -0.036332372369709001 0 -0.029972466420425319 -0.036339408406108178 0 -0.030506111692735548 -0.036237824546615324 0 -0.030252229699225627 -0.036236146067607104 0 -0.030185255838079034 -0.036267923989999985 0 -0.030506111692735548 -0.036237824546615324 0 -0.030185255838079034 -0.036267923989999985 0 -0.03046211948210328 -0.036249067484965695 0 -0.030185255838079034 -0.036267923989999985 0 -0.030217159015302256 -0.036332372369709001 0 -0.03046211948210328 -0.036249067484965695 0 -0.030217159015302256 -0.036332372369709001 0 -0.030256578706210402 -0.036451812514293878 0 -0.03046211948210328 -0.036249067484965695 0 -0.0392548437931498 -0.029327166443447218 0 -0.03796425921942001 -0.030939900209067072 0 -0.038068301668427083 -0.029782248825632254 0 -0.033983888146674399 -0.032611534020113138 0 -0.034405103622565304 -0.033471177636086119 0 -0.030217159015302256 -0.036332372369709001 0 -0.029972466420425319 -0.036339408406108178 0 -0.03002516942404666 -0.036426079180862936 0 -0.030217159015302256 -0.036332372369709001 0 -0.03002516942404666 -0.036426079180862936 0 -0.030256578706210402 -0.036451812514293878 0 -0.02968311946419026 -0.036332181929769759 0 -0.029972466420425319 -0.036339408406108178 0 -0.029765216071083879 -0.036431006389054221 0 -0.029972466420425319 -0.036339408406108178 0 -0.03002516942404666 -0.036426079180862936 0 -0.029765216071083879 -0.036431006389054221 0 -0.03002516942404666 -0.036426079180862936 0 -0.029765216071083879 -0.036431006389054221 0 -0.029850428501546705 -0.036579516643836754 0 -0.033983888146674399 -0.032611534020113138 0 -0.030456094776197075 -0.034484959523922068 0 -0.03002516942404666 -0.036426079180862936 0 -0.030256578706210402 -0.036451812514293878 0 -0.029850428501546705 -0.036579516643836754 0 -0.033751317363179406 -0.033446163925954842 0 -0.032960122171053881 -0.03444409184872433 0 -0.030936554250401638 -0.032454214376516688 0 -0.039679993359849744 -0.028801820369013059 0 -0.03916369652385799 -0.029261736028006941 0 -0.039144896952560591 -0.028445950042602277 0 -0.03930008479093431 -0.029312610798277836 0 -0.039679993359849744 -0.028801820369013059 0 -0.03916369652385799 -0.029261736028006941 0 -0.033983888146674399 -0.032611534020113138 0 -0.034370110015122961 -0.032618166967673674 0 -0.033983888146674399 -0.032611534020113138 0 -0.034859681243946103 -0.030345014715934881 0 -0.03916369652385799 -0.029261736028006941 0 -0.038870763611529628 -0.02885151333852734 0 -0.038510645920502004 -0.029144162071409949 0 -0.03916369652385799 -0.029261736028006941 0 -0.038870763611529628 -0.02885151333852734 0 -0.039144896952560591 -0.028445950042602277 0 -0.0392548437931498 -0.029327166443447218 0 -0.03916369652385799 -0.029261736028006941 0 -0.038068301668427083 -0.029782248825632254 0 -0.03916369652385799 -0.029261736028006941 0 -0.038510645920502004 -0.029144162071409949 0 -0.038068301668427083 -0.029782248825632254 0 -0.038510645920502004 -0.029144162071409949 0 -0.038068301668427083 -0.029782248825632254 0 -0.03806356594266521 -0.028885390876553091 0 -0.038870763611529628 -0.02885151333852734 0 -0.038419798769432724 -0.028736342277123721 0 -0.038510645920502004 -0.029144162071409949 0 -0.038419798769432724 -0.028736342277123721 0 -0.038510645920502004 -0.029144162071409949 0 -0.03806356594266521 -0.028885390876553091 0 -0.022972020166560244 -0.033125122356067689 0 -0.023018624706234097 -0.033407391975726744 0 -0.022729758061602191 -0.033060522467332591 0 -0.023233664879894873 -0.034752842670231564 0 -0.019608831664273785 -0.034628341869754255 0 -0.023233664879894873 -0.034752842670231564 0 -0.019824509439708596 -0.03543514078265738 0 -0.022472430190802431 -0.035533215195756696 0 -0.020465972576759826 -0.034821485703161667 0 -0.020046126731246384 -0.034171055611045005 0 -0.021419622831699965 -0.036945315486197103 0 -0.021845575149051714 -0.037783160507092295 0 -0.020463363107494009 -0.037013400240151539 0 -0.027412075952775811 -0.036250888939080315 0 -0.02681008291461429 -0.035179838575006561 0 -0.022252939823806432 -0.036499711353649981 0 -0.021419622831699965 -0.036945315486197103 0 -0.021845575149051714 -0.037783160507092295 0 -0.022252939823806432 -0.036499711353649981 0 -0.021845575149051714 -0.037783160507092295 0 -0.022593213636141529 -0.038041808044365598 0 -0.023233664879894873 -0.034752842670231564 0 -0.026644332856657647 -0.033222414391165647 0 -0.023854022628642006 -0.033757376331838743 0 -0.026605534863240975 -0.034744682761617157 0 -0.026738769998816053 -0.035392925415916293 0 -0.023233664879894873 -0.034752842670231564 0 -0.02681008291461429 -0.035179838575006561 0 -0.029491957898596138 -0.036546933397321679 0 -0.029493008297645097 -0.036386516725844559 0 -0.029765216071083879 -0.036431006389054221 0 -0.02681008291461429 -0.035179838575006561 0 -0.026644332856657647 -0.033222414391165647 0 -0.029406946403668612 -0.036339106730397669 0 -0.029491957898596138 -0.036546933397321679 0 -0.029493008297645097 -0.036386516725844559 0 -0.027412075952775811 -0.036250888939080315 0 -0.028720141774254113 -0.036720151355440843 0 -0.02968311946419026 -0.036332181929769759 0 -0.029493008297645097 -0.036386516725844559 0 -0.029765216071083879 -0.036431006389054221 0 -0.029491957898596138 -0.036546933397321679 0 -0.029765216071083879 -0.036431006389054221 0 -0.029850428501546705 -0.036579516643836754 0 -0.032960122171053881 -0.03444409184872433 0 -0.030936554250401638 -0.032454214376516688 0 -0.028183906806777612 -0.031785437398622281 0 -0.034859681243946103 -0.030345014715934881 0 -0.026644332856657647 -0.033222414391165647 0 -0.031015219523018136 -0.031053250283769256 0 -0.03004219085706256 -0.031098936875134122 0 -0.029893910169372484 -0.030461279533519143 0 -0.02681008291461429 -0.035179838575006561 0 -0.030456094776197075 -0.034484959523922068 0 -0.023194656016058222 -0.033464339451866956 0 -0.023132708885934824 -0.033205099153035378 0 -0.023018624706234097 -0.033407391975726744 0 -0.026572746154659665 -0.032225199004520151 0 -0.026644332856657647 -0.033222414391165647 0 -0.028117087667082482 -0.031467533948141051 0 -0.030936554250401638 -0.032454214376516688 0 -0.028183906806777612 -0.031785437398622281 0 -0.017112483440052343 -0.035106132026572243 0 -0.017439058220085221 -0.035497157680869307 0 -0.017452028510164291 -0.035199256464662411 0 -0.019565556354142439 -0.03429557128404908 0 -0.019608831664273785 -0.034628341869754255 0 -0.022972020166560244 -0.033125122356067689 0 -0.023132708885934824 -0.033205099153035378 0 -0.023018624706234097 -0.033407391975726744 0 -0.017112483440052343 -0.035106132026572243 0 -0.017243342975046681 -0.034909279150423501 0 -0.017452028510164291 -0.035199256464662411 0 -0.017112483440052343 -0.035106132026572243 0 -0.017243342975046681 -0.034909279150423501 0 -0.017094422849138039 -0.034805545050817545 0 -0.017112483440052343 -0.035106132026572243 0 -0.017094422849138039 -0.034805545050817545 0 -0.016920607229934541 -0.034734958465946687 0 -0.017243342975046681 -0.034909279150423501 0 -0.017094422849138039 -0.034805545050817545 0 -0.017093965554356192 -0.034663479626535987 0 -0.019565556354142439 -0.03429557128404908 0 -0.025766750652541932 -0.031929445789563658 0 -0.023194656016058222 -0.033464339451866956 0 -0.023018624706234097 -0.033407391975726744 0 -0.023280868046557872 -0.033686700736467491 0 -0.031015219523018136 -0.031053250283769256 0 -0.03004219085706256 -0.031098936875134122 0 -0.030183231894623127 -0.031733597637525493 0 -0.031015219523018136 -0.031053250283769256 0 -0.030183231894623127 -0.031733597637525493 0 -0.03030392049711552 -0.031912932263265005 0 -0.017094422849138039 -0.034805545050817545 0 -0.016920607229934541 -0.034734958465946687 0 -0.01700526529609557 -0.034678585624520787 0 -0.026572746154659665 -0.032225199004520151 0 -0.025766750652541932 -0.031929445789563658 0 -0.025621752504685364 -0.031686007743911948 0 -0.015898216220240919 -0.03505868192729255 0 -0.016924294839626285 -0.034649304061936781 0 -0.017026637170843708 -0.034595062490270868 0 -0.016999420932801317 -0.034484206094659041 0 -0.025766750652541932 -0.031929445789563658 0 -0.025621752504685364 -0.031686007743911948 0 -0.027527792314059045 -0.032542228217186157 0 -0.025258336361242476 -0.028949666730845022 0 -0.026490702707351148 -0.027397598803791858 0 -0.025766750652541932 -0.031929445789563658 0 -0.031732365138833672 -0.029243429470634019 0 -0.031732365138833672 -0.029243429470634019 0 -0.025621752504685364 -0.031686007743911948 0 -0.031732365138833672 -0.029243429470634019 0 -0.040188502940497743 -0.026474804540782607 0 -0.040195657004089419 -0.026874757461228114 0 -0.040289943405617534 -0.0267619201718916 0 -0.039802276312949428 -0.025961648314655209 0 -0.016924294839626285 -0.034649304061936781 0 -0.01700526529609557 -0.034678585624520787 0 -0.017026637170843708 -0.034595062490270868 0 -0.016920607229934541 -0.034734958465946687 0 -0.016924294839626285 -0.034649304061936781 0 -0.01700526529609557 -0.034678585624520787 0 -0.017094422849138039 -0.034805545050817545 0 -0.01700526529609557 -0.034678585624520787 0 -0.017093965554356192 -0.034663479626535987 0 -0.01700526529609557 -0.034678585624520787 0 -0.017026637170843708 -0.034595062490270868 0 -0.017093965554356192 -0.034663479626535987 0 -0.017026637170843708 -0.034595062490270868 0 -0.017093965554356192 -0.034663479626535987 0 -0.01708654531119921 -0.034507277303925998 0 -0.038907557457938745 -0.027810544448723946 0 -0.039460499020429189 -0.027630827066462898 0 -0.03885989849828024 -0.027123276538368164 0 -0.038907557457938745 -0.027810544448723946 0 -0.039144896952560591 -0.028445950042602277 0 -0.039460499020429189 -0.027630827066462898 0 -0.038907557457938745 -0.027810544448723946 0 -0.038386079816981541 -0.02766431125860376 0 -0.038713885880372521 -0.028378686213303334 0 -0.038907557457938745 -0.027810544448723946 0 -0.038386079816981541 -0.02766431125860376 0 -0.03885989849828024 -0.027123276538368164 0 -0.038386079816981541 -0.02766431125860376 0 -0.038247817515700069 -0.028319055827520864 0 -0.038713885880372521 -0.028378686213303334 0 -0.038419798769432724 -0.028736342277123721 0 -0.038247817515700069 -0.028319055827520864 0 -0.038713885880372521 -0.028378686213303334 0 -0.038419798769432724 -0.028736342277123721 0 -0.038247817515700069 -0.028319055827520864 0 -0.03806356594266521 -0.028885390876553091 0 -0.038870763611529628 -0.02885151333852734 0 -0.038419798769432724 -0.028736342277123721 0 -0.038713885880372521 -0.028378686213303334 0 -0.038907557457938745 -0.027810544448723946 0 -0.038713885880372521 -0.028378686213303334 0 -0.039144896952560591 -0.028445950042602277 0 -0.038870763611529628 -0.02885151333852734 0 -0.038713885880372521 -0.028378686213303334 0 -0.039144896952560591 -0.028445950042602277 0 -0.039679993359849744 -0.028801820369013059 0 -0.039144896952560591 -0.028445950042602277 0 -0.039460499020429189 -0.027630827066462898 0 -0.034859681243946103 -0.030345014715934881 0 -0.031732365138833672 -0.029243429470634019 0 -0.039679993359849744 -0.028801820369013059 0 -0.040856672359473795 -0.027193293742143052 0 -0.040031483658725844 -0.02716983673692866 0 -0.039679993359849744 -0.028801820369013059 0 -0.039460499020429189 -0.027630827066462898 0 -0.040031483658725844 -0.02716983673692866 0 -0.039460499020429189 -0.027630827066462898 0 -0.040031483658725844 -0.02716983673692866 0 -0.039452390744906328 -0.026659964587547356 0 -0.040856672359473795 -0.027193293742143052 0 -0.040031483658725844 -0.02716983673692866 0 -0.040180029127008195 -0.026095242975135265 0 -0.040031483658725844 -0.02716983673692866 0 -0.039452390744906328 -0.026659964587547356 0 -0.040180029127008195 -0.026095242975135265 0 -0.039452390744906328 -0.026659964587547356 0 -0.03885989849828024 -0.027123276538368164 0 -0.038739375756403613 -0.026212447661302925 0 -0.039460499020429189 -0.027630827066462898 0 -0.039452390744906328 -0.026659964587547356 0 -0.03885989849828024 -0.027123276538368164 0 -0.038386079816981541 -0.02766431125860376 0 -0.03885989849828024 -0.027123276538368164 0 -0.038234437464828526 -0.026792024593636429 0 -0.038234437464828526 -0.026792024593636429 0 -0.038121632814017564 -0.026114085599958582 0 -0.038739375756403613 -0.026212447661302925 0 -0.03885989849828024 -0.027123276538368164 0 -0.038234437464828526 -0.026792024593636429 0 -0.038739375756403613 -0.026212447661302925 0 -0.038234437464828526 -0.026792024593636429 0 -0.037547674725106811 -0.026707521980617429 0 -0.038121632814017564 -0.026114085599958582 0 -0.037547674725106811 -0.026707521980617429 0 -0.036859131828883306 -0.026447590578201081 0 -0.037566787249643692 -0.025594569549978272 0 -0.037547674725106811 -0.026707521980617429 0 -0.037899018126137947 -0.027321514646230199 0 -0.037477718613668783 -0.027489458826341118 0 -0.037547674725106811 -0.026707521980617429 0 -0.037477718613668783 -0.027489458826341118 0 -0.037021956882118422 -0.027164680233473064 0 -0.038386079816981541 -0.02766431125860376 0 -0.038234437464828526 -0.026792024593636429 0 -0.037899018126137947 -0.027321514646230199 0 -0.038234437464828526 -0.026792024593636429 0 -0.037547674725106811 -0.026707521980617429 0 -0.037899018126137947 -0.027321514646230199 0 -0.038386079816981541 -0.02766431125860376 0 -0.037899018126137947 -0.027321514646230199 0 -0.037798659529234897 -0.028088682064535835 0 -0.038386079816981541 -0.02766431125860376 0 -0.038247817515700069 -0.028319055827520864 0 -0.037798659529234897 -0.028088682064535835 0 -0.037899018126137947 -0.027321514646230199 0 -0.037477718613668783 -0.027489458826341118 0 -0.037798659529234897 -0.028088682064535835 0 -0.037477718613668783 -0.027489458826341118 0 -0.037798659529234897 -0.028088682064535835 0 -0.037106762273413633 -0.028203644403023583 0 -0.037798659529234897 -0.028088682064535835 0 -0.037106762273413633 -0.028203644403023583 0 -0.037405822883532343 -0.028999689568396176 0 -0.038247817515700069 -0.028319055827520864 0 -0.037798659529234897 -0.028088682064535835 0 -0.03806356594266521 -0.028885390876553091 0 -0.036602341164555983 -0.028093577468085853 0 -0.037106762273413633 -0.028203644403023583 0 -0.036729702637877726 -0.028936252243162222 0 -0.037477718613668783 -0.027489458826341118 0 -0.037106762273413633 -0.028203644403023583 0 -0.037021956882118422 -0.027164680233473064 0 -0.037106762273413633 -0.028203644403023583 0 -0.037021956882118422 -0.027164680233473064 0 -0.036210125110647383 -0.026921452189323507 0 -0.037081800875525206 -0.028075215261887155 0 -0.036404227739531995 -0.027143720322729055 0 -0.036602341164555983 -0.028093577468085853 0 -0.037106762273413633 -0.028203644403023583 0 -0.036559482815888278 -0.027337615385398882 0 -0.037021956882118422 -0.027164680233473064 0 -0.036859131828883306 -0.026447590578201081 0 -0.036210125110647383 -0.026921452189323507 0 -0.036859131828883306 -0.026447590578201081 0 -0.036210125110647383 -0.026921452189323507 0 -0.036518107448041223 -0.025696670403727633 0 -0.037547674725106811 -0.026707521980617429 0 -0.037021956882118422 -0.027164680233473064 0 -0.036859131828883306 -0.026447590578201081 0 -0.036210125110647383 -0.026921452189323507 0 -0.03553594507399057 -0.025855961097725491 0 -0.036518107448041223 -0.025696670403727633 0 -0.035982176414228441 -0.027119566093505597 0 -0.036559482815888278 -0.027337615385398882 0 -0.035912186261743848 -0.026246776549543605 0 -0.036404227739531995 -0.027143720322729055 0 -0.035705916493070547 -0.02606382940042971 0 -0.035982176414228441 -0.027119566093505597 0 -0.036559482815888278 -0.027337615385398882 0 -0.035919667488569444 -0.027974765790755439 0 -0.035982176414228441 -0.027119566093505597 0 -0.034999856906359865 -0.026713829828117562 0 -0.035919667488569444 -0.027974765790755439 0 -0.035982176414228441 -0.027119566093505597 0 -0.034999856906359865 -0.026713829828117562 0 -0.035912186261743848 -0.026246776549543605 0 -0.034999856906359865 -0.026713829828117562 0 -0.034999896850857498 -0.028289965772364964 0 -0.035919667488569444 -0.027974765790755439 0 -0.036602341164555983 -0.028093577468085853 0 -0.035919667488569444 -0.027974765790755439 0 -0.036323994665119458 -0.029125541685490704 0 -0.036602341164555983 -0.028093577468085853 0 -0.036559482815888278 -0.027337615385398882 0 -0.035919667488569444 -0.027974765790755439 0 -0.035919667488569444 -0.027974765790755439 0 -0.036323994665119458 -0.029125541685490704 0 -0.035563509791217959 -0.029065215193807795 0 -0.036540511570135242 -0.02821768164787607 0 -0.035872977275127629 -0.029345480663753282 0 -0.034999896850857498 -0.028289965772364964 0 -0.035563509791217959 -0.029065215193807795 0 -0.034999864321987241 -0.029865693530647365 0 -0.034999896850857498 -0.028289965772364964 0 -0.035919667488569444 -0.027974765790755439 0 -0.035563509791217959 -0.029065215193807795 0 -0.036323994665119458 -0.029125541685490704 0 -0.035563509791217959 -0.029065215193807795 0 -0.035741920419938671 -0.030352304352299835 0 -0.035563509791217959 -0.029065215193807795 0 -0.034999864321987241 -0.029865693530647365 0 -0.035741920419938671 -0.030352304352299835 0 -0.035000291104585482 -0.029866438341928092 0 -0.035556650372420694 -0.030584904470709676 0 -0.035484892583543613 -0.029514138714219106 0 -0.034684583633996582 -0.030845932027430471 0 -0.035869604771735772 -0.030620823334527543 0 -0.035872977275127629 -0.029345480663753282 0 -0.035556650372420694 -0.030584904470709676 0 -0.036753965964851781 -0.031115291052700739 0 -0.035869604771735772 -0.030620823334527543 0 -0.036892776787583813 -0.030004291500256443 0 -0.035484892583543613 -0.029514138714219106 0 -0.035869604771735772 -0.030620823334527543 0 -0.036892776787583813 -0.030004291500256443 0 -0.036753965964851781 -0.031115291052700739 0 -0.036892776787583813 -0.030004291500256443 0 -0.03796425921942001 -0.030939900209067072 0 -0.036892776787583813 -0.030004291500256443 0 -0.03796425921942001 -0.030939900209067072 0 -0.038068301668427083 -0.029782248825632254 0 -0.036892776787583813 -0.030004291500256443 0 -0.038068301668427083 -0.029782248825632254 0 -0.037405822883532343 -0.028999689568396176 0 -0.038068301668427083 -0.029782248825632254 0 -0.03806356594266521 -0.028885390876553091 0 -0.037405822883532343 -0.028999689568396176 0 -0.037798659529234897 -0.028088682064535835 0 -0.03806356594266521 -0.028885390876553091 0 -0.037405822883532343 -0.028999689568396176 0 -0.036602341164555983 -0.028093577468085853 0 -0.035484892583543613 -0.029514138714219106 0 -0.036729702637877726 -0.028936252243162222 0 -0.037106762273413633 -0.028203644403023583 0 -0.037405822883532343 -0.028999689568396176 0 -0.036729702637877726 -0.028936252243162222 0 -0.035484892583543613 -0.029514138714219106 0 -0.036892776787583813 -0.030004291500256443 0 -0.036729702637877726 -0.028936252243162222 0 -0.036892776787583813 -0.030004291500256443 0 -0.037405822883532343 -0.028999689568396176 0 -0.036729702637877726 -0.028936252243162222 0 -0.017954714840199178 -0.035680698058439798 0 -0.017517158399807366 -0.035878937643802837 0 -0.016966440818659865 -0.035862405608882507 0 -0.017954714840199178 -0.035680698058439798 0 -0.018167735566115801 -0.03569786776697069 0 -0.017517158399807366 -0.035878937643802837 0 -0.017954714840199178 -0.035680698058439798 0 -0.016810974958696288 -0.035613621233735272 0 -0.016966440818659865 -0.035862405608882507 0 -0.017954714840199178 -0.035680698058439798 0 -0.017850926952921831 -0.035429285784028361 0 -0.016810974958696288 -0.035613621233735272 0 -0.017850926952921831 -0.035429285784028361 0 -0.018616365084263436 -0.034999176221357328 0 -0.016800555484754072 -0.034999593686036966 0 -0.017850926952921831 -0.035429285784028361 0 -0.018616365084263436 -0.034999176221357328 0 -0.018771411204138142 -0.035483017615332166 0 -0.018616365084263436 -0.034999176221357328 0 -0.018771411204138142 -0.035483017615332166 0 -0.020426624154991829 -0.035000700421632683 0 -0.017954714840199178 -0.035680698058439798 0 -0.017850926952921831 -0.035429285784028361 0 -0.018771411204138142 -0.035483017615332166 0 -0.018771411204138142 -0.035483017615332166 0 -0.019381006165435317 -0.035316514295647181 0 -0.018829297357485692 -0.035425909260100329 0 -0.018771411204138142 -0.035483017615332166 0 -0.019381006165435317 -0.035316514295647181 0 -0.020426624154991829 -0.035000700421632683 0 -0.019381006165435317 -0.035316514295647181 0 -0.020426624154991829 -0.035000700421632683 0 -0.019024029720297462 -0.035511866707838867 0 -0.020431245086970598 -0.034999997543020814 0 -0.021679902040943649 -0.035782092314730882 0 -0.022151021860840215 -0.034999992999418923 0 -0.020430951365340858 -0.035000161030756517 0 -0.020330551526099812 -0.0355628794123303 0 -0.019381006165435317 -0.035316514295647181 0 -0.019024029720297462 -0.035511866707838867 0 -0.018836658361155018 -0.035398506487304394 0 -0.019381006165435317 -0.035316514295647181 0 -0.018836658361155018 -0.035398506487304394 0 -0.018829297357485692 -0.035425909260100329 0 -0.018836658361155018 -0.035398506487304394 0 -0.018829297357485692 -0.035425909260100329 0 -0.018452694453107873 -0.035325791924030632 0 -0.018829297357485692 -0.035425909260100329 0 -0.01858376047074892 -0.035590644826352075 0 -0.018452694453107873 -0.035325791924030632 0 -0.017954714840199178 -0.035680698058439798 0 -0.018771411204138142 -0.035483017615332166 0 -0.018829297357485692 -0.035425909260100329 0 -0.017954714840199178 -0.035680698058439798 0 -0.018829297357485692 -0.035425909260100329 0 -0.018167735566115801 -0.03569786776697069 0 -0.018829297357485692 -0.035425909260100329 0 -0.018167735566115801 -0.03569786776697069 0 -0.01858376047074892 -0.035590644826352075 0 -0.017938922508311691 -0.035317287303557113 0 -0.018106777240335676 -0.035368290889569894 0 -0.018452694453107873 -0.035325791924030632 0 -0.018106777240335676 -0.035368290889569894 0 -0.018175173790774459 -0.035358839167487707 0 -0.018452694453107873 -0.035325791924030632 0 -0.018106777240335676 -0.035368290889569894 0 -0.018125445633507688 -0.035439457313617403 0 -0.018175173790774459 -0.035358839167487707 0 -0.018175173790774459 -0.035358839167487707 0 -0.018213171909028162 -0.035256365252158119 0 -0.018178388073462677 -0.035521940690820833 0 -0.018125445633507688 -0.035439457313617403 0 -0.018175173790774459 -0.035358839167487707 0 -0.018178388073462677 -0.035521940690820833 0 -0.018175173790774459 -0.035358839167487707 0 -0.018213171909028162 -0.035256365252158119 0 -0.018452694453107873 -0.035325791924030632 0 -0.018213171909028162 -0.035256365252158119 0 -0.018452694453107873 -0.035325791924030632 0 -0.018469163177281107 -0.035500238294035334 0 -0.018213171909028162 -0.035256365252158119 0 -0.018469163177281107 -0.035500238294035334 0 -0.018142292558371916 -0.035361036540304445 0 -0.019034293287474326 -0.035985348306983911 0 -0.021084786622089763 -0.035718877443012921 0 -0.018238723269388437 -0.035462583993420858 0 -0.018413435480662155 -0.03535898878343894 0 -0.020330551526099812 -0.0355628794123303 0 -0.020727239355430641 -0.036050514916055876 0 -0.018836658361155018 -0.035398506487304394 0 -0.018452694453107873 -0.035325791924030632 0 -0.018469163177281107 -0.035500238294035334 0 -0.019024029720297462 -0.035511866707838867 0 -0.018836658361155018 -0.035398506487304394 0 -0.018469163177281107 -0.035500238294035334 0 -0.022151021860840215 -0.034999992999418923 0 -0.022800384459154222 -0.03570864206646255 0 -0.023870715445290208 -0.034999978885268956 0 -0.021679902040943649 -0.035782092314730882 0 -0.022928424550802323 -0.036523920414783799 0 -0.022800384459154222 -0.03570864206646255 0 -0.021679902040943649 -0.035782092314730882 0 -0.022151021860840215 -0.034999992999418923 0 -0.022800384459154222 -0.03570864206646255 0 -0.022800384459154222 -0.03570864206646255 0 -0.023870715445290208 -0.034999978885268956 0 -0.023372068143884164 -0.036202287584288839 0 -0.020727239355430641 -0.036050514916055876 0 -0.021084786622089763 -0.035718877443012921 0 -0.022928424550802323 -0.036523920414783799 0 -0.023372068143884164 -0.036202287584288839 0 -0.023990676713387279 -0.037147173235001607 0 -0.022928424550802323 -0.036523920414783799 0 -0.022800384459154222 -0.03570864206646255 0 -0.023372068143884164 -0.036202287584288839 0 -0.023879337332857138 -0.0347994612797069 0 -0.022890547050439157 -0.035911214950645143 0 -0.023541969839277355 -0.036321923118110354 0 -0.023372068143884164 -0.036202287584288839 0 -0.025003059222227349 -0.035970790285648514 0 -0.023990676713387279 -0.037147173235001607 0 -0.025868655620955212 -0.0355627613505545 0 -0.021084786622089763 -0.035718877443012921 0 -0.023155292728667697 -0.036314035484403422 0 -0.025868655620955212 -0.0355627613505545 0 -0.023870715445290208 -0.034999978885268956 0 -0.023372068143884164 -0.036202287584288839 0 -0.025393056320014318 -0.035944335732871979 0 -0.023870715445290208 -0.034999978885268956 0 -0.025590562106923107 -0.035000001901157068 0 -0.025393056320014318 -0.035944335732871979 0 -0.027165210408234327 -0.035728353975729724 0 -0.026211580175192328 -0.034999976609867568 0 -0.025382821114562925 -0.035970191737650245 0 -0.026210605751864412 -0.035000005220595043 0 -0.025590568425930875 -0.034999988894177714 0 -0.025399451786625865 -0.035938580613016392 0 -0.026210039044086635 -0.035000681822574556 0 -0.025868655620955212 -0.0355627613505545 0 -0.025590515638593696 -0.035000614462140672 0 -0.025868655620955212 -0.0355627613505545 0 -0.029030507912190244 -0.035754157826098538 0 -0.028660296515546954 -0.035569630138808657 0 -0.028826974567651199 -0.035879262688130048 0 -0.028660296515546954 -0.035569630138808657 0 -0.028826974567651199 -0.035879262688130048 0 -0.028513912706467304 -0.036052263882573328 0 -0.025868655620955212 -0.0355627613505545 0 -0.02289722150705439 -0.03571867513589122 0 -0.02289722150705439 -0.03571867513589122 0 -0.024640498404901554 -0.03584816089232408 0 -0.028808424928027123 -0.036047787027633969 0 -0.028513912706467304 -0.036052263882573328 0 -0.028838654380653393 -0.036249378366664219 0 -0.028826974567651199 -0.035879262688130048 0 -0.028808424928027123 -0.036047787027633969 0 -0.028513912706467304 -0.036052263882573328 0 -0.021084786622089763 -0.035718877443012921 0 -0.02289722150705439 -0.03571867513589122 0 -0.018380276336537913 -0.034904795868320307 0 -0.018475014325914415 -0.035199614205302696 0 -0.018917463158400566 -0.035082837678912925 0 -0.018213171909028162 -0.035256365252158119 0 -0.018380276336537913 -0.034904795868320307 0 -0.018475014325914415 -0.035199614205302696 0 -0.018213171909028162 -0.035256365252158119 0 -0.018475014325914415 -0.035199614205302696 0 -0.018178388073462677 -0.035521940690820833 0 -0.018475014325914415 -0.035199614205302696 0 -0.018917463158400566 -0.035082837678912925 0 -0.018957129011670619 -0.035327009151231416 0 -0.02289722150705439 -0.03571867513589122 0 -0.021380951816849944 -0.035646538970466914 0 -0.018035333041523136 -0.035776090136623036 0 -0.019824509439708596 -0.03543514078265738 0 -0.018957129011670619 -0.035327009151231416 0 -0.018178388073462677 -0.035521940690820833 0 -0.020463363107494009 -0.037013400240151539 0 -0.018178388073462677 -0.035521940690820833 0 -0.01807408211555997 -0.035498139071006074 0 -0.017955399055729598 -0.035479136220655488 0 -0.018475014325914415 -0.035199614205302696 0 -0.018957129011670619 -0.035327009151231416 0 -0.018178388073462677 -0.035521940690820833 0 -0.018125445633507688 -0.035439457313617403 0 -0.018178388073462677 -0.035521940690820833 0 -0.01807408211555997 -0.035498139071006074 0 -0.019109488623079558 -0.03464945322222418 0 -0.018957129011670619 -0.035327009151231416 0 -0.020640669908137281 -0.035563899388421367 0 -0.018957129011670619 -0.035327009151231416 0 -0.020640669908137281 -0.035563899388421367 0 -0.020463363107494009 -0.037013400240151539 0 -0.021419622831699965 -0.036945315486197103 0 -0.020640669908137281 -0.035563899388421367 0 -0.020463363107494009 -0.037013400240151539 0 -0.017315052411313644 -0.03561341610575796 0 -0.019608831664273785 -0.034628341869754255 0 -0.01807408211555997 -0.035498139071006074 0 -0.017945073563857491 -0.035460890420384854 0 -0.017955399055729598 -0.035479136220655488 0 -0.019608831664273785 -0.034628341869754255 0 -0.019824509439708596 -0.03543514078265738 0 -0.01807408211555997 -0.035498139071006074 0 -0.017439058220085221 -0.035497157680869307 0 -0.017802803070100452 -0.035312372366476802 0 -0.01807408211555997 -0.035498139071006074 0 -0.017802803070100452 -0.035312372366476802 0 -0.018042442291253361 -0.035393452845385059 0 -0.017802803070100452 -0.035312372366476802 0 -0.017950060340001406 -0.035285387442285321 0 -0.018042442291253361 -0.035393452845385059 0 -0.017802803070100452 -0.035312372366476802 0 -0.017655359982363006 -0.035009875881519013 0 -0.017950060340001406 -0.035285387442285321 0 -0.017439058220085221 -0.035497157680869307 0 -0.017802803070100452 -0.035312372366476802 0 -0.017452028510164291 -0.035199256464662411 0 -0.017802803070100452 -0.035312372366476802 0 -0.017452028510164291 -0.035199256464662411 0 -0.017655359982363006 -0.035009875881519013 0 -0.017234658661188611 -0.034900916681007296 0 -0.017414188692168046 -0.034647909769402969 0 -0.017243342975046681 -0.034909279150423501 0 -0.017452028510164291 -0.035199256464662411 0 -0.017655359982363006 -0.035009875881519013 0 -0.017243342975046681 -0.034909279150423501 0 -0.017608069646497616 -0.034687975411238262 0 -0.017655359982363006 -0.035009875881519013 0 -0.017243342975046681 -0.034909279150423501 0 -0.017093965554356192 -0.034663479626535987 0 -0.017237465854846909 -0.03458310207565455 0 -0.017093965554356192 -0.034663479626535987 0 -0.017237465854846909 -0.03458310207565455 0 -0.01708654531119921 -0.034507277303925998 0 -0.017608069646497616 -0.034687975411238262 0 -0.017655359982363006 -0.035009875881519013 0 -0.017937142216496282 -0.034729430046347869 0 -0.017829753813313687 -0.03515715626525609 0 -0.017925270048760492 -0.035277715401500126 0 -0.017655359982363006 -0.035009875881519013 0 -0.017937142216496282 -0.034729430046347869 0 -0.017950060340001406 -0.035285387442285321 0 -0.017608069646497616 -0.034687975411238262 0 -0.017937142216496282 -0.034729430046347869 0 -0.017756123208475093 -0.03446097698988218 0 -0.017733678933155632 -0.035582409864509321 0 -0.017548340607539143 -0.035622776608571161 0 -0.017531923394832883 -0.035580979548140046 0 -0.017733678933155632 -0.035582409864509321 0 -0.017736421382694254 -0.035504216783987991 0 -0.017548340607539143 -0.035622776608571161 0 -0.017733678933155632 -0.035582409864509321 0 -0.017736421382694254 -0.035504216783987991 0 -0.017950060340001406 -0.035285387442285321 0 -0.017736421382694254 -0.035504216783987991 0 -0.017950060340001406 -0.035285387442285321 0 -0.017940070902364592 -0.035391683427568849 0 -0.017950060340001406 -0.035285387442285321 0 -0.018042442291253361 -0.035393452845385059 0 -0.017940070902364592 -0.035391683427568849 0 -0.018106777240335676 -0.035368290889569894 0 -0.018042442291253361 -0.035393452845385059 0 -0.017940070902364592 -0.035391683427568849 0 -0.018125445633507688 -0.035439457313617403 0 -0.01807408211555997 -0.035498139071006074 0 -0.018042442291253361 -0.035393452845385059 0 -0.018106777240335676 -0.035368290889569894 0 -0.018125445633507688 -0.035439457313617403 0 -0.018042442291253361 -0.035393452845385059 0 -0.017938922508311691 -0.035317287303557113 0 -0.018106777240335676 -0.035368290889569894 0 -0.017940070902364592 -0.035391683427568849 0 -0.017938922508311691 -0.035317287303557113 0 -0.017940070902364592 -0.035391683427568849 0 -0.017631414938342842 -0.035425703615677373 0 -0.018238723269388437 -0.035462583993420858 0 -0.017806217364837257 -0.035658470033974168 0 -0.018167735566115801 -0.03569786776697069 0 -0.017963911013405481 -0.035934106326228302 0 -0.017517158399807366 -0.035878937643802837 0 -0.018167735566115801 -0.03569786776697069 0 -0.01858376047074892 -0.035590644826352075 0 -0.017963911013405481 -0.035934106326228302 0 -0.017806217364837257 -0.035658470033974168 0 -0.01747716095884318 -0.035759661902273136 0 -0.017631414938342842 -0.035425703615677373 0 -0.017544093543596397 -0.035629244863825071 0 -0.017409774324039923 -0.035767224744656628 0 -0.017736421382694254 -0.035504216783987991 0 -0.017631414938342842 -0.035425703615677373 0 -0.017544093543596397 -0.035629244863825071 0 -0.017736421382694254 -0.035504216783987991 0 -0.017940070902364592 -0.035391683427568849 0 -0.017631414938342842 -0.035425703615677373 0 -0.017736421382694254 -0.035504216783987991 0 -0.017548340607539143 -0.035622776608571161 0 -0.017544093543596397 -0.035629244863825071 0 -0.017548340607539143 -0.035622776608571161 0 -0.017544093543596397 -0.035629244863825071 0 -0.017369001570070954 -0.035673493687894124 0 -0.017548340607539143 -0.035622776608571161 0 -0.017369001570070954 -0.035673493687894124 0 -0.017487410767353301 -0.035545585257131626 0 -0.017544093543596397 -0.035629244863825071 0 -0.017409774324039923 -0.035767224744656628 0 -0.017369001570070954 -0.035673493687894124 0 -0.017409774324039923 -0.035767224744656628 0 -0.017369001570070954 -0.035673493687894124 0 -0.017043684602556956 -0.035785515655169312 0 -0.017369001570070954 -0.035673493687894124 0 -0.017052368841361996 -0.035674625328595291 0 -0.017043684602556956 -0.035785515655169312 0 -0.017409774324039923 -0.035767224744656628 0 -0.017043684602556956 -0.035785515655169312 0 -0.016853041220672365 -0.035915999644358619 0 -0.017409774324039923 -0.035767224744656628 0 -0.017517158399807366 -0.035878937643802837 0 -0.016853041220672365 -0.035915999644358619 0 -0.017963911013405481 -0.035934106326228302 0 -0.017409774324039923 -0.035767224744656628 0 -0.017517158399807366 -0.035878937643802837 0 -0.017517158399807366 -0.035878937643802837 0 -0.016853041220672365 -0.035915999644358619 0 -0.016966440818659865 -0.035862405608882507 0 -0.017935982325817067 -0.034846245392104694 0 -0.017543530739044969 -0.035152945805345899 0 -0.017518838864956067 -0.035031998409161151 0 -0.017935982325817067 -0.034846245392104694 0 -0.017745459356877654 -0.035107359854918849 0 -0.017543530739044969 -0.035152945805345899 0 -0.017935982325817067 -0.034846245392104694 0 -0.017745459356877654 -0.035107359854918849 0 -0.017942743046880903 -0.03481778904797822 0 -0.017935982325817067 -0.034846245392104694 0 -0.017942743046880903 -0.03481778904797822 0 -0.018251530005549632 -0.034570381195651569 0 -0.017745459356877654 -0.035107359854918849 0 -0.017543530739044969 -0.035152945805345899 0 -0.017447970947285361 -0.03539040869197059 0 -0.017745459356877654 -0.035107359854918849 0 -0.017447970947285361 -0.03539040869197059 0 -0.017591761182499711 -0.035351685926775456 0 -0.017543530739044969 -0.035152945805345899 0 -0.017225198756320607 -0.035383646406897125 0 -0.017447970947285361 -0.03539040869197059 0 -0.017225198756320607 -0.035383646406897125 0 -0.017295559339700367 -0.035559549301317224 0 -0.016889137220726016 -0.03558135037506456 0 -0.017225198756320607 -0.035383646406897125 0 -0.017295559339700367 -0.035559549301317224 0 -0.017447970947285361 -0.03539040869197059 0 -0.017052368841361996 -0.035674625328595291 0 -0.017295559339700367 -0.035559549301317224 0 -0.016889137220726016 -0.03558135037506456 0 -0.017369001570070954 -0.035673493687894124 0 -0.017295559339700367 -0.035559549301317224 0 -0.017487410767353301 -0.035545585257131626 0 -0.017369001570070954 -0.035673493687894124 0 -0.017052368841361996 -0.035674625328595291 0 -0.017295559339700367 -0.035559549301317224 0 -0.017295559339700367 -0.035559549301317224 0 -0.017447970947285361 -0.03539040869197059 0 -0.017487410767353301 -0.035545585257131626 0 -0.017447970947285361 -0.03539040869197059 0 -0.017591761182499711 -0.035351685926775456 0 -0.017487410767353301 -0.035545585257131626 0 -0.017591761182499711 -0.035351685926775456 0 -0.017487410767353301 -0.035545585257131626 0 -0.017525978067582073 -0.035457330819527101 0 -0.017591761182499711 -0.035351685926775456 0 -0.017525978067582073 -0.035457330819527101 0 -0.017681905603838696 -0.035213773127520297 0 -0.017548340607539143 -0.035622776608571161 0 -0.017487410767353301 -0.035545585257131626 0 -0.017531923394832883 -0.035580979548140046 0 -0.017531923394832883 -0.035580979548140046 0 -0.017525978067582073 -0.035457330819527101 0 -0.017488206426964855 -0.035550367450736378 0 -0.017487410767353301 -0.035545585257131626 0 -0.017531923394832883 -0.035580979548140046 0 -0.017525978067582073 -0.035457330819527101 0 -0.017525978067582073 -0.035457330819527101 0 -0.017381595972460289 -0.035219872469541086 0 -0.017488206426964855 -0.035550367450736378 0 -0.017381595972460289 -0.035219872469541086 0 -0.017681905603838696 -0.035213773127520297 0 -0.017942743046880903 -0.03481778904797822 0 -0.017525978067582073 -0.035457330819527101 0 -0.017381595972460289 -0.035219872469541086 0 -0.017681905603838696 -0.035213773127520297 0 -0.017745459356877654 -0.035107359854918849 0 -0.017591761182499711 -0.035351685926775456 0 -0.017681905603838696 -0.035213773127520297 0 -0.017745459356877654 -0.035107359854918849 0 -0.017681905603838696 -0.035213773127520297 0 -0.017942743046880903 -0.03481778904797822 0 -0.017519255840227958 -0.034700247323179487 0 -0.017701874008117156 -0.034405410369258607 0 -0.017576323988284744 -0.03417197680883987 0 -0.017525616977705841 -0.034144880621437577 0 -0.017738384304526483 -0.034407313416416917 0 -0.017381595972460289 -0.035219872469541086 0 -0.017942743046880903 -0.03481778904797822 0 -0.017738384304526483 -0.034407313416416917 0 -0.017525616977705841 -0.034144880621437577 0 -0.01737302368070014 -0.033987984687145562 0 -0.017738384304526483 -0.034407313416416917 0 -0.017525616977705841 -0.034144880621437577 0 -0.017315160217451372 -0.033951514203094883 0 -0.01737302368070014 -0.033987984687145562 0 -0.017315160217451372 -0.033951514203094883 0 -0.017106251248442613 -0.03374725098925542 0 -0.017177087769588806 -0.033724201851769262 0 -0.017315160217451372 -0.033951514203094883 0 -0.017307220249218495 -0.034153895472351661 0 -0.017162667436958014 -0.03396971035079021 0 -0.017525616977705841 -0.034144880621437577 0 -0.017315160217451372 -0.033951514203094883 0 -0.017438524721658386 -0.034158832086881211 0 -0.017315160217451372 -0.033951514203094883 0 -0.017307220249218495 -0.034153895472351661 0 -0.017438524721658386 -0.034158832086881211 0 -0.017525616977705841 -0.034144880621437577 0 -0.017438524721658386 -0.034158832086881211 0 -0.017609147965123504 -0.034231697522584863 0 -0.017576323988284744 -0.03417197680883987 0 -0.017525616977705841 -0.034144880621437577 0 -0.017609147965123504 -0.034231697522584863 0 -0.017519255840227958 -0.034700247323179487 0 -0.017631199842972504 -0.034985455226410736 0 -0.017609147965123504 -0.034231697522584863 0 -0.017782170868016259 -0.034422085901774632 0 -0.017756123208475093 -0.03446097698988218 0 -0.017576323988284744 -0.03417197680883987 0 -0.017609147965123504 -0.034231697522584863 0 -0.017782170868016259 -0.034422085901774632 0 -0.017733678933155632 -0.035582409864509321 0 -0.017531923394832883 -0.035580979548140046 0 -0.017488206426964855 -0.035550367450736378 0 -0.017829753813313687 -0.03515715626525609 0 -0.017631199842972504 -0.034985455226410736 0 -0.017937142216496282 -0.034729430046347869 0 -0.017782170868016259 -0.034422085901774632 0 -0.017756123208475093 -0.03446097698988218 0 -0.017628335316460964 -0.034236615582015718 0 -0.017561152367795409 -0.03440507253739241 0 -0.017307220249218495 -0.034153895472351661 0 -0.017438524721658386 -0.034158832086881211 0 -0.017359526447586687 -0.034370465726830404 0 -0.017438524721658386 -0.034158832086881211 0 -0.017609147965123504 -0.034231697522584863 0 -0.017359526447586687 -0.034370465726830404 0 -0.017307220249218495 -0.034153895472351661 0 -0.017168276524868947 -0.034275673579601915 0 -0.017162667436958014 -0.03396971035079021 0 -0.017307220249218495 -0.034153895472351661 0 -0.017359526447586687 -0.034370465726830404 0 -0.017168276524868947 -0.034275673579601915 0 -0.017237465854846909 -0.03458310207565455 0 -0.017359526447586687 -0.034370465726830404 0 -0.017168276524868947 -0.034275673579601915 0 -0.017414188692168046 -0.034647909769402969 0 -0.017561152367795409 -0.03440507253739241 0 -0.017237465854846909 -0.03458310207565455 0 -0.017121291387639015 -0.034417927583982599 0 -0.01708654531119921 -0.034507277303925998 0 -0.017237465854846909 -0.03458310207565455 0 -0.017168276524868947 -0.034275673579601915 0 -0.017121291387639015 -0.034417927583982599 0 -0.017121291387639015 -0.034417927583982599 0 -0.01708654531119921 -0.034507277303925998 0 -0.016987436884130118 -0.034290331485447266 0 -0.017168276524868947 -0.034275673579601915 0 -0.016987436884130118 -0.034290331485447266 0 -0.01697201209489867 -0.033939284857414591 0 -0.017080267471355482 -0.033871511401352271 0 -0.01691350571126744 -0.034018764681154556 0 -0.017168276524868947 -0.034275673579601915 0 -0.017121291387639015 -0.034417927583982599 0 -0.016987436884130118 -0.034290331485447266 0 -0.01697201209489867 -0.033939284857414591 0 -0.016940543195960618 -0.033728621811965412 0 -0.016689676929586759 -0.033731299702754104 0 -0.0167476370216815 -0.03391955553059002 0 -0.01697201209489867 -0.033939284857414591 0 -0.016689676929586759 -0.033731299702754104 0 -0.017168276524868947 -0.034275673579601915 0 -0.01697201209489867 -0.033939284857414591 0 -0.017162667436958014 -0.03396971035079021 0 -0.01697201209489867 -0.033939284857414591 0 -0.017162667436958014 -0.03396971035079021 0 -0.016940543195960618 -0.033728621811965412 0 -0.017162667436958014 -0.03396971035079021 0 -0.017106251248442613 -0.03374725098925542 0 -0.016940543195960618 -0.033728621811965412 0 -0.017106251248442613 -0.03374725098925542 0 -0.016969825577384721 -0.033591294494746779 0 -0.016940543195960618 -0.033728621811965412 0 -0.017315160217451372 -0.033951514203094883 0 -0.017162667436958014 -0.03396971035079021 0 -0.017106251248442613 -0.03374725098925542 0 -0.016711471129209048 -0.033328123105346698 0 -0.016428294191185362 -0.033025885607323627 0 -0.016689676929586759 -0.033731299702754104 0 -0.016733440327036476 -0.032457022559806335 0 -0.016671734703601893 -0.033642449242612622 0 -0.016711471129209048 -0.033328123105346698 0 -0.016940543195960618 -0.033728621811965412 0 -0.016689676929586759 -0.033731299702754104 0 -0.016969825577384721 -0.033591294494746779 0 -0.016711471129209048 -0.033328123105346698 0 -0.016940543195960618 -0.033728621811965412 0 -0.016711471129209048 -0.033328123105346698 0 -0.016428294191185362 -0.033025885607323627 0 -0.018094305413323936 -0.031990185583868638 0 -0.016725665664185412 -0.033342408271067464 0 -0.017573953687463336 -0.032858540684980335 0 -0.017106251248442613 -0.03374725098925542 0 -0.016969825577384721 -0.033591294494746779 0 -0.017177087769588806 -0.033724201851769262 0 -0.016969825577384721 -0.033591294494746779 0 -0.016711471129209048 -0.033328123105346698 0 -0.017177087769588806 -0.033724201851769262 0 -0.016547972172292449 -0.030918298820321315 0 -0.018001326634739998 -0.030104990910148781 0 -0.018094305413323936 -0.031990185583868638 0 -0.016733440327036476 -0.032457022559806335 0 -0.016791082920932187 -0.030560118059062964 0 -0.016428294191185362 -0.033025885607323627 0 -0.016547972172292449 -0.030918298820321315 0 -0.018094305413323936 -0.031990185583868638 0 -0.017053680623908926 -0.031906477268757713 0 -0.017017981346271738 -0.030203371091330533 0 -0.016579270092841557 -0.031076310094091727 0 -0.017017981346271738 -0.030203371091330533 0 -0.016904787782855528 -0.028907248447593174 0 -0.016083175251823498 -0.029429137908675376 0 -0.016791082920932187 -0.030560118059062964 0 -0.016921611846561546 -0.029015850457729267 0 -0.016904787782855528 -0.028907248447593174 0 -0.016083175251823498 -0.029429137908675376 0 -0.016041776573557591 -0.028154663720753849 0 -0.016904787782855528 -0.028907248447593174 0 -0.018001326634739998 -0.030104990910148781 0 -0.017993388661042893 -0.028398730024466287 0 -0.016547972172292449 -0.030918298820321315 0 -0.016904787782855528 -0.028907248447593174 0 -0.018001326634739998 -0.030104990910148781 0 -0.018001326634739998 -0.030104990910148781 0 -0.01876342069941948 -0.029584278133418022 0 -0.019327497714757256 -0.030819572369158242 0 -0.01876342069941948 -0.029584278133418022 0 -0.017993388661042893 -0.028398730024466287 0 -0.01892776642509687 -0.028468786846726584 0 -0.018001326634739998 -0.030104990910148781 0 -0.01876342069941948 -0.029584278133418022 0 -0.017993388661042893 -0.028398730024466287 0 -0.01876342069941948 -0.029584278133418022 0 -0.019331463897065797 -0.029671664510563654 0 -0.01892776642509687 -0.028468786846726584 0 -0.01876342069941948 -0.029584278133418022 0 -0.019331463897065797 -0.029671664510563654 0 -0.019327497714757256 -0.030819572369158242 0 -0.01718113903858793 -0.033477716961317024 0 -0.017177087769588806 -0.033724201851769262 0 -0.01737302368070014 -0.033987984687145562 0 -0.01718113903858793 -0.033477716961317024 0 -0.01737302368070014 -0.033987984687145562 0 -0.017870050746361301 -0.033983308762645263 0 -0.018312283413796544 -0.032122841324961585 0 -0.017573953687463336 -0.032858540684980335 0 -0.018001326634739998 -0.030104990910148781 0 -0.019327497714757256 -0.030819572369158242 0 -0.018094305413323936 -0.031990185583868638 0 -0.017315160217451372 -0.033951514203094883 0 -0.017177087769588806 -0.033724201851769262 0 -0.01737302368070014 -0.033987984687145562 0 -0.017738384304526483 -0.034407313416416917 0 -0.018634529419745794 -0.034166257655680564 0 -0.017870050746361301 -0.033983308762645263 0 -0.01737302368070014 -0.033987984687145562 0 -0.017738384304526483 -0.034407313416416917 0 -0.017870050746361301 -0.033983308762645263 0 -0.017942743046880903 -0.03481778904797822 0 -0.018634529419745794 -0.034166257655680564 0 -0.018251530005549632 -0.034570381195651569 0 -0.017942743046880903 -0.03481778904797822 0 -0.017738384304526483 -0.034407313416416917 0 -0.018634529419745794 -0.034166257655680564 0 -0.018634529419745794 -0.034166257655680564 0 -0.017870050746361301 -0.033983308762645263 0 -0.019003246735659306 -0.033060271957024108 0 -0.018634529419745794 -0.034166257655680564 0 -0.019003246735659306 -0.033060271957024108 0 -0.019492903193594667 -0.033882892062623279 0 -0.01718113903858793 -0.033477716961317024 0 -0.017870050746361301 -0.033983308762645263 0 -0.019003246735659306 -0.033060271957024108 0 -0.01718113903858793 -0.033477716961317024 0 -0.01953711518527506 -0.03115250046590878 0 -0.019003246735659306 -0.033060271957024108 0 -0.019331463897065797 -0.029671664510563654 0 -0.019327497714757256 -0.030819572369158242 0 -0.019540524180886566 -0.030288780775920236 0 -0.018312283413796544 -0.032122841324961585 0 -0.019530476384036863 -0.03118712804641734 0 -0.019327497714757256 -0.030819572369158242 0 -0.019540524180886566 -0.030288780775920236 0 -0.01953711518527506 -0.03115250046590878 0 -0.019540524180886566 -0.030288780775920236 0 -0.020366376375021079 -0.029820106761974729 0 -0.019944942949696311 -0.02891406916805251 0 -0.019331463897065797 -0.029671664510563654 0 -0.019540524180886566 -0.030288780775920236 0 -0.019944942949696311 -0.02891406916805251 0 -0.020366376375021079 -0.029820106761974729 0 -0.020768641478397961 -0.030197470415933757 0 -0.02172998905522263 -0.028490623998099304 0 -0.020366376375021079 -0.029820106761974729 0 -0.020768641478397961 -0.030197470415933757 0 -0.01953711518527506 -0.03115250046590878 0 -0.019540524180886566 -0.030288780775920236 0 -0.020366376375021079 -0.029820106761974729 0 -0.01953711518527506 -0.03115250046590878 0 -0.020768641478397961 -0.030197470415933757 0 -0.019913332400617618 -0.031540661612707493 0 -0.021394802058410128 -0.030856892967071278 0 -0.020544499091259091 -0.031674921387104309 0 -0.019714033723696438 -0.032553639038782542 0 -0.019913332400617618 -0.031540661612707493 0 -0.021090849128803539 -0.031148331563959603 0 -0.019492903193594667 -0.033882892062623279 0 -0.020768641478397961 -0.030197470415933757 0 -0.019913332400617618 -0.031540661612707493 0 -0.01953711518527506 -0.03115250046590878 0 -0.019913332400617618 -0.031540661612707493 0 -0.01953711518527506 -0.03115250046590878 0 -0.019003246735659306 -0.033060271957024108 0 -0.019913332400617618 -0.031540661612707493 0 -0.019003246735659306 -0.033060271957024108 0 -0.019492903193594667 -0.033882892062623279 0 -0.018516595635699493 -0.034688486617437238 0 -0.01909430246282847 -0.035645309274963989 0 -0.018045361799313434 -0.035354643754356846 0 -0.018516595635699493 -0.034688486617437238 0 -0.01909430246282847 -0.035645309274963989 0 -0.019492903193594667 -0.033882892062623279 0 -0.019714033723696438 -0.032553639038782542 0 -0.019630053860641719 -0.03396153082668308 0 -0.019714033723696438 -0.032553639038782542 0 -0.021279570400038913 -0.028884753674236301 0 -0.01920438228582734 -0.031956173956403162 0 -0.019398163698335746 -0.031034359913844546 0 -0.02013952406646384 -0.031628062441713865 0 -0.020768641478397961 -0.030197470415933757 0 -0.021394802058410128 -0.030856892967071278 0 -0.02172998905522263 -0.028490623998099304 0 -0.01909430246282847 -0.035645309274963989 0 -0.018045361799313434 -0.035354643754356846 0 -0.017494463889398709 -0.036158230737972641 0 -0.019714033723696438 -0.032553639038782542 0 -0.01823921683690103 -0.03366637731884712 0 -0.018045361799313434 -0.035354643754356846 0 -0.017549920485721009 -0.035413342335978981 0 -0.017494463889398709 -0.036158230737972641 0 -0.018516595635699493 -0.034688486617437238 0 -0.018045361799313434 -0.035354643754356846 0 -0.01787710041394993 -0.034971349897100268 0 -0.018045361799313434 -0.035354643754356846 0 -0.01787710041394993 -0.034971349897100268 0 -0.017549920485721009 -0.035413342335978981 0 -0.01787710041394993 -0.034971349897100268 0 -0.017866563031636782 -0.034817097144845814 0 -0.017288902661624417 -0.035196465377607053 0 -0.01787710041394993 -0.034971349897100268 0 -0.017866563031636782 -0.034817097144845814 0 -0.018491146283663662 -0.034437602949286814 0 -0.018516595635699493 -0.034688486617437238 0 -0.01787710041394993 -0.034971349897100268 0 -0.018491146283663662 -0.034437602949286814 0 -0.018634529419745794 -0.034166257655680564 0 -0.019492903193594667 -0.033882892062623279 0 -0.018491146283663662 -0.034437602949286814 0 -0.018516595635699493 -0.034688486617437238 0 -0.019492903193594667 -0.033882892062623279 0 -0.018491146283663662 -0.034437602949286814 0 -0.017935982325817067 -0.034846245392104694 0 -0.018491146283663662 -0.034437602949286814 0 -0.018251530005549632 -0.034570381195651569 0 -0.018634529419745794 -0.034166257655680564 0 -0.018491146283663662 -0.034437602949286814 0 -0.018251530005549632 -0.034570381195651569 0 -0.017935982325817067 -0.034846245392104694 0 -0.017866563031636782 -0.034817097144845814 0 -0.017518838864956067 -0.035031998409161151 0 -0.017866563031636782 -0.034817097144845814 0 -0.017518838864956067 -0.035031998409161151 0 -0.017288902661624417 -0.035196465377607053 0 -0.017935982325817067 -0.034846245392104694 0 -0.017866563031636782 -0.034817097144845814 0 -0.018491146283663662 -0.034437602949286814 0 -0.036900289588219885 -0.023752674237837702 0 -0.036257588013512497 -0.02322007795064995 0 -0.036477940824288263 -0.024528296092437826 0 -0.037188165233976035 -0.022974908722894337 0 -0.036900289588219885 -0.023752674237837702 0 -0.036257588013512497 -0.02322007795064995 0 -0.037188165233976035 -0.022974908722894337 0 -0.036900289588219885 -0.023752674237837702 0 -0.037845502300366346 -0.023462024929192398 0 -0.036900289588219885 -0.023752674237837702 0 -0.037845502300366346 -0.023462024929192398 0 -0.037330460854845517 -0.024420765852549733 0 -0.037845502300366346 -0.023462024929192398 0 -0.037821480329951515 -0.021991276638186608 0 -0.038654223447616577 -0.022678489293943442 0 -0.037188165233976035 -0.022974908722894337 0 -0.037845502300366346 -0.023462024929192398 0 -0.037821480329951515 -0.021991276638186608 0 -0.037188165233976035 -0.022974908722894337 0 -0.036807088841867786 -0.02189348155850868 0 -0.036257588013512497 -0.02322007795064995 0 -0.037188165233976035 -0.022974908722894337 0 -0.037821480329951515 -0.021991276638186608 0 -0.036807088841867786 -0.02189348155850868 0 -0.036807088841867786 -0.02189348155850868 0 -0.036257588013512497 -0.02322007795064995 0 -0.035909611609799372 -0.021753747992597491 0 -0.034999695657907712 -0.023057511101090559 0 -0.036257588013512497 -0.02322007795064995 0 -0.035909611609799372 -0.021753747992597491 0 -0.034999695657907712 -0.023057511101090559 0 -0.034999637966759978 -0.020977471921701529 0 -0.035909611609799372 -0.021753747992597491 0 -0.034999695657907712 -0.023057511101090559 0 -0.036257588013512497 -0.02322007795064995 0 -0.035682034683831881 -0.024202544882721954 0 -0.036257588013512497 -0.02322007795064995 0 -0.035682034683831881 -0.024202544882721954 0 -0.036477940824288263 -0.024528296092437826 0 -0.035682034683831881 -0.024202544882721954 0 -0.035809316090363551 -0.025082856128169191 0 -0.036477940824288263 -0.024528296092437826 0 -0.034999695657907712 -0.023057511101090559 0 -0.035682034683831881 -0.024202544882721954 0 -0.034999439960497848 -0.025136680636365798 0 -0.035682034683831881 -0.024202544882721954 0 -0.034999439960497848 -0.025136680636365798 0 -0.035809316090363551 -0.025082856128169191 0 -0.034999439960497848 -0.025136680636365798 0 -0.03553594507399057 -0.025855961097725491 0 -0.035809316090363551 -0.025082856128169191 0 -0.034999856906359865 -0.026713829828117562 0 -0.035000007894382588 -0.025137391201437334 0 -0.035912186261743848 -0.026246776549543605 0 -0.035000146342288214 -0.025137538389515698 0 -0.035705916493070547 -0.02606382940042971 0 -0.03553594507399057 -0.025855961097725491 0 -0.035809316090363551 -0.025082856128169191 0 -0.036518107448041223 -0.025696670403727633 0 -0.035809316090363551 -0.025082856128169191 0 -0.036518107448041223 -0.025696670403727633 0 -0.036477940824288263 -0.024528296092437826 0 -0.036518107448041223 -0.025696670403727633 0 -0.037108321297162856 -0.025056081462028035 0 -0.036477940824288263 -0.024528296092437826 0 -0.036518107448041223 -0.025696670403727633 0 -0.037108321297162856 -0.025056081462028035 0 -0.037566787249643692 -0.025594569549978272 0 -0.036859131828883306 -0.026447590578201081 0 -0.036518107448041223 -0.025696670403727633 0 -0.037566787249643692 -0.025594569549978272 0 -0.037108321297162856 -0.025056081462028035 0 -0.036477940824288263 -0.024528296092437826 0 -0.037330460854845517 -0.024420765852549733 0 -0.036900289588219885 -0.023752674237837702 0 -0.036477940824288263 -0.024528296092437826 0 -0.037330460854845517 -0.024420765852549733 0 -0.037845502300366346 -0.023462024929192398 0 -0.037330460854845517 -0.024420765852549733 0 -0.038266018078392791 -0.024234998047355589 0 -0.037330460854845517 -0.024420765852549733 0 -0.03788765998340464 -0.024834747703117461 0 -0.038266018078392791 -0.024234998047355589 0 -0.037108321297162856 -0.025056081462028035 0 -0.037330460854845517 -0.024420765852549733 0 -0.03788765998340464 -0.024834747703117461 0 -0.03788765998340464 -0.024834747703117461 0 -0.038527218153882777 -0.025287233492231376 0 -0.038266018078392791 -0.024234998047355589 0 -0.03788765998340464 -0.024834747703117461 0 -0.037566787249643692 -0.025594569549978272 0 -0.038527218153882777 -0.025287233492231376 0 -0.037108321297162856 -0.025056081462028035 0 -0.03788765998340464 -0.024834747703117461 0 -0.037566787249643692 -0.025594569549978272 0 -0.037547674725106811 -0.026707521980617429 0 -0.037566787249643692 -0.025594569549978272 0 -0.038121632814017564 -0.026114085599958582 0 -0.037566787249643692 -0.025594569549978272 0 -0.038121632814017564 -0.026114085599958582 0 -0.038527218153882777 -0.025287233492231376 0 -0.038121632814017564 -0.026114085599958582 0 -0.038739375756403613 -0.026212447661302925 0 -0.038527218153882777 -0.025287233492231376 0 -0.038527218153882777 -0.025287233492231376 0 -0.039278948788656509 -0.025843542815297067 0 -0.039403577182402921 -0.025046523955317871 0 -0.038739375756403613 -0.026212447661302925 0 -0.038527218153882777 -0.025287233492231376 0 -0.039278948788656509 -0.025843542815297067 0 -0.039452390744906328 -0.026659964587547356 0 -0.038739375756403613 -0.026212447661302925 0 -0.039278948788656509 -0.025843542815297067 0 -0.039452390744906328 -0.026659964587547356 0 -0.039278948788656509 -0.025843542815297067 0 -0.040180029127008195 -0.026095242975135265 0 -0.039802276312949428 -0.025961648314655209 0 -0.039403577182402921 -0.025046523955317871 0 -0.040182313114779059 -0.02513753645334723 0 -0.039278948788656509 -0.025843542815297067 0 -0.040180029127008195 -0.026095242975135265 0 -0.039403577182402921 -0.025046523955317871 0 -0.040188502940497743 -0.026474804540782607 0 -0.039393496204729955 -0.025051154969809267 0 -0.039195645054256448 -0.024096051053956367 0 -0.040182313114779059 -0.02513753645334723 0 -0.039925422961509568 -0.023421936387176535 0 -0.028968487042030845 -0.029148312779051472 0 -0.028415582048906853 -0.028245216282207615 0 -0.039403577182402921 -0.025046523955317871 0 -0.039195645054256448 -0.024096051053956367 0 -0.040182313114779059 -0.02513753645334723 0 -0.039195645054256448 -0.024096051053956367 0 -0.038266018078392791 -0.024234998047355589 0 -0.03885107670664726 -0.024664466605137235 0 -0.038527218153882777 -0.025287233492231376 0 -0.038266018078392791 -0.024234998047355589 0 -0.03885107670664726 -0.024664466605137235 0 -0.039403577182402921 -0.025046523955317871 0 -0.039195645054256448 -0.024096051053956367 0 -0.03885107670664726 -0.024664466605137235 0 -0.038527218153882777 -0.025287233492231376 0 -0.039403577182402921 -0.025046523955317871 0 -0.03885107670664726 -0.024664466605137235 0 -0.017080267471355482 -0.033871511401352271 0 -0.015898216220240919 -0.03505868192729255 0 -0.0167476370216815 -0.03391955553059002 0 -0.016956542240744495 -0.03373463318018538 0 -0.016953343471652303 -0.033855398950085006 0 -0.01708654531119921 -0.034507277303925998 0 -0.016987436884130118 -0.034290331485447266 0 -0.016999420932801317 -0.034484206094659041 0 -0.017026637170843708 -0.034595062490270868 0 -0.01708654531119921 -0.034507277303925998 0 -0.016999420932801317 -0.034484206094659041 0 -0.016956542240744495 -0.03373463318018538 0 -0.016953343471652303 -0.033855398950085006 0 -0.017052411095834295 -0.03375896631530248 0 -0.025621752504685364 -0.031686007743911948 0 -0.028968487042030845 -0.029148312779051472 0 -0.017179248710123291 -0.033622764282637801 0 -0.016956542240744495 -0.03373463318018538 0 -0.017052411095834295 -0.03375896631530248 0 -0.017179248710123291 -0.033622764282637801 0 -0.017052411095834295 -0.03375896631530248 0 -0.0170535892072869 -0.033733410772960749 0 -0.040289943405617534 -0.0267619201718916 0 -0.039802276312949428 -0.025961648314655209 0 -0.040182313114779059 -0.02513753645334723 0 -0.016861072701395946 -0.033806703872147494 0 -0.016777566463463355 -0.033073700271251623 0 -0.016953343471652303 -0.033855398950085006 0 -0.016558679993776845 -0.033788512493509774 0 -0.015775388657208816 -0.03357681590833575 0 -0.0170535892072869 -0.033733410772960749 0 -0.0171387464713363 -0.033543361392303912 0 -0.016963585845570069 -0.032986277554352704 0 -0.016953343471652303 -0.033855398950085006 0 -0.017052411095834295 -0.03375896631530248 0 -0.0171387464713363 -0.033543361392303912 0 -0.017052411095834295 -0.03375896631530248 0 -0.0170535892072869 -0.033733410772960749 0 -0.0171387464713363 -0.033543361392303912 0 -0.016953343471652303 -0.033855398950085006 0 -0.0171387464713363 -0.033543361392303912 0 -0.01749992574994963 -0.032961521779740481 0 -0.0167476370216815 -0.03391955553059002 0 -0.016558679993776845 -0.033788512493509774 0 -0.016689676929586759 -0.033731299702754104 0 -0.0167476370216815 -0.03391955553059002 0 -0.016953343471652303 -0.033855398950085006 0 -0.016558679993776845 -0.033788512493509774 0 -0.016558679993776845 -0.033788512493509774 0 -0.016689676929586759 -0.033731299702754104 0 -0.01631087889409593 -0.033591860967239789 0 -0.016558679993776845 -0.033788512493509774 0 -0.01631087889409593 -0.033591860967239789 0 -0.015775388657208816 -0.03357681590833575 0 -0.016689676929586759 -0.033731299702754104 0 -0.01631087889409593 -0.033591860967239789 0 -0.016164704224435285 -0.033146618655354246 0 -0.0171387464713363 -0.033543361392303912 0 -0.01749992574994963 -0.032961521779740481 0 -0.016963585845570069 -0.032986277554352704 0 -0.01631087889409593 -0.033591860967239789 0 -0.015775388657208816 -0.03357681590833575 0 -0.016164704224435285 -0.033146618655354246 0 -0.016777566463463355 -0.033073700271251623 0 -0.014954552509558055 -0.03191991411839043 0 -0.015775388657208816 -0.03357681590833575 0 -0.0157035441899885 -0.032888852435582629 0 -0.014732144323307788 -0.031640288278802498 0 -0.0157035441899885 -0.032888852435582629 0 -0.014732144323307788 -0.031640288278802498 0 -0.01546887372547742 -0.03216604902718944 0 -0.015944714080772558 -0.03232761929387061 0 -0.0157035441899885 -0.032888852435582629 0 -0.01546887372547742 -0.03216604902718944 0 -0.015775388657208816 -0.03357681590833575 0 -0.0157035441899885 -0.032888852435582629 0 -0.016164704224435285 -0.033146618655354246 0 -0.015944714080772558 -0.03232761929387061 0 -0.0157035441899885 -0.032888852435582629 0 -0.016164704224435285 -0.033146618655354246 0 -0.017053680623908926 -0.031906477268757713 0 -0.016689676929586759 -0.033731299702754104 0 -0.016440730156069987 -0.032605411511065004 0 -0.016689676929586759 -0.033731299702754104 0 -0.016164704224435285 -0.033146618655354246 0 -0.016440730156069987 -0.032605411511065004 0 -0.015944714080772558 -0.03232761929387061 0 -0.016440730156069987 -0.032605411511065004 0 -0.016375585305363261 -0.031855188046701573 0 -0.015944714080772558 -0.03232761929387061 0 -0.016164704224435285 -0.033146618655354246 0 -0.016440730156069987 -0.032605411511065004 0 -0.038637223972115296 -0.023554895535757549 0 -0.03924164550607688 -0.023300848163864272 0 -0.038654223447616577 -0.022678489293943442 0 -0.037845502300366346 -0.023462024929192398 0 -0.038637223972115296 -0.023554895535757549 0 -0.038654223447616577 -0.022678489293943442 0 -0.039195645054256448 -0.024096051053956367 0 -0.038266018078392791 -0.024234998047355589 0 -0.038637223972115296 -0.023554895535757549 0 -0.037845502300366346 -0.023462024929192398 0 -0.038266018078392791 -0.024234998047355589 0 -0.038637223972115296 -0.023554895535757549 0 -0.039195645054256448 -0.024096051053956367 0 -0.038637223972115296 -0.023554895535757549 0 -0.03924164550607688 -0.023300848163864272 0 -0.039195645054256448 -0.024096051053956367 0 -0.039925422961509568 -0.023421936387176535 0 -0.03924164550607688 -0.023300848163864272 0 -0.039925422961509568 -0.023421936387176535 0 -0.03924164550607688 -0.023300848163864272 0 -0.039304313231007644 -0.022612302105947821 0 -0.039925422961509568 -0.023421936387176535 0 -0.039304313231007644 -0.022612302105947821 0 -0.039547361962245425 -0.021617966141567642 0 -0.028415582048906853 -0.028245216282207615 0 -0.028157019616447728 -0.026456899173389226 0 -0.01749992574994963 -0.032961521779740481 0 -0.016866714943336924 -0.031233854903548172 0 -0.017343770086988442 -0.030986943415872464 0 -0.01749992574994963 -0.032961521779740481 0 -0.016963585845570069 -0.032986277554352704 0 -0.016866714943336924 -0.031233854903548172 0 -0.039304313231007644 -0.022612302105947821 0 -0.039017625905461609 -0.022061902084097043 0 -0.039547361962245425 -0.021617966141567642 0 -0.039304313231007644 -0.022612302105947821 0 -0.039017625905461609 -0.022061902084097043 0 -0.038654223447616577 -0.022678489293943442 0 -0.039017625905461609 -0.022061902084097043 0 -0.038654223447616577 -0.022678489293943442 0 -0.038573196546320535 -0.02188576957465985 0 -0.03924164550607688 -0.023300848163864272 0 -0.039304313231007644 -0.022612302105947821 0 -0.038654223447616577 -0.022678489293943442 0 -0.037821480329951515 -0.021991276638186608 0 -0.038654223447616577 -0.022678489293943442 0 -0.038573196546320535 -0.02188576957465985 0 -0.037821480329951515 -0.021991276638186608 0 -0.038573196546320535 -0.02188576957465985 0 -0.038384447027111211 -0.021253945418873304 0 -0.038384447027111211 -0.021253945418873304 0 -0.038802383790529409 -0.020830173111244635 0 -0.038257577775619091 -0.020526462281549914 0 -0.038384447027111211 -0.021253945418873304 0 -0.038257577775619091 -0.020526462281549914 0 -0.037842387084791797 -0.020880043242942421 0 -0.038384447027111211 -0.021253945418873304 0 -0.038802383790529409 -0.020830173111244635 0 -0.038861348768168082 -0.021531539098723556 0 -0.038573196546320535 -0.02188576957465985 0 -0.038384447027111211 -0.021253945418873304 0 -0.038861348768168082 -0.021531539098723556 0 -0.039017625905461609 -0.022061902084097043 0 -0.038573196546320535 -0.02188576957465985 0 -0.038861348768168082 -0.021531539098723556 0 -0.038802383790529409 -0.020830173111244635 0 -0.039547361962245425 -0.021617966141567642 0 -0.038950718168338228 -0.02044870403473242 0 -0.016866714943336924 -0.031233854903548172 0 -0.017343770086988442 -0.030986943415872464 0 -0.016641803845651795 -0.029069416856388395 0 -0.039017625905461609 -0.022061902084097043 0 -0.038861348768168082 -0.021531539098723556 0 -0.039547361962245425 -0.021617966141567642 0 -0.038802383790529409 -0.020830173111244635 0 -0.038861348768168082 -0.021531539098723556 0 -0.039547361962245425 -0.021617966141567642 0 -0.014732144323307788 -0.031640288278802498 0 -0.014784095764414895 -0.030670018247344416 0 -0.014560167631222807 -0.030255467743509078 0 -0.014954552509558055 -0.03191991411839043 0 -0.023251456360210268 -0.025455383009551434 0 -0.028157019616447728 -0.026456899173389226 0 -0.028287259197823576 -0.024241197987288167 0 -0.017343770086988442 -0.030986943415872464 0 -0.016641803845651795 -0.029069416856388395 0 -0.016836438661224425 -0.028601755673118553 0 -0.014732144323307788 -0.031640288278802498 0 -0.014560167631222807 -0.030255467743509078 0 -0.01427314505311489 -0.029839317047710281 0 -0.039547361962245425 -0.021617966141567642 0 -0.039064647717152977 -0.01973476631132105 0 -0.038950718168338228 -0.02044870403473242 0 -0.014732144323307788 -0.031640288278802498 0 -0.014784095764414895 -0.030670018247344416 0 -0.015050022520199659 -0.031077036240734646 0 -0.014560167631222807 -0.030255467743509078 0 -0.015007832954655619 -0.030335750710197566 0 -0.014963640920530189 -0.030001061328360466 0 -0.014784095764414895 -0.030670018247344416 0 -0.014560167631222807 -0.030255467743509078 0 -0.015007832954655619 -0.030335750710197566 0 -0.039064647717152977 -0.01973476631132105 0 -0.038781545356623565 -0.019796690258282391 0 -0.038950718168338228 -0.02044870403473242 0 -0.038781545356623565 -0.019796690258282391 0 -0.038544734822710536 -0.020205950524133647 0 -0.038950718168338228 -0.02044870403473242 0 -0.038781545356623565 -0.019796690258282391 0 -0.038544734822710536 -0.020205950524133647 0 -0.038149199072887281 -0.019790871955327385 0 -0.038544734822710536 -0.020205950524133647 0 -0.038149199072887281 -0.019790871955327385 0 -0.038257577775619091 -0.020526462281549914 0 -0.038149199072887281 -0.019790871955327385 0 -0.038257577775619091 -0.020526462281549914 0 -0.037659863857139542 -0.020123881828943892 0 -0.038802383790529409 -0.020830173111244635 0 -0.038544734822710536 -0.020205950524133647 0 -0.038257577775619091 -0.020526462281549914 0 -0.038802383790529409 -0.020830173111244635 0 -0.038544734822710536 -0.020205950524133647 0 -0.038950718168338228 -0.02044870403473242 0 -0.017053680623908926 -0.031906477268757713 0 -0.016375585305363261 -0.031855188046701573 0 -0.016579270092841557 -0.031076310094091727 0 -0.016375585305363261 -0.031855188046701573 0 -0.016116203222778427 -0.031170060161672637 0 -0.016579270092841557 -0.031076310094091727 0 -0.017053680623908926 -0.031906477268757713 0 -0.016440730156069987 -0.032605411511065004 0 -0.016375585305363261 -0.031855188046701573 0 -0.015944714080772558 -0.03232761929387061 0 -0.016375585305363261 -0.031855188046701573 0 -0.015917729647769937 -0.031783122713955572 0 -0.016375585305363261 -0.031855188046701573 0 -0.015917729647769937 -0.031783122713955572 0 -0.016116203222778427 -0.031170060161672637 0 -0.015917729647769937 -0.031783122713955572 0 -0.016116203222778427 -0.031170060161672637 0 -0.015627525805998153 -0.031388486386015713 0 -0.015627525805998153 -0.031388486386015713 0 -0.015450572192085066 -0.031802822136150329 0 -0.015140955203902132 -0.031454732021463642 0 -0.015917729647769937 -0.031783122713955572 0 -0.015627525805998153 -0.031388486386015713 0 -0.015450572192085066 -0.031802822136150329 0 -0.015944714080772558 -0.03232761929387061 0 -0.015917729647769937 -0.031783122713955572 0 -0.015450572192085066 -0.031802822136150329 0 -0.015944714080772558 -0.03232761929387061 0 -0.01546887372547742 -0.03216604902718944 0 -0.015450572192085066 -0.031802822136150329 0 -0.014732144323307788 -0.031640288278802498 0 -0.01546887372547742 -0.03216604902718944 0 -0.015450572192085066 -0.031802822136150329 0 -0.014732144323307788 -0.031640288278802498 0 -0.015450572192085066 -0.031802822136150329 0 -0.015140955203902132 -0.031454732021463642 0 -0.014732144323307788 -0.031640288278802498 0 -0.015140955203902132 -0.031454732021463642 0 -0.015050022520199659 -0.031077036240734646 0 -0.015627525805998153 -0.031388486386015713 0 -0.015140955203902132 -0.031454732021463642 0 -0.01533002759136904 -0.031062839816862597 0 -0.015140955203902132 -0.031454732021463642 0 -0.015050022520199659 -0.031077036240734646 0 -0.01533002759136904 -0.031062839816862597 0 -0.015050022520199659 -0.031077036240734646 0 -0.01533002759136904 -0.031062839816862597 0 -0.015207854657708329 -0.030651964681078319 0 -0.014784095764414895 -0.030670018247344416 0 -0.015050022520199659 -0.031077036240734646 0 -0.015207854657708329 -0.030651964681078319 0 -0.015007832954655619 -0.030335750710197566 0 -0.015207854657708329 -0.030651964681078319 0 -0.015506542652503081 -0.03011505475617168 0 -0.014784095764414895 -0.030670018247344416 0 -0.015007832954655619 -0.030335750710197566 0 -0.015207854657708329 -0.030651964681078319 0 -0.015207854657708329 -0.030651964681078319 0 -0.015703826685490137 -0.030765689984126755 0 -0.015506542652503081 -0.03011505475617168 0 -0.015627525805998153 -0.031388486386015713 0 -0.01533002759136904 -0.031062839816862597 0 -0.015703826685490137 -0.030765689984126755 0 -0.016116203222778427 -0.031170060161672637 0 -0.015627525805998153 -0.031388486386015713 0 -0.015703826685490137 -0.030765689984126755 0 -0.01533002759136904 -0.031062839816862597 0 -0.015207854657708329 -0.030651964681078319 0 -0.015703826685490137 -0.030765689984126755 0 -0.017017981346271738 -0.030203371091330533 0 -0.016210861861682267 -0.030400743924401896 0 -0.016579270092841557 -0.031076310094091727 0 -0.016116203222778427 -0.031170060161672637 0 -0.015703826685490137 -0.030765689984126755 0 -0.016210861861682267 -0.030400743924401896 0 -0.015703826685490137 -0.030765689984126755 0 -0.016210861861682267 -0.030400743924401896 0 -0.015506542652503081 -0.03011505475617168 0 -0.016116203222778427 -0.031170060161672637 0 -0.016210861861682267 -0.030400743924401896 0 -0.016579270092841557 -0.031076310094091727 0 -0.016210861861682267 -0.030400743924401896 0 -0.016083175251823498 -0.029429137908675376 0 -0.015506542652503081 -0.03011505475617168 0 -0.017017981346271738 -0.030203371091330533 0 -0.016210861861682267 -0.030400743924401896 0 -0.016083175251823498 -0.029429137908675376 0 -0.016083175251823498 -0.029429137908675376 0 -0.015173919402349613 -0.029655169635246652 0 -0.015356177452840198 -0.028918578751576031 0 -0.015173919402349613 -0.029655169635246652 0 -0.015356177452840198 -0.028918578751576031 0 -0.014381707732877278 -0.029619554160532514 0 -0.016083175251823498 -0.029429137908675376 0 -0.015506542652503081 -0.03011505475617168 0 -0.015173919402349613 -0.029655169635246652 0 -0.015007832954655619 -0.030335750710197566 0 -0.015506542652503081 -0.03011505475617168 0 -0.014963640920530189 -0.030001061328360466 0 -0.015506542652503081 -0.03011505475617168 0 -0.014963640920530189 -0.030001061328360466 0 -0.015173919402349613 -0.029655169635246652 0 -0.014963640920530189 -0.030001061328360466 0 -0.015173919402349613 -0.029655169635246652 0 -0.014691260810577414 -0.029861328823736558 0 -0.020724885789230096 -0.021357114355255953 0 -0.021400665173229309 -0.021625068646282879 0 -0.020748915793996882 -0.022104176327382413 0 -0.016998911795046361 -0.025779872283847018 0 -0.018147857805138803 -0.025052513548259166 0 -0.016083175251823498 -0.029429137908675376 0 -0.015356177452840198 -0.028918578751576031 0 -0.016041776573557591 -0.028154663720753849 0 -0.032444686713179245 -0.020765675100518376 0 -0.034174203911882244 -0.016885869315603045 0 -0.037850713383205344 -0.018762932100454259 0 -0.038493734791122919 -0.019299649134435194 0 -0.038026279621916154 -0.018247007106988407 0 -0.032862958443172212 -0.021333416425922437 0 -0.032312642765568486 -0.021736223824397185 0 -0.031466278910841271 -0.017315547176230978 0 -0.037850713383205344 -0.018762932100454259 0 -0.038018045061647285 -0.019221273736549065 0 -0.038493734791122919 -0.019299649134435194 0 -0.037850713383205344 -0.018762932100454259 0 -0.037668777213973076 -0.018903772121429775 0 -0.037404637460879811 -0.018609404313916538 0 -0.037668777213973076 -0.018903772121429775 0 -0.038018045061647285 -0.019221273736549065 0 -0.03747765083285113 -0.019188773960993631 0 -0.037850713383205344 -0.018762932100454259 0 -0.037668777213973076 -0.018903772121429775 0 -0.038018045061647285 -0.019221273736549065 0 -0.038149199072887281 -0.019790871955327385 0 -0.038018045061647285 -0.019221273736549065 0 -0.03747765083285113 -0.019188773960993631 0 -0.038781545356623565 -0.019796690258282391 0 -0.038149199072887281 -0.019790871955327385 0 -0.038963799206204679 -0.019241177317499653 0 -0.038984083692740007 -0.0184787037550368 0 -0.032444686713179245 -0.020765675100518376 0 -0.038149199072887281 -0.019790871955327385 0 -0.038018045061647285 -0.019221273736549065 0 -0.038493734791122919 -0.019299649134435194 0 -0.028287259197823576 -0.024241197987288167 0 -0.023251456360210268 -0.025455383009551434 0 -0.028287259197823576 -0.024241197987288167 0 -0.032444686713179245 -0.020765675100518376 0 -0.03089307082916078 -0.014698197066401429 0 -0.030916984411315844 -0.014674728831799684 0 -0.030926059663442012 -0.014520578345836685 0 -0.039064647717152977 -0.01973476631132105 0 -0.038781545356623565 -0.019796690258282391 0 -0.038963799206204679 -0.019241177317499653 0 -0.015173919402349613 -0.029655169635246652 0 -0.014691260810577414 -0.029861328823736558 0 -0.014381707732877278 -0.029619554160532514 0 -0.027847569361147569 -0.024349677453574567 0 -0.027389373858910528 -0.022117428568330124 0 -0.028479095649458417 -0.022415938299177342 0 -0.014560167631222807 -0.030255467743509078 0 -0.014494520128008975 -0.029946168734964355 0 -0.01427314505311489 -0.029839317047710281 0 -0.014494520128008975 -0.029946168734964355 0 -0.014446547445650932 -0.029830251460606434 0 -0.01427314505311489 -0.029839317047710281 0 -0.014446547445650932 -0.029830251460606434 0 -0.014691260810577414 -0.029861328823736558 0 -0.014381707732877278 -0.029619554160532514 0 -0.023251456360210268 -0.025455383009551434 0 -0.02321298980413352 -0.022589903946154385 0 -0.014446547445650932 -0.029830251460606434 0 -0.01427314505311489 -0.029839317047710281 0 -0.014381707732877278 -0.029619554160532514 0 -0.022988994615095043 -0.022132612227071687 0 -0.023488885773185104 -0.023524333788833063 0 -0.024254317526783409 -0.021203003987976712 0 -0.026668338318889855 -0.022009172608007554 0 -0.023251456360210268 -0.025455383009551434 0 -0.028164587850689274 -0.021546585255657016 0 -0.027389373858910528 -0.022117428568330124 0 -0.028479095649458417 -0.022415938299177342 0 -0.026668338318889855 -0.022009172608007554 0 -0.032444686713179245 -0.020765675100518376 0 -0.014560167631222807 -0.030255467743509078 0 -0.014963640920530189 -0.030001061328360466 0 -0.014691260810577414 -0.029861328823736558 0 -0.014560167631222807 -0.030255467743509078 0 -0.014494520128008975 -0.029946168734964355 0 -0.014691260810577414 -0.029861328823736558 0 -0.014494520128008975 -0.029946168734964355 0 -0.014446547445650932 -0.029830251460606434 0 -0.014691260810577414 -0.029861328823736558 0 -0.026668338318889855 -0.022009172608007554 0 -0.02321298980413352 -0.022589903946154385 0 -0.020724885789230096 -0.021357114355255953 0 -0.021719115609201631 -0.02067365182610479 0 -0.021400665173229309 -0.021625068646282879 0 -0.016998911795046361 -0.025779872283847018 0 -0.02321298980413352 -0.022589903946154385 0 -0.02321298980413352 -0.022589903946154385 0 -0.026603415570889355 -0.016934633215201181 0 -0.030916984411315844 -0.014674728831799684 0 -0.030941363371032454 -0.014498701336305347 0 -0.030926059663442012 -0.014520578345836685 0 -0.030916984411315844 -0.014674728831799684 0 -0.0308743923522545 -0.014484507260193225 0 -0.030941363371032454 -0.014498701336305347 0 -0.030941363371032454 -0.014498701336305347 0 -0.030926059663442012 -0.014520578345836685 0 -0.031056536294557728 -0.014520965101667348 0 -0.026668338318889855 -0.022009172608007554 0 -0.034174203911882244 -0.016885869315603045 0 -0.037732438648648496 -0.0179114997448989 0 -0.038026279621916154 -0.018247007106988407 0 -0.037484739002113542 -0.018239129448127441 0 -0.035509862560053562 -0.018121671425632337 0 -0.034174203911882244 -0.016885869315603045 0 -0.037850713383205344 -0.018762932100454259 0 -0.038026279621916154 -0.018247007106988407 0 -0.037484739002113542 -0.018239129448127441 0 -0.037850713383205344 -0.018762932100454259 0 -0.037484739002113542 -0.018239129448127441 0 -0.037404637460879811 -0.018609404313916538 0 -0.037484739002113542 -0.018239129448127441 0 -0.037301499088549545 -0.017885087247245721 0 -0.037065006316266184 -0.018076485704688568 0 -0.037732438648648496 -0.0179114997448989 0 -0.037484739002113542 -0.018239129448127441 0 -0.037301499088549545 -0.017885087247245721 0 -0.037301499088549545 -0.017885087247245721 0 -0.037065006316266184 -0.018076485704688568 0 -0.036832582730561871 -0.017626244962648349 0 -0.037065006316266184 -0.018076485704688568 0 -0.036669145969868693 -0.017908277118832382 0 -0.036832582730561871 -0.017626244962648349 0 -0.037065006316266184 -0.018076485704688568 0 -0.036669145969868693 -0.017908277118832382 0 -0.037050626743272613 -0.018472651273784255 0 -0.037484739002113542 -0.018239129448127441 0 -0.037065006316266184 -0.018076485704688568 0 -0.037404637460879811 -0.018609404313916538 0 -0.037065006316266184 -0.018076485704688568 0 -0.037050626743272613 -0.018472651273784255 0 -0.037404637460879811 -0.018609404313916538 0 -0.036669145969868693 -0.017908277118832382 0 -0.036308059865810705 -0.017742325909947294 0 -0.036522329999276522 -0.018537536297306444 0 -0.037050626743272613 -0.018472651273784255 0 -0.036522329999276522 -0.018537536297306444 0 -0.036883213583853103 -0.018973045034429661 0 -0.036669145969868693 -0.017908277118832382 0 -0.037050626743272613 -0.018472651273784255 0 -0.036522329999276522 -0.018537536297306444 0 -0.036308059865810705 -0.017742325909947294 0 -0.036522329999276522 -0.018537536297306444 0 -0.036192191754262859 -0.018289706546445086 0 -0.036522329999276522 -0.018537536297306444 0 -0.036883213583853103 -0.018973045034429661 0 -0.036339563721370295 -0.019166936100168501 0 -0.036522329999276522 -0.018537536297306444 0 -0.036339563721370295 -0.019166936100168501 0 -0.036192191754262859 -0.018289706546445086 0 -0.036883213583853103 -0.018973045034429661 0 -0.036339563721370295 -0.019166936100168501 0 -0.037027664380879094 -0.019721478736761618 0 -0.037668777213973076 -0.018903772121429775 0 -0.037404637460879811 -0.018609404313916538 0 -0.03747765083285113 -0.019188773960993631 0 -0.037050626743272613 -0.018472651273784255 0 -0.037404637460879811 -0.018609404313916538 0 -0.03747765083285113 -0.019188773960993631 0 -0.037050626743272613 -0.018472651273784255 0 -0.036883213583853103 -0.018973045034429661 0 -0.03747765083285113 -0.019188773960993631 0 -0.03747765083285113 -0.019188773960993631 0 -0.037659863857139542 -0.020123881828943892 0 -0.037027664380879094 -0.019721478736761618 0 -0.036883213583853103 -0.018973045034429661 0 -0.03747765083285113 -0.019188773960993631 0 -0.037027664380879094 -0.019721478736761618 0 -0.037659863857139542 -0.020123881828943892 0 -0.037027664380879094 -0.019721478736761618 0 -0.037261941659226971 -0.020832480414355797 0 -0.038149199072887281 -0.019790871955327385 0 -0.03747765083285113 -0.019188773960993631 0 -0.037659863857139542 -0.020123881828943892 0 -0.038257577775619091 -0.020526462281549914 0 -0.037659863857139542 -0.020123881828943892 0 -0.037842387084791797 -0.020880043242942421 0 -0.037659863857139542 -0.020123881828943892 0 -0.037842387084791797 -0.020880043242942421 0 -0.037261941659226971 -0.020832480414355797 0 -0.036454434152829507 -0.020619563863132177 0 -0.037027664380879094 -0.019721478736761618 0 -0.037261941659226971 -0.020832480414355797 0 -0.036339563721370295 -0.019166936100168501 0 -0.036454434152829507 -0.020619563863132177 0 -0.037027664380879094 -0.019721478736761618 0 -0.036807088841867786 -0.02189348155850868 0 -0.036454434152829507 -0.020619563863132177 0 -0.037261941659226971 -0.020832480414355797 0 -0.037821480329951515 -0.021991276638186608 0 -0.036807088841867786 -0.02189348155850868 0 -0.037261941659226971 -0.020832480414355797 0 -0.037821480329951515 -0.021991276638186608 0 -0.037842387084791797 -0.020880043242942421 0 -0.037261941659226971 -0.020832480414355797 0 -0.037821480329951515 -0.021991276638186608 0 -0.038384447027111211 -0.021253945418873304 0 -0.037842387084791797 -0.020880043242942421 0 -0.034999637966759978 -0.020977471921701529 0 -0.035909611609799372 -0.021753747992597491 0 -0.035707936199888851 -0.020003604145881058 0 -0.036454434152829507 -0.020619563863132177 0 -0.035909611609799372 -0.021753747992597491 0 -0.035707936199888851 -0.020003604145881058 0 -0.036807088841867786 -0.02189348155850868 0 -0.036454434152829507 -0.020619563863132177 0 -0.035909611609799372 -0.021753747992597491 0 -0.036339563721370295 -0.019166936100168501 0 -0.036454434152829507 -0.020619563863132177 0 -0.035707936199888851 -0.020003604145881058 0 -0.034999637966759978 -0.020977471921701529 0 -0.035707936199888851 -0.020003604145881058 0 -0.034999547711266635 -0.018897477476973665 0 -0.035707936199888851 -0.020003604145881058 0 -0.034999547711266635 -0.018897477476973665 0 -0.035780159875879687 -0.018455300403394374 0 -0.036339563721370295 -0.019166936100168501 0 -0.035707936199888851 -0.020003604145881058 0 -0.035780159875879687 -0.018455300403394374 0 -0.036339563721370295 -0.019166936100168501 0 -0.036192191754262859 -0.018289706546445086 0 -0.035780159875879687 -0.018455300403394374 0 -0.035780159875879687 -0.018455300403394374 0 -0.035555940282275662 -0.017566084023106505 0 -0.035972645275027193 -0.017637054980992967 0 -0.036192191754262859 -0.018289706546445086 0 -0.035780159875879687 -0.018455300403394374 0 -0.035972645275027193 -0.017637054980992967 0 -0.036308059865810705 -0.017742325909947294 0 -0.036192191754262859 -0.018289706546445086 0 -0.035972645275027193 -0.017637054980992967 0 -0.034999547711266635 -0.018897477476973665 0 -0.035000046231442643 -0.016818756281945554 0 -0.035555940282275662 -0.017566084023106505 0 -0.034999547711266635 -0.018897477476973665 0 -0.035780159875879687 -0.018455300403394374 0 -0.035555940282275662 -0.017566084023106505 0 -0.035000046231442643 -0.016818756281945554 0 -0.03555640129951379 -0.016747817233854791 0 -0.035555940282275662 -0.017566084023106505 0 -0.03555640129951379 -0.016747817233854791 0 -0.035555940282275662 -0.017566084023106505 0 -0.035843266048436899 -0.01707348703508306 0 -0.035555940282275662 -0.017566084023106505 0 -0.035972645275027193 -0.017637054980992967 0 -0.035843266048436899 -0.01707348703508306 0 -0.036308059865810705 -0.017742325909947294 0 -0.035972645275027193 -0.017637054980992967 0 -0.036081181493759051 -0.017087649534193752 0 -0.035972645275027193 -0.017637054980992967 0 -0.035843266048436899 -0.01707348703508306 0 -0.036081181493759051 -0.017087649534193752 0 -0.035843266048436899 -0.01707348703508306 0 -0.035874828092613519 -0.016671957850676759 0 -0.036081181493759051 -0.017087649534193752 0 -0.03555640129951379 -0.016747817233854791 0 -0.035843266048436899 -0.01707348703508306 0 -0.035874828092613519 -0.016671957850676759 0 -0.035874828092613519 -0.016671957850676759 0 -0.036081181493759051 -0.017087649534193752 0 -0.035941951751727631 -0.016777163641075368 0 -0.035874828092613519 -0.016671957850676759 0 -0.035941951751727631 -0.016777163641075368 0 -0.035965265826028839 -0.016636958685787604 0 -0.035874828092613519 -0.016671957850676759 0 -0.035464576089147187 -0.016029316964451566 0 -0.035965265826028839 -0.016636958685787604 0 -0.035000046231442643 -0.016818756281945554 0 -0.035464576089147187 -0.016029316964451566 0 -0.035000150445766799 -0.014738197361476234 0 -0.035000046231442643 -0.016818756281945554 0 -0.03555640129951379 -0.016747817233854791 0 -0.035464576089147187 -0.016029316964451566 0 -0.03555640129951379 -0.016747817233854791 0 -0.035874828092613519 -0.016671957850676759 0 -0.035464576089147187 -0.016029316964451566 0 -0.036832582730561871 -0.017626244962648349 0 -0.036430330128948044 -0.017104128776233119 0 -0.037036186894636121 -0.017523710902079787 0 -0.036669145969868693 -0.017908277118832382 0 -0.036832582730561871 -0.017626244962648349 0 -0.036425660614197525 -0.017394363074305846 0 -0.036425660614197525 -0.017394363074305846 0 -0.036134823025996868 -0.017011137009467353 0 -0.036430330128948044 -0.017104128776233119 0 -0.036832582730561871 -0.017626244962648349 0 -0.036425660614197525 -0.017394363074305846 0 -0.036430330128948044 -0.017104128776233119 0 -0.036425660614197525 -0.017394363074305846 0 -0.036081181493759051 -0.017087649534193752 0 -0.036134823025996868 -0.017011137009467353 0 -0.036669145969868693 -0.017908277118832382 0 -0.036308059865810705 -0.017742325909947294 0 -0.036425660614197525 -0.017394363074305846 0 -0.036308059865810705 -0.017742325909947294 0 -0.036425660614197525 -0.017394363074305846 0 -0.036081181493759051 -0.017087649534193752 0 -0.035941951751727631 -0.016777163641075368 0 -0.036134823025996868 -0.017011137009467353 0 -0.035835766866207083 -0.016894072988996187 0 -0.036081181493759051 -0.017087649534193752 0 -0.035941951751727631 -0.016777163641075368 0 -0.036134823025996868 -0.017011137009467353 0 -0.036430330128948044 -0.017104128776233119 0 -0.035835766866207083 -0.016894072988996187 0 -0.035643492729816949 -0.016847767369436835 0 -0.036134823025996868 -0.017011137009467353 0 -0.036430330128948044 -0.017104128776233119 0 -0.035835766866207083 -0.016894072988996187 0 -0.035835766866207083 -0.016894072988996187 0 -0.035304101208309534 -0.017159435431649796 0 -0.035643492729816949 -0.016847767369436835 0 -0.035941951751727631 -0.016777163641075368 0 -0.035751454704606084 -0.017008050569949869 0 -0.036006636399292725 -0.017051663867470642 0 -0.035941951751727631 -0.016777163641075368 0 -0.035835766866207083 -0.016894072988996187 0 -0.035751454704606084 -0.017008050569949869 0 -0.035835766866207083 -0.016894072988996187 0 -0.035751454704606084 -0.017008050569949869 0 -0.035304101208309534 -0.017159435431649796 0 -0.035751454704606084 -0.017008050569949869 0 -0.035718774754872167 -0.017551768544639582 0 -0.036006636399292725 -0.017051663867470642 0 -0.035718774754872167 -0.017551768544639582 0 -0.036134709732876961 -0.01778701517619577 0 -0.035780220492563478 -0.018535532441367891 0 -0.035718774754872167 -0.017551768544639582 0 -0.035304101208309534 -0.017159435431649796 0 -0.035085297143485759 -0.018155881910320998 0 -0.035718774754872167 -0.017551768544639582 0 -0.035780220492563478 -0.018535532441367891 0 -0.035085297143485759 -0.018155881910320998 0 -0.035751454704606084 -0.017008050569949869 0 -0.035718774754872167 -0.017551768544639582 0 -0.035304101208309534 -0.017159435431649796 0 -0.035304101208309534 -0.017159435431649796 0 -0.0340531292943397 -0.017686840350875373 0 -0.035643492729816949 -0.016847767369436835 0 -0.035304101208309534 -0.017159435431649796 0 -0.0340531292943397 -0.017686840350875373 0 -0.035085297143485759 -0.018155881910320998 0 -0.035464576089147187 -0.016029316964451566 0 -0.035965265826028839 -0.016636958685787604 0 -0.036519029331783789 -0.017153540776566376 0 -0.035569225349091446 -0.016071374573818353 0 -0.036118833268083857 -0.015723555722534911 0 -0.035464576089147187 -0.016029316964451566 0 -0.035000150445766799 -0.014738197361476234 0 -0.035873442779485301 -0.014037572249538364 0 -0.035941951751727631 -0.016777163641075368 0 -0.035965265826028839 -0.016636958685787604 0 -0.036006636399292725 -0.017051663867470642 0 -0.035965265826028839 -0.016636958685787604 0 -0.036006636399292725 -0.017051663867470642 0 -0.036519029331783789 -0.017153540776566376 0 -0.036134709732876961 -0.01778701517619577 0 -0.036519029331783789 -0.017153540776566376 0 -0.036634722275003959 -0.018839654830391652 0 -0.036118833268083857 -0.015723555722534911 0 -0.036493692322564074 -0.015301204204207568 0 -0.036006636399292725 -0.017051663867470642 0 -0.036134709732876961 -0.01778701517619577 0 -0.036519029331783789 -0.017153540776566376 0 -0.035718774754872167 -0.017551768544639582 0 -0.036006636399292725 -0.017051663867470642 0 -0.036134709732876961 -0.01778701517619577 0 -0.035000150445766799 -0.014738197361476234 0 -0.035873442779485301 -0.014037572249538364 0 -0.034999923155695015 -0.012657744932869634 0 -0.035873442779485301 -0.014037572249538364 0 -0.034999923155695015 -0.012657744932869634 0 -0.036287286173966454 -0.012310000498389933 0 -0.034999923155695015 -0.012657744932869634 0 -0.035903823963344003 -0.011329197149375584 0 -0.036287286173966454 -0.012310000498389933 0 -0.034999923155695015 -0.012657744932869634 0 -0.035903823963344003 -0.011329197149375584 0 -0.034999970909606042 -0.010578430961216818 0 -0.036634722275003959 -0.018839654830391652 0 -0.035795265363647959 -0.019576946402918825 0 -0.036096928888919626 -0.02038371498999458 0 -0.036493692322564074 -0.015301204204207568 0 -0.036070428262065329 -0.016894887047667586 0 -0.035903823963344003 -0.011329197149375584 0 -0.036287286173966454 -0.012310000498389933 0 -0.036511658702747411 -0.010826466414596152 0 -0.036634722275003959 -0.018839654830391652 0 -0.035780220492563478 -0.018535532441367891 0 -0.035795265363647959 -0.019576946402918825 0 -0.036134709732876961 -0.01778701517619577 0 -0.036634722275003959 -0.018839654830391652 0 -0.035780220492563478 -0.018535532441367891 0 -0.035780220492563478 -0.018535532441367891 0 -0.035085297143485759 -0.018155881910320998 0 -0.034999156161392271 -0.019566406225359455 0 -0.035780220492563478 -0.018535532441367891 0 -0.034999156161392271 -0.019566406225359455 0 -0.035795265363647959 -0.019576946402918825 0 -0.034067626047880342 -0.018930429266801191 0 -0.034999156161392271 -0.019566406225359455 0 -0.033215854297181102 -0.020181023146147635 0 -0.035085297143485759 -0.018155881910320998 0 -0.034067626047880342 -0.018930429266801191 0 -0.034999156161392271 -0.019566406225359455 0 -0.0340531292943397 -0.017686840350875373 0 -0.035085297143485759 -0.018155881910320998 0 -0.034067626047880342 -0.018930429266801191 0 -0.033823388685826003 -0.021024562335560746 0 -0.034999156161392271 -0.019566406225359455 0 -0.035363163454735794 -0.020404953348116522 0 -0.033823388685826003 -0.021024562335560746 0 -0.034999156161392271 -0.019566406225359455 0 -0.033215854297181102 -0.020181023146147635 0 -0.034999156161392271 -0.019566406225359455 0 -0.035795265363647959 -0.019576946402918825 0 -0.035363163454735794 -0.020404953348116522 0 -0.035795265363647959 -0.019576946402918825 0 -0.035363163454735794 -0.020404953348116522 0 -0.036096928888919626 -0.02038371498999458 0 -0.035363163454735794 -0.020404953348116522 0 -0.035509848310366972 -0.020749708582257755 0 -0.036096928888919626 -0.02038371498999458 0 -0.035363163454735794 -0.020404953348116522 0 -0.035509848310366972 -0.020749708582257755 0 -0.034940101866407683 -0.021050653847157697 0 -0.033823388685826003 -0.021024562335560746 0 -0.035363163454735794 -0.020404953348116522 0 -0.034940101866407683 -0.021050653847157697 0 -0.034940101866407683 -0.021050653847157697 0 -0.03471527239733873 -0.021282517987758629 0 -0.035603137874449665 -0.021022061358592577 0 -0.037598624157417923 -0.010159229847412887 0 -0.036449728218850376 -0.0095074711531197304 0 -0.035509848310366972 -0.020749708582257755 0 -0.034940101866407683 -0.021050653847157697 0 -0.035603137874449665 -0.021022061358592577 0 -0.035509848310366972 -0.020749708582257755 0 -0.035603137874449665 -0.021022061358592577 0 -0.036096928888919626 -0.02038371498999458 0 -0.036449728218850376 -0.0095074711531197304 0 -0.036351799301468112 -0.0093100027688926869 0 -0.03648849658773079 -0.01007375884100504 0 -0.036391161241613228 -0.0099823455069886716 0 -0.036283445490840255 -0.0099171583141486244 0 -0.036351799301468112 -0.0093100027688926869 0 -0.0362309686233988 -0.009802188828946054 0 -0.03648849658773079 -0.01007375884100504 0 -0.036283445490840255 -0.0099171583141486244 0 -0.036511658702747411 -0.010826466414596152 0 -0.036449728218850376 -0.0095074711531197304 0 -0.036070428262065329 -0.016894887047667586 0 -0.036676949966197386 -0.0093681996019816301 0 -0.036283445490840255 -0.0099171583141486244 0 -0.034999790313878433 -0.00849917004343613 0 -0.034999970909606042 -0.010578430961216818 0 -0.035805152149089192 -0.010285970012350052 0 -0.034999790313878433 -0.00849917004343613 0 -0.036283445490840255 -0.0099171583141486244 0 -0.035805152149089192 -0.010285970012350052 0 -0.034999790313878433 -0.00849917004343613 0 -0.035903823963344003 -0.011329197149375584 0 -0.034999970909606042 -0.010578430961216818 0 -0.035805152149089192 -0.010285970012350052 0 -0.036283445490840255 -0.0099171583141486244 0 -0.035805152149089192 -0.010285970012350052 0 -0.036511658702747411 -0.010826466414596152 0 -0.035903823963344003 -0.011329197149375584 0 -0.035805152149089192 -0.010285970012350052 0 -0.036511658702747411 -0.010826466414596152 0 -0.031790852861829755 -0.01944179128616411 0 -0.030477429417455282 -0.019727374983280123 0 -0.029347997297917559 -0.018821780134405698 0 -0.030477429417455282 -0.019727374983280123 0 -0.031479350873448921 -0.020545412794495208 0 -0.029259071325952363 -0.020094301022867002 0 -0.029329365291183997 -0.021847805883456174 0 -0.0257661468049355 -0.021352229005788377 0 -0.031790852861829755 -0.01944179128616411 0 -0.030477429417455282 -0.019727374983280123 0 -0.031479350873448921 -0.020545412794495208 0 -0.037445189090191254 0.0018692696410838173 0 -0.036633037073866913 0.0013949923774696708 0 -0.037550850644660558 0.0010143473618466916 0 -0.037445189090191254 0.0018692696410838173 0 -0.036174434837331175 0.0025058451871788176 0 -0.036633037073866913 0.0013949923774696708 0 -0.034490247503684124 -0.0093270498487595006 0 -0.032585209291942197 -0.0088433967839613489 0 -0.031790852861829755 -0.01944179128616411 0 -0.031479350873448921 -0.020545412794495208 0 -0.033411508274066318 -0.020981509926708927 0 -0.034490247503684124 -0.0093270498487595006 0 -0.035919232277803123 -0.0097502112158972254 0 -0.037445189090191254 0.0018692696410838173 0 -0.03861708933865271 0.00144399710801943 0 -0.037550850644660558 0.0010143473618466916 0 -0.03471527239733873 -0.021282517987758629 0 -0.033411508274066318 -0.020981509926708927 0 -0.03381265543052954 -0.020181751618578644 0 -0.037598624157417923 -0.010159229847412887 0 -0.035919232277803123 -0.0097502112158972254 0 -0.034940101866407683 -0.021050653847157697 0 -0.03471527239733873 -0.021282517987758629 0 -0.03381265543052954 -0.020181751618578644 0 -0.039763134306747626 0.0010913758731359285 0 -0.03861708933865271 0.00144399710801943 0 -0.038901254293543644 0.00069387264762922271 0 -0.033823388685826003 -0.021024562335560746 0 -0.034940101866407683 -0.021050653847157697 0 -0.031890284658798174 -0.022983204183779939 0 -0.034687949832518425 -0.021153333668386336 0 -0.032745339843563384 -0.021543599499102339 0 -0.029329365291183997 -0.021847805883456174 0 -0.032745339843563384 -0.021543599499102339 0 -0.031790852861829755 -0.01944179128616411 0 -0.033411508274066318 -0.020981509926708927 0 -0.03381265543052954 -0.020181751618578644 0 -0.027234692451949576 -0.02428877475957451 0 -0.031890284658798174 -0.022983204183779939 0 -0.029646896365074175 -0.021987574178359053 0 -0.031890284658798174 -0.022983204183779939 0 -0.029646896365074175 -0.021987574178359053 0 -0.031702955299412881 -0.020917843909248078 0 -0.029646896365074175 -0.021987574178359053 0 -0.031702955299412881 -0.020917843909248078 0 -0.03014342148767158 -0.020019361843601719 0 -0.033823388685826003 -0.021024562335560746 0 -0.031702955299412881 -0.020917843909248078 0 -0.033215854297181102 -0.020181023146147635 0 -0.033823388685826003 -0.021024562335560746 0 -0.031890284658798174 -0.022983204183779939 0 -0.031702955299412881 -0.020917843909248078 0 -0.031702955299412881 -0.020917843909248078 0 -0.033215854297181102 -0.020181023146147635 0 -0.032072784371157313 -0.018685940895224618 0 -0.034067626047880342 -0.018930429266801191 0 -0.033215854297181102 -0.020181023146147635 0 -0.032072784371157313 -0.018685940895224618 0 -0.0340531292943397 -0.017686840350875373 0 -0.034067626047880342 -0.018930429266801191 0 -0.032072784371157313 -0.018685940895224618 0 -0.031702955299412881 -0.020917843909248078 0 -0.032072784371157313 -0.018685940895224618 0 -0.03014342148767158 -0.020019361843601719 0 -0.032072784371157313 -0.018685940895224618 0 -0.03014342148767158 -0.020019361843601719 0 -0.030033223794431751 -0.018480945410761018 0 -0.03014342148767158 -0.020019361843601719 0 -0.030033223794431751 -0.018480945410761018 0 -0.028325747649267416 -0.018854476394320082 0 -0.028325747649267416 -0.018854476394320082 0 -0.026291611476022967 -0.018997174262720823 0 -0.02725334129997407 -0.016884656834733863 0 -0.028325747649267416 -0.018854476394320082 0 -0.028404146384356274 -0.020503952620317786 0 -0.026544099652313101 -0.020796536340370177 0 -0.028325747649267416 -0.018854476394320082 0 -0.026544099652313101 -0.020796536340370177 0 -0.026291611476022967 -0.018997174262720823 0 -0.03014342148767158 -0.020019361843601719 0 -0.028325747649267416 -0.018854476394320082 0 -0.028404146384356274 -0.020503952620317786 0 -0.029646896365074175 -0.021987574178359053 0 -0.028404146384356274 -0.020503952620317786 0 -0.027518231405718491 -0.022045056503740234 0 -0.029646896365074175 -0.021987574178359053 0 -0.03014342148767158 -0.020019361843601719 0 -0.028404146384356274 -0.020503952620317786 0 -0.028404146384356274 -0.020503952620317786 0 -0.027518231405718491 -0.022045056503740234 0 -0.026544099652313101 -0.020796536340370177 0 -0.027234692451949576 -0.02428877475957451 0 -0.029646896365074175 -0.021987574178359053 0 -0.027518231405718491 -0.022045056503740234 0 -0.027234692451949576 -0.02428877475957451 0 -0.024565390220743666 -0.022431912364686054 0 -0.021404542209545397 -0.024377492371930692 0 -0.027234692451949576 -0.02428877475957451 0 -0.027518231405718491 -0.022045056503740234 0 -0.024565390220743666 -0.022431912364686054 0 -0.024565390220743666 -0.022431912364686054 0 -0.024557074004014297 -0.020489004692116848 0 -0.026544099652313101 -0.020796536340370177 0 -0.027518231405718491 -0.022045056503740234 0 -0.024565390220743666 -0.022431912364686054 0 -0.026544099652313101 -0.020796536340370177 0 -0.024557074004014297 -0.020489004692116848 0 -0.026544099652313101 -0.020796536340370177 0 -0.026291611476022967 -0.018997174262720823 0 -0.024557074004014297 -0.020489004692116848 0 -0.026291611476022967 -0.018997174262720823 0 -0.024597249399485207 -0.017616093636542977 0 -0.021686997063027399 -0.020981055610083177 0 -0.026367453261383914 -0.018166539297578783 0 -0.024597249399485207 -0.017616093636542977 0 -0.02725334129997407 -0.016884656834733863 0 -0.028254199047172777 -0.014508986626679236 0 -0.01947527701166147 -0.02368312451961915 0 -0.02039684439442235 -0.023664526708126014 0 -0.019756476620650217 -0.023677766941928545 0 -0.01947527701166147 -0.02368312451961915 0 -0.019756476620650217 -0.023677766941928545 0 -0.019601738228282366 -0.02375398171864513 0 -0.026291611476022967 -0.018997174262720823 0 -0.024597249399485207 -0.017616093636542977 0 -0.02725334129997407 -0.016884656834733863 0 -0.028325747649267416 -0.018854476394320082 0 -0.029126819992532454 -0.016844767883727674 0 -0.02725334129997407 -0.016884656834733863 0 -0.030033223794431751 -0.018480945410761018 0 -0.028325747649267416 -0.018854476394320082 0 -0.029126819992532454 -0.016844767883727674 0 -0.027714038052679982 -0.015730784990107827 0 -0.026367453261383914 -0.018166539297578783 0 -0.029126819992532454 -0.016844767883727674 0 -0.02725334129997407 -0.016884656834733863 0 -0.028463208117703018 -0.015516961086856606 0 -0.029126819992532454 -0.016844767883727674 0 -0.028463208117703018 -0.015516961086856606 0 -0.030119943028015572 -0.01572215509842927 0 -0.028463208117703018 -0.015516961086856606 0 -0.030119943028015572 -0.01572215509842927 0 -0.030137649557186362 -0.014707987961856728 0 -0.026367453261383914 -0.018166539297578783 0 -0.030658512517021876 -0.01473505908876281 0 -0.02039684439442235 -0.023664526708126014 0 -0.019981739801304632 -0.023544583570446798 0 -0.020092585001963016 -0.023140490081994671 0 -0.02039684439442235 -0.023664526708126014 0 -0.019981739801304632 -0.023544583570446798 0 -0.019756476620650217 -0.023677766941928545 0 -0.019981739801304632 -0.023544583570446798 0 -0.020092585001963016 -0.023140490081994671 0 -0.019664929589911853 -0.023654346148544225 0 -0.019981739801304632 -0.023544583570446798 0 -0.019756476620650217 -0.023677766941928545 0 -0.019664929589911853 -0.023654346148544225 0 -0.0340531292943397 -0.017686840350875373 0 -0.032072784371157313 -0.018685940895224618 0 -0.031685287294333613 -0.016384970792232605 0 -0.0340531292943397 -0.017686840350875373 0 -0.031685287294333613 -0.016384970792232605 0 -0.032454724184572632 -0.015311912824446331 0 -0.034131628922928134 -0.017689109869546037 0 -0.0340685355154767 -0.016313968105002099 0 -0.032072784371157313 -0.018685940895224618 0 -0.031685287294333613 -0.016384970792232605 0 -0.030551283248399279 -0.01708844427566205 0 -0.031685287294333613 -0.016384970792232605 0 -0.030551283248399279 -0.01708844427566205 0 -0.030119943028015572 -0.01572215509842927 0 -0.032072784371157313 -0.018685940895224618 0 -0.030033223794431751 -0.018480945410761018 0 -0.030551283248399279 -0.01708844427566205 0 -0.030033223794431751 -0.018480945410761018 0 -0.029126819992532454 -0.016844767883727674 0 -0.030551283248399279 -0.01708844427566205 0 -0.029126819992532454 -0.016844767883727674 0 -0.030551283248399279 -0.01708844427566205 0 -0.030119943028015572 -0.01572215509842927 0 -0.031685287294333613 -0.016384970792232605 0 -0.030119943028015572 -0.01572215509842927 0 -0.031271189927550076 -0.014917929701202641 0 -0.030119943028015572 -0.01572215509842927 0 -0.031271189927550076 -0.014917929701202641 0 -0.030137649557186362 -0.014707987961856728 0 -0.031685287294333613 -0.016384970792232605 0 -0.032454724184572632 -0.015311912824446331 0 -0.031271189927550076 -0.014917929701202641 0 -0.036430330128948044 -0.017104128776233119 0 -0.035643492729816949 -0.016847767369436835 0 -0.036965386920849871 -0.017182854316959879 0 -0.032454724184572632 -0.015311912824446331 0 -0.031271189927550076 -0.014917929701202641 0 -0.031356219380331 -0.014503535281735862 0 -0.0340685355154767 -0.016313968105002099 0 -0.034205510224295535 -0.015853667704292626 0 -0.031271189927550076 -0.014917929701202641 0 -0.031060318655187488 -0.014625694257444874 0 -0.031356219380331 -0.014503535281735862 0 -0.031271189927550076 -0.014917929701202641 0 -0.030137649557186362 -0.014707987961856728 0 -0.031060318655187488 -0.014625694257444874 0 -0.030658512517021876 -0.01473505908876281 0 -0.0307777463047238 -0.014844043858435952 0 -0.030560196431998681 -0.015567385488623726 0 -0.030732222165230659 -0.014755689070162937 0 -0.031060318655187488 -0.014625694257444874 0 -0.030560196431998681 -0.015567385488623726 0 -0.030732222165230659 -0.014755689070162937 0 -0.030310825327739994 -0.015050318041606647 0 -0.026603415570889355 -0.016934633215201181 0 -0.025375041653212034 -0.019533611146602618 0 -0.0308743923522545 -0.014484507260193225 0 -0.030732222165230659 -0.014755689070162937 0 -0.030310825327739994 -0.015050318041606647 0 -0.0308743923522545 -0.014484507260193225 0 -0.030732222165230659 -0.014755689070162937 0 -0.030933009127228215 -0.014565579325464567 0 -0.030941363371032454 -0.014498701336305347 0 -0.030933009127228215 -0.014565579325464567 0 -0.031056536294557728 -0.014520965101667348 0 -0.0308743923522545 -0.014484507260193225 0 -0.030941363371032454 -0.014498701336305347 0 -0.030933009127228215 -0.014565579325464567 0 -0.030933009127228215 -0.014565579325464567 0 -0.031056536294557728 -0.014520965101667348 0 -0.031060318655187488 -0.014625694257444874 0 -0.030732222165230659 -0.014755689070162937 0 -0.030933009127228215 -0.014565579325464567 0 -0.031060318655187488 -0.014625694257444874 0 -0.030926059663442012 -0.014520578345836685 0 -0.031056536294557728 -0.014520965101667348 0 -0.031356219380331 -0.014503535281735862 0 -0.037732438648648496 -0.0179114997448989 0 -0.038045275774048273 -0.018149400698452969 0 -0.036965386920849871 -0.017182854316959879 0 -0.034174203911882244 -0.016885869315603045 0 -0.034205510224295535 -0.015853667704292626 0 -0.037732438648648496 -0.0179114997448989 0 -0.036965386920849871 -0.017182854316959879 0 -0.037036186894636121 -0.017523710902079787 0 -0.031056536294557728 -0.014520965101667348 0 -0.031060318655187488 -0.014625694257444874 0 -0.031356219380331 -0.014503535281735862 0 -0.037301499088549545 -0.017885087247245721 0 -0.036832582730561871 -0.017626244962648349 0 -0.037036186894636121 -0.017523710902079787 0 -0.037732438648648496 -0.0179114997448989 0 -0.037301499088549545 -0.017885087247245721 0 -0.037036186894636121 -0.017523710902079787 0 -0.036430330128948044 -0.017104128776233119 0 -0.036965386920849871 -0.017182854316959879 0 -0.037036186894636121 -0.017523710902079787 0 -0.020092585001963016 -0.023140490081994671 0 -0.02044558802001795 -0.022632362527666986 0 -0.019762738463336642 -0.022305315365624856 0 -0.020092585001963016 -0.023140490081994671 0 -0.019762738463336642 -0.022305315365624856 0 -0.019632518959251968 -0.02315583025118648 0 -0.020092585001963016 -0.023140490081994671 0 -0.019632518959251968 -0.02315583025118648 0 -0.019664929589911853 -0.023654346148544225 0 -0.029696403024662553 -0.016466088975259176 0 -0.030560196431998681 -0.015567385488623726 0 -0.030310825327739994 -0.015050318041606647 0 -0.020092585001963016 -0.023140490081994671 0 -0.020979187057056731 -0.022735345590513295 0 -0.02044558802001795 -0.022632362527666986 0 -0.02039684439442235 -0.023664526708126014 0 -0.020092585001963016 -0.023140490081994671 0 -0.020979187057056731 -0.022735345590513295 0 -0.026367453261383914 -0.018166539297578783 0 -0.025375041653212034 -0.019533611146602618 0 -0.020979187057056731 -0.022735345590513295 0 -0.02044558802001795 -0.022632362527666986 0 -0.020748915793996882 -0.022104176327382413 0 -0.021400665173229309 -0.021625068646282879 0 -0.020979187057056731 -0.022735345590513295 0 -0.020748915793996882 -0.022104176327382413 0 -0.020724885789230096 -0.021357114355255953 0 -0.020748915793996882 -0.022104176327382413 0 -0.019762738463336642 -0.022305315365624856 0 -0.02044558802001795 -0.022632362527666986 0 -0.020748915793996882 -0.022104176327382413 0 -0.019762738463336642 -0.022305315365624856 0 -0.018147857805138803 -0.025052513548259166 0 -0.018061312745891765 -0.025076241097376967 0 -0.016904787782855528 -0.028907248447593174 0 -0.016041776573557591 -0.028154663720753849 0 -0.016834101125835169 -0.026898788756894589 0 -0.019632518959251968 -0.02315583025118648 0 -0.019193030015665274 -0.023255239944484307 0 -0.019282416218588418 -0.023986448442601706 0 -0.019762738463336642 -0.022305315365624856 0 -0.019632518959251968 -0.02315583025118648 0 -0.019193030015665274 -0.023255239944484307 0 -0.018061312745891765 -0.025076241097376967 0 -0.018802679812191293 -0.024668026527497257 0 -0.016904787782855528 -0.028907248447593174 0 -0.016834101125835169 -0.026898788756894589 0 -0.017993388661042893 -0.028398730024466287 0 -0.016834101125835169 -0.026898788756894589 0 -0.017993388661042893 -0.028398730024466287 0 -0.018863630651997129 -0.026903649558315448 0 -0.017993388661042893 -0.028398730024466287 0 -0.01892776642509687 -0.028468786846726584 0 -0.018863630651997129 -0.026903649558315448 0 -0.019331463897065797 -0.029671664510563654 0 -0.01951069213527212 -0.027827227448743518 0 -0.01892776642509687 -0.028468786846726584 0 -0.01951069213527212 -0.027827227448743518 0 -0.01892776642509687 -0.028468786846726584 0 -0.018863630651997129 -0.026903649558315448 0 -0.01951069213527212 -0.027827227448743518 0 -0.019761601496604074 -0.025754895871269744 0 -0.018863630651997129 -0.026903649558315448 0 -0.019761601496604074 -0.025754895871269744 0 -0.018863630651997129 -0.026903649558315448 0 -0.018789266147343702 -0.024728763226822777 0 -0.016834101125835169 -0.026898788756894589 0 -0.018863630651997129 -0.026903649558315448 0 -0.018789266147343702 -0.024728763226822777 0 -0.018789266147343702 -0.024728763226822777 0 -0.019651133783947877 -0.024368122507236557 0 -0.019338222266966309 -0.023998970125964782 0 -0.019761601496604074 -0.025754895871269744 0 -0.019651133783947877 -0.024368122507236557 0 -0.020359063641106834 -0.024400437317740175 0 -0.019761601496604074 -0.025754895871269744 0 -0.018789266147343702 -0.024728763226822777 0 -0.019651133783947877 -0.024368122507236557 0 -0.019651133783947877 -0.024368122507236557 0 -0.020006371536050518 -0.023834052591650088 0 -0.020359063641106834 -0.024400437317740175 0 -0.019651133783947877 -0.024368122507236557 0 -0.020006371536050518 -0.023834052591650088 0 -0.019693932749974833 -0.023643213222418989 0 -0.019338222266966309 -0.023998970125964782 0 -0.019633695951800385 -0.02359584245887723 0 -0.019627903355995222 -0.023453129219124836 0 -0.019651133783947877 -0.024368122507236557 0 -0.019338222266966309 -0.023998970125964782 0 -0.019693932749974833 -0.023643213222418989 0 -0.019338222266966309 -0.023998970125964782 0 -0.019627903355995222 -0.023453129219124836 0 -0.019693932749974833 -0.023643213222418989 0 -0.019633695951800385 -0.02359584245887723 0 -0.019601738228282366 -0.02375398171864513 0 -0.019282416218588418 -0.023986448442601706 0 -0.019338222266966309 -0.023998970125964782 0 -0.019633695951800385 -0.02359584245887723 0 -0.019282416218588418 -0.023986448442601706 0 -0.019633695951800385 -0.02359584245887723 0 -0.019601738228282366 -0.02375398171864513 0 -0.019937754394885928 -0.023303481940979576 0 -0.01947527701166147 -0.02368312451961915 0 -0.019601738228282366 -0.02375398171864513 0 -0.019937754394885928 -0.023303481940979576 0 -0.019601738228282366 -0.02375398171864513 0 -0.019664929589911853 -0.023654346148544225 0 -0.019282416218588418 -0.023986448442601706 0 -0.019632518959251968 -0.02315583025118648 0 -0.019664929589911853 -0.023654346148544225 0 -0.019282416218588418 -0.023986448442601706 0 -0.019756476620650217 -0.023677766941928545 0 -0.019601738228282366 -0.02375398171864513 0 -0.019664929589911853 -0.023654346148544225 0 -0.019193030015665274 -0.023255239944484307 0 -0.018789266147343702 -0.024728763226822777 0 -0.019282416218588418 -0.023986448442601706 0 -0.018789266147343702 -0.024728763226822777 0 -0.019338222266966309 -0.023998970125964782 0 -0.019282416218588418 -0.023986448442601706 0 -0.022033464754077456 -0.022209394078347502 0 -0.02206299917897037 -0.022212845795665143 0 -0.022033771511621641 -0.022231946634131253 0 -0.020488150625081369 -0.026921193914666665 0 -0.021631417955432875 -0.025111639592093372 0 -0.020488150625081369 -0.026921193914666665 0 -0.020430055280122827 -0.029309058949878088 0 -0.019114949276402279 -0.031219383908008526 0 -0.019098366560855316 -0.031181257495083773 0 -0.019155919073729599 -0.031183939351413059 0 -0.020735802689444062 -0.027132286849772404 0 -0.021047365738408191 -0.026872977404663368 0 -0.021108905058875017 -0.027063016098594836 0 -0.019114949276402279 -0.031219383908008526 0 -0.019098366560855316 -0.031181257495083773 0 -0.019053180415401782 -0.031188374833355407 0 -0.019544551678500006 -0.030906496426002242 0 -0.019398163698335746 -0.031034359913844546 0 -0.02013952406646384 -0.031628062441713865 0 -0.020430055280122827 -0.029309058949878088 0 -0.01823921683690103 -0.03366637731884712 0 -0.019098366560855316 -0.031181257495083773 0 -0.019155919073729599 -0.031183939351413059 0 -0.019069239111382367 -0.031134010889915638 0 -0.020430055280122827 -0.029309058949878088 0 -0.021279570400038913 -0.028884753674236301 0 -0.021279570400038913 -0.028884753674236301 0 -0.021372363634085519 -0.027326777085894469 0 -0.021437290285343757 -0.028704015803989555 0 -0.021221401646792537 -0.02889302079620502 0 -0.021293873041828594 -0.028537670173722895 0 -0.023141065475272348 -0.027862514258388548 0 -0.022108641595103388 -0.02697426033938205 0 -0.021467769486756851 -0.027908635260321269 0 -0.023141065475272348 -0.027862514258388548 0 -0.022108641595103388 -0.02697426033938205 0 -0.023243320339553914 -0.027071916564907733 0 -0.022102766673056995 -0.025980339826228785 0 -0.022045201444090452 -0.025856004076511344 0 -0.021478808304729056 -0.025273212164007779 0 -0.022108641595103388 -0.02697426033938205 0 -0.023243320339553914 -0.027071916564907733 0 -0.021478808304729056 -0.025273212164007779 0 -0.021372363634085519 -0.027326777085894469 0 -0.021846417310187733 -0.025245265793730987 0 -0.021372363634085519 -0.027326777085894469 0 -0.021631417955432875 -0.025111639592093372 0 -0.021047365738408191 -0.026872977404663368 0 -0.021130295119439511 -0.026963816073225049 0 -0.021108905058875017 -0.027063016098594836 0 -0.020430055280122827 -0.029309058949878088 0 -0.021372363634085519 -0.027326777085894469 0 -0.022102766673056995 -0.025980339826228785 0 -0.022045201444090452 -0.025856004076511344 0 -0.022129205910627236 -0.025839132943594703 0 -0.021691520908057062 -0.02514006484725886 0 -0.021631417955432875 -0.025111639592093372 0 -0.022045201444090452 -0.025856004076511344 0 -0.022154093756663672 -0.025846002012184732 0 -0.021981056244181157 -0.025260183532192945 0 -0.022045201444090452 -0.025856004076511344 0 -0.021478808304729056 -0.025273212164007779 0 -0.021981056244181157 -0.025260183532192945 0 -0.021144747213839094 -0.026896889942769984 0 -0.020621897681686575 -0.025517073225619111 0 -0.021478808304729056 -0.025273212164007779 0 -0.022108641595103388 -0.02697426033938205 0 -0.021144747213839094 -0.026896889942769984 0 -0.021478808304729056 -0.025273212164007779 0 -0.022108641595103388 -0.02697426033938205 0 -0.021144747213839094 -0.026896889942769984 0 -0.021467769486756851 -0.027908635260321269 0 -0.020366376375021079 -0.029820106761974729 0 -0.023141065475272348 -0.027862514258388548 0 -0.021467769486756851 -0.027908635260321269 0 -0.020366376375021079 -0.029820106761974729 0 -0.021467769486756851 -0.027908635260321269 0 -0.020662299808960113 -0.028136797267343257 0 -0.020966755331241226 -0.029392891631557332 0 -0.021279570400038913 -0.028884753674236301 0 -0.020366376375021079 -0.029820106761974729 0 -0.020662299808960113 -0.028136797267343257 0 -0.019944942949696311 -0.02891406916805251 0 -0.021144747213839094 -0.026896889942769984 0 -0.020662299808960113 -0.028136797267343257 0 -0.020302208054545211 -0.027189536211612537 0 -0.021144747213839094 -0.026896889942769984 0 -0.021467769486756851 -0.027908635260321269 0 -0.020662299808960113 -0.028136797267343257 0 -0.020662299808960113 -0.028136797267343257 0 -0.019944942949696311 -0.02891406916805251 0 -0.020302208054545211 -0.027189536211612537 0 -0.019331463897065797 -0.029671664510563654 0 -0.01951069213527212 -0.027827227448743518 0 -0.019944942949696311 -0.02891406916805251 0 -0.01951069213527212 -0.027827227448743518 0 -0.019944942949696311 -0.02891406916805251 0 -0.020302208054545211 -0.027189536211612537 0 -0.019761601496604074 -0.025754895871269744 0 -0.020302208054545211 -0.027189536211612537 0 -0.020621897681686575 -0.025517073225619111 0 -0.021144747213839094 -0.026896889942769984 0 -0.020302208054545211 -0.027189536211612537 0 -0.020621897681686575 -0.025517073225619111 0 -0.01951069213527212 -0.027827227448743518 0 -0.019761601496604074 -0.025754895871269744 0 -0.020302208054545211 -0.027189536211612537 0 -0.019761601496604074 -0.025754895871269744 0 -0.020621897681686575 -0.025517073225619111 0 -0.020359063641106834 -0.024400437317740175 0 -0.020621897681686575 -0.025517073225619111 0 -0.020359063641106834 -0.024400437317740175 0 -0.020980351188676704 -0.024184418334829923 0 -0.020359063641106834 -0.024400437317740175 0 -0.020980351188676704 -0.024184418334829923 0 -0.020433238721525703 -0.023599458442435054 0 -0.020006371536050518 -0.023834052591650088 0 -0.020359063641106834 -0.024400437317740175 0 -0.020433238721525703 -0.023599458442435054 0 -0.020980351188676704 -0.024184418334829923 0 -0.021478808304729056 -0.025273212164007779 0 -0.021594169286828425 -0.024137752866203233 0 -0.020980351188676704 -0.024184418334829923 0 -0.021594169286828425 -0.024137752866203233 0 -0.02126242776920621 -0.023701664827548197 0 -0.020621897681686575 -0.025517073225619111 0 -0.020980351188676704 -0.024184418334829923 0 -0.021478808304729056 -0.025273212164007779 0 -0.022154093756663672 -0.025846002012184732 0 -0.021981056244181157 -0.025260183532192945 0 -0.02235944514004172 -0.024480345762188667 0 -0.021631417955432875 -0.025111639592093372 0 -0.022299198534822651 -0.023129170913965685 0 -0.021478808304729056 -0.025273212164007779 0 -0.021921670242137578 -0.024710753389955164 0 -0.021594169286828425 -0.024137752866203233 0 -0.021478808304729056 -0.025273212164007779 0 -0.021981056244181157 -0.025260183532192945 0 -0.021921670242137578 -0.024710753389955164 0 -0.021981056244181157 -0.025260183532192945 0 -0.021921670242137578 -0.024710753389955164 0 -0.02235944514004172 -0.024480345762188667 0 -0.021921670242137578 -0.024710753389955164 0 -0.021594169286828425 -0.024137752866203233 0 -0.021928922403062767 -0.024243307183365606 0 -0.021928922403062767 -0.024243307183365606 0 -0.02235944514004172 -0.024480345762188667 0 -0.021850152312165715 -0.023669096492956898 0 -0.021594169286828425 -0.024137752866203233 0 -0.021928922403062767 -0.024243307183365606 0 -0.021850152312165715 -0.023669096492956898 0 -0.021921670242137578 -0.024710753389955164 0 -0.021928922403062767 -0.024243307183365606 0 -0.02235944514004172 -0.024480345762188667 0 -0.022129718047368581 -0.022261443133419358 0 -0.022034902137775991 -0.022418481533459333 0 -0.022033771511621641 -0.022231946634131253 0 -0.022129718047368581 -0.022261443133419358 0 -0.022034902137775991 -0.022418481533459333 0 -0.022032293404961822 -0.023055330314138464 0 -0.022034902137775991 -0.022418481533459333 0 -0.021685585786370212 -0.022439716804362783 0 -0.021445683936164844 -0.022131226326409719 0 -0.022299198534822651 -0.023129170913965685 0 -0.022041279538301185 -0.023223585332374671 0 -0.022034902137775991 -0.022418481533459333 0 -0.021789610003511133 -0.022687476879482475 0 -0.021685585786370212 -0.022439716804362783 0 -0.02206299917897037 -0.022212845795665143 0 -0.022129718047368581 -0.022261443133419358 0 -0.022033771511621641 -0.022231946634131253 0 -0.022034902137775991 -0.022418481533459333 0 -0.022033771511621641 -0.022231946634131253 0 -0.021933942133341291 -0.022230519086893226 0 -0.022147695228381132 -0.022225015070434603 0 -0.021071437368994528 -0.022577786242329752 0 -0.022033464754077456 -0.022209394078347502 0 -0.022033771511621641 -0.022231946634131253 0 -0.021933942133341291 -0.022230519086893226 0 -0.021838169662505891 -0.022735865121245379 0 -0.021928997468728083 -0.022533960227637959 0 -0.021728666539341763 -0.022146525577435881 0 -0.021782475530949641 -0.022735683524150733 0 -0.021618581037969146 -0.02272163311189835 0 -0.022032293404961822 -0.023055330314138464 0 -0.021838169662505891 -0.022735865121245379 0 -0.021660552423280664 -0.023336012762956441 0 -0.022032293404961822 -0.023055330314138464 0 -0.021789610003511133 -0.022687476879482475 0 -0.021530626185022054 -0.02292961793258283 0 -0.022034902137775991 -0.022418481533459333 0 -0.022032293404961822 -0.023055330314138464 0 -0.021789610003511133 -0.022687476879482475 0 -0.02235944514004172 -0.024480345762188667 0 -0.022032293404961822 -0.023055330314138464 0 -0.021850152312165715 -0.023669096492956898 0 -0.022032293404961822 -0.023055330314138464 0 -0.021850152312165715 -0.023669096492956898 0 -0.02171242315627632 -0.023129061904289414 0 -0.021594169286828425 -0.024137752866203233 0 -0.021850152312165715 -0.023669096492956898 0 -0.021560547590777957 -0.023509936780130403 0 -0.021850152312165715 -0.023669096492956898 0 -0.021560547590777957 -0.023509936780130403 0 -0.02171242315627632 -0.023129061904289414 0 -0.021560547590777957 -0.023509936780130403 0 -0.02171242315627632 -0.023129061904289414 0 -0.021324909902377343 -0.023231567840782019 0 -0.02171242315627632 -0.023129061904289414 0 -0.021504117878196852 -0.022854154430315344 0 -0.021324909902377343 -0.023231567840782019 0 -0.022032293404961822 -0.023055330314138464 0 -0.02171242315627632 -0.023129061904289414 0 -0.021838169662505891 -0.022735865121245379 0 -0.021838169662505891 -0.022735865121245379 0 -0.021504117878196852 -0.022854154430315344 0 -0.021432351351884968 -0.022441614130221946 0 -0.02171242315627632 -0.023129061904289414 0 -0.021838169662505891 -0.022735865121245379 0 -0.021504117878196852 -0.022854154430315344 0 -0.021068613440462847 -0.022950821438117292 0 -0.020370293320381382 -0.022812826341816 0 -0.021432351351884968 -0.022441614130221946 0 -0.021504117878196852 -0.022854154430315344 0 -0.021068613440462847 -0.022950821438117292 0 -0.021432351351884968 -0.022441614130221946 0 -0.021504117878196852 -0.022854154430315344 0 -0.021068613440462847 -0.022950821438117292 0 -0.021324909902377343 -0.023231567840782019 0 -0.020980351188676704 -0.024184418334829923 0 -0.02126242776920621 -0.023701664827548197 0 -0.020892827393000784 -0.023382541158664297 0 -0.021594169286828425 -0.024137752866203233 0 -0.021560547590777957 -0.023509936780130403 0 -0.02126242776920621 -0.023701664827548197 0 -0.021560547590777957 -0.023509936780130403 0 -0.021324909902377343 -0.023231567840782019 0 -0.02126242776920621 -0.023701664827548197 0 -0.021324909902377343 -0.023231567840782019 0 -0.02126242776920621 -0.023701664827548197 0 -0.020892827393000784 -0.023382541158664297 0 -0.021068613440462847 -0.022950821438117292 0 -0.021324909902377343 -0.023231567840782019 0 -0.020892827393000784 -0.023382541158664297 0 -0.020892827393000784 -0.023382541158664297 0 -0.020433238721525703 -0.023599458442435054 0 -0.020370293320381382 -0.022812826341816 0 -0.020980351188676704 -0.024184418334829923 0 -0.020892827393000784 -0.023382541158664297 0 -0.020433238721525703 -0.023599458442435054 0 -0.021068613440462847 -0.022950821438117292 0 -0.020892827393000784 -0.023382541158664297 0 -0.020370293320381382 -0.022812826341816 0 -0.020370293320381382 -0.022812826341816 0 -0.021432351351884968 -0.022441614130221946 0 -0.020274843452747202 -0.022225334330091454 0 -0.026240736153319455 -0.0015363763537760888 0 -0.025175875198498468 -0.011538450158322141 0 -0.021655800243245402 -0.015345599248347415 0 -0.025175875198498468 -0.011538450158322141 0 -0.029630761137975508 0.0011980918153522944 0 -0.027559042219564105 0.0016503038402474028 0 -0.030664189244803863 0.0031439524208406364 0 -0.029630761137975508 0.0011980918153522944 0 -0.027559042219564105 0.0016503038402474028 0 -0.028464896051808332 -0.00078505190822677833 0 -0.023307070055236596 -0.0077468729031170552 0 -0.023222748780736466 -0.0073930715087805517 0 -0.023953391555834664 -0.0075409491684244739 0 -0.021655800243245402 -0.015345599248347415 0 -0.022392136885147622 -0.014840813916801006 0 -0.023307070055236596 -0.0077468729031170552 0 -0.023222748780736466 -0.0073930715087805517 0 -0.022844155778369984 -0.0076199291730349623 0 -0.021838169662505891 -0.022735865121245379 0 -0.021432351351884968 -0.022441614130221946 0 -0.021928997468728083 -0.022533960227637959 0 -0.023222748780736466 -0.0073930715087805517 0 -0.022844155778369984 -0.0076199291730349623 0 -0.022519264384112548 -0.0072683144694010802 0 -0.023307070055236596 -0.0077468729031170552 0 -0.022844155778369984 -0.0076199291730349623 0 -0.022646300035935277 -0.0079491387802085346 0 -0.026240736153319455 -0.0015363763537760888 0 -0.02343270457637716 -0.0043592288460783946 0 -0.027559042219564105 0.0016503038402474028 0 -0.024675130653674944 0.00021136641689730031 0 -0.026235891948691796 -0.00051325053400231798 0 -0.022844155778369984 -0.0076199291730349623 0 -0.022646300035935277 -0.0079491387802085346 0 -0.022356716460014723 -0.0077004533151606366 0 -0.022844155778369984 -0.0076199291730349623 0 -0.022519264384112548 -0.0072683144694010802 0 -0.022356716460014723 -0.0077004533151606366 0 -0.019012303734991083 -0.023416110813793502 0 -0.019461438632884274 -0.023298885280592815 0 -0.021404542209545397 -0.024377492371930692 0 -0.021345294472680684 -0.022590130188107738 0 -0.0257661468049355 -0.021352229005788377 0 -0.020059850422515631 -0.023022733697702996 0 -0.019461438632884274 -0.023298885280592815 0 -0.021404542209545397 -0.024377492371930692 0 -0.020059850422515631 -0.023022733697702996 0 -0.020504950563858523 -0.022339234299689096 0 -0.019888595525842066 -0.023019675958689246 0 -0.020059850422515631 -0.023022733697702996 0 -0.019687574705809601 -0.023122111283603745 0 -0.019888595525842066 -0.023019675958689246 0 -0.020059850422515631 -0.023022733697702996 0 -0.019687574705809601 -0.023122111283603745 0 -0.019461438632884274 -0.023298885280592815 0 -0.024565390220743666 -0.022431912364686054 0 -0.020504950563858523 -0.022339234299689096 0 -0.021404542209545397 -0.024377492371930692 0 -0.020059850422515631 -0.023022733697702996 0 -0.020504950563858523 -0.022339234299689096 0 -0.021404542209545397 -0.024377492371930692 0 -0.024565390220743666 -0.022431912364686054 0 -0.024557074004014297 -0.020489004692116848 0 -0.020504950563858523 -0.022339234299689096 0 -0.024557074004014297 -0.020489004692116848 0 -0.024597249399485207 -0.017616093636542977 0 -0.020504950563858523 -0.022339234299689096 0 -0.01947527701166147 -0.02368312451961915 0 -0.020504950563858523 -0.022339234299689096 0 -0.019937754394885928 -0.023303481940979576 0 -0.021686997063027399 -0.020981055610083177 0 -0.020740216898010505 -0.022093883457253008 0 -0.019633695951800385 -0.02359584245887723 0 -0.019937754394885928 -0.023303481940979576 0 -0.019888595525842066 -0.023019675958689246 0 -0.020504950563858523 -0.022339234299689096 0 -0.019937754394885928 -0.023303481940979576 0 -0.019888595525842066 -0.023019675958689246 0 -0.019633695951800385 -0.02359584245887723 0 -0.019888595525842066 -0.023019675958689246 0 -0.019627903355995222 -0.023453129219124836 0 -0.019627903355995222 -0.023453129219124836 0 -0.019693932749974833 -0.023643213222418989 0 -0.019639568385392471 -0.023262579549861679 0 -0.019888595525842066 -0.023019675958689246 0 -0.019627903355995222 -0.023453129219124836 0 -0.019639568385392471 -0.023262579549861679 0 -0.019687574705809601 -0.023122111283603745 0 -0.019888595525842066 -0.023019675958689246 0 -0.019639568385392471 -0.023262579549861679 0 -0.020433238721525703 -0.023599458442435054 0 -0.020370293320381382 -0.022812826341816 0 -0.019976126291767506 -0.023339195769503461 0 -0.020006371536050518 -0.023834052591650088 0 -0.020433238721525703 -0.023599458442435054 0 -0.019976126291767506 -0.023339195769503461 0 -0.020006371536050518 -0.023834052591650088 0 -0.019693932749974833 -0.023643213222418989 0 -0.019976126291767506 -0.023339195769503461 0 -0.019639568385392471 -0.023262579549861679 0 -0.019976126291767506 -0.023339195769503461 0 -0.019801066474544403 -0.023147959339504632 0 -0.019693932749974833 -0.023643213222418989 0 -0.019639568385392471 -0.023262579549861679 0 -0.019976126291767506 -0.023339195769503461 0 -0.020370293320381382 -0.022812826341816 0 -0.019801066474544403 -0.023147959339504632 0 -0.019554950113021431 -0.023076593830474675 0 -0.019583309271976341 -0.022859718527076876 0 -0.021345294472680684 -0.022590130188107738 0 -0.020370293320381382 -0.022812826341816 0 -0.019976126291767506 -0.023339195769503461 0 -0.019801066474544403 -0.023147959339504632 0 -0.019687574705809601 -0.023122111283603745 0 -0.019639568385392471 -0.023262579549861679 0 -0.019598125281414622 -0.023187902501402961 0 -0.019687574705809601 -0.023122111283603745 0 -0.019598125281414622 -0.023187902501402961 0 -0.019461438632884274 -0.023298885280592815 0 -0.019639568385392471 -0.023262579549861679 0 -0.019598125281414622 -0.023187902501402961 0 -0.019801066474544403 -0.023147959339504632 0 -0.019598125281414622 -0.023187902501402961 0 -0.019801066474544403 -0.023147959339504632 0 -0.019554950113021431 -0.023076593830474675 0 -0.019598125281414622 -0.023187902501402961 0 -0.019554950113021431 -0.023076593830474675 0 -0.019461438632884274 -0.023298885280592815 0 -0.021345294472680684 -0.022590130188107738 0 -0.02002436280731669 -0.023145970911870754 0 -0.026882773483910744 -0.018395473376059433 0 -0.027017466331559249 -0.019616802114224643 0 -0.028122846740797881 -0.019229037788311882 0 -0.026882773483910744 -0.018395473376059433 0 -0.027017466331559249 -0.019616802114224643 0 -0.02489301082374016 -0.019193706099814054 0 -0.020370293320381382 -0.022812826341816 0 -0.019480873377878315 -0.022617998258964569 0 -0.020274843452747202 -0.022225334330091454 0 -0.021345294472680684 -0.022590130188107738 0 -0.025175875198498468 -0.011538450158322141 0 -0.030943082827866022 -0.0080382738327582585 0 -0.025175875198498468 -0.011538450158322141 0 -0.033824595113280079 0.0028439188042287439 0 -0.030664189244803863 0.0031439524208406364 0 -0.031863802399147559 0.00077256444377921726 0 -0.029630761137975508 0.0011980918153522944 0 -0.030664189244803863 0.0031439524208406364 0 -0.031863802399147559 0.00077256444377921726 0 -0.033137048351604234 0.0026161413264199013 0 -0.034937386502113123 0.0025665916793956426 0 -0.034614315684353518 0.0017045523285933221 0 -0.033824595113280079 0.0028439188042287439 0 -0.031863802399147559 0.00077256444377921726 0 -0.034937386502113123 0.0025665916793956426 0 -0.032454002352996045 0.001694130840303289 0 -0.034786407786588161 0.0025287463864726335 0 -0.03563989628193584 0.0017648743371889927 0 -0.034937386502113123 0.0025665916793956426 0 -0.034614315684353518 0.0017045523285933221 0 -0.03563989628193584 0.0017648743371889927 0 -0.034937386502113123 0.0025665916793956426 0 -0.036174434837331175 0.0025058451871788176 0 -0.030943082827866022 -0.0080382738327582585 0 -0.032585209291942197 -0.0088433967839613489 0 -0.033824595113280079 0.0028439188042287439 0 -0.034937386502113123 0.0025665916793956426 0 -0.036174434837331175 0.0025058451871788176 0 -0.026882773483910744 -0.018395473376059433 0 -0.028122846740797881 -0.019229037788311882 0 -0.029347997297917559 -0.018821780134405698 0 -0.027017466331559249 -0.019616802114224643 0 -0.028122846740797881 -0.019229037788311882 0 -0.029259071325952363 -0.020094301022867002 0 -0.028122846740797881 -0.019229037788311882 0 -0.029347997297917559 -0.018821780134405698 0 -0.029259071325952363 -0.020094301022867002 0 -0.030477429417455282 -0.019727374983280123 0 -0.029347997297917559 -0.018821780134405698 0 -0.029259071325952363 -0.020094301022867002 0 -0.03563989628193584 0.0017648743371889927 0 -0.036174434837331175 0.0025058451871788176 0 -0.036633037073866913 0.0013949923774696708 0 -0.03563989628193584 0.0017648743371889927 0 -0.036633037073866913 0.0013949923774696708 0 -0.035840558729947958 0.00073355877981921261 0 -0.036633037073866913 0.0013949923774696708 0 -0.035840558729947958 0.00073355877981921261 0 -0.036933822673586789 0.0004393837911073192 0 -0.035840558729947958 0.00073355877981921261 0 -0.036421625701732019 -0.0005283906598806988 0 -0.036933822673586789 0.0004393837911073192 0 -0.035614365391126203 -0.00019407908106555669 0 -0.035840558729947958 0.00073355877981921261 0 -0.034543984132168824 0.00055007108681773547 0 -0.035614365391126203 -0.00019407908106555669 0 -0.035840558729947958 0.00073355877981921261 0 -0.036421625701732019 -0.0005283906598806988 0 -0.03563989628193584 0.0017648743371889927 0 -0.035840558729947958 0.00073355877981921261 0 -0.034614315684353518 0.0017045523285933221 0 -0.035840558729947958 0.00073355877981921261 0 -0.034614315684353518 0.0017045523285933221 0 -0.034543984132168824 0.00055007108681773547 0 -0.033623763416572139 0.0015445604452041539 0 -0.034614315684353518 0.0017045523285933221 0 -0.034543984132168824 0.00055007108681773547 0 -0.033137048351604234 0.0026161413264199013 0 -0.033623763416572139 0.0015445604452041539 0 -0.034614315684353518 0.0017045523285933221 0 -0.033137048351604234 0.0026161413264199013 0 -0.033623763416572139 0.0015445604452041539 0 -0.032197001212211078 0.001424096877810789 0 -0.032919276425631881 -5.3182898517583843e-06 0 -0.032197001212211078 0.001424096877810789 0 -0.031075261014725686 0.00037798052677873899 0 -0.033623763416572139 0.0015445604452041539 0 -0.032919276425631881 -5.3182898517583843e-06 0 -0.032197001212211078 0.001424096877810789 0 -0.033623763416572139 0.0015445604452041539 0 -0.032919276425631881 -5.3182898517583843e-06 0 -0.034543984132168824 0.00055007108681773547 0 -0.035614365391126203 -0.00019407908106555669 0 -0.034543984132168824 0.00055007108681773547 0 -0.034318617020957877 -0.00093253763996569696 0 -0.032919276425631881 -5.3182898517583843e-06 0 -0.034543984132168824 0.00055007108681773547 0 -0.034318617020957877 -0.00093253763996569696 0 -0.032919276425631881 -5.3182898517583843e-06 0 -0.031901308432128767 -0.0022007646776180407 0 -0.031075261014725686 0.00037798052677873899 0 -0.032919276425631881 -5.3182898517583843e-06 0 -0.034318617020957877 -0.00093253763996569696 0 -0.031901308432128767 -0.0022007646776180407 0 -0.034318617020957877 -0.00093253763996569696 0 -0.031901308432128767 -0.0022007646776180407 0 -0.034057330660777936 -0.0034223290177122288 0 -0.036219432683846059 -0.0015010771034655954 0 -0.035906751578846589 -0.0023907263845609518 0 -0.034318617020957877 -0.00093253763996569696 0 -0.036212803058335255 -0.001434839478118133 0 -0.034057330660777936 -0.0034223290177122288 0 -0.036212803058335255 -0.001434839478118133 0 -0.036913569389632819 -0.0010226334391636291 0 -0.037521372084404321 -0.0011348539164655045 0 -0.036212803058335255 -0.001434839478118133 0 -0.03664655123160885 -0.0013592447152378855 0 -0.036913569389632819 -0.0010226334391636291 0 -0.03664655123160885 -0.0013592447152378855 0 -0.036421625701732019 -0.0005283906598806988 0 -0.037083539310080377 -0.00057739982836389021 0 -0.036212803058335255 -0.001434839478118133 0 -0.03664655123160885 -0.0013592447152378855 0 -0.036421625701732019 -0.0005283906598806988 0 -0.035614365391126203 -0.00019407908106555669 0 -0.034318617020957877 -0.00093253763996569696 0 -0.036212803058335255 -0.001434839478118133 0 -0.035614365391126203 -0.00019407908106555669 0 -0.036212803058335255 -0.001434839478118133 0 -0.036421625701732019 -0.0005283906598806988 0 -0.023784660603880927 -0.0025302127206831338 0 -0.024381694888557577 -0.001217666095813747 0 -0.02198467210740962 -0.0010914813389611817 0 -0.023784660603880927 -0.0025302127206831338 0 -0.025333526294755142 -0.0021306029224963776 0 -0.022488093729584577 -0.0033756245702470608 0 -0.025645464214881362 -0.00040301546824140442 0 -0.022405339078820429 -0.0007999523796981767 0 -0.023784660603880927 -0.0025302127206831338 0 -0.024381694888557577 -0.001217666095813747 0 -0.025333526294755142 -0.0021306029224963776 0 -0.02343270457637716 -0.0043592288460783946 0 -0.021934508654262167 -0.0028214904273645707 0 -0.022646300035935277 -0.0079491387802085346 0 -0.02216389360090219 -0.0080730455059551207 0 -0.022356716460014723 -0.0077004533151606366 0 -0.024675130653674944 0.00021136641689730031 0 -0.024381694888557577 -0.001217666095813747 0 -0.02198467210740962 -0.0010914813389611817 0 -0.024675130653674944 0.00021136641689730031 0 -0.024381694888557577 -0.001217666095813747 0 -0.026235891948691796 -0.00051325053400231798 0 -0.024381694888557577 -0.001217666095813747 0 -0.026235891948691796 -0.00051325053400231798 0 -0.025333526294755142 -0.0021306029224963776 0 -0.026235891948691796 -0.00051325053400231798 0 -0.025333526294755142 -0.0021306029224963776 0 -0.028464896051808332 -0.00078505190822677833 0 -0.026055141258086296 0.0016115139143533599 0 -0.029982829925248502 0.0024097048420579541 0 -0.027480614469755364 0.0003245892831724651 0 -0.026055141258086296 0.0016115139143533599 0 -0.027480614469755364 0.0003245892831724651 0 -0.02552393324906135 1.6030502052792498e-05 0 -0.025645464214881362 -0.00040301546824140442 0 -0.029190966310225549 0.00080584944735400147 0 -0.029982829925248502 0.0024097048420579541 0 -0.029166759830985857 -0.00023173747078185125 0 -0.027480614469755364 0.0003245892831724651 0 -0.027559042219564105 0.0016503038402474028 0 -0.026235891948691796 -0.00051325053400231798 0 -0.028464896051808332 -0.00078505190822677833 0 -0.032454002352996045 0.001694130840303289 0 -0.029190966310225549 0.00080584944735400147 0 -0.029630761137975508 0.0011980918153522944 0 -0.031863802399147559 0.00077256444377921726 0 -0.028464896051808332 -0.00078505190822677833 0 -0.033137048351604234 0.0026161413264199013 0 -0.032197001212211078 0.001424096877810789 0 -0.029982829925248502 0.0024097048420579541 0 -0.032197001212211078 0.001424096877810789 0 -0.029982829925248502 0.0024097048420579541 0 -0.031075261014725686 0.00037798052677873899 0 -0.029982829925248502 0.0024097048420579541 0 -0.031075261014725686 0.00037798052677873899 0 -0.029166759830985857 -0.00023173747078185125 0 -0.031075261014725686 0.00037798052677873899 0 -0.029812321636076892 -0.0020768514866105511 0 -0.029166759830985857 -0.00023173747078185125 0 -0.031901308432128767 -0.0022007646776180407 0 -0.031075261014725686 0.00037798052677873899 0 -0.029812321636076892 -0.0020768514866105511 0 -0.031901308432128767 -0.0022007646776180407 0 -0.029812321636076892 -0.0020768514866105511 0 -0.029633022887869773 -0.0040120522929788776 0 -0.029812321636076892 -0.0020768514866105511 0 -0.02708296756254612 -0.0027086514844349417 0 -0.029633022887869773 -0.0040120522929788776 0 -0.029812321636076892 -0.0020768514866105511 0 -0.029166759830985857 -0.00023173747078185125 0 -0.02708296756254612 -0.0027086514844349417 0 -0.026073134789356297 -0.0018458645605998918 0 -0.027429104101091503 -0.0028306158181377293 0 -0.029166759830985857 -0.00023173747078185125 0 -0.027480614469755364 0.0003245892831724651 0 -0.02708296756254612 -0.0027086514844349417 0 -0.027480614469755364 0.0003245892831724651 0 -0.02552393324906135 1.6030502052792498e-05 0 -0.02708296756254612 -0.0027086514844349417 0 -0.02552393324906135 1.6030502052792498e-05 0 -0.02708296756254612 -0.0027086514844349417 0 -0.024073066192389504 -0.0007508169455674676 0 -0.026073134789356297 -0.0018458645605998918 0 -0.024218659112674314 -0.00084192461964016847 0 -0.024913859973012233 -0.00098859277802378531 0 -0.023638588459623654 -0.0010990961217507967 0 -0.024073066192389504 -0.0007508169455674676 0 -0.024913859973012233 -0.00098859277802378531 0 -0.023638588459623654 -0.0010990961217507967 0 -0.024015935900922648 -0.0016685478660036883 0 -0.023638588459623654 -0.0010990961217507967 0 -0.024073066192389504 -0.0007508169455674676 0 -0.023442306198799289 -0.00050001480504828499 0 -0.026055141258086296 0.0016115139143533599 0 -0.023758107380516261 -7.2370839792278632e-05 0 -0.022222064511995581 0.00033499252229926535 0 -0.026055141258086296 0.0016115139143533599 0 -0.02552393324906135 1.6030502052792498e-05 0 -0.023758107380516261 -7.2370839792278632e-05 0 -0.024073066192389504 -0.0007508169455674676 0 -0.023758107380516261 -7.2370839792278632e-05 0 -0.023442306198799289 -0.00050001480504828499 0 -0.02552393324906135 1.6030502052792498e-05 0 -0.024073066192389504 -0.0007508169455674676 0 -0.023758107380516261 -7.2370839792278632e-05 0 -0.02413349069910831 -0.0031158595186988299 0 -0.023661519372234666 -0.0023891663968133563 0 -0.024815620195334908 -0.0021682019229733894 0 -0.023147893052320328 -0.0032269243299317585 0 -0.02413349069910831 -0.0031158595186988299 0 -0.023661519372234666 -0.0023891663968133563 0 -0.023147893052320328 -0.0032269243299317585 0 -0.023661519372234666 -0.0023891663968133563 0 -0.02275673050169752 -0.0026674026450918937 0 -0.023661519372234666 -0.0023891663968133563 0 -0.024015935900922648 -0.0016685478660036883 0 -0.024815620195334908 -0.0021682019229733894 0 -0.023661519372234666 -0.0023891663968133563 0 -0.024015935900922648 -0.0016685478660036883 0 -0.02285610780415076 -0.0018849171110200073 0 -0.023638588459623654 -0.0010990961217507967 0 -0.024015935900922648 -0.0016685478660036883 0 -0.02285610780415076 -0.0018849171110200073 0 -0.024913859973012233 -0.00098859277802378531 0 -0.024015935900922648 -0.0016685478660036883 0 -0.024815620195334908 -0.0021682019229733894 0 -0.024815620195334908 -0.0021682019229733894 0 -0.025044257989218468 -0.0030829177862556666 0 -0.025650981077434729 -0.0024941812968113496 0 -0.02413349069910831 -0.0031158595186988299 0 -0.024815620195334908 -0.0021682019229733894 0 -0.025044257989218468 -0.0030829177862556666 0 -0.026397549448122785 -0.0031246180774792752 0 -0.025650981077434729 -0.0024941812968113496 0 -0.026234957678783741 -0.0015465745672579734 0 -0.025044257989218468 -0.0030829177862556666 0 -0.026397549448122785 -0.0031246180774792752 0 -0.025650981077434729 -0.0024941812968113496 0 -0.024815620195334908 -0.0021682019229733894 0 -0.025650981077434729 -0.0024941812968113496 0 -0.026234957678783741 -0.0015465745672579734 0 -0.024913859973012233 -0.00098859277802378531 0 -0.024815620195334908 -0.0021682019229733894 0 -0.026234957678783741 -0.0015465745672579734 0 -0.027429104101091503 -0.0028306158181377293 0 -0.033532483422647259 -0.0011916986651575191 0 -0.031901308432128767 -0.0022007646776180407 0 -0.029633022887869773 -0.0040120522929788776 0 -0.031927217892018842 -0.0051944741457332069 0 -0.030375092752892949 -3.4846001740882102e-05 0 -0.033532483422647259 -0.0011916986651575191 0 -0.034626770486587681 0.0027825496359632639 0 -0.035696449517242129 0.0033742179294685391 0 -0.036013440861158597 0.0019258913712593493 0 -0.026397549448122785 -0.0031246180774792752 0 -0.026234957678783741 -0.0015465745672579734 0 -0.02759368017364976 -0.0022247130073175577 0 -0.034626770486587681 0.0027825496359632639 0 -0.034073813956124695 0.0012266177500412103 0 -0.036013440861158597 0.0019258913712593493 0 -0.034469713756813493 0.0019814773949922561 0 -0.03561370469613144 0.0018441198307849759 0 -0.034879472357708038 0.0013248405798222686 0 -0.033790705694965902 0.0022441162741992223 0 -0.036013440861158597 0.0019258913712593493 0 -0.034879472357708038 0.0013248405798222686 0 -0.033790705694965902 0.0022441162741992223 0 -0.032892997457838011 0.00044526110930429838 0 -0.034626770486587681 0.0027825496359632639 0 -0.034073813956124695 0.0012266177500412103 0 -0.033179408768302984 0.0018642924280909638 0 -0.030375092752892949 -3.4846001740882102e-05 0 -0.028965150114428049 -0.0013684519479603514 0 -0.025044257989218468 -0.0030829177862556666 0 -0.026397549448122785 -0.0031246180774792752 0 -0.025230120414293365 -0.0040172347353629474 0 -0.02440498512392146 -0.0038137203957352103 0 -0.025230120414293365 -0.0040172347353629474 0 -0.024000684602960103 -0.0049796101363228729 0 -0.025044257989218468 -0.0030829177862556666 0 -0.02440498512392146 -0.0038137203957352103 0 -0.025230120414293365 -0.0040172347353629474 0 -0.02413349069910831 -0.0031158595186988299 0 -0.025044257989218468 -0.0030829177862556666 0 -0.02440498512392146 -0.0038137203957352103 0 -0.034073813956124695 0.0012266177500412103 0 -0.033179408768302984 0.0018642924280909638 0 -0.031647564289913728 0.00065541011543668478 0 -0.033790705694965902 0.0022441162741992223 0 -0.030475781060079515 0.0017423299802676168 0 -0.032892997457838011 0.00044526110930429838 0 -0.034469713756813493 0.0019814773949922561 0 -0.028808236316411346 -0.0004408814818575614 0 -0.028965150114428049 -0.0013684519479603514 0 -0.028808236316411346 -0.0004408814818575614 0 -0.030166607469663077 0.0016205029496154642 0 -0.02608831172497196 0.00038855847949516439 0 -0.028281755410052935 4.0719753384067048e-06 0 -0.028808236316411346 -0.0004408814818575614 0 -0.023801429357575586 -0.0025827381413465458 0 -0.028808236316411346 -0.0004408814818575614 0 -0.029168235929987171 0.00059891174453937962 0 -0.024000684602960103 -0.0049796101363228729 0 -0.023593240999360169 -0.0039396390377203936 0 -0.023005895392463737 -0.004568071836110129 0 -0.023593240999360169 -0.0039396390377203936 0 -0.022694488909992688 -0.0039781981472542562 0 -0.023005895392463737 -0.004568071836110129 0 -0.02440498512392146 -0.0038137203957352103 0 -0.024000684602960103 -0.0049796101363228729 0 -0.023593240999360169 -0.0039396390377203936 0 -0.02413349069910831 -0.0031158595186988299 0 -0.02440498512392146 -0.0038137203957352103 0 -0.023593240999360169 -0.0039396390377203936 0 -0.023147893052320328 -0.0032269243299317585 0 -0.02413349069910831 -0.0031158595186988299 0 -0.023593240999360169 -0.0039396390377203936 0 -0.023147893052320328 -0.0032269243299317585 0 -0.023593240999360169 -0.0039396390377203936 0 -0.022694488909992688 -0.0039781981472542562 0 -0.037032428566436099 -0.00074941493940889443 0 -0.037615618488836704 -0.00024248492778391724 0 -0.03741004504410568 0.0010591951678718937 0 -0.037032428566436099 -0.00074941493940889443 0 -0.036913569389632819 -0.0010226334391636291 0 -0.037615618488836704 -0.00024248492778391724 0 -0.037032428566436099 -0.00074941493940889443 0 -0.03741004504410568 0.0010591951678718937 0 -0.036646944232357342 -9.0759962888824815e-05 0 -0.037032428566436099 -0.00074941493940889443 0 -0.036646944232357342 -9.0759962888824815e-05 0 -0.036682404925448393 -0.0015300652327947736 0 -0.03664655123160885 -0.0013592447152378855 0 -0.037032428566436099 -0.00074941493940889443 0 -0.036682404925448393 -0.0015300652327947736 0 -0.03664655123160885 -0.0013592447152378855 0 -0.037032428566436099 -0.00074941493940889443 0 -0.036913569389632819 -0.0010226334391636291 0 -0.036913569389632819 -0.0010226334391636291 0 -0.037521372084404321 -0.0011348539164655045 0 -0.037615618488836704 -0.00024248492778391724 0 -0.037521372084404321 -0.0011348539164655045 0 -0.038056265325489232 -0.00071038806326496505 0 -0.037615618488836704 -0.00024248492778391724 0 -0.035906751578846589 -0.0023907263845609518 0 -0.033532483422647259 -0.0011916986651575191 0 -0.031901308432128767 -0.0022007646776180407 0 -0.034057330660777936 -0.0034223290177122288 0 -0.031927217892018842 -0.0051944741457332069 0 -0.033532483422647259 -0.0011916986651575191 0 -0.037900033079000278 0.0013813569026584831 0 -0.035696449517242129 0.0033742179294685391 0 -0.037036626343225965 0.0023675393640081523 0 -0.036013440861158597 0.0019258913712593493 0 -0.037036626343225965 0.0023675393640081523 0 -0.036013440861158597 0.0019258913712593493 0 -0.037373902522764561 0.0014614487128877416 0 -0.036013440861158597 0.0019258913712593493 0 -0.037373902522764561 0.0014614487128877416 0 -0.036125096565896783 0.0011770774467964856 0 -0.034879472357708038 0.0013248405798222686 0 -0.036013440861158597 0.0019258913712593493 0 -0.036125096565896783 0.0011770774467964856 0 -0.037900033079000278 0.0013813569026584831 0 -0.03709147299262168 0.001053946574937763 0 -0.037036626343225965 0.0023675393640081523 0 -0.037373902522764561 0.0014614487128877416 0 -0.03741004504410568 0.0010591951678718937 0 -0.037373902522764561 0.0014614487128877416 0 -0.03741004504410568 0.0010591951678718937 0 -0.037679763899428807 0.0016537618211602319 0 -0.03741004504410568 0.0010591951678718937 0 -0.036474315883995946 0.0010568001667581939 0 -0.037679763899428807 0.0016537618211602319 0 -0.038028946783592928 0.0019177914055223165 0 -0.038034983894834173 0.0017583389002210979 0 -0.037679763899428807 0.0016537618211602319 0 -0.038105891843877471 0.0018561189585168166 0 -0.038028946783592928 0.0019177914055223165 0 -0.038034983894834173 0.0017583389002210979 0 -0.037223733287808279 0.0016168220079433213 0 -0.037579221625728319 0.0015907816141765266 0 -0.038105891843877471 0.0018561189585168166 0 -0.038085101540559892 0.0018546214654803033 0 -0.038097651547206207 0.0019732291298320856 0 -0.038105891843877471 0.0018561189585168166 0 -0.038078361378072134 0.001881807989152677 0 -0.038028946783592928 0.0019177914055223165 0 -0.038105891843877471 0.0018561189585168166 0 -0.038078361378072134 0.001881807989152677 0 -0.038085101540559892 0.0018546214654803033 0 -0.038078361378072134 0.001881807989152677 0 -0.03807802641432971 0.0018835941473481514 0 -0.038085101540559892 0.0018546214654803033 0 -0.037841939566518677 -0.00067815645116756009 0 -0.039051483780630496 0.00072327144443729713 0 -0.038078361378072134 0.001881807989152677 0 -0.038028946783592928 0.0019177914055223165 0 -0.03807802641432971 0.0018835941473481514 0 -0.036474315883995946 0.0010568001667581939 0 -0.036646944232357342 -9.0759962888824815e-05 0 -0.035458039819057235 -0.00011207578734416477 0 -0.03741004504410568 0.0010591951678718937 0 -0.036474315883995946 0.0010568001667581939 0 -0.036646944232357342 -9.0759962888824815e-05 0 -0.037223733287808279 0.0016168220079433213 0 -0.037841939566518677 -0.00067815645116756009 0 -0.037841939566518677 -0.00067815645116756009 0 -0.036370495633015677 -0.0017556064905531292 0 -0.036646944232357342 -9.0759962888824815e-05 0 -0.035458039819057235 -0.00011207578734416477 0 -0.036682404925448393 -0.0015300652327947736 0 -0.037537497501016807 -0.0031565975743097791 0 -0.036682404925448393 -0.0015300652327947736 0 -0.038198625938968715 -0.0024635349492419622 0 -0.037841939566518677 -0.00067815645116756009 0 -0.038900799920055434 -0.0023736317601031824 0 -0.037468984742983796 -0.0016295275566617156 0 -0.036682404925448393 -0.0015300652327947736 0 -0.038198625938968715 -0.0024635349492419622 0 -0.038083753378559883 -0.001908507144178393 0 -0.037468984742983796 -0.0016295275566617156 0 -0.038198625938968715 -0.0024635349492419622 0 -0.039088068461672842 -0.0022729716315574577 0 -0.038686427304564744 -0.0025120512885296068 0 -0.039186832909023014 -0.0026277266554077337 0 -0.038686427304564744 -0.0025120512885296068 0 -0.039186832909023014 -0.0026277266554077337 0 -0.038461973114181043 -0.0033171075497690217 0 -0.039088068461672842 -0.0022729716315574577 0 -0.039186832909023014 -0.0026277266554077337 0 -0.038944312781902975 -0.0023635240593861489 0 -0.039088068461672842 -0.0022729716315574577 0 -0.038944312781902975 -0.0023635240593861489 0 -0.039688265533282564 -0.0021731508463772712 0 -0.038083753378559883 -0.001908507144178393 0 -0.038944312781902975 -0.0023635240593861489 0 -0.038198625938968715 -0.0024635349492419622 0 -0.039013166919372205 -0.0022642769999153762 0 -0.038900799920055434 -0.0023736317601031824 0 -0.040313195003926293 -0.0015432410743896664 0 -0.039688265533282564 -0.0021731508463772712 0 -0.039361576988256451 -0.0014864999797619891 0 -0.039088068461672842 -0.0022729716315574577 0 -0.039688265533282564 -0.0021731508463772712 0 -0.039361576988256451 -0.0014864999797619891 0 -0.039088068461672842 -0.0022729716315574577 0 -0.039361576988256451 -0.0014864999797619891 0 -0.038495155512945536 -0.0016241108316763851 0 -0.039088068461672842 -0.0022729716315574577 0 -0.038686427304564744 -0.0025120512885296068 0 -0.038495155512945536 -0.0016241108316763851 0 -0.039361576988256451 -0.0014864999797619891 0 -0.03867362241889194 -0.00043908915558726089 0 -0.038495155512945536 -0.0016241108316763851 0 -0.039361576988256451 -0.0014864999797619891 0 -0.039787079662969314 -0.00055637730416051095 0 -0.03867362241889194 -0.00043908915558726089 0 -0.040313195003926293 -0.0015432410743896664 0 -0.039361576988256451 -0.0014864999797619891 0 -0.039787079662969314 -0.00055637730416051095 0 -0.038085101540559892 0.0018546214654803033 0 -0.038097651547206207 0.0019732291298320856 0 -0.037995456195069319 0.0019419277093624943 0 -0.039051483780630496 0.00072327144443729713 0 -0.038516235528528016 0.0013017515897373662 0 -0.03867362241889194 -0.00043908915558726089 0 -0.039107394772656207 0.00064656092509974444 0 -0.037772968521877719 0.00087531202273609138 0 -0.039787079662969314 -0.00055637730416051095 0 -0.03867362241889194 -0.00043908915558726089 0 -0.039107394772656207 0.00064656092509974444 0 -0.03867362241889194 -0.00043908915558726089 0 -0.037483692908263873 -0.0002567053304981547 0 -0.037772968521877719 0.00087531202273609138 0 -0.037483692908263873 -0.0002567053304981547 0 -0.036092420120699194 -0.00015229044524408926 0 -0.036724910448158343 0.00100244946727269 0 -0.037483692908263873 -0.0002567053304981547 0 -0.036092420120699194 -0.00015229044524408926 0 -0.037066879987386045 -0.0015353691952739474 0 -0.037483692908263873 -0.0002567053304981547 0 -0.038495155512945536 -0.0016241108316763851 0 -0.037066879987386045 -0.0015353691952739474 0 -0.03867362241889194 -0.00043908915558726089 0 -0.037483692908263873 -0.0002567053304981547 0 -0.038495155512945536 -0.0016241108316763851 0 -0.034999774057907079 -0.00084639952188409644 0 -0.03634082379607876 -0.00055089330583782728 0 -0.035857411693168341 0.00058331656200717437 0 -0.036199996333747202 -0.00029307875585097854 0 -0.036697039047970864 0.00084937244785513182 0 -0.036092420120699194 -0.00015229044524408926 0 -0.035370024016868389 -0.0014532187056844992 0 -0.037066879987386045 -0.0015353691952739474 0 -0.036199996333747202 -0.00029307875585097854 0 -0.035689336890664496 -0.0019049262396840917 0 -0.035000277624267051 -0.00084744504703345759 0 -0.035689336890664496 -0.0019049262396840917 0 -0.034999774057907079 -0.00084639952188409644 0 -0.03634082379607876 -0.00055089330583782728 0 -0.03573842615835153 -0.001823048464900396 0 -0.034999998482557047 -0.00084709960459389245 0 -0.03587923942276644 -0.0021049011042239686 0 -0.03499999742356142 -0.0023302253592631444 0 -0.03587923942276644 -0.0021049011042239686 0 -0.03499999742356142 -0.0023302253592631444 0 -0.034999998696344799 -0.0038133545096220977 0 -0.035713567812660475 -0.0022168416848207398 0 -0.036688492761037909 -0.0033171561911962714 0 -0.034999854371819634 -0.0038125979516292464 0 -0.035689336890664496 -0.0019049262396840917 0 -0.035000116939918051 -0.0038133446838484126 0 -0.035370024016868389 -0.0014532187056844992 0 -0.036688492761037909 -0.0033171561911962714 0 -0.037066879987386045 -0.0015353691952739474 0 -0.035689336890664496 -0.0019049262396840917 0 -0.036585790583603839 -0.0032328194557198126 0 -0.036688492761037909 -0.0033171561911962714 0 -0.034999854371819634 -0.0038125979516292464 0 -0.03597670906689366 -0.0051074104239018092 0 -0.038495155512945536 -0.0016241108316763851 0 -0.037066879987386045 -0.0015353691952739474 0 -0.037927400516146639 -0.0026341917847269875 0 -0.038686427304564744 -0.0025120512885296068 0 -0.038495155512945536 -0.0016241108316763851 0 -0.037927400516146639 -0.0026341917847269875 0 -0.036688492761037909 -0.0033171561911962714 0 -0.037066879987386045 -0.0015353691952739474 0 -0.037927400516146639 -0.0026341917847269875 0 -0.036688492761037909 -0.0033171561911962714 0 -0.037927400516146639 -0.0026341917847269875 0 -0.03765284293189583 -0.0038827250690190752 0 -0.037927400516146639 -0.0026341917847269875 0 -0.038461973114181043 -0.0033171075497690217 0 -0.03765284293189583 -0.0038827250690190752 0 -0.038686427304564744 -0.0025120512885296068 0 -0.037927400516146639 -0.0026341917847269875 0 -0.038461973114181043 -0.0033171075497690217 0 -0.039186832909023014 -0.0026277266554077337 0 -0.038461973114181043 -0.0033171075497690217 0 -0.038508913456992457 -0.0048610392976337468 0 -0.038461973114181043 -0.0033171075497690217 0 -0.038141991703446579 -0.0043043857460802297 0 -0.038508913456992457 -0.0048610392976337468 0 -0.038461973114181043 -0.0033171075497690217 0 -0.038141991703446579 -0.0043043857460802297 0 -0.03765284293189583 -0.0038827250690190752 0 -0.036688492761037909 -0.0033171561911962714 0 -0.03765284293189583 -0.0038827250690190752 0 -0.036931790628816644 -0.0049235134037608243 0 -0.038141991703446579 -0.0043043857460802297 0 -0.03765284293189583 -0.0038827250690190752 0 -0.037614712278280657 -0.0050353245287253533 0 -0.03765284293189583 -0.0038827250690190752 0 -0.036931790628816644 -0.0049235134037608243 0 -0.037614712278280657 -0.0050353245287253533 0 -0.038141991703446579 -0.0043043857460802297 0 -0.037614712278280657 -0.0050353245287253533 0 -0.038042960168577555 -0.005938889981229308 0 -0.036931790628816644 -0.0049235134037608243 0 -0.037614712278280657 -0.0050353245287253533 0 -0.037222408829353647 -0.006229748745819089 0 -0.037614712278280657 -0.0050353245287253533 0 -0.037222408829353647 -0.006229748745819089 0 -0.038042960168577555 -0.005938889981229308 0 -0.038141991703446579 -0.0043043857460802297 0 -0.037998927339625094 -0.0051248426892339018 0 -0.038508913456992457 -0.0048610392976337468 0 -0.038219034775982687 -0.0043384761545680901 0 -0.037841323137730268 -0.006004581408077231 0 -0.040077837719797733 -0.00090669269115962352 0 -0.03992534443270316 -0.00010110839915161127 0 -0.03938457354617405 -0.00051075679445596012 0 -0.034999854371819634 -0.0038125979516292464 0 -0.034999880728212814 -0.0053746832723840692 0 -0.03597670906689366 -0.0051074104239018092 0 -0.036688492761037909 -0.0033171561911962714 0 -0.036931790628816644 -0.0049235134037608243 0 -0.03597670906689366 -0.0051074104239018092 0 -0.036931790628816644 -0.0049235134037608243 0 -0.037222408829353647 -0.006229748745819089 0 -0.036326279985862138 -0.006346788418543527 0 -0.036931790628816644 -0.0049235134037608243 0 -0.03597670906689366 -0.0051074104239018092 0 -0.036326279985862138 -0.006346788418543527 0 -0.034999880728212814 -0.0053746832723840692 0 -0.03597670906689366 -0.0051074104239018092 0 -0.034999869500005817 -0.0069364233401244136 0 -0.03597670906689366 -0.0051074104239018092 0 -0.034999869500005817 -0.0069364233401244136 0 -0.036326279985862138 -0.006346788418543527 0 -0.034999869500005817 -0.0069364233401244136 0 -0.036326279985862138 -0.006346788418543527 0 -0.035984931626566061 -0.0076084261947701685 0 -0.036326279985862138 -0.006346788418543527 0 -0.036798104157969316 -0.007314098868453963 0 -0.035984931626566061 -0.0076084261947701685 0 -0.037222408829353647 -0.006229748745819089 0 -0.036326279985862138 -0.006346788418543527 0 -0.036798104157969316 -0.007314098868453963 0 -0.036782256979132261 -0.0085949564560901023 0 -0.036798104157969316 -0.007314098868453963 0 -0.035984931626566061 -0.0076084261947701685 0 -0.036351799301468112 -0.0093100027688926869 0 -0.035000686496462048 -0.0084981710104635993 0 -0.036782256979132261 -0.0085949564560901023 0 -0.035984931626566061 -0.0076084261947701685 0 -0.034999898284116322 -0.0084978882088618153 0 -0.034999869500005817 -0.0069364233401244136 0 -0.035984931626566061 -0.0076084261947701685 0 -0.034999898284116322 -0.0084978882088618153 0 -0.03992534443270316 -0.00010110839915161127 0 -0.040560371636014017 9.6222699972279671e-05 0 -0.040090604979038817 0.00045157664863107114 0 -0.037998927339625094 -0.0051248426892339018 0 -0.038508913456992457 -0.0048610392976337468 0 -0.037768710895780419 -0.0057909634878187529 0 -0.039340159970143521 -0.0027131335141862443 0 -0.038858017388594304 -0.0036071634675950205 0 -0.040077837719797733 -0.00090669269115962352 0 -0.03992534443270316 -0.00010110839915161127 0 -0.040560371636014017 9.6222699972279671e-05 0 -0.03992534443270316 -0.00010110839915161127 0 -0.040090604979038817 0.00045157664863107114 0 -0.039481809130524279 0.00027363167664890079 0 -0.037841323137730268 -0.006004581408077231 0 -0.038858017388594304 -0.0036071634675950205 0 -0.037222408829353647 -0.006229748745819089 0 -0.038042960168577555 -0.005938889981229308 0 -0.037715410861805625 -0.0072445381362079148 0 -0.037222408829353647 -0.006229748745819089 0 -0.036798104157969316 -0.007314098868453963 0 -0.037715410861805625 -0.0072445381362079148 0 -0.037337566493964677 -0.0090902467056721593 0 -0.035560351488889815 -0.0088471758582850616 0 -0.038795553543044294 -0.0042749135999121555 0 -0.036351799301468112 -0.0093100027688926869 0 -0.038858017388594304 -0.0036071634675950205 0 -0.040749157901860025 0.00080654038624068474 0 -0.040560371636014017 9.6222699972279671e-05 0 -0.040090604979038817 0.00045157664863107114 0 -0.036782256979132261 -0.0085949564560901023 0 -0.036798104157969316 -0.007314098868453963 0 -0.037715410861805625 -0.0072445381362079148 0 -0.036449728218850376 -0.0095074711531197304 0 -0.038858017388594304 -0.0036071634675950205 0 -0.039763134306747626 0.0010913758731359285 0 -0.040749157901860025 0.00080654038624068474 0 -0.040090604979038817 0.00045157664863107114 0 -0.039763134306747626 0.0010913758731359285 0 -0.040090604979038817 0.00045157664863107114 0 -0.039481809130524279 0.00027363167664890079 0 -0.039763134306747626 0.0010913758731359285 0 -0.039481809130524279 0.00027363167664890079 0 -0.038901254293543644 0.00069387264762922271 0 -0.039481809130524279 0.00027363167664890079 0 -0.038752028006954632 -7.0150936326102546e-05 0 -0.03938457354617405 -0.00051075679445596012 0 -0.03992534443270316 -0.00010110839915161127 0 -0.039481809130524279 0.00027363167664890079 0 -0.03938457354617405 -0.00051075679445596012 0 -0.039481809130524279 0.00027363167664890079 0 -0.038752028006954632 -7.0150936326102546e-05 0 -0.038901254293543644 0.00069387264762922271 0 -0.038752028006954632 -7.0150936326102546e-05 0 -0.038146990800247221 0.00042861225584925967 0 -0.037892472719060884 -0.00059140765793955869 0 -0.038752028006954632 -7.0150936326102546e-05 0 -0.038901254293543644 0.00069387264762922271 0 -0.038146990800247221 0.00042861225584925967 0 -0.03861708933865271 0.00144399710801943 0 -0.038901254293543644 0.00069387264762922271 0 -0.038146990800247221 0.00042861225584925967 0 -0.038146990800247221 0.00042861225584925967 0 -0.037550850644660558 0.0010143473618466916 0 -0.037518560844808757 9.0885856125567921e-05 0 -0.03861708933865271 0.00144399710801943 0 -0.038146990800247221 0.00042861225584925967 0 -0.037550850644660558 0.0010143473618466916 0 -0.037550850644660558 0.0010143473618466916 0 -0.036933822673586789 0.0004393837911073192 0 -0.037518560844808757 9.0885856125567921e-05 0 -0.036633037073866913 0.0013949923774696708 0 -0.037550850644660558 0.0010143473618466916 0 -0.036933822673586789 0.0004393837911073192 0 -0.036421625701732019 -0.0005283906598806988 0 -0.036933822673586789 0.0004393837911073192 0 -0.037083539310080377 -0.00057739982836389021 0 -0.036933822673586789 0.0004393837911073192 0 -0.037518560844808757 9.0885856125567921e-05 0 -0.037083539310080377 -0.00057739982836389021 0 -0.038146990800247221 0.00042861225584925967 0 -0.037518560844808757 9.0885856125567921e-05 0 -0.037892472719060884 -0.00059140765793955869 0 -0.037892472719060884 -0.00059140765793955869 0 -0.037125955502056857 -0.001222887019568374 0 -0.037769557612315423 -0.001351605886070981 0 -0.037518560844808757 9.0885856125567921e-05 0 -0.037892472719060884 -0.00059140765793955869 0 -0.037083539310080377 -0.00057739982836389021 0 -0.037892472719060884 -0.00059140765793955869 0 -0.037769557612315423 -0.001351605886070981 0 -0.038322128898633401 -0.0012726191801443205 0 -0.037892472719060884 -0.00059140765793955869 0 -0.037083539310080377 -0.00057739982836389021 0 -0.037125955502056857 -0.001222887019568374 0 -0.03664655123160885 -0.0013592447152378855 0 -0.036682404925448393 -0.0015300652327947736 0 -0.037125955502056857 -0.001222887019568374 0 -0.037468984742983796 -0.0016295275566617156 0 -0.036682404925448393 -0.0015300652327947736 0 -0.037125955502056857 -0.001222887019568374 0 -0.03664655123160885 -0.0013592447152378855 0 -0.037083539310080377 -0.00057739982836389021 0 -0.037125955502056857 -0.001222887019568374 0 -0.037468984742983796 -0.0016295275566617156 0 -0.037125955502056857 -0.001222887019568374 0 -0.037769557612315423 -0.001351605886070981 0 -0.038083753378559883 -0.001908507144178393 0 -0.037769557612315423 -0.001351605886070981 0 -0.03835059125370948 -0.0016889281085761092 0 -0.038083753378559883 -0.001908507144178393 0 -0.037468984742983796 -0.0016295275566617156 0 -0.037769557612315423 -0.001351605886070981 0 -0.038083753378559883 -0.001908507144178393 0 -0.038944312781902975 -0.0023635240593861489 0 -0.03835059125370948 -0.0016889281085761092 0 -0.03835059125370948 -0.0016889281085761092 0 -0.038322128898633401 -0.0012726191801443205 0 -0.038771370596649951 -0.0016909306952561814 0 -0.037769557612315423 -0.001351605886070981 0 -0.03835059125370948 -0.0016889281085761092 0 -0.038322128898633401 -0.0012726191801443205 0 -0.038944312781902975 -0.0023635240593861489 0 -0.03835059125370948 -0.0016889281085761092 0 -0.038771370596649951 -0.0016909306952561814 0 -0.039186832909023014 -0.0026277266554077337 0 -0.040077837719797733 -0.00090669269115962352 0 -0.039221630779861856 -0.0012942795734319614 0 -0.039186832909023014 -0.0026277266554077337 0 -0.038944312781902975 -0.0023635240593861489 0 -0.038771370596649951 -0.0016909306952561814 0 -0.039186832909023014 -0.0026277266554077337 0 -0.038771370596649951 -0.0016909306952561814 0 -0.039221630779861856 -0.0012942795734319614 0 -0.039147758030704506 -0.0027774288592636101 0 -0.039340159970143521 -0.0027131335141862443 0 -0.039221630779861856 -0.0012942795734319614 0 -0.03938457354617405 -0.00051075679445596012 0 -0.038698273657697208 -0.00083207381834923117 0 -0.040077837719797733 -0.00090669269115962352 0 -0.039221630779861856 -0.0012942795734319614 0 -0.03938457354617405 -0.00051075679445596012 0 -0.038752028006954632 -7.0150936326102546e-05 0 -0.03938457354617405 -0.00051075679445596012 0 -0.038698273657697208 -0.00083207381834923117 0 -0.037892472719060884 -0.00059140765793955869 0 -0.038322128898633401 -0.0012726191801443205 0 -0.038698273657697208 -0.00083207381834923117 0 -0.038752028006954632 -7.0150936326102546e-05 0 -0.037892472719060884 -0.00059140765793955869 0 -0.038698273657697208 -0.00083207381834923117 0 -0.038771370596649951 -0.0016909306952561814 0 -0.039221630779861856 -0.0012942795734319614 0 -0.038698273657697208 -0.00083207381834923117 0 -0.038322128898633401 -0.0012726191801443205 0 -0.038771370596649951 -0.0016909306952561814 0 -0.038698273657697208 -0.00083207381834923117 0 -0.008506966585396146 0.00034426518311641251 0 -0.0093818316542281788 0.0011747268858394212 0 -0.0081467418660786644 0.0011729615218129433 0 -0.008506966585396146 0.00034426518311641251 0 -0.0093818316542281788 0.0011747268858394212 0 -0.0097483791885222843 0.00019176883025296966 0 -0.0081467418660786644 0.0011729615218129433 0 -0.0074288411448420119 0.00042529323747261138 0 -0.0070563212681762416 0.0010509843694297722 0 -0.008506966585396146 0.00034426518311641251 0 -0.0081467418660786644 0.0011729615218129433 0 -0.0074288411448420119 0.00042529323747261138 0 -0.008506966585396146 0.00034426518311641251 0 -0.0074288411448420119 0.00042529323747261138 0 -0.0077570401871174567 -0.00030488905446457958 0 -0.0074288411448420119 0.00042529323747261138 0 -0.0077570401871174567 -0.00030488905446457958 0 -0.0067888298699555743 -0.00017493356959543785 0 -0.0077570401871174567 -0.00030488905446457958 0 -0.007936178009667302 -0.0010255599299775079 0 -0.0071166964816177843 -0.00083774522459939917 0 -0.0077570401871174567 -0.00030488905446457958 0 -0.0067888298699555743 -0.00017493356959543785 0 -0.0071166964816177843 -0.00083774522459939917 0 -0.0077570401871174567 -0.00030488905446457958 0 -0.0088449240112776547 -0.00054164603042272772 0 -0.007936178009667302 -0.0010255599299775079 0 -0.008506966585396146 0.00034426518311641251 0 -0.0088449240112776547 -0.00054164603042272772 0 -0.0097483791885222843 0.00019176883025296966 0 -0.0088449240112776547 -0.00054164603042272772 0 -0.0097483791885222843 0.00019176883025296966 0 -0.009976739519200948 -0.0010600794281439988 0 -0.008506966585396146 0.00034426518311641251 0 -0.0077570401871174567 -0.00030488905446457958 0 -0.0088449240112776547 -0.00054164603042272772 0 -0.0097483791885222843 0.00019176883025296966 0 -0.011278146017162821 -0.00021154064284239354 0 -0.009976739519200948 -0.0010600794281439988 0 -0.011278146017162821 -0.00021154064284239354 0 -0.010658206392749113 0.0010980521026145234 0 -0.012266160431617696 0.0010854780604961228 0 -0.010658206392749113 0.0010980521026145234 0 -0.01144298206293546 0.002099030482463769 0 -0.012266160431617696 0.0010854780604961228 0 -0.0097483791885222843 0.00019176883025296966 0 -0.011278146017162821 -0.00021154064284239354 0 -0.010658206392749113 0.0010980521026145234 0 -0.0093818316542281788 0.0011747268858394212 0 -0.0097483791885222843 0.00019176883025296966 0 -0.010658206392749113 0.0010980521026145234 0 -0.0093818316542281788 0.0011747268858394212 0 -0.010658206392749113 0.0010980521026145234 0 -0.010173358230715947 0.0022265459776903136 0 -0.010658206392749113 0.0010980521026145234 0 -0.010173358230715947 0.0022265459776903136 0 -0.01144298206293546 0.002099030482463769 0 -0.010173358230715947 0.0022265459776903136 0 -0.01144298206293546 0.002099030482463769 0 -0.011395863874346344 0.0036223368192166085 0 -0.01144298206293546 0.002099030482463769 0 -0.012759851924941137 0.0022944071569479833 0 -0.011395863874346344 0.0036223368192166085 0 -0.010173358230715947 0.0022265459776903136 0 -0.0095405830655343783 0.002931444063033722 0 -0.010262069974089818 0.0033541787089971134 0 -0.010173358230715947 0.0022265459776903136 0 -0.010262069974089818 0.0033541787089971134 0 -0.011395863874346344 0.0036223368192166085 0 -0.0095405830655343783 0.002931444063033722 0 -0.0096606967187957762 0.0036689401486787346 0 -0.010262069974089818 0.0033541787089971134 0 -0.0095405830655343783 0.002931444063033722 0 -0.0091146993213490918 0.003230359001479814 0 -0.0096606967187957762 0.0036689401486787346 0 -0.0091146993213490918 0.003230359001479814 0 -0.0087359255854164916 0.002750031391714028 0 -0.0085409947544265192 0.0033316800443947297 0 -0.0095405830655343783 0.002931444063033722 0 -0.0091146993213490918 0.003230359001479814 0 -0.0087359255854164916 0.002750031391714028 0 -0.0095405830655343783 0.002931444063033722 0 -0.0087359255854164916 0.002750031391714028 0 -0.0090122082822426553 0.0019957654632097644 0 -0.010173358230715947 0.0022265459776903136 0 -0.0095405830655343783 0.002931444063033722 0 -0.0090122082822426553 0.0019957654632097644 0 -0.0093818316542281788 0.0011747268858394212 0 -0.0081467418660786644 0.0011729615218129433 0 -0.0090122082822426553 0.0019957654632097644 0 -0.0087359255854164916 0.002750031391714028 0 -0.0090122082822426553 0.0019957654632097644 0 -0.0081333738744288654 0.0020944261325693734 0 -0.0093818316542281788 0.0011747268858394212 0 -0.010173358230715947 0.0022265459776903136 0 -0.0090122082822426553 0.0019957654632097644 0 -0.0081467418660786644 0.0011729615218129433 0 -0.0074923596737521388 0.0016552305713636258 0 -0.0070563212681762416 0.0010509843694297722 0 -0.0081467418660786644 0.0011729615218129433 0 -0.0074923596737521388 0.0016552305713636258 0 -0.0081333738744288654 0.0020944261325693734 0 -0.0081467418660786644 0.0011729615218129433 0 -0.0090122082822426553 0.0019957654632097644 0 -0.0081333738744288654 0.0020944261325693734 0 -0.0074923596737521388 0.0016552305713636258 0 -0.0081333738744288654 0.0020944261325693734 0 -0.0072660092537040677 0.0023296071696212294 0 -0.0074923596737521388 0.0016552305713636258 0 -0.0072660092537040677 0.0023296071696212294 0 -0.006848483859850949 0.0016560724575881206 0 -0.0072660092537040677 0.0023296071696212294 0 -0.0080344463704621876 0.0028995071205198423 0 -0.007359359941159307 0.0032461368815841075 0 -0.007359359941159307 0.0032461368815841075 0 -0.0064065997401041592 0.0027834057512344345 0 -0.0081137167457231395 0.0037817824073750764 0 -0.0081333738744288654 0.0020944261325693734 0 -0.0072660092537040677 0.0023296071696212294 0 -0.0080344463704621876 0.0028995071205198423 0 -0.0060817284555090929 -0.0061759362398210102 0 -0.0079805001814853144 -0.0016281106663867044 0 -0.0087359255854164916 0.002750031391714028 0 -0.0081333738744288654 0.0020944261325693734 0 -0.0080344463704621876 0.0028995071205198423 0 -0.0087359255854164916 0.002750031391714028 0 -0.0080344463704621876 0.0028995071205198423 0 -0.0085409947544265192 0.0033316800443947297 0 -0.0080344463704621876 0.0028995071205198423 0 -0.0085409947544265192 0.0033316800443947297 0 -0.00811136756930355 0.0037913487816996516 0 -0.0080344463704621876 0.0028995071205198423 0 -0.007359359941159307 0.0032461368815841075 0 -0.00811136756930355 0.0037913487816996516 0 -0.0062999035474544064 -0.014328663648848447 0 -0.0078969290279699931 -0.013189139009108926 0 -0.0066498725970058174 -0.013423444435696459 0 -0.0072660092537040677 0.0023296071696212294 0 -0.0064065997401041592 0.0027834057512344345 0 -0.0062832377031474332 0.0019363867592853193 0 -0.0072660092537040677 0.0023296071696212294 0 -0.007359359941159307 0.0032461368815841075 0 -0.0064065997401041592 0.0027834057512344345 0 -0.0062999035474544064 -0.014328663648848447 0 -0.0066498725970058174 -0.013423444435696459 0 -0.0059420188689812978 -0.013304255925060028 0 -0.0062999035474544064 -0.014328663648848447 0 -0.0042423409590438789 -0.01415655805676532 0 -0.0059420188689812978 -0.013304255925060028 0 -0.0062999035474544064 -0.014328663648848447 0 -0.0047366225355147482 -0.015366391071484265 0 -0.0042423409590438789 -0.01415655805676532 0 -0.0048655156315638047 0.0017355243135947563 0 -0.0062832377031474332 0.0019363867592853193 0 -0.0060637074705521361 0.0011909890651366859 0 -0.0060817284555090929 -0.0061759362398210102 0 -0.005516166803294943 -0.0069666635387507581 0 -0.0064065997401041592 0.0027834057512344345 0 -0.0048655156315638047 0.0017355243135947563 0 -0.0062832377031474332 0.0019363867592853193 0 -0.0048655156315638047 0.0017355243135947563 0 -0.0060637074705521361 0.0011909890651366859 0 -0.0051281476723188356 0.0007738997507217404 0 -0.006848483859850949 0.0016560724575881206 0 -0.0062832377031474332 0.0019363867592853193 0 -0.0060637074705521361 0.0011909890651366859 0 -0.0074923596737521388 0.0016552305713636258 0 -0.006848483859850949 0.0016560724575881206 0 -0.0070563212681762416 0.0010509843694297722 0 -0.006848483859850949 0.0016560724575881206 0 -0.0070563212681762416 0.0010509843694297722 0 -0.0060637074705521361 0.0011909890651366859 0 -0.0072660092537040677 0.0023296071696212294 0 -0.006848483859850949 0.0016560724575881206 0 -0.0062832377031474332 0.0019363867592853193 0 0.010251964851663707 -0.018769751451858243 0 0.011063951515358141 -0.019645267777359528 0 0.011385631873743692 -0.018618565844322574 0 0.010251964851663707 -0.018769751451858243 0 0.011001692315479109 -0.018212650585542275 0 0.0094763612616618163 -0.017724055030021727 0 0.010251964851663707 -0.018769751451858243 0 0.011001692315479109 -0.018212650585542275 0 0.011385631873743692 -0.018618565844322574 0 0.010251964851663707 -0.018769751451858243 0 0.0087049279332109195 -0.018433286928332581 0 0.0096507355694966501 -0.019848485708397489 0 0.010251964851663707 -0.018769751451858243 0 0.0087049279332109195 -0.018433286928332581 0 0.0094763612616618163 -0.017724055030021727 0 0.0021251696839697455 -0.016332054527331951 0 0.0048862351769057965 -0.01534986348566577 0 -0.0048655156315638047 0.0017355243135947563 0 -0.0034824366121101735 0.00075024938852050053 0 -0.0045353696550306912 0.00088464030221202257 0 -0.0042423409590438789 -0.01415655805676532 0 -0.0036658327206177885 -0.015671985836259842 0 -0.0034181829941860283 -0.015654639390876707 0 -0.005516166803294943 -0.0069666635387507581 0 0.0020109930003332334 -0.003525992134254273 0 -0.0047366225355147482 -0.015366391071484265 0 -0.0036658327206177885 -0.015671985836259842 0 -0.0032825859791463905 -0.016230625998750102 0 -0.0047366225355147482 -0.015366391071484265 0 -0.0042423409590438789 -0.01415655805676532 0 -0.0036658327206177885 -0.015671985836259842 0 0.0048862351769057965 -0.01534986348566577 0 0.006965807341617258 -0.0056976379924593631 0 -0.0036658327206177885 -0.015671985836259842 0 -0.0034425037577625202 -0.015609949803451036 0 -0.0032825859791463905 -0.016230625998750102 0 0.0023532181132243975 -0.015796411931501171 0 0.0048862351769057965 -0.01534986348566577 0 0.018318457549974944 -0.00081392751298022057 0 0.017492431003069655 -0.001482290481147274 0 0.018463316526554401 -0.0015948682947421681 0 0.0048862351769057965 -0.01534986348566577 0 0.013994930659945818 -0.012090746940762185 0 0.010251964851663707 -0.018769751451858243 0 0.0096507355694966501 -0.019848485708397489 0 0.011063951515358141 -0.019645267777359528 0 0.0068927386842484771 -0.011318768691622497 0 0.011355711437292087 -0.010273142953366624 0 0.0079746824366560068 -0.013255768255210871 0 0.013994930659945818 -0.012090746940762185 0 0.006965807341617258 -0.0056976379924593631 0 0.017492431003069655 -0.001482290481147274 0 0.017695919874178893 -0.0018042917896090957 0 0.018463316526554401 -0.0015948682947421681 0 0.0084664462076564171 -0.0026717969505613975 0 0.015983707265234823 -0.0023498281145715705 0 0.017695919874178893 -0.0018042917896090957 0 0.018463316526554401 -0.0015948682947421681 0 0.018547621351296929 -0.0022846918471909217 0 0.006965807341617258 -0.0056976379924593631 0 0.0020109930003332334 -0.003525992134254273 0 0.006965807341617258 -0.0056976379924593631 0 0.0084664462076564171 -0.0026717969505613975 0 0.0084664462076564171 -0.0026717969505613975 0 0.0020109930003332334 -0.003525992134254273 0 0.0072439210998348456 -0.0034166274833630586 0 0.0070458798424111744 -0.0030340118742640003 0 0.0073829455319308433 -0.0032881665234290995 0 0.0035520566611422521 -0.00034502265317144174 0 0.0023347808626111009 0.00051030585511050287 0 0.0014890198925503024 -0.0019375049434226181 0 0.0023347808626111009 0.00051030585511050287 0 -0.0010061512986998769 -0.0027258347396231044 0 0.0014890198925503024 -0.0019375049434226181 0 0.0020109930003332334 -0.003525992134254273 0 -0.0041713967152583751 -0.00074903441022081607 0 -0.0034425037577625202 -0.015609949803451036 0 -0.0031278401687839436 -0.01609481909275173 0 -0.0032825859791463905 -0.016230625998750102 0 -0.0034824366121101735 0.00075024938852050053 0 -0.0045353696550306912 0.00088464030221202257 0 -0.0046634229364584156 0.00028841167099978685 0 -0.0034824366121101735 0.00075024938852050053 0 -0.0046634229364584156 0.00028841167099978685 0 -0.0047364415346630084 -0.00014590000093978338 0 -0.0043282015738281797 0.00050025910018039769 0 -0.0017201488764176335 6.7747771045062768e-07 0 -0.0032036454394829598 -0.00078837768462799605 0 -0.0041713967152583751 -0.00074903441022081607 0 0.0071943483833337429 -0.0012368356259345984 0 -0.0010061512986998769 -0.0027258347396231044 0 0.0014890198925503024 -0.0019375049434226181 0 0.0055306692546399716 -0.0038806358064404829 0 -0.0043282015738281797 0.00050025910018039769 0 -0.0044465192990180702 -0.0010403323479136538 0 -0.0032036454394829598 -0.00078837768462799605 0 0.0096420254087837866 0.00031888516348021817 0 0.011700648459827351 -0.0033474313505385146 0 0.012811440617517185 -0.0018753311107033042 0 0.0035520566611422521 -0.00034502265317144174 0 0.0014890198925503024 -0.0019375049434226181 0 0.0055306692546399716 -0.0038806358064404829 0 0.0084664462076564171 -0.0026717969505613975 0 0.0071943483833337429 -0.0012368356259345984 0 -0.0065195926411594461 0.00051321213533412583 0 -0.0057734751182438628 0.00052149051456747337 0 -0.0061993198741897232 5.9316511476088756e-05 0 -0.0074288411448420119 0.00042529323747261138 0 -0.0065195926411594461 0.00051321213533412583 0 -0.0070563212681762416 0.0010509843694297722 0 -0.0074288411448420119 0.00042529323747261138 0 -0.0065195926411594461 0.00051321213533412583 0 -0.0067888298699555743 -0.00017493356959543785 0 -0.0065195926411594461 0.00051321213533412583 0 -0.0070563212681762416 0.0010509843694297722 0 -0.0060637074705521361 0.0011909890651366859 0 -0.0065195926411594461 0.00051321213533412583 0 -0.0060637074705521361 0.0011909890651366859 0 -0.0057734751182438628 0.00052149051456747337 0 -0.0060637074705521361 0.0011909890651366859 0 -0.0051281476723188356 0.0007738997507217404 0 -0.0057734751182438628 0.00052149051456747337 0 -0.0048655156315638047 0.0017355243135947563 0 -0.0045353696550306912 0.00088464030221202257 0 -0.0051281476723188356 0.0007738997507217404 0 -0.0045353696550306912 0.00088464030221202257 0 -0.0046634229364584156 0.00028841167099978685 0 -0.0051281476723188356 0.0007738997507217404 0 -0.0046634229364584156 0.00028841167099978685 0 -0.0051281476723188356 0.0007738997507217404 0 -0.0051089332961435632 0.00029602469003822939 0 -0.0046634229364584156 0.00028841167099978685 0 -0.0051089332961435632 0.00029602469003822939 0 -0.0048469715304209626 0.00013058574495671717 0 -0.0051089332961435632 0.00029602469003822939 0 -0.0048469715304209626 0.00013058574495671717 0 -0.0049813910094224567 7.1448908407464361e-05 0 -0.0051089332961435632 0.00029602469003822939 0 -0.0057734751182438628 0.00052149051456747337 0 -0.0056035069470806555 9.2090937195913643e-05 0 -0.0051281476723188356 0.0007738997507217404 0 -0.0051089332961435632 0.00029602469003822939 0 -0.0057734751182438628 0.00052149051456747337 0 -0.0057734751182438628 0.00052149051456747337 0 -0.0056035069470806555 9.2090937195913643e-05 0 -0.0061993198741897232 5.9316511476088756e-05 0 -0.0043282015738281797 0.00050025910018039769 0 -0.0058237650828887764 -0.00077278908071827957 0 -0.0044465192990180702 -0.0010403323479136538 0 -0.0056035069470806555 9.2090937195913643e-05 0 -0.0052642245592669275 -9.3928297774064059e-05 0 -0.0058237650828887764 -0.00077278908071827957 0 -0.0041713967152583751 -0.00074903441022081607 0 -0.0056720998550483966 -0.00053931759928023426 0 -0.0047364415346630084 -0.00014590000093978338 0 -0.0052642245592669275 -9.3928297774064059e-05 0 -0.0058237650828887764 -0.00077278908071827957 0 -0.0051089332961435632 0.00029602469003822939 0 -0.0056035069470806555 9.2090937195913643e-05 0 -0.0052642245592669275 -9.3928297774064059e-05 0 -0.0047364415346630084 -0.00014590000093978338 0 -0.0049813910094224567 7.1448908407464361e-05 0 -0.0052642245592669275 -9.3928297774064059e-05 0 -0.0046634229364584156 0.00028841167099978685 0 -0.0047364415346630084 -0.00014590000093978338 0 -0.0048469715304209626 0.00013058574495671717 0 -0.0047364415346630084 -0.00014590000093978338 0 -0.0048469715304209626 0.00013058574495671717 0 -0.0049813910094224567 7.1448908407464361e-05 0 -0.0051089332961435632 0.00029602469003822939 0 -0.0049813910094224567 7.1448908407464361e-05 0 -0.0052642245592669275 -9.3928297774064059e-05 0 -0.0056035069470806555 9.2090937195913643e-05 0 -0.0061993198741897232 5.9316511476088756e-05 0 -0.0058237650828887764 -0.00077278908071827957 0 -0.0067888298699555743 -0.00017493356959543785 0 -0.0058237650828887764 -0.00077278908071827957 0 -0.0071166964816177843 -0.00083774522459939917 0 -0.0061993198741897232 5.9316511476088756e-05 0 -0.0067888298699555743 -0.00017493356959543785 0 -0.0058237650828887764 -0.00077278908071827957 0 -0.0065195926411594461 0.00051321213533412583 0 -0.0061993198741897232 5.9316511476088756e-05 0 -0.0067888298699555743 -0.00017493356959543785 0 -0.0058237650828887764 -0.00077278908071827957 0 -0.0071639126550380851 -0.001877618921868027 0 -0.0071166964816177843 -0.00083774522459939917 0 -0.0058237650828887764 -0.00077278908071827957 0 -0.0053233316600326489 -0.002173985516923996 0 -0.0071639126550380851 -0.001877618921868027 0 -0.0044465192990180702 -0.0010403323479136538 0 -0.0053233316600326489 -0.002173985516923996 0 -0.0035250942697505542 -0.0021220965997602132 0 -0.0058237650828887764 -0.00077278908071827957 0 -0.0044465192990180702 -0.0010403323479136538 0 -0.0053233316600326489 -0.002173985516923996 0 -0.0053233316600326489 -0.002173985516923996 0 -0.0035250942697505542 -0.0021220965997602132 0 -0.0045950219684337467 -0.0034353299364740675 0 -0.0053233316600326489 -0.002173985516923996 0 -0.0063195982914633769 -0.0036582049369762309 0 -0.0071639126550380851 -0.001877618921868027 0 -0.0017201488764176335 6.7747771045062768e-07 0 -0.0022021350326114964 -0.001514868606898061 0 -0.0032036454394829598 -0.00078837768462799605 0 -0.0022021350326114964 -0.001514868606898061 0 -0.0032036454394829598 -0.00078837768462799605 0 -0.0035250942697505542 -0.0021220965997602132 0 -0.0044465192990180702 -0.0010403323479136538 0 -0.0032036454394829598 -0.00078837768462799605 0 -0.0035250942697505542 -0.0021220965997602132 0 -0.0022021350326114964 -0.001514868606898061 0 -0.0035250942697505542 -0.0021220965997602132 0 -0.002165859143166601 -0.0027262933922772661 0 -0.0035250942697505542 -0.0021220965997602132 0 -0.002165859143166601 -0.0027262933922772661 0 -0.0031016569473066957 -0.0039941136881123584 0 -0.0022021350326114964 -0.001514868606898061 0 -0.002165859143166601 -0.0027262933922772661 0 -0.00066838126531393901 -0.0020148292003747165 0 -0.002165859143166601 -0.0027262933922772661 0 -0.0031016569473066957 -0.0039941136881123584 0 -0.0013611057687311422 -0.0039433088504873034 0 -0.0031016569473066957 -0.0039941136881123584 0 -0.0045950219684337467 -0.0034353299364740675 0 -0.0047498831455127649 -0.0049961708857785081 0 -0.0035250942697505542 -0.0021220965997602132 0 -0.0031016569473066957 -0.0039941136881123584 0 -0.0045950219684337467 -0.0034353299364740675 0 -0.0031016569473066957 -0.0039941136881123584 0 -0.0047498831455127649 -0.0049961708857785081 0 -0.003641367208242062 -0.0060373220469132184 0 -0.0031016569473066957 -0.0039941136881123584 0 -0.0021413426788808548 -0.0055840365788226787 0 -0.003641367208242062 -0.0060373220469132184 0 -0.0031016569473066957 -0.0039941136881123584 0 -0.0013611057687311422 -0.0039433088504873034 0 -0.0021413426788808548 -0.0055840365788226787 0 -0.0063195982914633769 -0.0036582049369762309 0 -0.0045950219684337467 -0.0034353299364740675 0 -0.0047498831455127649 -0.0049961708857785081 0 -0.0053233316600326489 -0.002173985516923996 0 -0.0063195982914633769 -0.0036582049369762309 0 -0.0045950219684337467 -0.0034353299364740675 0 -0.0063195982914633769 -0.0036582049369762309 0 -0.0047498831455127649 -0.0049961708857785081 0 -0.0064284844077878598 -0.0052360212354646048 0 -0.0063195982914633769 -0.0036582049369762309 0 -0.0064284844077878598 -0.0052360212354646048 0 -0.0075746418403656443 -0.0043543807548798545 0 -0.0064284844077878598 -0.0052360212354646048 0 -0.0075746418403656443 -0.0043543807548798545 0 -0.0086845752381980654 -0.0054228432165814152 0 -0.0085656950637866165 -0.0031151075849942486 0 -0.010424237927790044 -0.0039468477880747052 0 -0.0086845752381980654 -0.0054228432165814152 0 -0.0075746418403656443 -0.0043543807548798545 0 -0.0085656950637866165 -0.0031151075849942486 0 -0.0086845752381980654 -0.0054228432165814152 0 -0.010325290909028591 -0.0040255475840357607 0 -0.0089473432219285103 -0.0050994593065613837 0 -0.0063195982914633769 -0.0036582049369762309 0 -0.0075746418403656443 -0.0043543807548798545 0 -0.0085656950637866165 -0.0031151075849942486 0 -0.0063195982914633769 -0.0036582049369762309 0 -0.0085656950637866165 -0.0031151075849942486 0 -0.0071639126550380851 -0.001877618921868027 0 -0.0085656950637866165 -0.0031151075849942486 0 -0.0071639126550380851 -0.001877618921868027 0 -0.008786852088669795 -0.0016004072676508601 0 -0.0085656950637866165 -0.0031151075849942486 0 -0.008786852088669795 -0.0016004072676508601 0 -0.010126195227828205 -0.0024541988744301614 0 -0.0088449240112776547 -0.00054164603042272772 0 -0.008786852088669795 -0.0016004072676508601 0 -0.009976739519200948 -0.0010600794281439988 0 -0.0088449240112776547 -0.00054164603042272772 0 -0.008786852088669795 -0.0016004072676508601 0 -0.007936178009667302 -0.0010255599299775079 0 -0.0071639126550380851 -0.001877618921868027 0 -0.008786852088669795 -0.0016004072676508601 0 -0.007936178009667302 -0.0010255599299775079 0 -0.0071639126550380851 -0.001877618921868027 0 -0.007936178009667302 -0.0010255599299775079 0 -0.0071166964816177843 -0.00083774522459939917 0 -0.011278146017162821 -0.00021154064284239354 0 -0.009976739519200948 -0.0010600794281439988 0 -0.011359350331166109 -0.0018321181398933755 0 -0.011278146017162821 -0.00021154064284239354 0 -0.011359350331166109 -0.0018321181398933755 0 -0.012643306888298723 -0.00092093988387547863 0 -0.008786852088669795 -0.0016004072676508601 0 -0.009976739519200948 -0.0010600794281439988 0 -0.010126195227828205 -0.0024541988744301614 0 -0.009976739519200948 -0.0010600794281439988 0 -0.010126195227828205 -0.0024541988744301614 0 -0.011359350331166109 -0.0018321181398933755 0 -0.010126195227828205 -0.0024541988744301614 0 -0.011359350331166109 -0.0018321181398933755 0 -0.011520623218112718 -0.0031666843696461252 0 -0.011520623218112718 -0.0031666843696461252 0 -0.010424237927790044 -0.0039468477880747052 0 -0.01234108519890364 -0.0040558248766134081 0 -0.0085656950637866165 -0.0031151075849942486 0 -0.010126195227828205 -0.0024541988744301614 0 -0.010424237927790044 -0.0039468477880747052 0 -0.010126195227828205 -0.0024541988744301614 0 -0.011520623218112718 -0.0031666843696461252 0 -0.010424237927790044 -0.0039468477880747052 0 -0.010424237927790044 -0.0039468477880747052 0 -0.01234108519890364 -0.0040558248766134081 0 -0.011661788615055674 -0.0052439688266097823 0 -0.01234108519890364 -0.0040558248766134081 0 -0.014114586000416573 -0.0044935859706045486 0 -0.012937792411976269 -0.0051254853504711624 0 -0.01234108519890364 -0.0040558248766134081 0 -0.013221375389345249 -0.0027805297409435091 0 -0.014114586000416573 -0.0044935859706045486 0 -0.011520623218112718 -0.0031666843696461252 0 -0.01234108519890364 -0.0040558248766134081 0 -0.013221375389345249 -0.0027805297409435091 0 -0.013591528138245353 -0.0026612085952526735 0 -0.014093093321380607 -0.0044448206382858889 0 -0.013947119250521332 -0.0024475665011918241 0 -0.014114586000416573 -0.0044935859706045486 0 -0.015727827734902278 -0.0029617090291195985 0 -0.013947119250521332 -0.0024475665011918241 0 -0.015727827734902278 -0.0029617090291195985 0 -0.01510604435727053 -0.0017449809823961108 0 -0.014114586000416573 -0.0044935859706045486 0 -0.015727827734902278 -0.0029617090291195985 0 -0.015690963323890524 -0.0045277407817917309 0 -0.017105807600818809 -0.0039869107183212972 0 -0.015727827734902278 -0.0029617090291195985 0 -0.015690963323890524 -0.0045277407817917309 0 -0.015727827734902278 -0.0029617090291195985 0 -0.016352790326857481 -0.0015873373053831258 0 -0.018005159951935905 -0.0026952681813165657 0 -0.017105807600818809 -0.0039869107183212972 0 -0.015727827734902278 -0.0029617090291195985 0 -0.018005159951935905 -0.0026952681813165657 0 -0.015727827734902278 -0.0029617090291195985 0 -0.01510604435727053 -0.0017449809823961108 0 -0.016352790326857481 -0.0015873373053831258 0 -0.017172088936442377 -0.0027609055631829717 0 -0.018855401805961142 -0.002912060538120969 0 -0.01829870210954784 -0.0022101019763102994 0 -0.016760814448095341 -0.0021381455579120002 0 -0.01854120294154598 -0.0034409289975303389 0 -0.017172088936442377 -0.0027609055631829717 0 -0.016931884851037086 -0.0011748309624827961 0 -0.016168453120291002 -0.0011186619076982132 0 -0.017172088936442377 -0.0027609055631829717 0 -0.016931884851037086 -0.0011748309624827961 0 -0.01829870210954784 -0.0022101019763102994 0 -0.016931884851037086 -0.0011748309624827961 0 -0.01829870210954784 -0.0022101019763102994 0 -0.018637798708382981 -0.0016064333163641968 0 -0.01510604435727053 -0.0017449809823961108 0 -0.016352790326857481 -0.0015873373053831258 0 -0.015190435633017583 -0.00075904413004123684 0 -0.017172088936442377 -0.0027609055631829717 0 -0.016168453120291002 -0.0011186619076982132 0 -0.015190435633017583 -0.00075904413004123684 0 -0.016760814448095341 -0.0021381455579120002 0 -0.015302222186446659 -0.00082605422677878325 0 -0.01510604435727053 -0.0017449809823961108 0 -0.014337203348003095 -0.0012420269456569356 0 -0.015190435633017583 -0.00075904413004123684 0 -0.014337203348003095 -0.0012420269456569356 0 -0.013350386436018666 -0.00088003588456215512 0 -0.014034122991946348 -0.00025668458781284844 0 -0.013947119250521332 -0.0024475665011918241 0 -0.014337203348003095 -0.0012420269456569356 0 -0.013350386436018666 -0.00088003588456215512 0 -0.014337203348003095 -0.0012420269456569356 0 -0.014034122991946348 -0.00025668458781284844 0 -0.015190435633017583 -0.00075904413004123684 0 -0.011359350331166109 -0.0018321181398933755 0 -0.013221375389345249 -0.0027805297409435091 0 -0.012643306888298723 -0.00092093988387547863 0 -0.013591528138245353 -0.0026612085952526735 0 -0.012974016826135805 -0.00084963224719654601 0 -0.011359350331166109 -0.0018321181398933755 0 -0.011520623218112718 -0.0031666843696461252 0 -0.013221375389345249 -0.0027805297409435091 0 -0.013947119250521332 -0.0024475665011918241 0 -0.01510604435727053 -0.0017449809823961108 0 -0.014337203348003095 -0.0012420269456569356 0 -0.023147893052320328 -0.0032269243299317585 0 -0.021999933526967538 -0.0033109763344260834 0 -0.022694488909992688 -0.0039781981472542562 0 -0.021999933526967538 -0.0033109763344260834 0 -0.022694488909992688 -0.0039781981472542562 0 -0.021806515273245539 -0.0041642207904778131 0 -0.022694488909992688 -0.0039781981472542562 0 -0.022265260595784157 -0.0045086874508152618 0 -0.021806515273245539 -0.0041642207904778131 0 -0.024000684602960103 -0.0049796101363228729 0 -0.023005895392463737 -0.004568071836110129 0 -0.022163879580896443 -0.0052460095276601754 0 -0.022694488909992688 -0.0039781981472542562 0 -0.023005895392463737 -0.004568071836110129 0 -0.022265260595784157 -0.0045086874508152618 0 -0.023005895392463737 -0.004568071836110129 0 -0.022163879580896443 -0.0052460095276601754 0 -0.022265260595784157 -0.0045086874508152618 0 -0.022163879580896443 -0.0052460095276601754 0 -0.022265260595784157 -0.0045086874508152618 0 -0.021660099039796162 -0.0046317152040535707 0 -0.022265260595784157 -0.0045086874508152618 0 -0.021660099039796162 -0.0046317152040535707 0 -0.021806515273245539 -0.0041642207904778131 0 -0.022163879580896443 -0.0052460095276601754 0 -0.021660099039796162 -0.0046317152040535707 0 -0.020864142276149331 -0.004797400731264348 0 -0.022163879580896443 -0.0052460095276601754 0 -0.020864142276149331 -0.004797400731264348 0 -0.020279238158566543 -0.0051333232612917005 0 -0.021660099039796162 -0.0046317152040535707 0 -0.020864142276149331 -0.004797400731264348 0 -0.021112288524611986 -0.0044190418558675004 0 -0.023801429357575586 -0.0025827381413465458 0 -0.021364305755429937 -0.0032824143465544162 0 -0.021660099039796162 -0.0046317152040535707 0 -0.021112288524611986 -0.0044190418558675004 0 -0.021806515273245539 -0.0041642207904778131 0 -0.021112288524611986 -0.0044190418558675004 0 -0.02093171650288916 -0.0039121949619188431 0 -0.020587880593854222 -0.0044574577435920132 0 -0.020864142276149331 -0.004797400731264348 0 -0.021112288524611986 -0.0044190418558675004 0 -0.020587880593854222 -0.0044574577435920132 0 -0.021112288524611986 -0.0044190418558675004 0 -0.02093171650288916 -0.0039121949619188431 0 -0.021806515273245539 -0.0041642207904778131 0 -0.021999933526967538 -0.0033109763344260834 0 -0.02093171650288916 -0.0039121949619188431 0 -0.021806515273245539 -0.0041642207904778131 0 -0.021999933526967538 -0.0033109763344260834 0 -0.02093171650288916 -0.0039121949619188431 0 -0.02105909538051912 -0.003231465018844032 0 -0.02093171650288916 -0.0039121949619188431 0 -0.020087632258495518 -0.004230801416767546 0 -0.020077678937895433 -0.0032018511706136269 0 -0.020087632258495518 -0.004230801416767546 0 -0.019086732516210545 -0.0041138634262695315 0 -0.020077678937895433 -0.0032018511706136269 0 -0.02093171650288916 -0.0039121949619188431 0 -0.020077678937895433 -0.0032018511706136269 0 -0.02105909538051912 -0.003231465018844032 0 -0.02093171650288916 -0.0039121949619188431 0 -0.020087632258495518 -0.004230801416767546 0 -0.020587880593854222 -0.0044574577435920132 0 -0.020087632258495518 -0.004230801416767546 0 -0.020032691793528935 -0.0048007684036468039 0 -0.019086732516210545 -0.0041138634262695315 0 -0.020087632258495518 -0.004230801416767546 0 -0.020587880593854222 -0.0044574577435920132 0 -0.020032691793528935 -0.0048007684036468039 0 -0.019933642192263509 -0.0047329836721767809 0 -0.01854120294154598 -0.0034409289975303389 0 -0.020864142276149331 -0.004797400731264348 0 -0.020032691793528935 -0.0048007684036468039 0 -0.020279238158566543 -0.0051333232612917005 0 -0.020864142276149331 -0.004797400731264348 0 -0.020587880593854222 -0.0044574577435920132 0 -0.020032691793528935 -0.0048007684036468039 0 -0.020032691793528935 -0.0048007684036468039 0 -0.018272557735596912 -0.0040262375292942484 0 -0.018005159951935905 -0.0026952681813165657 0 -0.017105807600818809 -0.0039869107183212972 0 -0.018272557735596912 -0.0040262375292942484 0 -0.018005159951935905 -0.0026952681813165657 0 -0.017105807600818809 -0.0039869107183212972 0 -0.018272557735596912 -0.0040262375292942484 0 -0.018002332853398726 -0.0044686242802569843 0 -0.017172088936442377 -0.0027609055631829717 0 -0.019086732516210545 -0.0041138634262695315 0 -0.018855401805961142 -0.002912060538120969 0 -0.019086732516210545 -0.0041138634262695315 0 -0.018855401805961142 -0.002912060538120969 0 -0.020077678937895433 -0.0032018511706136269 0 -0.018855401805961142 -0.002912060538120969 0 -0.01941927797051482 -0.0021913366359013393 0 -0.020077678937895433 -0.0032018511706136269 0 -0.018855401805961142 -0.002912060538120969 0 -0.01829870210954784 -0.0022101019763102994 0 -0.01941927797051482 -0.0021913366359013393 0 -0.016931884851037086 -0.0011748309624827961 0 -0.018637798708382981 -0.0016064333163641968 0 -0.018864885190606639 -0.00093034670817597552 0 -0.01829870210954784 -0.0022101019763102994 0 -0.018637798708382981 -0.0016064333163641968 0 -0.01941927797051482 -0.0021913366359013393 0 -0.018637798708382981 -0.0016064333163641968 0 -0.01938239179376294 -0.0014222533579255469 0 -0.018864885190606639 -0.00093034670817597552 0 -0.018637798708382981 -0.0016064333163641968 0 -0.01938239179376294 -0.0014222533579255469 0 -0.01941927797051482 -0.0021913366359013393 0 -0.01941927797051482 -0.0021913366359013393 0 -0.02018117511572871 -0.001362816646771046 0 -0.020303364938143345 -0.0022932761763218247 0 -0.01938239179376294 -0.0014222533579255469 0 -0.02018117511572871 -0.001362816646771046 0 -0.019331170158994819 -0.00055036551123415108 0 -0.01938239179376294 -0.0014222533579255469 0 -0.01941927797051482 -0.0021913366359013393 0 -0.02018117511572871 -0.001362816646771046 0 -0.02018117511572871 -0.001362816646771046 0 -0.020945931067579179 -0.0019968690185182469 0 -0.021443664256719383 -0.0011597389466316067 0 -0.02018117511572871 -0.001362816646771046 0 -0.020303364938143345 -0.0022932761763218247 0 -0.020945931067579179 -0.0019968690185182469 0 -0.020303364938143345 -0.0022932761763218247 0 -0.020077678937895433 -0.0032018511706136269 0 -0.02086548579276393 -0.0026752606838597636 0 -0.020303364938143345 -0.0022932761763218247 0 -0.02086548579276393 -0.0026752606838597636 0 -0.020945931067579179 -0.0019968690185182469 0 -0.01941927797051482 -0.0021913366359013393 0 -0.020303364938143345 -0.0022932761763218247 0 -0.020077678937895433 -0.0032018511706136269 0 -0.020077678937895433 -0.0032018511706136269 0 -0.02105909538051912 -0.003231465018844032 0 -0.02086548579276393 -0.0026752606838597636 0 -0.02105909538051912 -0.003231465018844032 0 -0.021500513294555004 -0.0028380872479472604 0 -0.02086548579276393 -0.0026752606838597636 0 -0.021999933526967538 -0.0033109763344260834 0 -0.021500513294555004 -0.0028380872479472604 0 -0.022079393861146466 -0.0024704150435377967 0 -0.021999933526967538 -0.0033109763344260834 0 -0.02105909538051912 -0.003231465018844032 0 -0.021500513294555004 -0.0028380872479472604 0 -0.021500513294555004 -0.0028380872479472604 0 -0.021450285401359098 -0.0023624771698199268 0 -0.022079393861146466 -0.0024704150435377967 0 -0.021500513294555004 -0.0028380872479472604 0 -0.02086548579276393 -0.0026752606838597636 0 -0.021450285401359098 -0.0023624771698199268 0 -0.02086548579276393 -0.0026752606838597636 0 -0.021450285401359098 -0.0023624771698199268 0 -0.020945931067579179 -0.0019968690185182469 0 -0.021450285401359098 -0.0023624771698199268 0 -0.020945931067579179 -0.0019968690185182469 0 -0.021834924714572726 -0.0018355601530046822 0 -0.020945931067579179 -0.0019968690185182469 0 -0.021834924714572726 -0.0018355601530046822 0 -0.021443664256719383 -0.0011597389466316067 0 -0.021834924714572726 -0.0018355601530046822 0 -0.022468601177119091 -0.0011833916281970168 0 -0.021443664256719383 -0.0011597389466316067 0 -0.021450285401359098 -0.0023624771698199268 0 -0.021834924714572726 -0.0018355601530046822 0 -0.022079393861146466 -0.0024704150435377967 0 -0.021834924714572726 -0.0018355601530046822 0 -0.02285610780415076 -0.0018849171110200073 0 -0.022079393861146466 -0.0024704150435377967 0 -0.021834924714572726 -0.0018355601530046822 0 -0.02285610780415076 -0.0018849171110200073 0 -0.022468601177119091 -0.0011833916281970168 0 -0.023661519372234666 -0.0023891663968133563 0 -0.02285610780415076 -0.0018849171110200073 0 -0.02275673050169752 -0.0026674026450918937 0 -0.02285610780415076 -0.0018849171110200073 0 -0.02275673050169752 -0.0026674026450918937 0 -0.022079393861146466 -0.0024704150435377967 0 -0.021999933526967538 -0.0033109763344260834 0 -0.02275673050169752 -0.0026674026450918937 0 -0.022079393861146466 -0.0024704150435377967 0 -0.023147893052320328 -0.0032269243299317585 0 -0.021999933526967538 -0.0033109763344260834 0 -0.02275673050169752 -0.0026674026450918937 0 -0.023385516398967712 -0.00025873397935356572 0 -0.022405339078820429 -0.0007999523796981767 0 -0.02280131218353957 0.00031275918584708183 0 -0.022920801562350979 -0.00061154506993946255 0 -0.022151850908480181 -0.00055667639493498997 0 -0.02280131218353957 0.00031275918584708183 0 -0.023442306198799289 -0.00050001480504828499 0 -0.022920801562350979 -0.00061154506993946255 0 -0.023758107380516261 -7.2370839792278632e-05 0 -0.02280131218353957 0.00031275918584708183 0 -0.023442306198799289 -0.00050001480504828499 0 -0.023638588459623654 -0.0010990961217507967 0 -0.023442306198799289 -0.00050001480504828499 0 -0.022920801562350979 -0.00061154506993946255 0 -0.023638588459623654 -0.0010990961217507967 0 -0.02285610780415076 -0.0018849171110200073 0 -0.022468601177119091 -0.0011833916281970168 0 -0.023638588459623654 -0.0010990961217507967 0 -0.022920801562350979 -0.00061154506993946255 0 -0.022468601177119091 -0.0011833916281970168 0 -0.022920801562350979 -0.00061154506993946255 0 -0.022468601177119091 -0.0011833916281970168 0 -0.022151850908480181 -0.00055667639493498997 0 -0.022468601177119091 -0.0011833916281970168 0 -0.022151850908480181 -0.00055667639493498997 0 -0.021443664256719383 -0.0011597389466316067 0 -0.022151850908480181 -0.00055667639493498997 0 -0.021443664256719383 -0.0011597389466316067 0 -0.021110246920867638 -0.00010119155186437921 0 -0.022405339078820429 -0.0007999523796981767 0 -0.020054950747009474 -0.00074018944652982151 0 -0.022405339078820429 -0.0007999523796981767 0 -0.020900845061226372 -0.00043524316118094401 0 -0.021840929155182723 -0.00032932409074699242 0 -0.020555611361465356 -0.00092173120550734439 0 -0.020418358148527698 -1.9134880590885285e-06 0 -0.02280131218353957 0.00031275918584708183 0 -0.022151850908480181 -0.00055667639493498997 0 -0.021110246920867638 -0.00010119155186437921 0 -0.018121197576647576 -0.000217630117618962 0 -0.017575506918869572 0.00059755143150989789 0 -0.018572820090904427 0.00036417076626106255 0 -0.019011076463213768 -0.00050869426596112201 0 -0.020054950747009474 -0.00074018944652982151 0 -0.020555611361465356 -0.00092173120550734439 0 -0.019848890670577529 -0.00075746924785875932 0 -0.020418358148527698 -1.9134880590885285e-06 0 -0.020555611361465356 -0.00092173120550734439 0 -0.019848890670577529 -0.00075746924785875932 0 -0.019277425651482438 -0.0015056862993330618 0 -0.020900845061226372 -0.00043524316118094401 0 -0.018869932933233666 -0.00089038697589790519 0 -0.02018117511572871 -0.001362816646771046 0 -0.021110246920867638 -0.00010119155186437921 0 -0.019331170158994819 -0.00055036551123415108 0 -0.02018117511572871 -0.001362816646771046 0 -0.021443664256719383 -0.0011597389466316067 0 -0.021110246920867638 -0.00010119155186437921 0 -0.019011076463213768 -0.00050869426596112201 0 -0.018869932933233666 -0.00089038697589790519 0 -0.018121197576647576 -0.000217630117618962 0 -0.01766836645657718 -0.00076090457964552458 0 -0.01745081631937212 -0.00015484998399269194 0 -0.016931884851037086 -0.0011748309624827961 0 -0.019418113021755296 -0.0002732092130629379 0 -0.018864885190606639 -0.00093034670817597552 0 -0.016929446818305757 -0.0010991668352934734 0 -0.018869932933233666 -0.00089038697589790519 0 -0.01766836645657718 -0.00076090457964552458 0 -0.01745081631937212 -0.00015484998399269194 0 -0.017012053825628464 -0.00054071518712066444 0 -0.01938239179376294 -0.0014222533579255469 0 -0.019331170158994819 -0.00055036551123415108 0 -0.018864885190606639 -0.00093034670817597552 0 -0.018869932933233666 -0.00089038697589790519 0 -0.018996160953349366 -0.00076068391931378336 0 -0.01745081631937212 -0.00015484998399269194 0 -0.017575506918869572 0.00059755143150989789 0 -0.016827355389713861 0.00012099478638983702 0 -0.018121197576647576 -0.000217630117618962 0 -0.01745081631937212 -0.00015484998399269194 0 -0.017575506918869572 0.00059755143150989789 0 -0.018654380616161398 4.2842890312446455e-05 0 -0.018535761321952431 0.0016149743372258177 0 -0.016971098179713758 0.00048702508072862309 0 -0.018654380616161398 4.2842890312446455e-05 0 -0.018535761321952431 0.0016149743372258177 0 -0.019857439801499555 0.0010270943299274906 0 -0.018535761321952431 0.0016149743372258177 0 -0.019857439801499555 0.0010270943299274906 0 -0.019896098766134556 0.0025489885095642717 0 -0.018654380616161398 4.2842890312446455e-05 0 -0.019857439801499555 0.0010270943299274906 0 -0.020324740700601522 -0.00036661858222474019 0 -0.017979194307298097 0.00039646142014740257 0 -0.020054950747009474 -0.00074018944652982151 0 -0.020119095847373151 -0.0028031321855563262 0 -0.021124032516318451 -0.001469399365778293 0 -0.021909999489717252 -0.0022590059432778843 0 -0.019857439801499555 0.0010270943299274906 0 -0.020324740700601522 -0.00036661858222474019 0 -0.021101560179045804 0.00065003651257297213 0 -0.022488093729584577 -0.0033756245702470608 0 -0.020119095847373151 -0.0028031321855563262 0 -0.021909999489717252 -0.0022590059432778843 0 -0.020054950747009474 -0.00074018944652982151 0 -0.02167786225778991 -0.0014762850564780409 0 -0.021124032516318451 -0.001469399365778293 0 -0.022044374592299982 -0.0010812548198682391 0 -0.021909999489717252 -0.0022590059432778843 0 -0.021550673752083797 -0.0041619732824701699 0 -0.020683377751050978 -0.0028155350286736915 0 -0.019857439801499555 0.0010270943299274906 0 -0.021510019914285493 0.001174619834921726 0 -0.019896098766134556 0.0025489885095642717 0 -0.019857439801499555 0.0010270943299274906 0 -0.021101560179045804 0.00065003651257297213 0 -0.021510019914285493 0.001174619834921726 0 -0.02167786225778991 -0.0014762850564780409 0 -0.021934508654262167 -0.0028214904273645707 0 -0.021793757341213759 -0.0023696783587854324 0 -0.021582447386288048 -0.0026592110382608232 0 -0.021426423972543469 -0.0025285522535192315 0 -0.02167786225778991 -0.0014762850564780409 0 -0.021550673752083797 -0.0041619732824701699 0 -0.022103959816521437 -0.0080200308744508807 0 -0.02216389360090219 -0.0080730455059551207 0 -0.022356716460014723 -0.0077004533151606366 0 -0.021550673752083797 -0.0041619732824701699 0 -0.021934508654262167 -0.0028214904273645707 0 -0.023784660603880927 -0.0025302127206831338 0 -0.022488093729584577 -0.0033756245702470608 0 -0.021909999489717252 -0.0022590059432778843 0 -0.023462076515782002 -0.0020121985699475091 0 -0.021934508654262167 -0.0028214904273645707 0 -0.023784660603880927 -0.0025302127206831338 0 -0.022044374592299982 -0.0010812548198682391 0 -0.021909999489717252 -0.0022590059432778843 0 -0.014371942040826645 0.00079450692932097927 0 -0.012266160431617696 0.0010854780604961228 0 -0.014034122991946348 -0.00025668458781284844 0 -0.014872472621955282 0.00021923758954537343 0 -0.013418844145275428 0.0015200320774779309 0 -0.014371942040826645 0.00079450692932097927 0 -0.012266160431617696 0.0010854780604961228 0 -0.012759851924941137 0.0022944071569479833 0 -0.012974016826135805 -0.00084963224719654601 0 -0.012318751146075323 0.0010293224025029381 0 -0.013350386436018666 -0.00088003588456215512 0 -0.012266160431617696 0.0010854780604961228 0 -0.014034122991946348 -0.00025668458781284844 0 -0.011278146017162821 -0.00021154064284239354 0 -0.012643306888298723 -0.00092093988387547863 0 -0.012266160431617696 0.0010854780604961228 0 -0.014371942040826645 0.00079450692932097927 0 -0.014034122991946348 -0.00025668458781284844 0 -0.015190435633017583 -0.00075904413004123684 0 -0.016168453120291002 -0.0011186619076982132 0 -0.014371942040826645 0.00079450692932097927 0 -0.015190435633017583 -0.00075904413004123684 0 -0.016168453120291002 -0.0011186619076982132 0 -0.015359095477395512 -0.00030624348024102451 0 -0.016319088602177071 -0.0006396883640373592 0 -0.016087962568230758 -0.0010744808342063484 0 -0.014872472621955282 0.00021923758954537343 0 -0.016931884851037086 -0.0011748309624827961 0 -0.01766836645657718 -0.00076090457964552458 0 -0.017012053825628464 -0.00054071518712066444 0 -0.016931884851037086 -0.0011748309624827961 0 -0.016319088602177071 -0.0006396883640373592 0 -0.017012053825628464 -0.00054071518712066444 0 -0.016931884851037086 -0.0011748309624827961 0 -0.016168453120291002 -0.0011186619076982132 0 -0.016319088602177071 -0.0006396883640373592 0 -0.016319088602177071 -0.0006396883640373592 0 -0.017012053825628464 -0.00054071518712066444 0 -0.016335841773203335 -0.00024180460980164798 0 -0.01745081631937212 -0.00015484998399269194 0 -0.017012053825628464 -0.00054071518712066444 0 -0.016827355389713861 0.00012099478638983702 0 -0.017012053825628464 -0.00054071518712066444 0 -0.016827355389713861 0.00012099478638983702 0 -0.016335841773203335 -0.00024180460980164798 0 -0.016827355389713861 0.00012099478638983702 0 -0.016335841773203335 -0.00024180460980164798 0 -0.016015872898381901 0.00026657459580475015 0 -0.015359095477395512 -0.00030624348024102451 0 -0.016319088602177071 -0.0006396883640373592 0 -0.016335841773203335 -0.00024180460980164798 0 -0.015359095477395512 -0.00030624348024102451 0 -0.016335841773203335 -0.00024180460980164798 0 -0.016015872898381901 0.00026657459580475015 0 -0.016762634943445858 0.0006522396511123152 0 -0.015437983966626396 0.00096842291262861898 0 -0.015359095477395512 -0.00030624348024102451 0 -0.016015872898381901 0.00026657459580475015 0 -0.015322970490070378 0.00099589832867999365 0 -0.016015872898381901 0.00026657459580475015 0 -0.016525484336638637 0.0008349868352102598 0 -0.015322970490070378 0.00099589832867999365 0 -0.017979194307298097 0.00039646142014740257 0 -0.016762634943445858 0.0006522396511123152 0 -0.017575506918869572 0.00059755143150989789 0 -0.016827355389713861 0.00012099478638983702 0 -0.016525484336638637 0.0008349868352102598 0 -0.016827355389713861 0.00012099478638983702 0 -0.016015872898381901 0.00026657459580475015 0 -0.016525484336638637 0.0008349868352102598 0 -0.018535761321952431 0.0016149743372258177 0 -0.016971098179713758 0.00048702508072862309 0 -0.017145968596259158 0.0023870062251413783 0 -0.016971098179713758 0.00048702508072862309 0 -0.01587621637149917 0.0020060336531800933 0 -0.015322970490070378 0.00099589832867999365 0 -0.016971098179713758 0.00048702508072862309 0 -0.01587621637149917 0.0020060336531800933 0 -0.017145968596259158 0.0023870062251413783 0 -0.015322970490070378 0.00099589832867999365 0 -0.01407719089576147 0.00073022787564476954 0 -0.014489962098951601 0.0021538602183579299 0 -0.01587621637149917 0.0020060336531800933 0 -0.015322970490070378 0.00099589832867999365 0 -0.014489962098951601 0.0021538602183579299 0 -0.015359095477395512 -0.00030624348024102451 0 -0.015322970490070378 0.00099589832867999365 0 -0.01407719089576147 0.00073022787564476954 0 -0.01144298206293546 0.002099030482463769 0 -0.012266160431617696 0.0010854780604961228 0 -0.012759851924941137 0.0022944071569479833 0 -0.01407719089576147 0.00073022787564476954 0 -0.014489962098951601 0.0021538602183579299 0 -0.012451466222570399 0.0023348484418130324 0 -0.013418844145275428 0.0015200320774779309 0 -0.011924722520064643 0.0030077399849683124 0 -0.013926580025644607 0.0040159038648002422 0 -0.014489962098951601 0.0021538602183579299 0 -0.012451466222570399 0.0023348484418130324 0 -0.013926580025644607 0.0040159038648002422 0 -0.015516190195067071 0.0031705799164932031 0 -0.015565187091748763 0.0044740705462995682 0 -0.013926580025644607 0.0040159038648002422 0 -0.014489962098951601 0.0021538602183579299 0 -0.015516190195067071 0.0031705799164932031 0 -0.01587621637149917 0.0020060336531800933 0 -0.014489962098951601 0.0021538602183579299 0 -0.015516190195067071 0.0031705799164932031 0 -0.015516190195067071 0.0031705799164932031 0 -0.017145968596259158 0.0023870062251413783 0 -0.016793316691463289 0.0038156600580546859 0 -0.01587621637149917 0.0020060336531800933 0 -0.015516190195067071 0.0031705799164932031 0 -0.017145968596259158 0.0023870062251413783 0 -0.016793316691463289 0.0038156600580546859 0 -0.016669276339055961 0.0052705035948227615 0 -0.018275223764075699 0.0039185853158839783 0 -0.017145968596259158 0.0023870062251413783 0 -0.016793316691463289 0.0038156600580546859 0 -0.018275223764075699 0.0039185853158839783 0 -0.015516190195067071 0.0031705799164932031 0 -0.016793316691463289 0.0038156600580546859 0 -0.015565187091748763 0.0044740705462995682 0 -0.017560746983848005 -0.010582410715443783 0 -0.015741543945207818 -0.0079189353184450379 0 -0.015565187091748763 0.0044740705462995682 0 -0.016669276339055961 0.0052705035948227615 0 -0.014752376434604428 0.0056550391560938893 0 -0.016793316691463289 0.0038156600580546859 0 -0.015565187091748763 0.0044740705462995682 0 -0.016669276339055961 0.0052705035948227615 0 -0.017904416870912099 -0.022803217466454626 0 -0.017663737897603234 -0.02274458239177635 0 -0.017260684138883192 -0.022823007755371563 0 -0.017904416870912099 -0.022803217466454626 0 -0.017746163409239495 -0.022732247982429381 0 -0.017663737897603234 -0.02274458239177635 0 -0.017560746983848005 -0.010582410715443783 0 -0.0188080766359273 -0.020827871333710318 0 -0.0188080766359273 -0.020827871333710318 0 -0.018499726202672661 -0.020989265618635119 0 -0.01869843543579687 -0.021075712067769582 0 -0.018384623996940672 -0.02078453682614561 0 -0.019736226485336333 -0.021105801357316527 0 -0.0188080766359273 -0.020827871333710318 0 -0.019306368234301492 -0.022329882534694558 0 -0.01869843543579687 -0.021075712067769582 0 -0.020158645277939171 -0.021469843033256778 0 -0.019736226485336333 -0.021105801357316527 0 -0.017560746983848005 -0.010582410715443783 0 -0.019078923483892521 -0.00016203054208675777 0 -0.017914438853874389 -0.023045097932329072 0 -0.018335097113176619 -0.022916884806619797 0 -0.019157683074377711 -0.023312252345713644 0 -0.017560746983848005 -0.010582410715443783 0 -0.020938381091699473 -0.014738405517455153 0 -0.019890808162994468 -0.0069148594324841481 0 -0.020569022648700225 -0.0073701796588638993 0 -0.020810494618765898 -0.0069941784444900136 0 -0.018692504098523854 -0.022885986399269528 0 -0.018335097113176619 -0.022916884806619797 0 -0.019157683074377711 -0.023312252345713644 0 -0.018692504098523854 -0.022885986399269528 0 -0.019157683074377711 -0.023312252345713644 0 -0.019037483362950726 -0.022856738071733607 0 -0.018692504098523854 -0.022885986399269528 0 -0.018335097113176619 -0.022916884806619797 0 -0.018451588901465102 -0.022658927045661467 0 -0.018335097113176619 -0.022916884806619797 0 -0.018451588901465102 -0.022658927045661467 0 -0.018093422805759096 -0.022618418310454656 0 -0.018451588901465102 -0.022658927045661467 0 -0.018764500725525601 -0.022555524712831579 0 -0.018373372526743252 -0.02233161450793968 0 -0.018451588901465102 -0.022658927045661467 0 -0.018093422805759096 -0.022618418310454656 0 -0.018373372526743252 -0.02233161450793968 0 -0.018692504098523854 -0.022885986399269528 0 -0.018451588901465102 -0.022658927045661467 0 -0.018764500725525601 -0.022555524712831579 0 -0.018692504098523854 -0.022885986399269528 0 -0.018764500725525601 -0.022555524712831579 0 -0.019037483362950726 -0.022856738071733607 0 -0.017647678722523909 -0.022726731828008273 0 -0.017898113685866496 -0.022742123170936587 0 -0.017735480281301928 -0.022480033903915564 0 -0.017914438853874389 -0.023045097932329072 0 -0.017647678722523909 -0.022726731828008273 0 -0.017898113685866496 -0.022742123170936587 0 -0.0188080766359273 -0.020827871333710318 0 -0.018570380725261872 -0.021648266470145644 0 -0.017686351672553925 -0.022741837127538529 0 -0.017647678722523909 -0.022726731828008273 0 -0.017663737897603234 -0.02274458239177635 0 -0.017914438853874389 -0.023045097932329072 0 -0.018335097113176619 -0.022916884806619797 0 -0.018062827330388043 -0.02282470214248198 0 -0.017914438853874389 -0.023045097932329072 0 -0.018062827330388043 -0.02282470214248198 0 -0.017898113685866496 -0.022742123170936587 0 -0.018335097113176619 -0.022916884806619797 0 -0.018062827330388043 -0.02282470214248198 0 -0.018093422805759096 -0.022618418310454656 0 -0.018062827330388043 -0.02282470214248198 0 -0.017898113685866496 -0.022742123170936587 0 -0.018093422805759096 -0.022618418310454656 0 -0.018093422805759096 -0.022618418310454656 0 -0.017969102754176177 -0.022314408505655314 0 -0.018373372526743252 -0.02233161450793968 0 -0.017898113685866496 -0.022742123170936587 0 -0.018093422805759096 -0.022618418310454656 0 -0.017735480281301928 -0.022480033903915564 0 -0.018093422805759096 -0.022618418310454656 0 -0.017735480281301928 -0.022480033903915564 0 -0.017969102754176177 -0.022314408505655314 0 -0.017647678722523909 -0.022726731828008273 0 -0.017735480281301928 -0.022480033903915564 0 -0.017320862227259922 -0.022517824668196455 0 -0.017735480281301928 -0.022480033903915564 0 -0.017320862227259922 -0.022517824668196455 0 -0.017536269270250746 -0.022208399398175076 0 -0.017320862227259922 -0.022517824668196455 0 -0.016926696432122555 -0.022363246534475956 0 -0.017536269270250746 -0.022208399398175076 0 -0.017320862227259922 -0.022517824668196455 0 -0.016926696432122555 -0.022363246534475956 0 -0.017260684138883192 -0.022823007755371563 0 -0.017647678722523909 -0.022726731828008273 0 -0.017320862227259922 -0.022517824668196455 0 -0.017260684138883192 -0.022823007755371563 0 -0.017647678722523909 -0.022726731828008273 0 -0.017663737897603234 -0.02274458239177635 0 -0.017260684138883192 -0.022823007755371563 0 -0.016926696432122555 -0.022363246534475956 0 -0.017260684138883192 -0.022823007755371563 0 -0.016485079606760624 -0.022639611034136926 0 -0.016926696432122555 -0.022363246534475956 0 -0.016106291911662178 -0.021914752149742468 0 -0.016356062187326166 -0.022806176272166263 0 -0.015806042797628411 -0.024087452641803096 0 -0.015071212720694305 -0.013100212059869784 0 -0.013926580025644607 0.0040159038648002422 0 -0.014752376434604428 0.0056550391560938893 0 -0.012678446286067246 0.0060538505029454912 0 -0.013926580025644607 0.0040159038648002422 0 -0.012678446286067246 0.0060538505029454912 0 -0.012163471855193843 0.004416878983565688 0 -0.015741543945207818 -0.0079189353184450379 0 -0.015071212720694305 -0.013100212059869784 0 -0.013926580025644607 0.0040159038648002422 0 -0.015565187091748763 0.0044740705462995682 0 -0.014752376434604428 0.0056550391560938893 0 -0.022519264384112548 -0.0072683144694010802 0 -0.022356716460014723 -0.0077004533151606366 0 -0.021696685457579218 -0.0071207790728220312 0 -0.022356716460014723 -0.0077004533151606366 0 -0.021754013624668719 -0.0077631549638217511 0 -0.021696685457579218 -0.0071207790728220312 0 -0.021845682566030093 -0.0083079375545695184 0 -0.022356716460014723 -0.0077004533151606366 0 -0.021754013624668719 -0.0077631549638217511 0 -0.021550673752083797 -0.0041619732824701699 0 -0.022133617724040409 -0.0091495907332578268 0 -0.021845682566030093 -0.0083079375545695184 0 -0.021754013624668719 -0.0077631549638217511 0 -0.021228118055738564 -0.0078317031960148369 0 -0.021754013624668719 -0.0077631549638217511 0 -0.021130479713166152 -0.0073984590611998078 0 -0.021696685457579218 -0.0071207790728220312 0 -0.021130479713166152 -0.0073984590611998078 0 -0.021228118055738564 -0.0078317031960148369 0 -0.020569022648700225 -0.0073701796588638993 0 -0.021754013624668719 -0.0077631549638217511 0 -0.021130479713166152 -0.0073984590611998078 0 -0.021228118055738564 -0.0078317031960148369 0 -0.018535761321952431 0.0016149743372258177 0 -0.019896098766134556 0.0025489885095642717 0 -0.018275223764075699 0.0039185853158839783 0 -0.018535761321952431 0.0016149743372258177 0 -0.017145968596259158 0.0023870062251413783 0 -0.018275223764075699 0.0039185853158839783 0 -0.021130479713166152 -0.0073984590611998078 0 -0.020569022648700225 -0.0073701796588638993 0 -0.020810494618765898 -0.0069941784444900136 0 -0.020683377751050978 -0.0028155350286736915 0 -0.019078923483892521 -0.00016203054208675777 0 -0.020158645277939171 -0.021469843033256778 0 -0.019736226485336333 -0.021105801357316527 0 -0.020920050675321846 -0.021563195165487194 0 -0.019157683074377711 -0.023312252345713644 0 -0.019037483362950726 -0.022856738071733607 0 -0.019418289064941158 -0.022899485514734249 0 -0.018764500725525601 -0.022555524712831579 0 -0.019037483362950726 -0.022856738071733607 0 -0.019203861070497163 -0.022546933596427728 0 -0.019037483362950726 -0.022856738071733607 0 -0.019203861070497163 -0.022546933596427728 0 -0.019418289064941158 -0.022899485514734249 0 -0.019203861070497163 -0.022546933596427728 0 -0.019418289064941158 -0.022899485514734249 0 -0.019899474680549922 -0.022390409292862356 0 -0.019418289064941158 -0.022899485514734249 0 -0.019828475692798057 -0.023036761801575243 0 -0.019899474680549922 -0.022390409292862356 0 -0.019157683074377711 -0.023312252345713644 0 -0.019418289064941158 -0.022899485514734249 0 -0.019828475692798057 -0.023036761801575243 0 -0.020456452840039323 -0.02282716923707076 0 -0.020672690510054052 -0.022333907100203467 0 -0.019899474680549922 -0.022390409292862356 0 -0.019828475692798057 -0.023036761801575243 0 -0.020456452840039323 -0.02282716923707076 0 -0.019899474680549922 -0.022390409292862356 0 -0.019828475692798057 -0.023036761801575243 0 -0.020456452840039323 -0.02282716923707076 0 -0.020419993405764541 -0.023453959965643263 0 -0.021130479713166152 -0.0073984590611998078 0 -0.020810494618765898 -0.0069941784444900136 0 -0.021696685457579218 -0.0071207790728220312 0 -0.020158645277939171 -0.021469843033256778 0 -0.020920050675321846 -0.021563195165487194 0 -0.021339534226155869 -0.02198988687386013 0 -0.019157683074377711 -0.023312252345713644 0 -0.019828475692798057 -0.023036761801575243 0 -0.020419993405764541 -0.023453959965643263 0 -0.020938381091699473 -0.014738405517455153 0 -0.021395067029461 -0.01449475197128596 0 -0.019306368234301492 -0.022329882534694558 0 -0.020673359969531169 -0.022490458048372582 0 -0.020419993405764541 -0.023453959965643263 0 -0.021047223921995498 -0.023045068615647136 0 -0.021660552423280664 -0.023336012762956441 0 -0.020673359969531169 -0.022490458048372582 0 -0.021618581037969146 -0.02272163311189835 0 -0.020920050675321846 -0.021563195165487194 0 -0.021339534226155869 -0.02198988687386013 0 -0.021728666539341763 -0.022146525577435881 0 -0.020456452840039323 -0.02282716923707076 0 -0.020419993405764541 -0.023453959965643263 0 -0.021047223921995498 -0.023045068615647136 0 -0.020456452840039323 -0.02282716923707076 0 -0.02105739030289985 -0.022681446529757031 0 -0.020672690510054052 -0.022333907100203467 0 -0.020456452840039323 -0.02282716923707076 0 -0.02105739030289985 -0.022681446529757031 0 -0.021047223921995498 -0.023045068615647136 0 -0.02105739030289985 -0.022681446529757031 0 -0.021047223921995498 -0.023045068615647136 0 -0.021530626185022054 -0.02292961793258283 0 -0.02105739030289985 -0.022681446529757031 0 -0.021530626185022054 -0.02292961793258283 0 -0.02145945718113346 -0.022519221697470584 0 -0.021789610003511133 -0.022687476879482475 0 -0.021530626185022054 -0.02292961793258283 0 -0.02145945718113346 -0.022519221697470584 0 -0.022392136885147622 -0.014840813916801006 0 -0.021395067029461 -0.01449475197128596 0 -0.022032293404961822 -0.023055330314138464 0 -0.021530626185022054 -0.02292961793258283 0 -0.021660552423280664 -0.023336012762956441 0 -0.021928997468728083 -0.022533960227637959 0 -0.021339534226155869 -0.02198988687386013 0 -0.021728666539341763 -0.022146525577435881 0 -0.021047223921995498 -0.023045068615647136 0 -0.021530626185022054 -0.02292961793258283 0 -0.021660552423280664 -0.023336012762956441 0 -0.021071437368994528 -0.022577786242329752 0 -0.019529569541815481 -0.02928050335898158 0 -0.021399079902531263 -0.021590859002796683 0 -0.021445683936164844 -0.022131226326409719 0 -0.020968538644952329 -0.021892565051587442 0 -0.021071437368994528 -0.022577786242329752 0 -0.021276853043757652 -0.021774018010278329 0 -0.022034902137775991 -0.022418481533459333 0 -0.021399079902531263 -0.021590859002796683 0 -0.021445683936164844 -0.022131226326409719 0 -0.021789610003511133 -0.022687476879482475 0 -0.021685585786370212 -0.022439716804362783 0 -0.02145945718113346 -0.022519221697470584 0 -0.021685585786370212 -0.022439716804362783 0 -0.02145945718113346 -0.022519221697470584 0 -0.021445683936164844 -0.022131226326409719 0 -0.02145945718113346 -0.022519221697470584 0 -0.021445683936164844 -0.022131226326409719 0 -0.021118001800063388 -0.022308692284482189 0 -0.02105739030289985 -0.022681446529757031 0 -0.02145945718113346 -0.022519221697470584 0 -0.021118001800063388 -0.022308692284482189 0 -0.021445683936164844 -0.022131226326409719 0 -0.021118001800063388 -0.022308692284482189 0 -0.020968538644952329 -0.021892565051587442 0 -0.021118001800063388 -0.022308692284482189 0 -0.020672690510054052 -0.022333907100203467 0 -0.020968538644952329 -0.021892565051587442 0 -0.02105739030289985 -0.022681446529757031 0 -0.021118001800063388 -0.022308692284482189 0 -0.020672690510054052 -0.022333907100203467 0 -0.020672690510054052 -0.022333907100203467 0 -0.020968538644952329 -0.021892565051587442 0 -0.020350864382564362 -0.021785088668108434 0 -0.021401051874873806 -0.021523150743945001 0 -0.020968538644952329 -0.021892565051587442 0 -0.020985068250269027 -0.02113266073327745 0 -0.020968538644952329 -0.021892565051587442 0 -0.020350864382564362 -0.021785088668108434 0 -0.020985068250269027 -0.02113266073327745 0 -0.020350864382564362 -0.021785088668108434 0 -0.01968869194429294 -0.021293011056157118 0 -0.020985068250269027 -0.02113266073327745 0 -0.020350864382564362 -0.021785088668108434 0 -0.019899474680549922 -0.022390409292862356 0 -0.01968869194429294 -0.021293011056157118 0 -0.018613345048658608 -0.027772166955976795 0 -0.019529569541815481 -0.02928050335898158 0 -0.020672690510054052 -0.022333907100203467 0 -0.020350864382564362 -0.021785088668108434 0 -0.019899474680549922 -0.022390409292862356 0 -0.019203861070497163 -0.022546933596427728 0 -0.019899474680549922 -0.022390409292862356 0 -0.018918931290894697 -0.022022652319743957 0 -0.019899474680549922 -0.022390409292862356 0 -0.01968869194429294 -0.021293011056157118 0 -0.018918931290894697 -0.022022652319743957 0 -0.01968869194429294 -0.021293011056157118 0 -0.018918931290894697 -0.022022652319743957 0 -0.018338959596826947 -0.021483777637877736 0 -0.018613345048658608 -0.027772166955976795 0 -0.017597182455932846 -0.028187867643169374 0 -0.017494587054415617 -0.034667930304284326 0 -0.01750429258010815 -0.034379888574877213 0 -0.017094503851814633 -0.034357664040307524 0 -0.017639104115495616 -0.034087833244134481 0 -0.01750429258010815 -0.034379888574877213 0 -0.017094503851814633 -0.034357664040307524 0 -0.016612596022411271 -0.035201451426609319 0 -0.016484880696730094 -0.03524811131953591 0 -0.016682934872294716 -0.034992300129935254 0 -0.017550031645101678 -0.034055597313176096 0 -0.016775484099957782 -0.034767405614415423 0 -0.016612596022411271 -0.035201451426609319 0 -0.016708323084759762 -0.035081146899970418 0 -0.016638128953749574 -0.035328733559831585 0 -0.016612596022411271 -0.035201451426609319 0 -0.016638128953749574 -0.035328733559831585 0 -0.016585380125032596 -0.035311560635112212 0 -0.016612596022411271 -0.035201451426609319 0 -0.016540524275177975 -0.035314826303287403 0 -0.016585380125032596 -0.035311560635112212 0 -0.016612596022411271 -0.035201451426609319 0 -0.016484880696730094 -0.03524811131953591 0 -0.016540524275177975 -0.035314826303287403 0 -0.016568266902425965 -0.035367175834674705 0 -0.016635676472700048 -0.035454638542565468 0 -0.016581579896799994 -0.035421864040052022 0 -0.016568266902425965 -0.035367175834674705 0 -0.016540524275177975 -0.035314826303287403 0 -0.016581579896799994 -0.035421864040052022 0 -0.017550031645101678 -0.034055597313176096 0 -0.017214252853582662 -0.034574177231894924 0 -0.017639104115495616 -0.034087833244134481 0 -0.017695262474434145 -0.034408218431913704 0 -0.018145987631531937 -0.034489771953042085 0 -0.017494587054415617 -0.034667930304284326 0 -0.017695262474434145 -0.034408218431913704 0 -0.018145987631531937 -0.034489771953042085 0 -0.017639104115495616 -0.034087833244134481 0 -0.017695262474434145 -0.034408218431913704 0 -0.01750429258010815 -0.034379888574877213 0 -0.017494587054415617 -0.034667930304284326 0 -0.017695262474434145 -0.034408218431913704 0 -0.01750429258010815 -0.034379888574877213 0 -0.017550031645101678 -0.034055597313176096 0 -0.019529569541815481 -0.02928050335898158 0 -0.018888140689463546 -0.031207138597278104 0 -0.0189998767248605 -0.031257627784789431 0 -0.018981448846790618 -0.031163946065291753 0 -0.017550031645101678 -0.034055597313176096 0 -0.017822475254513883 -0.033220299967722799 0 -0.018981448846790618 -0.031163946065291753 0 -0.019053180415401782 -0.031188374833355407 0 -0.019069239111382367 -0.031134010889915638 0 -0.019098366560855316 -0.031181257495083773 0 -0.019053180415401782 -0.031188374833355407 0 -0.019069239111382367 -0.031134010889915638 0 -0.0189998767248605 -0.031257627784789431 0 -0.018981448846790618 -0.031163946065291753 0 -0.019053180415401782 -0.031188374833355407 0 -0.019114949276402279 -0.031219383908008526 0 -0.0189998767248605 -0.031257627784789431 0 -0.019053180415401782 -0.031188374833355407 0 -0.020280381621088139 -0.026646160237155297 0 -0.020417629434421755 -0.026518482333817647 0 -0.020495992913263865 -0.0266086832064387 0 -0.020488150625081369 -0.026921193914666665 0 -0.021071437368994528 -0.022577786242329752 0 -0.020488150625081369 -0.026921193914666665 0 -0.019529569541815481 -0.02928050335898158 0 -0.016538643331705224 -0.034829490571064076 0 -0.016664730507722842 -0.034733362970264844 0 -0.016551762439003571 -0.034773062824905367 0 -0.016538643331705224 -0.034829490571064076 0 -0.016551762439003571 -0.034773062824905367 0 -0.016436881531236253 -0.034780449353418862 0 -0.016538643331705224 -0.034829490571064076 0 -0.016436881531236253 -0.034780449353418862 0 -0.016415214695332865 -0.03475629880068179 0 -0.016830384956618333 -0.028306219791396841 0 -0.016382524144266521 -0.028102410545691139 0 -0.016926696432122555 -0.022363246534475956 0 -0.017165575723783182 -0.021727090259734995 0 -0.016106291911662178 -0.021914752149742468 0 -0.016926696432122555 -0.022363246534475956 0 -0.017165575723783182 -0.021727090259734995 0 -0.017536269270250746 -0.022208399398175076 0 -0.017165575723783182 -0.021727090259734995 0 -0.017536269270250746 -0.022208399398175076 0 -0.018035527589343694 -0.022001492745767917 0 -0.017735480281301928 -0.022480033903915564 0 -0.017536269270250746 -0.022208399398175076 0 -0.017969102754176177 -0.022314408505655314 0 -0.017536269270250746 -0.022208399398175076 0 -0.017969102754176177 -0.022314408505655314 0 -0.018035527589343694 -0.022001492745767917 0 -0.017969102754176177 -0.022314408505655314 0 -0.018035527589343694 -0.022001492745767917 0 -0.018373372526743252 -0.02233161450793968 0 -0.018035527589343694 -0.022001492745767917 0 -0.018918931290894697 -0.022022652319743957 0 -0.018338959596826947 -0.021483777637877736 0 -0.018035527589343694 -0.022001492745767917 0 -0.018373372526743252 -0.02233161450793968 0 -0.018918931290894697 -0.022022652319743957 0 -0.018764500725525601 -0.022555524712831579 0 -0.019203861070497163 -0.022546933596427728 0 -0.018918931290894697 -0.022022652319743957 0 -0.018764500725525601 -0.022555524712831579 0 -0.018373372526743252 -0.02233161450793968 0 -0.018918931290894697 -0.022022652319743957 0 -0.017165575723783182 -0.021727090259734995 0 -0.018035527589343694 -0.022001492745767917 0 -0.018338959596826947 -0.021483777637877736 0 -0.016830384956618333 -0.028306219791396841 0 -0.017597182455932846 -0.028187867643169374 0 -0.016538643331705224 -0.034829490571064076 0 -0.016852638266049422 -0.034846009053011238 0 -0.016664730507722842 -0.034733362970264844 0 -0.016664730507722842 -0.034733362970264844 0 -0.016682934872294716 -0.034992300129935254 0 -0.016682554017046016 -0.03488693757767896 0 -0.016852638266049422 -0.034846009053011238 0 -0.016664730507722842 -0.034733362970264844 0 -0.017094503851814633 -0.034357664040307524 0 -0.016758571232032612 -0.034692539565329465 0 -0.016775484099957782 -0.034767405614415423 0 -0.017494587054415617 -0.034667930304284326 0 -0.016852638266049422 -0.034846009053011238 0 -0.017094503851814633 -0.034357664040307524 0 -0.016682934872294716 -0.034992300129935254 0 -0.016708323084759762 -0.035081146899970418 0 -0.016682554017046016 -0.03488693757767896 0 -0.016612596022411271 -0.035201451426609319 0 -0.016682934872294716 -0.034992300129935254 0 -0.016708323084759762 -0.035081146899970418 0 -0.016716023647268336 -0.035059994627984432 0 -0.016735213884281286 -0.035056994025368354 0 -0.016708323084759762 -0.035081146899970418 0 -0.016682554017046016 -0.03488693757767896 0 -0.016653706489106818 -0.034733246039104444 0 -0.016664730507722842 -0.034733362970264844 0 -0.016682554017046016 -0.03488693757767896 0 -0.016622002437238485 -0.03478388573387961 0 -0.016682554017046016 -0.03488693757767896 0 -0.016622002437238485 -0.03478388573387961 0 -0.016653706489106818 -0.034733246039104444 0 -0.016622002437238485 -0.03478388573387961 0 -0.016514029903047907 -0.034757893526849881 0 -0.01650348869511499 -0.03461366338493823 0 -0.016664730507722842 -0.034733362970264844 0 -0.016622002437238485 -0.03478388573387961 0 -0.016551762439003571 -0.034773062824905367 0 -0.016622002437238485 -0.03478388573387961 0 -0.016551762439003571 -0.034773062824905367 0 -0.016514029903047907 -0.034757893526849881 0 -0.016551762439003571 -0.034773062824905367 0 -0.016436881531236253 -0.034780449353418862 0 -0.016514029903047907 -0.034757893526849881 0 -0.016436881531236253 -0.034780449353418862 0 -0.016514029903047907 -0.034757893526849881 0 -0.01642633908114546 -0.034720178347831206 0 -0.016514029903047907 -0.034757893526849881 0 -0.01642633908114546 -0.034720178347831206 0 -0.01650348869511499 -0.03461366338493823 0 -0.01642633908114546 -0.034720178347831206 0 -0.016326513709172385 -0.034683660419932344 0 -0.016382463591515874 -0.034649421681416236 0 -0.016345677205964877 -0.03476844671731065 0 -0.016326513709172385 -0.034683660419932344 0 -0.016216053164929908 -0.034738421112976939 0 -0.01642633908114546 -0.034720178347831206 0 -0.016345677205964877 -0.03476844671731065 0 -0.016326513709172385 -0.034683660419932344 0 -0.016326513709172385 -0.034683660419932344 0 -0.016216053164929908 -0.034738421112976939 0 -0.016223683619127564 -0.034637716176676235 0 -0.010030729249101224 -0.042255948075973847 0 -0.011584442365343494 -0.04098787486604237 0 -0.010760469037470854 -0.041260984031233607 0 -0.0089644032563703548 -0.035353301466929415 0 -0.0094095676481932185 -0.035102600988437732 0 -0.0094652308347017468 -0.035032459543201756 0 -0.012609933997373051 -0.034933353381837964 0 -0.012676495871832782 -0.035437575523019411 0 -0.0091017944868074015 -0.039069810365631355 0 -0.011918787320967354 -0.037136052004079538 0 -0.016216053164929908 -0.034738421112976939 0 -0.015993378161498793 -0.034817709870778063 0 -0.016223683619127564 -0.034637716176676235 0 -0.016216053164929908 -0.034738421112976939 0 -0.016162567797694729 -0.034813258329377449 0 -0.015993378161498793 -0.034817709870778063 0 -0.016345677205964877 -0.03476844671731065 0 -0.016216053164929908 -0.034738421112976939 0 -0.016162567797694729 -0.034813258329377449 0 -0.01646329670128369 -0.034418328501563233 0 -0.016089717796948465 -0.035820715542026156 0 -0.016345677205964877 -0.03476844671731065 0 -0.016162567797694729 -0.034813258329377449 0 -0.016078903223692528 -0.035034566034126698 0 -0.016162567797694729 -0.034813258329377449 0 -0.015993378161498793 -0.034817709870778063 0 -0.016078903223692528 -0.035034566034126698 0 -0.016436881531236253 -0.034780449353418862 0 -0.01642633908114546 -0.034720178347831206 0 -0.016345677205964877 -0.03476844671731065 0 -0.016436881531236253 -0.034780449353418862 0 -0.016345677205964877 -0.03476844671731065 0 -0.016404894004966489 -0.034762588023845124 0 -0.0079988763182865553 -0.04269564093718474 0 -0.010040347939488317 -0.041752304767471451 0 -0.0088460935628866151 -0.041547006334610892 0 -0.0082024833129581004 -0.042150540384531636 0 -0.010030729249101224 -0.042255948075973847 0 -0.008501963285364865 -0.043389165574495354 0 -0.0088432660802881986 -0.042274617769173385 0 -0.0095874386104155308 -0.041895174840686306 0 -0.0079988763182865553 -0.04269564093718474 0 -0.0075574281889472595 -0.041442742797833707 0 -0.0088460935628866151 -0.041547006334610892 0 -0.0089644032563703548 -0.035353301466929415 0 -0.0090569348562212354 -0.035526049577598764 0 -0.0094095676481932185 -0.035102600988437732 0 -0.0082024833129581004 -0.042150540384531636 0 -0.010040347939488317 -0.041752304767471451 0 -0.010030729249101224 -0.042255948075973847 0 -0.010040347939488317 -0.041752304767471451 0 -0.010030729249101224 -0.042255948075973847 0 -0.010760469037470854 -0.041260984031233607 0 -0.0089644032563703548 -0.035353301466929415 0 -0.0090569348562212354 -0.035526049577598764 0 -0.0085409410988050143 -0.035653887624726217 0 -0.0090569348562212354 -0.035526049577598764 0 -0.0085409410988050143 -0.035653887624726217 0 -0.0087402786767751973 -0.035904994541869836 0 -0.015993378161498793 -0.034817709870778063 0 -0.015758902979294161 -0.035065198960019063 0 -0.016078903223692528 -0.035034566034126698 0 -0.012609933997373051 -0.034933353381837964 0 -0.012195174079248748 -0.036208768655160976 0 -0.0082024833129581004 -0.042150540384531636 0 -0.008501963285364865 -0.043389165574495354 0 -0.0076319104872156381 -0.042901305198051673 0 -0.0091017944868074015 -0.039069810365631355 0 -0.0093619309695768087 -0.03936457149080734 0 -0.0083932500159407501 -0.035913816607765374 0 -0.0087402786767751973 -0.035904994541869836 0 -0.0084376545650356027 -0.036029325788518377 0 -0.0085409410988050143 -0.035653887624726217 0 -0.0083932500159407501 -0.035913816607765374 0 -0.0087402786767751973 -0.035904994541869836 0 -0.015758902979294161 -0.035065198960019063 0 -0.015853959483909909 -0.035262374659925981 0 -0.016078903223692528 -0.035034566034126698 0 -0.015758902979294161 -0.035065198960019063 0 -0.015853959483909909 -0.035262374659925981 0 -0.015545907478860971 -0.035289649217410859 0 -0.012195174079248748 -0.036208768655160976 0 -0.010715002318343561 -0.031566119149289862 0 -0.015325236305813722 -0.029980820262973239 0 -0.010715002318343561 -0.031566119149289862 0 -0.0087402786767751973 -0.035904994541869836 0 -0.0084829705946972995 -0.03614041931063483 0 -0.0084376545650356027 -0.036029325788518377 0 -0.0084829705946972995 -0.03614041931063483 0 -0.0084376545650356027 -0.036029325788518377 0 -0.0083377989470060972 -0.036141476577765813 0 -0.010715002318343561 -0.031566119149289862 0 -0.0053699859640503342 -0.02959012081892962 0 -0.016436881531236253 -0.034780449353418862 0 -0.016404894004966489 -0.034762588023845124 0 -0.016415214695332865 -0.03475629880068179 0 -0.015325236305813722 -0.029980820262973239 0 -0.016089717796948465 -0.035820715542026156 0 -0.016425368213141431 -0.034675661004684145 0 -0.016404894004966489 -0.034762588023845124 0 -0.016415214695332865 -0.03475629880068179 0 -0.015325236305813722 -0.029980820262973239 0 -0.016382524144266521 -0.028102410545691139 0 -0.015030425102794748 -0.022121536483976859 0 -0.016106291911662178 -0.021914752149742468 0 -0.015537828245885871 -0.022706836416619771 0 -0.016106291911662178 -0.021914752149742468 0 -0.016356062187326166 -0.022806176272166263 0 -0.015537828245885871 -0.022706836416619771 0 -0.015071212720694305 -0.013100212059869784 0 -0.014506503471077594 -0.017182135277931651 0 -0.015071212720694305 -0.013100212059869784 0 -0.012481472479806736 -0.0018690983433302926 0 -0.012977601972124577 -0.011250931078397024 0 -0.013140001985346388 -0.011053762401638714 0 -0.01320978413777822 -0.011311695284467016 0 -0.012678446286067246 0.0060538505029454912 0 -0.011089090102914716 0.0050006840149358052 0 -0.012163471855193843 0.004416878983565688 0 -0.013140001985346388 -0.011053762401638714 0 -0.01320978413777822 -0.011311695284467016 0 -0.013373456927473548 -0.011101119826207914 0 -0.01320978413777822 -0.011311695284467016 0 -0.01347732847695768 -0.011401174409899597 0 -0.013373456927473548 -0.011101119826207914 0 -0.012839294607609015 -0.025524327541750155 0 -0.011622328009919657 -0.02573548391747604 0 -0.0123463594371659 -0.026334735344914206 0 -0.014506503471077594 -0.017182135277931651 0 -0.013224841081697846 -0.018726005667481675 0 -0.015030425102794748 -0.022121536483976859 0 -0.015537828245885871 -0.022706836416619771 0 -0.014736367901895945 -0.022599344877654616 0 -0.015325236305813722 -0.029980820262973239 0 -0.013224841081697846 -0.018726005667481675 0 -0.0087737281323670077 -0.018335530754484051 0 -0.010158606974062057 -0.018533464120608259 0 -0.010405073302241575 -0.018076176759995104 0 -0.011622328009919657 -0.02573548391747604 0 -0.0123463594371659 -0.026334735344914206 0 -0.011344185847123461 -0.026203619385989321 0 -0.013224841081697846 -0.018726005667481675 0 -0.0082448291175370361 -0.023390710032312662 0 -0.0079615859439613225 -0.027573477573339483 0 -0.0075416857197223852 -0.028292301376980321 0 -0.006954570811457607 -0.027753765488277758 0 -0.010715002318343561 -0.031566119149289862 0 -0.0082448291175370361 -0.023390710032312662 0 -0.013224841081697846 -0.018726005667481675 0 -0.0093875972976742456 -0.01371799948492607 0 -0.01347732847695768 -0.011401174409899597 0 -0.013373456927473548 -0.011101119826207914 0 -0.013645828668677175 -0.011044788141744082 0 -0.0093875972976742456 -0.01371799948492607 0 -0.0051247828934965654 -0.01936322298539361 0 -0.0087737281323670077 -0.018335530754484051 0 -0.0098747266756990699 -0.016303673095970334 0 -0.010405073302241575 -0.018076176759995104 0 -0.013373456927473548 -0.011101119826207914 0 -0.013471444976872885 -0.010912554822386027 0 -0.01331664657955659 -0.010843536296696252 0 -0.013471444976872885 -0.010912554822386027 0 -0.01331664657955659 -0.010843536296696252 0 -0.013409727069388038 -0.010741116520899393 0 -0.013471444976872885 -0.010912554822386027 0 -0.013570138895197491 -0.010765564830917368 0 -0.013409727069388038 -0.010741116520899393 0 -0.01138319366329734 -0.0034765817359298473 0 -0.010928822357466337 -0.0036776252899918382 0 -0.0097262030609435671 0.0043255980295945845 0 -0.0093009584803083259 0.004026035979436916 0 -0.0091339341716713141 0.004018826402847198 0 -0.013373456927473548 -0.011101119826207914 0 -0.013471444976872885 -0.010912554822386027 0 -0.013645828668677175 -0.011044788141744082 0 -0.0088869717720606624 -0.012539396371372901 0 -0.0089545270581331445 -0.012747495167719626 0 -0.0087571442227184354 -0.012747572984828358 0 -0.0093875972976742456 -0.01371799948492607 0 -0.010673171478762445 -0.010152576918247001 0 -0.013471444976872885 -0.010912554822386027 0 -0.013645828668677175 -0.011044788141744082 0 -0.013570138895197491 -0.010765564830917368 0 -0.0078914104790235775 -0.012319103974643373 0 -0.0066550802576815114 -0.012307362739724007 0 -0.0070172354990134826 -0.012599559121066632 0 -0.0072829204058929885 -0.012851197814027653 0 -0.0078914104790235775 -0.012319103974643373 0 -0.0070172354990134826 -0.012599559121066632 0 -0.010673171478762445 -0.010152576918247001 0 -0.0063846287941932353 -0.014078014433307031 0 -0.0072829204058929885 -0.012851197814027653 0 -0.0077478220171353336 -0.012788482480538158 0 -0.0078914104790235775 -0.012319103974643373 0 -0.010673171478762445 -0.010152576918247001 0 -0.0086238443030200521 -0.0014906311979127796 0 -0.0097885608161954081 -0.0052103007913015375 0 -0.009741778835784776 -0.0050556724002079308 0 -0.0096091590137288921 -0.0051822060934892901 0 -0.0077478220171353336 -0.012788482480538158 0 -0.0078914104790235775 -0.012319103974643373 0 -0.0081128150024773193 -0.013031538131656091 0 -0.010673171478762445 -0.010152576918247001 0 -0.010928822357466337 -0.0036776252899918382 0 -0.0085409947544265192 0.0033316800443947297 0 -0.0085162506175017662 0.0036931544720120034 0 -0.0090393362984127843 0.0036005921984566787 0 -0.0085409947544265192 0.0033316800443947297 0 -0.008323948855256981 0.0039343979757229331 0 -0.00811136756930355 0.0037913487816996516 0 -0.0078938010550023557 0.0027213980187279444 0 -0.0086238443030200521 -0.0014906311979127796 0 -0.0077478220171353336 -0.012788482480538158 0 -0.0081128150024773193 -0.013031538131656091 0 -0.0078969290279699931 -0.013189139009108926 0 -0.0086238443030200521 -0.0014906311979127796 0 -0.0079805001814853144 -0.0016281106663867044 0 -0.0072829204058929885 -0.012851197814027653 0 -0.0078969290279699931 -0.013189139009108926 0 -0.0066498725970058174 -0.013423444435696459 0 -0.0088272120740100785 0.0026651921057113935 0 -0.0079805001814853144 -0.0016281106663867044 0 -0.0072829204058929885 -0.012851197814027653 0 -0.0077478220171353336 -0.012788482480538158 0 -0.0078969290279699931 -0.013189139009108926 0 -0.0093009584803083259 0.004026035979436916 0 -0.0090393362984127843 0.0036005921984566787 0 -0.0096606967187957762 0.0036689401486787346 0 -0.0097262030609435671 0.0043255980295945845 0 -0.0093009584803083259 0.004026035979436916 0 -0.0096606967187957762 0.0036689401486787346 0 -0.0085162506175017662 0.0036931544720120034 0 -0.0093009584803083259 0.004026035979436916 0 -0.0090393362984127843 0.0036005921984566787 0 -0.0084071988087292358 0.0031720227167090784 0 -0.0093009584803083259 0.004026035979436916 0 -0.0091339341716713141 0.004018826402847198 0 -0.0086238443030200521 -0.0014906311979127796 0 -0.010928822357466337 -0.0036776252899918382 0 -0.0086238443030200521 -0.0014906311979127796 0 -0.010100329530696525 0.0036020893963163744 0 -0.0091146993213490918 0.003230359001479814 0 -0.0085409947544265192 0.0033316800443947297 0 -0.0090393362984127843 0.0036005921984566787 0 -0.0091146993213490918 0.003230359001479814 0 -0.0090393362984127843 0.0036005921984566787 0 -0.0096606967187957762 0.0036689401486787346 0 -0.010387537001860131 0.003914779890808572 0 -0.011395863874346344 0.0036223368192166085 0 -0.010659317860197628 0.0045638306127841382 0 -0.0096606967187957762 0.0036689401486787346 0 -0.010262069974089818 0.0033541787089971134 0 -0.010387537001860131 0.003914779890808572 0 -0.010262069974089818 0.0033541787089971134 0 -0.010387537001860131 0.003914779890808572 0 -0.011395863874346344 0.0036223368192166085 0 -0.0097262030609435671 0.0043255980295945845 0 -0.0096606967187957762 0.0036689401486787346 0 -0.010387537001860131 0.003914779890808572 0 -0.011924722520064643 0.0030077399849683124 0 -0.010723140273508687 0.004495713978011389 0 -0.012451466222570399 0.0023348484418130324 0 -0.012163471855193843 0.004416878983565688 0 -0.010659317860197628 0.0045638306127841382 0 -0.013926580025644607 0.0040159038648002422 0 -0.012451466222570399 0.0023348484418130324 0 -0.012163471855193843 0.004416878983565688 0 -0.011089090102914716 0.0050006840149358052 0 -0.012163471855193843 0.004416878983565688 0 -0.010659317860197628 0.0045638306127841382 0 -0.013140001985346388 -0.011053762401638714 0 -0.013373456927473548 -0.011101119826207914 0 -0.01331664657955659 -0.010843536296696252 0 -0.012481472479806736 -0.0018690983433302926 0 -0.01138319366329734 -0.0034765817359298473 0 -0.011089090102914716 0.0050006840149358052 0 -0.0097262030609435671 0.0043255980295945845 0 -0.010659317860197628 0.0045638306127841382 0 -0.0097262030609435671 0.0043255980295945845 0 -0.010387537001860131 0.003914779890808572 0 -0.010659317860197628 0.0045638306127841382 0 0.0096293596438231654 -0.019177872805152069 0 0.0072993186127948929 -0.017745606707048125 0 0.0044777043412763794 -0.020706681620057604 0 0.0025943689683389361 -0.020794885041289332 0 0.0034293550599573692 -0.019392857107203482 0 0.0096293596438231654 -0.019177872805152069 0 0.00047950048381943449 -0.016330992823940561 0 0.011614165420828285 -0.018661462369445929 0 0.011242949665486258 -0.018367293359738256 0 0.011686422474636146 -0.018348371002088377 0 0.011807978220793894 -0.018498152551356811 0 0.011686422474636146 -0.018348371002088377 0 0.012054276263122481 -0.018394503876766333 0 0.011807978220793894 -0.018498152551356811 0 0.011614165420828285 -0.018661462369445929 0 0.011686422474636146 -0.018348371002088377 0 0.0096293596438231654 -0.019177872805152069 0 0.011814787141749612 -0.018133491784265592 0 0.011807978220793894 -0.018498152551356811 0 0.011614165420828285 -0.018661462369445929 0 0.011928493641824817 -0.018560459957532881 0 0.010703174757904122 -0.017672824861136412 0 0.011001692315479109 -0.018212650585542275 0 0.0094763612616618163 -0.017724055030021727 0 0.010166038524461287 -0.016802152073027758 0 0.010703174757904122 -0.017672824861136412 0 0.0094763612616618163 -0.017724055030021727 0 0.0096293596438231654 -0.019177872805152069 0 0.0099154664632509527 -0.017887447485710823 0 0.010703174757904122 -0.017672824861136412 0 0.011304029416110821 -0.017969357925856178 0 0.011345587689597647 -0.017566719977008562 0 0.010473153270324916 -0.01736821543065176 0 0.010703174757904122 -0.017672824861136412 0 0.011345587689597647 -0.017566719977008562 0 0.010703174757904122 -0.017672824861136412 0 0.011001692315479109 -0.018212650585542275 0 0.011304029416110821 -0.017969357925856178 0 0.0087049279332109195 -0.018433286928332581 0 0.0094763612616618163 -0.017724055030021727 0 0.0075898120962978729 -0.016710047043603234 0 0.010166038524461287 -0.016802152073027758 0 0.0094763612616618163 -0.017724055030021727 0 0.0075898120962978729 -0.016710047043603234 0 0.0021251696839697455 -0.016332054527331951 0 0.00047950048381943449 -0.016330992823940561 0 -0.0042423409590438789 -0.01415655805676532 0 -0.0059420188689812978 -0.013304255925060028 0 -0.0051763826208268953 -0.012348843631568769 0 -0.0065233836358607952 -0.012547863510946717 0 -0.0066488880522759513 -0.012322253167581967 0 -0.0051763826208268953 -0.012348843631568769 0 -0.0063846287941932353 -0.014078014433307031 0 0.00047950048381943449 -0.016330992823940561 0 -0.0067303006183312628 -0.012972143746440425 0 -0.0066498725970058174 -0.013423444435696459 0 -0.0059420188689812978 -0.013304255925060028 0 -0.0072829204058929885 -0.012851197814027653 0 -0.0067303006183312628 -0.012972143746440425 0 -0.0066498725970058174 -0.013423444435696459 0 -0.0059420188689812978 -0.013304255925060028 0 -0.0065233836358607952 -0.012547863510946717 0 -0.0051763826208268953 -0.012348843631568769 0 -0.0067303006183312628 -0.012972143746440425 0 -0.0059420188689812978 -0.013304255925060028 0 -0.0065233836358607952 -0.012547863510946717 0 -0.006548644032809664 -0.013678908483099793 0 -0.0063846287941932353 -0.014078014433307031 0 -0.0065233836358607952 -0.012547863510946717 0 -0.0066550802576815114 -0.012307362739724007 0 -0.0070172354990134826 -0.012599559121066632 0 -0.0067303006183312628 -0.012972143746440425 0 -0.0065233836358607952 -0.012547863510946717 0 -0.0070172354990134826 -0.012599559121066632 0 -0.0072829204058929885 -0.012851197814027653 0 -0.0067303006183312628 -0.012972143746440425 0 -0.0070172354990134826 -0.012599559121066632 0 -0.0041884988286640329 -0.016450706754027829 0 -0.0041317782232647903 -0.016533964398395079 0 -0.004091856358351971 -0.016447852164170104 0 -0.0041317782232647903 -0.016533964398395079 0 -0.0039962444931279191 -0.016539738592179831 0 -0.004091856358351971 -0.016447852164170104 0 -0.0093875972976742456 -0.01371799948492607 0 -0.0063846287941932353 -0.014078014433307031 0 0.00047950048381943449 -0.016330992823940561 0 -0.00083187522542059759 -0.018300803325766828 0 0.0025943689683389361 -0.020794885041289332 0 0.0019625317487874374 -0.019697785482183251 0 0.0034293550599573692 -0.019392857107203482 0 0.0019625317487874374 -0.019697785482183251 0 0.0020800280444487227 -0.018779251193776578 0 0.0034293550599573692 -0.019392857107203482 0 -0.00083187522542059759 -0.018300803325766828 0 -0.0051247828934965654 -0.01936322298539361 0 0.0019625317487874374 -0.019697785482183251 0 0.0013297715648092671 -0.018641959399349081 0 0.0020800280444487227 -0.018779251193776578 0 -0.0041884988286640329 -0.016450706754027829 0 -0.004091856358351971 -0.016447852164170104 0 -0.0041581023233726077 -0.016405170599277909 0 0.0013297715648092671 -0.018641959399349081 0 0.0020800280444487227 -0.018779251193776578 0 0.0014385975714991455 -0.018289291768356652 0 -0.0082448291175370361 -0.023390710032312662 0 -0.0051247828934965654 -0.01936322298539361 0 -0.0051247828934965654 -0.01936322298539361 0 -0.0040253448140582957 -0.02326442131406212 0 -0.0043297922142185247 -0.024509218542462293 0 -0.0050765929423982675 -0.026943434673750013 0 0.0019998401086487798 -0.025980352900902486 0 0.0020800280444487227 -0.018779251193776578 0 0.0014385975714991455 -0.018289291768356652 0 0.0024172285338799671 -0.018161375951249906 0 -0.0040253448140582957 -0.02326442131406212 0 0.0030820258269029675 -0.025541057364700064 0 -0.0053699859640503342 -0.02959012081892962 0 0.0030820258269029675 -0.025541057364700064 0 -0.0053699859640503342 -0.02959012081892962 0 -0.0040253448140582957 -0.02326442131406212 0 -0.0075416857197223852 -0.028292301376980321 0 -0.006954570811457607 -0.027753765488277758 0 -0.0071036323989600043 -0.028232074499001291 0 -0.004897971197485718 -0.023078853398250533 0 -0.00554867208404939 -0.021887198494582455 0 -0.005953958107317925 -0.02322501950281362 0 -0.0082448291175370361 -0.023390710032312662 0 -0.0040253448140582957 -0.02326442131406212 0 0.0030820258269029675 -0.025541057364700064 0 0.0072993186127948929 -0.017745606707048125 0 0.0020800280444487227 -0.018779251193776578 0 0.0024172285338799671 -0.018161375951249906 0 0.0034293550599573692 -0.019392857107203482 0 0.010817162329598423 -0.018051180389049157 0 0.011159701114538451 -0.01814998147747578 0 0.011242949665486258 -0.018367293359738256 0 0.0015817851246728561 -0.034067896201643744 0 0.0016276627759422668 -0.034066005291005119 0 0.0017324561579554439 -0.033987427129648501 0 0.0030820258269029675 -0.025541057364700064 0 0.0050869568668436161 -0.027233322046701484 0 0.010817162329598423 -0.018051180389049157 0 0.010855534792652438 -0.018040287499402667 0 0.011159701114538451 -0.01814998147747578 0 0.0050869568668436161 -0.027233322046701484 0 0.0039208791015719405 -0.034019319995314552 0 0.0016276627759422668 -0.034066005291005119 0 0.0020534793663242942 -0.034022211726393629 0 0.0017324561579554439 -0.033987427129648501 0 0.010855534792652438 -0.018040287499402667 0 0.011431335401424931 -0.01805507033718828 0 0.011159701114538451 -0.01814998147747578 0 0.0050869568668436161 -0.027233322046701484 0 0.0089302394140189038 -0.025746658307572459 0 0.0058672838518236724 -0.033551032869262087 0 0.005393247599784161 -0.033717692475446162 0 0.0051136209880965752 -0.033554633054506795 0 0.005393247599784161 -0.033717692475446162 0 0.0051136209880965752 -0.033554633054506795 0 0.0051354533981952518 -0.03381150454676328 0 0.0039208791015719405 -0.034019319995314552 0 0.0047860666035731752 -0.034126602465788254 0 0.011431335401424931 -0.01805507033718828 0 0.011159701114538451 -0.01814998147747578 0 0.011444421909690467 -0.018235775864240432 0 0.011431335401424931 -0.01805507033718828 0 0.011444421909690467 -0.018235775864240432 0 0.011626985275641996 -0.018202185547247948 0 0.011159701114538451 -0.01814998147747578 0 0.011444421909690467 -0.018235775864240432 0 0.011242949665486258 -0.018367293359738256 0 0.011444421909690467 -0.018235775864240432 0 0.011242949665486258 -0.018367293359738256 0 0.011686422474636146 -0.018348371002088377 0 0.011444421909690467 -0.018235775864240432 0 0.011686422474636146 -0.018348371002088377 0 0.011626985275641996 -0.018202185547247948 0 0.011686422474636146 -0.018348371002088377 0 0.011626985275641996 -0.018202185547247948 0 0.011929851819013361 -0.018142020433336938 0 0.011431335401424931 -0.01805507033718828 0 0.011626985275641996 -0.018202185547247948 0 0.011929851819013361 -0.018142020433336938 0 0.0047470654909876637 -0.033746806812808984 0 0.0051354533981952518 -0.03381150454676328 0 0.0043621505295574469 -0.034004188743228123 0 0.0089302394140189038 -0.025746658307572459 0 0.0080697016370104759 -0.025824573418877433 0 0.0051136209880965752 -0.033554633054506795 0 0.0047470654909876637 -0.033746806812808984 0 0.0044175504369769183 -0.033572854699869259 0 0.0051136209880965752 -0.033554633054506795 0 0.0047470654909876637 -0.033746806812808984 0 0.0051354533981952518 -0.03381150454676328 0 0.0047860666035731752 -0.034126602465788254 0 0.004352714465241281 -0.034097384871550326 0 0.0043799050169462941 -0.034527926744534101 0 0.0045223094445691779 -0.034697131857537838 0 0.0043621505295574469 -0.034004188743228123 0 0.0043799050169462941 -0.034527926744534101 0 0.0044814569271497623 -0.034925996731477935 0 0.004281468682499838 -0.034920229179552661 0 0.0043799050169462941 -0.034527926744534101 0 0.0045223094445691779 -0.034697131857537838 0 0.0044814569271497623 -0.034925996731477935 0 0.0048929091945977103 -0.035470745700709141 0 0.004281468682499838 -0.034920229179552661 0 0.0064750272515427445 -0.037646248334837207 0 0.0045223094445691779 -0.034697131857537838 0 0.0048929091945977103 -0.035470745700709141 0 0.0044814569271497623 -0.034925996731477935 0 0.0050723194308536111 -0.034717690423844871 0 0.0045223094445691779 -0.034697131857537838 0 0.0048929091945977103 -0.035470745700709141 0 0.0050723194308536111 -0.034717690423844871 0 0.0048929091945977103 -0.035470745700709141 0 0.0059336383041638397 -0.036368445725702178 0 0.0048929091945977103 -0.035470745700709141 0 0.0044814569271497623 -0.034925996731477935 0 0.004281468682499838 -0.034920229179552661 0 0.00286024145138862 -0.037985885345956087 0 0.0065102228740343071 -0.037598341279554803 0 0.0032782518004489851 -0.041376560374540648 0 0.00080637622576307656 -0.041048141277139558 0 0.0049861693393263322 -0.040248296846994283 0 0.0032782518004489851 -0.041376560374540648 0 0.0023467470612526251 -0.041919776274639442 0 0.0036422473680871154 -0.042495112930309283 0 0.0032782518004489851 -0.041376560374540648 0 0.0023467470612526251 -0.041919776274639442 0 0.00080637622576307656 -0.041048141277139558 0 0.00286024145138862 -0.037985885345956087 0 0.0024084793911086939 -0.038256741712112304 0 0.00080637622576307656 -0.041048141277139558 0 0.00051023400637144789 -0.042898209140460775 0 0.00026072961601981184 -0.043015316852757599 0 0.0043799050169462941 -0.034527926744534101 0 0.004281468682499838 -0.034920229179552661 0 0.0043325167187936086 -0.033648969214926598 0 0.0023467470612526251 -0.041919776274639442 0 0.00080637622576307656 -0.041048141277139558 0 0.00051023400637144789 -0.042898209140460775 0 -0.0083932500159407501 -0.035913816607765374 0 -0.0084376545650356027 -0.036029325788518377 0 -0.0082998679279692456 -0.036030265965158369 0 -0.0053699859640503342 -0.02959012081892962 0 -0.0039219887457181239 -0.034472377446627504 0 -0.0084376545650356027 -0.036029325788518377 0 -0.0083377989470060972 -0.036141476577765813 0 -0.0082998679279692456 -0.036030265965158369 0 -0.0016251428447263663 -0.029643463954500213 0 -0.0018394913447943933 -0.029566070195704845 0 -0.0016882587903224145 -0.029854175296067598 0 0.0015817851246728561 -0.034067896201643744 0 0.001278496551765347 -0.033724715575351498 0 0.0014999177468721192 -0.03377389660757172 0 0.0030820258269029675 -0.025541057364700064 0 -0.0039219887457181239 -0.034472377446627504 0 0.001278496551765347 -0.033724715575351498 0 0.0014999177468721192 -0.03377389660757172 0 0.001346005355646283 -0.033499448420771051 0 -0.0039219887457181239 -0.034472377446627504 0 -0.0022175239939428424 -0.038920288455564604 0 0.0048929091945977103 -0.035470745700709141 0 0.0064750272515427445 -0.037646248334837207 0 0.0059336383041638397 -0.036368445725702178 0 0.0040305695439921555 -0.035535788460630789 0 -0.0022175239939428424 -0.038920288455564604 0 0.0016954793733852443 -0.03373767248499103 0 0.0014999177468721192 -0.03377389660757172 0 0.001346005355646283 -0.033499448420771051 0 0.0064750272515427445 -0.037646248334837207 0 0.0059336383041638397 -0.036368445725702178 0 0.0077921251867508678 -0.039425825897601803 0 0.0015817851246728561 -0.034067896201643744 0 0.0014999177468721192 -0.03377389660757172 0 0.0016444066731120617 -0.033890545068144415 0 0.0015817851246728561 -0.034067896201643744 0 0.0016444066731120617 -0.033890545068144415 0 0.0017324561579554439 -0.033987427129648501 0 0.0016954793733852443 -0.03373767248499103 0 0.0014999177468721192 -0.03377389660757172 0 0.0016444066731120617 -0.033890545068144415 0 0.0016954793733852443 -0.03373767248499103 0 0.0016444066731120617 -0.033890545068144415 0 0.0017707571906565829 -0.033910431134220889 0 0.0039208791015719405 -0.034019319995314552 0 0.0040305695439921555 -0.035535788460630789 0 0.0020534793663242942 -0.034022211726393629 0 0.0016954793733852443 -0.03373767248499103 0 0.0017707571906565829 -0.033910431134220889 0 0.0020534793663242942 -0.034022211726393629 0 0.0017324561579554439 -0.033987427129648501 0 0.0017707571906565829 -0.033910431134220889 0 0.0016444066731120617 -0.033890545068144415 0 0.0017324561579554439 -0.033987427129648501 0 0.0017707571906565829 -0.033910431134220889 0 0.00080637622576307656 -0.041048141277139558 0 0.0064750272515427445 -0.037646248334837207 0 0.0049861693393263322 -0.040248296846994283 0 0.0032782518004489851 -0.041376560374540648 0 0.0049861693393263322 -0.040248296846994283 0 0.0047569892243262864 -0.041502492207105161 0 0.0047569892243262864 -0.041502492207105161 0 0.0058281007687689627 -0.040581421740711297 0 0.0052359766009913728 -0.042762178122579063 0 0.0032782518004489851 -0.041376560374540648 0 0.0047569892243262864 -0.041502492207105161 0 0.0036422473680871154 -0.042495112930309283 0 0.0049861693393263322 -0.040248296846994283 0 0.0047569892243262864 -0.041502492207105161 0 0.0058281007687689627 -0.040581421740711297 0 0.0058281007687689627 -0.040581421740711297 0 0.0077921251867508678 -0.039425825897601803 0 0.0052359766009913728 -0.042762178122579063 0 0.0064750272515427445 -0.037646248334837207 0 0.0058281007687689627 -0.040581421740711297 0 0.0077921251867508678 -0.039425825897601803 0 0.0064750272515427445 -0.037646248334837207 0 0.0049861693393263322 -0.040248296846994283 0 0.0058281007687689627 -0.040581421740711297 0 -0.0085409410988050143 -0.035653887624726217 0 -0.0083932500159407501 -0.035913816607765374 0 -0.0080999865463570464 -0.035961191629036791 0 -0.008501963285364865 -0.043389165574495354 0 -0.0070434374313874462 -0.044578031200857425 0 -0.0073791304613422763 -0.043418690329609079 0 -0.0093619309695768087 -0.03936457149080734 0 -0.0022175239939428424 -0.038920288455564604 0 -0.0081103395536829773 -0.035338167016082063 0 -0.0039219887457181239 -0.034472377446627504 0 -0.0083932500159407501 -0.035913816607765374 0 -0.0081518705122441935 -0.03619275918713985 0 -0.0080999865463570464 -0.035961191629036791 0 -0.0082024833129581004 -0.042150540384531636 0 -0.0076319104872156381 -0.042901305198051673 0 -0.0064470203676999993 -0.042648947564018685 0 -0.0070434374313874462 -0.044578031200857425 0 -0.0073791304613422763 -0.043418690329609079 0 -0.0064470203676999993 -0.042648947564018685 0 -0.0022175239939428424 -0.038920288455564604 0 -0.0020892381549542645 -0.043287494140805238 0 -0.008501963285364865 -0.043389165574495354 0 -0.0076319104872156381 -0.042901305198051673 0 -0.0073791304613422763 -0.043418690329609079 0 -0.0076319104872156381 -0.042901305198051673 0 -0.0073791304613422763 -0.043418690329609079 0 -0.0064470203676999993 -0.042648947564018685 0 0.0077921251867508678 -0.039425825897601803 0 0.006232895747969697 -0.045000453758668103 0 0.0052359766009913728 -0.042762178122579063 0 -0.0047042938073196599 -0.043787453654960305 0 -0.0012751534662724347 -0.043231039825221612 0 -0.0011390977887341209 -0.044000149025311887 0 0.006232895747969697 -0.045000453758668103 0 0.0044746975988491687 -0.043478492055056224 0 0.0028497708435657283 -0.043757568872630423 0 -0.0020892381549542645 -0.043287494140805238 0 0.0012836930901235597 -0.043959018347692738 0 0.0047569892243262864 -0.041502492207105161 0 0.0052359766009913728 -0.042762178122579063 0 0.0036422473680871154 -0.042495112930309283 0 0.0052359766009913728 -0.042762178122579063 0 0.0044746975988491687 -0.043478492055056224 0 0.0036422473680871154 -0.042495112930309283 0 0.006232895747969697 -0.045000453758668103 0 0.0052359766009913728 -0.042762178122579063 0 0.0044746975988491687 -0.043478492055056224 0 -0.0013812461366894079 -0.043294307320564863 0 -0.0027094291625226726 -0.041510471493822351 0 -0.0044420978130830227 -0.042376317846193244 0 -0.0012751534662724347 -0.043231039825221612 0 -0.0049525681661104128 -0.041282704802337075 0 -0.0012751534662724347 -0.043231039825221612 0 -0.0048131010079718118 -0.040362355995729175 0 -0.0049525681661104128 -0.041282704802337075 0 -0.0047042938073196599 -0.043787453654960305 0 -0.0044420978130830227 -0.042376317846193244 0 -0.0012751534662724347 -0.043231039825221612 0 -0.0054815979519149396 -0.042018426125949394 0 -0.0049525681661104128 -0.041282704802337075 0 -0.0061037843657196248 -0.041258522215390933 0 -0.0054815979519149396 -0.042018426125949394 0 -0.0044420978130830227 -0.042376317846193244 0 -0.0049525681661104128 -0.041282704802337075 0 -0.0020892381549542645 -0.043287494140805238 0 -0.0035092055025638114 -0.043141525947595648 0 -0.0050391083300765074 -0.043766164985965229 0 -0.0054815979519149396 -0.042018426125949394 0 -0.0044420978130830227 -0.042376317846193244 0 -0.0079988763182865553 -0.04269564093718474 0 -0.0050391083300765074 -0.043766164985965229 0 -0.0065225731691751377 -0.042224677636526611 0 -0.0088432660802881986 -0.042274617769173385 0 -0.0020892381549542645 -0.043287494140805238 0 -0.0050391083300765074 -0.043766164985965229 0 -0.0054815979519149396 -0.042018426125949394 0 -0.0065225731691751377 -0.042224677636526611 0 -0.0054815979519149396 -0.042018426125949394 0 -0.0065225731691751377 -0.042224677636526611 0 -0.0061037843657196248 -0.041258522215390933 0 -0.0065225731691751377 -0.042224677636526611 0 -0.0061037843657196248 -0.041258522215390933 0 -0.0075574281889472595 -0.041442742797833707 0 -0.0079988763182865553 -0.04269564093718474 0 -0.0065225731691751377 -0.042224677636526611 0 -0.0075574281889472595 -0.041442742797833707 0 0.00051023400637144789 -0.042898209140460775 0 0.00015783752702474462 -0.04298069560355524 0 0.00026072961601981184 -0.043015316852757599 0 0.00051023400637144789 -0.042898209140460775 0 -0.00033644576285597803 -0.043220604600241089 0 0.00015783752702474462 -0.04298069560355524 0 0.00051023400637144789 -0.042898209140460775 0 0.0024420289776179997 -0.042752558832490045 0 0.0028497708435657283 -0.043757568872630423 0 0.00051023400637144789 -0.042898209140460775 0 -0.0011390977887341209 -0.044000149025311887 0 -0.00033644576285597803 -0.043220604600241089 0 0.0023467470612526251 -0.041919776274639442 0 0.00051023400637144789 -0.042898209140460775 0 0.0024420289776179997 -0.042752558832490045 0 0.00022438520617697197 -0.04308897147455714 0 0.0012836930901235597 -0.043959018347692738 0 0.0044746975988491687 -0.043478492055056224 0 0.0036422473680871154 -0.042495112930309283 0 0.0028497708435657283 -0.043757568872630423 0 0.0023467470612526251 -0.041919776274639442 0 0.0024420289776179997 -0.042752558832490045 0 0.0036422473680871154 -0.042495112930309283 0 0.0024420289776179997 -0.042752558832490045 0 0.0036422473680871154 -0.042495112930309283 0 0.0028497708435657283 -0.043757568872630423 0 -0.0012751534662724347 -0.043231039825221612 0 -0.0011390977887341209 -0.044000149025311887 0 -0.00033644576285597803 -0.043220604600241089 0 -0.0012751534662724347 -0.043231039825221612 0 -0.00077907303301921456 -0.042697220455450047 0 -0.00078645543811603383 -0.042420873649387555 0 -0.0012751534662724347 -0.043231039825221612 0 -0.00033644576285597803 -0.043220604600241089 0 -0.00043129010894767171 -0.042843208478991326 0 -0.0012751534662724347 -0.043231039825221612 0 -0.00043129010894767171 -0.042843208478991326 0 -0.00077907303301921456 -0.042697220455450047 0 -0.00043129010894767171 -0.042843208478991326 0 -4.5564182066973795e-05 -0.042639843018956923 0 -0.0004789710775162468 -0.042589691221514021 0 -0.00043129010894767171 -0.042843208478991326 0 -0.00077907303301921456 -0.042697220455450047 0 -0.0004789710775162468 -0.042589691221514021 0 -0.00033644576285597803 -0.043220604600241089 0 -0.00043129010894767171 -0.042843208478991326 0 0.00015783752702474462 -0.04298069560355524 0 -0.00043129010894767171 -0.042843208478991326 0 -4.5564182066973795e-05 -0.042639843018956923 0 0.00015783752702474462 -0.04298069560355524 0 -4.5564182066973795e-05 -0.042639843018956923 0 0.00015783752702474462 -0.04298069560355524 0 0.00034451933067299587 -0.042742313319290473 0 -4.5564182066973795e-05 -0.042639843018956923 0 0.0001786742550842171 -0.042368740693974873 0 0.00034451933067299587 -0.042742313319290473 0 -4.5564182066973795e-05 -0.042639843018956923 0 -0.00019453853056616429 -0.042407929045748111 0 -0.0004789710775162468 -0.042589691221514021 0 -4.5564182066973795e-05 -0.042639843018956923 0 -0.00019453853056616429 -0.042407929045748111 0 0.0001786742550842171 -0.042368740693974873 0 -0.00019453853056616429 -0.042407929045748111 0 0.0001786742550842171 -0.042368740693974873 0 -9.3706191145660417e-05 -0.042197744924936789 0 -0.00077907303301921456 -0.042697220455450047 0 -0.00070128465382289279 -0.042506851628569563 0 -0.00078645543811603383 -0.042420873649387555 0 -0.00077907303301921456 -0.042697220455450047 0 -0.00070128465382289279 -0.042506851628569563 0 -0.0004789710775162468 -0.042589691221514021 0 -0.00070128465382289279 -0.042506851628569563 0 -0.0004789710775162468 -0.042589691221514021 0 -0.00052712818323787103 -0.042360193509344016 0 -0.00019453853056616429 -0.042407929045748111 0 -0.0004789710775162468 -0.042589691221514021 0 -0.00052712818323787103 -0.042360193509344016 0 -0.00019453853056616429 -0.042407929045748111 0 -0.00052712818323787103 -0.042360193509344016 0 -9.3706191145660417e-05 -0.042197744924936789 0 -0.00070128465382289279 -0.042506851628569563 0 -0.00052712818323787103 -0.042360193509344016 0 -0.00069048288560408049 -0.042349617155885214 0 -0.00051129481037697313 -0.042204718064141958 0 -9.3706191145660417e-05 -0.042197744924936789 0 8.7765319589613899e-06 -0.041981973656401196 0 -0.00052712818323787103 -0.042360193509344016 0 -0.00051129481037697313 -0.042204718064141958 0 -0.00069048288560408049 -0.042349617155885214 0 -0.00052712818323787103 -0.042360193509344016 0 -0.00051129481037697313 -0.042204718064141958 0 -9.3706191145660417e-05 -0.042197744924936789 0 -9.3706191145660417e-05 -0.042197744924936789 0 8.7765319589613899e-06 -0.041981973656401196 0 0.0003651968922457021 -0.042035549739977925 0 0.0001786742550842171 -0.042368740693974873 0 -9.3706191145660417e-05 -0.042197744924936789 0 0.0003651968922457021 -0.042035549739977925 0 0.00012959456938998261 -0.041951972146537959 0 0.001185805579496164 -0.04177484687868839 0 8.7765319589613899e-06 -0.041981973656401196 0 0.0010032001048137212 -0.041381873791926628 0 0.0017284348986055756 -0.042215088405640144 0 -0.00051129481037697313 -0.042204718064141958 0 8.7765319589613899e-06 -0.041981973656401196 0 -0.00081429730742071428 -0.042064765846176168 0 8.7765319589613899e-06 -0.041981973656401196 0 -0.00083418969855872003 -0.041662242549932234 0 -0.00081429730742071428 -0.042064765846176168 0 8.7765319589613899e-06 -0.041981973656401196 0 -0.00083418969855872003 -0.041662242549932234 0 -0.0001135988582036154 -0.041129971209750947 0 8.7765319589613899e-06 -0.041981973656401196 0 0.0010032001048137212 -0.041381873791926628 0 -0.0001135988582036154 -0.041129971209750947 0 -0.006496879412040097 -0.038588251326107881 0 -0.0062118549717848116 -0.039134143315750852 0 -0.006794560534626546 -0.038265310471751419 0 -0.0068624244459057886 -0.038672741854878429 0 -0.0080078240902860462 -0.037523346567817806 0 -0.0020796546219530245 -0.041666427282345 0 -0.0012560430643052734 -0.041836375726963533 0 -0.0012477434129054324 -0.04132898704983147 0 -0.00083418969855872003 -0.041662242549932234 0 -0.0012560430643052734 -0.041836375726963533 0 -0.0012477434129054324 -0.04132898704983147 0 -0.00083418969855872003 -0.041662242549932234 0 -0.0001135988582036154 -0.041129971209750947 0 -0.0012477434129054324 -0.04132898704983147 0 -0.00083418969855872003 -0.041662242549932234 0 -0.0012560430643052734 -0.041836375726963533 0 -0.00081429730742071428 -0.042064765846176168 0 -0.0012560430643052734 -0.041836375726963533 0 -0.00081429730742071428 -0.042064765846176168 0 -0.0011663581236493958 -0.042210617075189451 0 -0.00081429730742071428 -0.042064765846176168 0 -0.0011663581236493958 -0.042210617075189451 0 -0.00080396993452836601 -0.042266504651055033 0 -0.0020796546219530245 -0.041666427282345 0 -0.0012560430643052734 -0.041836375726963533 0 -0.0011663581236493958 -0.042210617075189451 0 -0.0076322493029020175 -0.03813460444991619 0 -0.0079101343057294618 -0.039073170944397391 0 -0.0089730463022147499 -0.038439575007482817 0 -0.006496879412040097 -0.038588251326107881 0 -0.0062118549717848116 -0.039134143315750852 0 -0.0058734838438737327 -0.039415983977432484 0 -0.0043015952462107732 -0.040104997377925208 0 -0.0035355261913596423 -0.040787512537881057 0 -0.0076322493029020175 -0.03813460444991619 0 -0.0079101343057294618 -0.039073170944397391 0 -0.0069775867869953856 -0.039532675822386946 0 -0.0062118549717848116 -0.039134143315750852 0 -0.0058734838438737327 -0.039415983977432484 0 -0.0053559888465202253 -0.040139998228103463 0 -0.0068624244459057886 -0.038672741854878429 0 -0.0055045147862063841 -0.040145477974938351 0 -0.0076322493029020175 -0.03813460444991619 0 -0.0069775867869953856 -0.039532675822386946 0 -0.0053559888465202253 -0.040139998228103463 0 -0.0069775867869953856 -0.039532675822386946 0 -0.0053559888465202253 -0.040139998228103463 0 -0.0063463914242846012 -0.040335569660228693 0 -0.0069775867869953856 -0.039532675822386946 0 -0.0076463730646819843 -0.040061504753538313 0 -0.0063463914242846012 -0.040335569660228693 0 -0.0079101343057294618 -0.039073170944397391 0 -0.0069775867869953856 -0.039532675822386946 0 -0.0076463730646819843 -0.040061504753538313 0 -0.0035355261913596423 -0.040787512537881057 0 -0.0027094291625226726 -0.041510471493822351 0 -0.00080396993452836601 -0.042266504651055033 0 -0.00069048288560408049 -0.042349617155885214 0 -0.00078645543811603383 -0.042420873649387555 0 -0.0011663581236493958 -0.042210617075189451 0 -0.00080396993452836601 -0.042266504651055033 0 -0.00078645543811603383 -0.042420873649387555 0 -0.0058734838438737327 -0.039415983977432484 0 -0.0048131010079718118 -0.040362355995729175 0 -0.0053559888465202253 -0.040139998228103463 0 -0.00051129481037697313 -0.042204718064141958 0 -0.00081429730742071428 -0.042064765846176168 0 -0.00080396993452836601 -0.042266504651055033 0 -0.00051129481037697313 -0.042204718064141958 0 -0.00080396993452836601 -0.042266504651055033 0 -0.00069048288560408049 -0.042349617155885214 0 -0.00070128465382289279 -0.042506851628569563 0 -0.00069048288560408049 -0.042349617155885214 0 -0.00078645543811603383 -0.042420873649387555 0 -0.0048131010079718118 -0.040362355995729175 0 -0.0053559888465202253 -0.040139998228103463 0 -0.0054873969354970976 -0.040644126797541216 0 -0.0053559888465202253 -0.040139998228103463 0 -0.0054873969354970976 -0.040644126797541216 0 -0.0063463914242846012 -0.040335569660228693 0 -0.0054873969354970976 -0.040644126797541216 0 -0.0049525681661104128 -0.041282704802337075 0 -0.0061037843657196248 -0.041258522215390933 0 -0.0048131010079718118 -0.040362355995729175 0 -0.0054873969354970976 -0.040644126797541216 0 -0.0049525681661104128 -0.041282704802337075 0 -0.0076463730646819843 -0.040061504753538313 0 -0.0063463914242846012 -0.040335569660228693 0 -0.0075574281889472595 -0.041442742797833707 0 -0.0054873969354970976 -0.040644126797541216 0 -0.0063463914242846012 -0.040335569660228693 0 -0.0061037843657196248 -0.041258522215390933 0 -0.0063463914242846012 -0.040335569660228693 0 -0.0061037843657196248 -0.041258522215390933 0 -0.0075574281889472595 -0.041442742797833707 0 -0.0075574281889472595 -0.041442742797833707 0 -0.0088460935628866151 -0.041547006334610892 0 -0.0086390690559699432 -0.040849919747149806 0 -0.0076463730646819843 -0.040061504753538313 0 -0.0075574281889472595 -0.041442742797833707 0 -0.0086390690559699432 -0.040849919747149806 0 -0.0088460935628866151 -0.041547006334610892 0 -0.0086390690559699432 -0.040849919747149806 0 -0.0097884625736087798 -0.041005341600010979 0 -0.010040347939488317 -0.041752304767471451 0 -0.0088460935628866151 -0.041547006334610892 0 -0.0097884625736087798 -0.041005341600010979 0 -0.010040347939488317 -0.041752304767471451 0 -0.010618321639496555 -0.041080259941771446 0 -0.010760469037470854 -0.041260984031233607 0 -0.010040347939488317 -0.041752304767471451 0 -0.01018303607135632 -0.041187408035044705 0 -0.010618321639496555 -0.041080259941771446 0 -0.010040347939488317 -0.041752304767471451 0 -0.0097884625736087798 -0.041005341600010979 0 -0.01018303607135632 -0.041187408035044705 0 -0.0097884625736087798 -0.041005341600010979 0 -0.01018303607135632 -0.041187408035044705 0 -0.010277345182685003 -0.04085554840056782 0 -0.01018303607135632 -0.041187408035044705 0 -0.010277345182685003 -0.04085554840056782 0 -0.010618321639496555 -0.041080259941771446 0 -0.010277345182685003 -0.04085554840056782 0 -0.010618321639496555 -0.041080259941771446 0 -0.01060721702881233 -0.040659259611409787 0 -0.010277345182685003 -0.04085554840056782 0 -0.01060721702881233 -0.040659259611409787 0 -0.010184097505799267 -0.040342279135508585 0 -0.0097884625736087798 -0.041005341600010979 0 -0.010277345182685003 -0.04085554840056782 0 -0.010184097505799267 -0.040342279135508585 0 -0.01060721702881233 -0.040659259611409787 0 -0.010184097505799267 -0.040342279135508585 0 -0.010735711552718765 -0.040257373649065488 0 -0.0097884625736087798 -0.041005341600010979 0 -0.010184097505799267 -0.040342279135508585 0 -0.0094319529138259667 -0.040237842962182802 0 -0.0086390690559699432 -0.040849919747149806 0 -0.0097884625736087798 -0.041005341600010979 0 -0.0094319529138259667 -0.040237842962182802 0 -0.0099018381076924449 -0.039679828890927464 0 -0.0089013053592426582 -0.039300053787231067 0 -0.010792941948601779 -0.038906882088402268 0 -0.0094319529138259667 -0.040237842962182802 0 -0.0099018381076924449 -0.039679828890927464 0 -0.0089013053592426582 -0.039300053787231067 0 -0.010184097505799267 -0.040342279135508585 0 -0.0094319529138259667 -0.040237842962182802 0 -0.0099018381076924449 -0.039679828890927464 0 -0.0092054971963163625 -0.039262555331024726 0 -0.010699062317148541 -0.039268652258237349 0 -0.010184097505799267 -0.040342279135508585 0 -0.0099018381076924449 -0.039679828890927464 0 -0.010622457048293199 -0.039741617118163201 0 -0.010184097505799267 -0.040342279135508585 0 -0.010622457048293199 -0.039741617118163201 0 -0.010735711552718765 -0.040257373649065488 0 -0.0099018381076924449 -0.039679828890927464 0 -0.010622457048293199 -0.039741617118163201 0 -0.010792941948601779 -0.038906882088402268 0 -0.0086390690559699432 -0.040849919747149806 0 -0.0094319529138259667 -0.040237842962182802 0 -0.0089013053592426582 -0.039300053787231067 0 -0.0076463730646819843 -0.040061504753538313 0 -0.0086390690559699432 -0.040849919747149806 0 -0.0089013053592426582 -0.039300053787231067 0 -0.0079101343057294618 -0.039073170944397391 0 -0.0076463730646819843 -0.040061504753538313 0 -0.0089013053592426582 -0.039300053787231067 0 -0.016368966958442786 -0.034603966507119319 0 -0.016306863652588533 -0.03463086175820404 0 -0.016325576174325174 -0.034541052508672551 0 -0.016306863652588533 -0.03463086175820404 0 -0.016245538938348958 -0.034633646399166496 0 -0.016325576174325174 -0.034541052508672551 0 -0.011918787320967354 -0.037136052004079538 0 -0.014833183183868105 -0.037161640318433865 0 -0.016368966958442786 -0.034603966507119319 0 -0.016382463591515874 -0.034649421681416236 0 -0.016306863652588533 -0.03463086175820404 0 -0.016326513709172385 -0.034683660419932344 0 -0.016382463591515874 -0.034649421681416236 0 -0.016306863652588533 -0.03463086175820404 0 -0.011566338038069144 -0.040370874400498302 0 -0.011584442365343494 -0.04098787486604237 0 -0.012460486153885123 -0.039473333343985263 0 -0.011566338038069144 -0.040370874400498302 0 -0.011584442365343494 -0.04098787486604237 0 -0.011226572395297091 -0.040812952940965763 0 -0.016326513709172385 -0.034683660419932344 0 -0.016306863652588533 -0.03463086175820404 0 -0.016223683619127564 -0.034637716176676235 0 -0.016306863652588533 -0.03463086175820404 0 -0.016223683619127564 -0.034637716176676235 0 -0.016245538938348958 -0.034633646399166496 0 -0.012676495871832782 -0.035437575523019411 0 -0.011918787320967354 -0.037136052004079538 0 -0.011584442365343494 -0.04098787486604237 0 -0.010760469037470854 -0.041260984031233607 0 -0.011226572395297091 -0.040812952940965763 0 -0.010760469037470854 -0.041260984031233607 0 -0.011226572395297091 -0.040812952940965763 0 -0.011021334562353435 -0.040631899310258172 0 -0.010618321639496555 -0.041080259941771446 0 -0.010760469037470854 -0.041260984031233607 0 -0.011021334562353435 -0.040631899310258172 0 -0.01060721702881233 -0.040659259611409787 0 -0.011021334562353435 -0.040631899310258172 0 -0.010735711552718765 -0.040257373649065488 0 -0.010618321639496555 -0.041080259941771446 0 -0.01060721702881233 -0.040659259611409787 0 -0.011021334562353435 -0.040631899310258172 0 -0.011566338038069144 -0.040370874400498302 0 -0.011226572395297091 -0.040812952940965763 0 -0.011021334562353435 -0.040631899310258172 0 -0.011566338038069144 -0.040370874400498302 0 -0.011021334562353435 -0.040631899310258172 0 -0.011212324895048508 -0.040046068553648166 0 -0.011021334562353435 -0.040631899310258172 0 -0.010735711552718765 -0.040257373649065488 0 -0.011212324895048508 -0.040046068553648166 0 -0.010792941948601779 -0.038906882088402268 0 -0.011514060892214803 -0.03906756883134891 0 -0.013131044828241224 -0.038518866317289971 0 -0.010622457048293199 -0.039741617118163201 0 -0.010735711552718765 -0.040257373649065488 0 -0.011212324895048508 -0.040046068553648166 0 -0.010622457048293199 -0.039741617118163201 0 -0.011212324895048508 -0.040046068553648166 0 -0.011143335678332722 -0.039496933104925622 0 -0.011212324895048508 -0.040046068553648166 0 -0.011143335678332722 -0.039496933104925622 0 -0.011577592513397069 -0.0396944381221251 0 -0.010622457048293199 -0.039741617118163201 0 -0.010792941948601779 -0.038906882088402268 0 -0.011143335678332722 -0.039496933104925622 0 -0.010792941948601779 -0.038906882088402268 0 -0.011143335678332722 -0.039496933104925622 0 -0.011514060892214803 -0.03906756883134891 0 -0.011514060892214803 -0.03906756883134891 0 -0.011577592513397069 -0.0396944381221251 0 -0.012460486153885123 -0.039473333343985263 0 -0.011143335678332722 -0.039496933104925622 0 -0.011514060892214803 -0.03906756883134891 0 -0.011577592513397069 -0.0396944381221251 0 -0.011825520190940454 -0.038332006111148474 0 -0.014833183183868105 -0.037161640318433865 0 -0.011566338038069144 -0.040370874400498302 0 -0.011212324895048508 -0.040046068553648166 0 -0.011577592513397069 -0.0396944381221251 0 -0.011566338038069144 -0.040370874400498302 0 -0.011577592513397069 -0.0396944381221251 0 -0.012460486153885123 -0.039473333343985263 0 -0.017166533661230252 -0.035596959626399909 0 -0.017148379854676769 -0.035642914292948844 0 -0.017097963648141028 -0.035510211821606109 0 -0.011514060892214803 -0.03906756883134891 0 -0.012596862372391932 -0.039509848016627068 0 -0.013131044828241224 -0.038518866317289971 0 -0.016368966958442786 -0.034603966507119319 0 -0.016325576174325174 -0.034541052508672551 0 -0.01650348869511499 -0.03461366338493823 0 -0.014833183183868105 -0.037161640318433865 0 -0.014419032312538471 -0.037462541717000523 0 -0.012852805003501224 -0.038168388136604794 0 -0.013067404534842545 -0.039060519640069326 0 -0.01386432953902665 -0.037586782203841783 0 -0.013067404534842545 -0.039060519640069326 0 -0.012499303780548138 -0.038545987142693867 0 -0.011938896484184105 -0.038790098284846287 0 -0.012852805003501224 -0.038168388136604794 0 -0.013067404534842545 -0.039060519640069326 0 -0.012499303780548138 -0.038545987142693867 0 -0.012852805003501224 -0.038168388136604794 0 -0.012499303780548138 -0.038545987142693867 0 -0.012129444593420869 -0.038168554806578874 0 -0.011275003670447599 -0.039346636631156263 0 -0.013067404534842545 -0.039060519640069326 0 -0.011938896484184105 -0.038790098284846287 0 -0.010699062317148541 -0.039268652258237349 0 -0.014419032312538471 -0.037462541717000523 0 -0.012129444593420869 -0.038168554806578874 0 -0.011938896484184105 -0.038790098284846287 0 -0.011171978677907243 -0.038446186538631265 0 -0.012499303780548138 -0.038545987142693867 0 -0.012129444593420869 -0.038168554806578874 0 -0.011938896484184105 -0.038790098284846287 0 -0.011275003670447599 -0.039346636631156263 0 -0.011938896484184105 -0.038790098284846287 0 -0.011171978677907243 -0.038446186538631265 0 -0.012129444593420869 -0.038168554806578874 0 -0.011414621744033111 -0.037672092088211477 0 -0.012658590911031106 -0.03739776318502383 0 -0.011414621744033111 -0.037672092088211477 0 -0.012658590911031106 -0.03739776318502383 0 -0.011701013790001592 -0.036956885540613153 0 -0.012129444593420869 -0.038168554806578874 0 -0.011171978677907243 -0.038446186538631265 0 -0.011414621744033111 -0.037672092088211477 0 -0.012852805003501224 -0.038168388136604794 0 -0.012658590911031106 -0.03739776318502383 0 -0.01386432953902665 -0.037586782203841783 0 -0.012852805003501224 -0.038168388136604794 0 -0.012129444593420869 -0.038168554806578874 0 -0.012658590911031106 -0.03739776318502383 0 -0.0076322493029020175 -0.03813460444991619 0 -0.0089730463022147499 -0.038439575007482817 0 -0.0092082497060946376 -0.037615356500797607 0 -0.0089730463022147499 -0.038439575007482817 0 -0.010124864999253722 -0.037966644704968612 0 -0.0092082497060946376 -0.037615356500797607 0 -0.0089730463022147499 -0.038439575007482817 0 -0.010020312818098643 -0.038676035142405869 0 -0.010124864999253722 -0.037966644704968612 0 -0.0079101343057294618 -0.039073170944397391 0 -0.0089013053592426582 -0.039300053787231067 0 -0.0089730463022147499 -0.038439575007482817 0 -0.0089013053592426582 -0.039300053787231067 0 -0.0089730463022147499 -0.038439575007482817 0 -0.010020312818098643 -0.038676035142405869 0 -0.0089013053592426582 -0.039300053787231067 0 -0.011275003670447599 -0.039346636631156263 0 -0.010020312818098643 -0.038676035142405869 0 -0.011275003670447599 -0.039346636631156263 0 -0.011171978677907243 -0.038446186538631265 0 -0.010020312818098643 -0.038676035142405869 0 -0.011171978677907243 -0.038446186538631265 0 -0.010020312818098643 -0.038676035142405869 0 -0.010124864999253722 -0.037966644704968612 0 -0.011414621744033111 -0.037672092088211477 0 -0.010434103182841544 -0.037059393101550882 0 -0.011701013790001592 -0.036956885540613153 0 -0.011171978677907243 -0.038446186538631265 0 -0.011414621744033111 -0.037672092088211477 0 -0.010124864999253722 -0.037966644704968612 0 -0.011414621744033111 -0.037672092088211477 0 -0.010124864999253722 -0.037966644704968612 0 -0.010434103182841544 -0.037059393101550882 0 -0.0092082497060946376 -0.037615356500797607 0 -0.0092778228224387974 -0.036663434020693018 0 -0.010434103182841544 -0.037059393101550882 0 -0.0076322493029020175 -0.03813460444991619 0 -0.0092082497060946376 -0.037615356500797607 0 -0.0092778228224387974 -0.036663434020693018 0 -0.010124864999253722 -0.037966644704968612 0 -0.0092082497060946376 -0.037615356500797607 0 -0.010434103182841544 -0.037059393101550882 0 -0.006496879412040097 -0.038588251326107881 0 -0.006794560534626546 -0.038265310471751419 0 -0.0070047988839865788 -0.037826906993595304 0 -0.0043015952462107732 -0.040104997377925208 0 -0.0052056078354942035 -0.039262613948984386 0 -0.0092778228224387974 -0.036663434020693018 0 -0.010434103182841544 -0.037059393101550882 0 -0.010358364049093951 -0.036225158089078661 0 -0.010434103182841544 -0.037059393101550882 0 -0.010965682966666912 -0.036517175735566079 0 -0.011701013790001592 -0.036956885540613153 0 -0.010434103182841544 -0.037059393101550882 0 -0.010965682966666912 -0.036517175735566079 0 -0.010358364049093951 -0.036225158089078661 0 -0.010965682966666912 -0.036517175735566079 0 -0.010940263861713656 -0.035971715251047788 0 -0.010358364049093951 -0.036225158089078661 0 -0.010940263861713656 -0.035971715251047788 0 -0.010358364049093951 -0.036225158089078661 0 -0.01062345645082232 -0.035463105240148604 0 -0.010965682966666912 -0.036517175735566079 0 -0.010940263861713656 -0.035971715251047788 0 -0.011501633185343866 -0.036082098943156581 0 -0.010940263861713656 -0.035971715251047788 0 -0.011297339417014149 -0.035644265828285726 0 -0.011501633185343866 -0.036082098943156581 0 -0.010940263861713656 -0.035971715251047788 0 -0.011297339417014149 -0.035644265828285726 0 -0.01062345645082232 -0.035463105240148604 0 -0.0080078240902860462 -0.037523346567817806 0 -0.0090282105629201827 -0.036326925113526316 0 -0.006794560534626546 -0.038265310471751419 0 -0.0070047988839865788 -0.037826906993595304 0 -0.0073082450765476602 -0.037452962376914554 0 -0.0033663835202677717 -0.040748080098453647 0 -0.0035378359377034301 -0.039838569487106214 0 -0.0026078606164714217 -0.040303721657228425 0 -0.0092778228224387974 -0.036663434020693018 0 -0.010358364049093951 -0.036225158089078661 0 -0.01062345645082232 -0.035463105240148604 0 -0.012658590911031106 -0.03739776318502383 0 -0.013097629811904054 -0.036470767121536546 0 -0.011701013790001592 -0.036956885540613153 0 -0.012658590911031106 -0.03739776318502383 0 -0.013097629811904054 -0.036470767121536546 0 -0.01386432953902665 -0.037586782203841783 0 -0.013097629811904054 -0.036470767121536546 0 -0.011701013790001592 -0.036956885540613153 0 -0.012325829114740222 -0.036142435998448845 0 -0.010965682966666912 -0.036517175735566079 0 -0.011701013790001592 -0.036956885540613153 0 -0.011501633185343866 -0.036082098943156581 0 -0.011701013790001592 -0.036956885540613153 0 -0.011501633185343866 -0.036082098943156581 0 -0.012325829114740222 -0.036142435998448845 0 -0.011501633185343866 -0.036082098943156581 0 -0.012027088865109475 -0.035645358930914472 0 -0.012325829114740222 -0.036142435998448845 0 -0.011297339417014149 -0.035644265828285726 0 -0.011501633185343866 -0.036082098943156581 0 -0.012027088865109475 -0.035645358930914472 0 -0.012027088865109475 -0.035645358930914472 0 -0.012325829114740222 -0.036142435998448845 0 -0.012932807888042732 -0.035627405750846664 0 -0.013097629811904054 -0.036470767121536546 0 -0.012932807888042732 -0.035627405750846664 0 -0.013852041423969516 -0.035738395897179295 0 -0.013097629811904054 -0.036470767121536546 0 -0.012325829114740222 -0.036142435998448845 0 -0.012932807888042732 -0.035627405750846664 0 -0.012932807888042732 -0.035627405750846664 0 -0.012419154902037209 -0.035192670664790322 0 -0.013573615343659095 -0.03506306496211517 0 -0.012932807888042732 -0.035627405750846664 0 -0.013573615343659095 -0.03506306496211517 0 -0.013852041423969516 -0.035738395897179295 0 -0.012027088865109475 -0.035645358930914472 0 -0.012932807888042732 -0.035627405750846664 0 -0.012419154902037209 -0.035192670664790322 0 -0.012027088865109475 -0.035645358930914472 0 -0.012419154902037209 -0.035192670664790322 0 -0.011644428545121552 -0.035278830630783305 0 -0.011297339417014149 -0.035644265828285726 0 -0.012027088865109475 -0.035645358930914472 0 -0.011644428545121552 -0.035278830630783305 0 -0.012419154902037209 -0.035192670664790322 0 -0.011789469426268486 -0.034863001201645302 0 -0.011644428545121552 -0.035278830630783305 0 -0.011789469426268486 -0.034863001201645302 0 -0.012473570862237335 -0.034737877294832221 0 -0.011561037225781983 -0.034406043354353599 0 -0.012473570862237335 -0.034737877294832221 0 -0.011561037225781983 -0.034406043354353599 0 -0.012897641940128409 -0.03430213936021035 0 -0.012419154902037209 -0.035192670664790322 0 -0.011789469426268486 -0.034863001201645302 0 -0.012473570862237335 -0.034737877294832221 0 -0.012419154902037209 -0.035192670664790322 0 -0.012473570862237335 -0.034737877294832221 0 -0.013573615343659095 -0.03506306496211517 0 -0.012473570862237335 -0.034737877294832221 0 -0.013573615343659095 -0.03506306496211517 0 -0.012897641940128409 -0.03430213936021035 0 -0.0033663835202677717 -0.040748080098453647 0 -0.0035378359377034301 -0.039838569487106214 0 -0.005070583605921543 -0.039407928088731281 0 -0.0052056078354942035 -0.039262613948984386 0 -0.006307084415811513 -0.038158613621506188 0 -0.0070047988839865788 -0.037826906993595304 0 -0.0073082450765476602 -0.037452962376914554 0 -0.0074757744286944533 -0.03709340867709001 0 -0.0035378359377034301 -0.039838569487106214 0 -0.005070583605921543 -0.039407928088731281 0 -0.0039774490833969856 -0.039161515725615152 0 -0.0035378359377034301 -0.039838569487106214 0 -0.0039774490833969856 -0.039161515725615152 0 -0.0026065290417439978 -0.03936095262395084 0 -0.0073082450765476602 -0.037452962376914554 0 -0.0074757744286944533 -0.03709340867709001 0 -0.0077969224812348111 -0.03666099605092548 0 -0.0090282105629201827 -0.036326925113526316 0 -0.0092663500277100751 -0.036166444153389994 0 -0.011789469426268486 -0.034863001201645302 0 -0.01062345645082232 -0.035463105240148604 0 -0.011644428545121552 -0.035278830630783305 0 -0.011297339417014149 -0.035644265828285726 0 -0.01062345645082232 -0.035463105240148604 0 -0.011644428545121552 -0.035278830630783305 0 -0.005070583605921543 -0.039407928088731281 0 -0.0059762173564612544 -0.038412979399931789 0 -0.0047599676442871101 -0.038685098587158538 0 -0.005070583605921543 -0.039407928088731281 0 -0.0059762173564612544 -0.038412979399931789 0 -0.0071887315148726786 -0.038080489646487983 0 -0.006307084415811513 -0.038158613621506188 0 -0.007656379328346518 -0.03742507756281703 0 -0.0074757744286944533 -0.03709340867709001 0 -0.0077969224812348111 -0.03666099605092548 0 -0.0079320313810005739 -0.036369485521719674 0 -0.011789469426268486 -0.034863001201645302 0 -0.01062345645082232 -0.035463105240148604 0 -0.011561037225781983 -0.034406043354353599 0 -0.0059762173564612544 -0.038412979399931789 0 -0.0047599676442871101 -0.038685098587158538 0 -0.0048474127176833422 -0.037928253315496686 0 -0.005070583605921543 -0.039407928088731281 0 -0.0047599676442871101 -0.038685098587158538 0 -0.0039774490833969856 -0.039161515725615152 0 -0.0047599676442871101 -0.038685098587158538 0 -0.0039774490833969856 -0.039161515725615152 0 -0.0036376249182703164 -0.038272830999947299 0 -0.0047599676442871101 -0.038685098587158538 0 -0.0036376249182703164 -0.038272830999947299 0 -0.0048474127176833422 -0.037928253315496686 0 -0.0039774490833969856 -0.039161515725615152 0 -0.0036376249182703164 -0.038272830999947299 0 -0.0026065290417439978 -0.03936095262395084 0 -0.0036376249182703164 -0.038272830999947299 0 -0.0026065290417439978 -0.03936095262395084 0 -0.0018876903584888413 -0.037617075370737885 0 -0.0035378359377034301 -0.039838569487106214 0 -0.0026065290417439978 -0.03936095262395084 0 -0.0026078606164714217 -0.040303721657228425 0 -0.0026065290417439978 -0.03936095262395084 0 -0.0016419334676816544 -0.040018665793877542 0 -0.0026078606164714217 -0.040303721657228425 0 -0.0026065290417439978 -0.03936095262395084 0 -0.0016419334676816544 -0.040018665793877542 0 -0.00065658942115819107 -0.039354401861835857 0 -0.00065658942115819107 -0.039354401861835857 0 -7.8055615647375538e-05 -0.03713854979704706 0 -0.0018876903584888413 -0.037617075370737885 0 -0.0026065290417439978 -0.03936095262395084 0 -0.00065658942115819107 -0.039354401861835857 0 -0.0018876903584888413 -0.037617075370737885 0 0.0011029058411436885 -0.039060660865545986 0 -0.00065658942115819107 -0.039354401861835857 0 -7.8055615647375538e-05 -0.03713854979704706 0 0.0010537345951198245 -0.039042564179707806 0 0.000784850941661061 -0.037748610643993145 0 0.0011029058411436885 -0.039060660865545986 0 0.0016996786106847151 -0.038705670602367147 0 0.0012261221855042433 -0.038590735130032042 0 0.0011029058411436885 -0.039060660865545986 0 0.00047956321675003195 -0.040108228948911445 0 0.0016484460411810707 -0.039723256391675919 0 0.0011029058411436885 -0.039060660865545986 0 -0.00065658942115819107 -0.039354401861835857 0 0.00047956321675003195 -0.040108228948911445 0 -0.00065658942115819107 -0.039354401861835857 0 0.00047956321675003195 -0.040108228948911445 0 -0.0009402476607024029 -0.040554772358471915 0 0.00047956321675003195 -0.040108228948911445 0 -0.0001135988582036154 -0.041129971209750947 0 -0.0009402476607024029 -0.040554772358471915 0 0.00047956321675003195 -0.040108228948911445 0 0.0013419629137480754 -0.040568869090723096 0 0.0016484460411810707 -0.039723256391675919 0 0.00047956321675003195 -0.040108228948911445 0 -0.0001135988582036154 -0.041129971209750947 0 0.0013419629137480754 -0.040568869090723096 0 0.0010032001048137212 -0.041381873791926628 0 -0.0001135988582036154 -0.041129971209750947 0 0.0013419629137480754 -0.040568869090723096 0 -0.0012477434129054324 -0.04132898704983147 0 -0.0020261997501946822 -0.040900603721357148 0 -0.0009402476607024029 -0.040554772358471915 0 -0.0001135988582036154 -0.041129971209750947 0 -0.0012477434129054324 -0.04132898704983147 0 -0.0009402476607024029 -0.040554772358471915 0 -0.0020796546219530245 -0.041666427282345 0 -0.0012477434129054324 -0.04132898704983147 0 -0.0020261997501946822 -0.040900603721357148 0 -0.0020796546219530245 -0.041666427282345 0 -0.0033663835202677717 -0.040748080098453647 0 -0.0020261997501946822 -0.040900603721357148 0 -0.0016419334676816544 -0.040018665793877542 0 -0.0020261997501946822 -0.040900603721357148 0 -0.0026078606164714217 -0.040303721657228425 0 -0.0033663835202677717 -0.040748080098453647 0 -0.0020261997501946822 -0.040900603721357148 0 -0.0026078606164714217 -0.040303721657228425 0 -0.0016419334676816544 -0.040018665793877542 0 -0.00065658942115819107 -0.039354401861835857 0 -0.0009402476607024029 -0.040554772358471915 0 -0.0016419334676816544 -0.040018665793877542 0 -0.0020261997501946822 -0.040900603721357148 0 -0.0009402476607024029 -0.040554772358471915 0 -0.017518838864956067 -0.035031998409161151 0 -0.016979657274244983 -0.035344369319969211 0 -0.017288902661624417 -0.035196465377607053 0 -0.016979657274244983 -0.035344369319969211 0 -0.016592664577512982 -0.0356306426218111 0 -0.016626171159885014 -0.035520059068140548 0 -0.016979657274244983 -0.035344369319969211 0 -0.016810769337734829 -0.035458297499206329 0 -0.016592664577512982 -0.0356306426218111 0 -0.016979657274244983 -0.035344369319969211 0 -0.016810769337734829 -0.035458297499206329 0 -0.017288902661624417 -0.035196465377607053 0 -0.016810769337734829 -0.035458297499206329 0 -0.017288902661624417 -0.035196465377607053 0 -0.016794078693807279 -0.035517743703352277 0 -0.016810769337734829 -0.035458297499206329 0 -0.016794078693807279 -0.035517743703352277 0 -0.016582329521236765 -0.035618460091222263 0 -0.01787710041394993 -0.034971349897100268 0 -0.017288902661624417 -0.035196465377607053 0 -0.017549920485721009 -0.035413342335978981 0 -0.017288902661624417 -0.035196465377607053 0 -0.017549920485721009 -0.035413342335978981 0 -0.017162474058136253 -0.035673513964772176 0 -0.017288902661624417 -0.035196465377607053 0 -0.017162474058136253 -0.035673513964772176 0 -0.016794078693807279 -0.035517743703352277 0 -0.017549920485721009 -0.035413342335978981 0 -0.017162474058136253 -0.035673513964772176 0 -0.017494463889398709 -0.036158230737972641 0 -0.017046851439777539 -0.035646897179940365 0 -0.01823921683690103 -0.03366637731884712 0 -0.016635676472700048 -0.035454638542565468 0 -0.016662659330209745 -0.035483947324782189 0 -0.016665089745120928 -0.035463712144927419 0 -0.017822475254513883 -0.033220299967722799 0 -0.01823921683690103 -0.03366637731884712 0 -0.016635676472700048 -0.035454638542565468 0 -0.016646934039625399 -0.035491931910611535 0 -0.016581579896799994 -0.035421864040052022 0 -0.016635676472700048 -0.035454638542565468 0 -0.016662659330209745 -0.035483947324782189 0 -0.016646934039625399 -0.035491931910611535 0 -0.016646934039625399 -0.035491931910611535 0 -0.016642981891725625 -0.035540299101086185 0 -0.016578862354152856 -0.035508349257569384 0 -0.016646934039625399 -0.035491931910611535 0 -0.016794078693807279 -0.035517743703352277 0 -0.016642981891725625 -0.035540299101086185 0 -0.016662659330209745 -0.035483947324782189 0 -0.016646934039625399 -0.035491931910611535 0 -0.016794078693807279 -0.035517743703352277 0 -0.017046851439777539 -0.035646897179940365 0 -0.016775990345399557 -0.035463947766339279 0 -0.016794078693807279 -0.035517743703352277 0 -0.016642981891725625 -0.035540299101086185 0 -0.016582329521236765 -0.035618460091222263 0 -0.016578862354152856 -0.035508349257569384 0 -0.016563633059329945 -0.035415756917719858 0 -0.016539070899007299 -0.035585745360917478 0 -0.016642981891725625 -0.035540299101086185 0 -0.016578862354152856 -0.035508349257569384 0 -0.016582329521236765 -0.035618460091222263 0 -0.016578862354152856 -0.035508349257569384 0 -0.016539070899007299 -0.035585745360917478 0 -0.016582329521236765 -0.035618460091222263 0 -0.016646934039625399 -0.035491931910611535 0 -0.016578862354152856 -0.035508349257569384 0 -0.016581579896799994 -0.035421864040052022 0 -0.016578862354152856 -0.035508349257569384 0 -0.016563633059329945 -0.035415756917719858 0 -0.016581579896799994 -0.035421864040052022 0 -0.016540524275177975 -0.035314826303287403 0 -0.016563633059329945 -0.035415756917719858 0 -0.016581579896799994 -0.035421864040052022 0 -0.016563633059329945 -0.035415756917719858 0 -0.016638128953749574 -0.035328733559831585 0 -0.016656942481143092 -0.035528159723675734 0 -0.016540524275177975 -0.035314826303287403 0 -0.016563633059329945 -0.035415756917719858 0 -0.016585380125032596 -0.035311560635112212 0 -0.016563633059329945 -0.035415756917719858 0 -0.016638128953749574 -0.035328733559831585 0 -0.016585380125032596 -0.035311560635112212 0 -0.016539070899007299 -0.035585745360917478 0 -0.016410786554275011 -0.035893288778212774 0 -0.016656942481143092 -0.035528159723675734 0 -0.016563633059329945 -0.035415756917719858 0 -0.016539070899007299 -0.035585745360917478 0 -0.016656942481143092 -0.035528159723675734 0 -0.016410786554275011 -0.035893288778212774 0 -0.016582329521236765 -0.035618460091222263 0 -0.016592664577512982 -0.0356306426218111 0 -0.016810769337734829 -0.035458297499206329 0 -0.016582329521236765 -0.035618460091222263 0 -0.016592664577512982 -0.0356306426218111 0 -0.016539070899007299 -0.035585745360917478 0 -0.016410786554275011 -0.035893288778212774 0 -0.016582329521236765 -0.035618460091222263 0 -0.016410786554275011 -0.035893288778212774 0 -0.016592664577512982 -0.0356306426218111 0 -0.016223949273500467 -0.035773477820397234 0 -0.016410786554275011 -0.035893288778212774 0 -0.015819391687915234 -0.036021069094082703 0 -0.016223949273500467 -0.035773477820397234 0 -0.016410786554275011 -0.035893288778212774 0 -0.015819391687915234 -0.036021069094082703 0 -0.015523947573455557 -0.036506028050919959 0 -0.015819391687915234 -0.036021069094082703 0 -0.01516049226778979 -0.036177400614531008 0 -0.015523947573455557 -0.036506028050919959 0 -0.016089855038026495 -0.03613861370311279 0 -0.016299692938678292 -0.035988587514502332 0 -0.016836000320501712 -0.035769098766516884 0 -0.016929490773888545 -0.035552581243656484 0 -0.017042836409791429 -0.035670521496487535 0 -0.01516049226778979 -0.036177400614531008 0 -0.015523947573455557 -0.036506028050919959 0 -0.014920808219205155 -0.036637478903694412 0 -0.016410786554275011 -0.035893288778212774 0 -0.016836000320501712 -0.035769098766516884 0 -0.016656942481143092 -0.035528159723675734 0 -0.016402283681264632 -0.03593571041873659 0 -0.016089855038026495 -0.03613861370311279 0 -0.016836000320501712 -0.035769098766516884 0 -0.016656942481143092 -0.035528159723675734 0 -0.016929490773888545 -0.035552581243656484 0 -0.016656942481143092 -0.035528159723675734 0 -0.016790496417689774 -0.035385945966367752 0 -0.016929490773888545 -0.035552581243656484 0 -0.016638128953749574 -0.035328733559831585 0 -0.016656942481143092 -0.035528159723675734 0 -0.016790496417689774 -0.035385945966367752 0 -0.016708323084759762 -0.035081146899970418 0 -0.016790496417689774 -0.035385945966367752 0 -0.016964312986435678 -0.0353581610519881 0 -0.016708323084759762 -0.035081146899970418 0 -0.016638128953749574 -0.035328733559831585 0 -0.016790496417689774 -0.035385945966367752 0 -0.016790496417689774 -0.035385945966367752 0 -0.016964312986435678 -0.0353581610519881 0 -0.016929490773888545 -0.035552581243656484 0 -0.016929490773888545 -0.035552581243656484 0 -0.017097963648141028 -0.035510211821606109 0 -0.017042836409791429 -0.035670521496487535 0 -0.016735213884281286 -0.035056994025368354 0 -0.017090693326694648 -0.034884462084790166 0 -0.016964312986435678 -0.0353581610519881 0 -0.016929490773888545 -0.035552581243656484 0 -0.017097963648141028 -0.035510211821606109 0 -0.016622002437238485 -0.03478388573387961 0 -0.016653706489106818 -0.034733246039104444 0 -0.01650348869511499 -0.03461366338493823 0 -0.016368966958442786 -0.034603966507119319 0 -0.016382463591515874 -0.034649421681416236 0 -0.01650348869511499 -0.03461366338493823 0 -0.01642633908114546 -0.034720178347831206 0 -0.016382463591515874 -0.034649421681416236 0 -0.01650348869511499 -0.03461366338493823 0 -0.014833183183868105 -0.037161640318433865 0 -0.017090693326694648 -0.034884462084790166 0 -0.017148379854676769 -0.035642914292948844 0 -0.017097963648141028 -0.035510211821606109 0 -0.017042836409791429 -0.035670521496487535 0 -0.014419032312538471 -0.037462541717000523 0 -0.016299692938678292 -0.035988587514502332 0 -0.014440701724267773 -0.036715193579748798 0 -0.014920808219205155 -0.036637478903694412 0 -0.014657692440952405 -0.036306004760819147 0 -0.014419032312538471 -0.037462541717000523 0 -0.014149532885933375 -0.037056481100339773 0 -0.01516049226778979 -0.036177400614531008 0 -0.014920808219205155 -0.036637478903694412 0 -0.014657692440952405 -0.036306004760819147 0 -0.014149532885933375 -0.037056481100339773 0 -0.014708561813509996 -0.036111449339183969 0 -0.013097629811904054 -0.036470767121536546 0 -0.01386432953902665 -0.037586782203841783 0 -0.01468717922273397 -0.03611958720234619 0 -0.01516049226778979 -0.036177400614531008 0 -0.014657692440952405 -0.036306004760819147 0 -0.01468717922273397 -0.03611958720234619 0 -0.01516049226778979 -0.036177400614531008 0 -0.01468717922273397 -0.03611958720234619 0 -0.01517727545416162 -0.03588891789119731 0 -0.01468717922273397 -0.03611958720234619 0 -0.013852041423969516 -0.035738395897179295 0 -0.014704861516066413 -0.035545903427289652 0 -0.01468717922273397 -0.03611958720234619 0 -0.014704861516066413 -0.035545903427289652 0 -0.01517727545416162 -0.03588891789119731 0 -0.013097629811904054 -0.036470767121536546 0 -0.01468717922273397 -0.03611958720234619 0 -0.013852041423969516 -0.035738395897179295 0 -0.013573615343659095 -0.03506306496211517 0 -0.013852041423969516 -0.035738395897179295 0 -0.014704861516066413 -0.035545903427289652 0 -0.013573615343659095 -0.03506306496211517 0 -0.014560647462180056 -0.035033328023672546 0 -0.014704861516066413 -0.035545903427289652 0 -0.014560647462180056 -0.035033328023672546 0 -0.014704861516066413 -0.035545903427289652 0 -0.015032197371793911 -0.035372305069443499 0 -0.014704861516066413 -0.035545903427289652 0 -0.015032197371793911 -0.035372305069443499 0 -0.015443137054760397 -0.035620945814049745 0 -0.014560647462180056 -0.035033328023672546 0 -0.015032197371793911 -0.035372305069443499 0 -0.015098591155447894 -0.035381052267749714 0 -0.015032197371793911 -0.035372305069443499 0 -0.015499216632945949 -0.035498250952365328 0 -0.015098591155447894 -0.035381052267749714 0 -0.015443137054760397 -0.035620945814049745 0 -0.016047306888505773 -0.035650871098084874 0 -0.015859601496980194 -0.035575493194241532 0 -0.015499216632945949 -0.035498250952365328 0 -0.015443137054760397 -0.035620945814049745 0 -0.015859601496980194 -0.035575493194241532 0 -0.015032197371793911 -0.035372305069443499 0 -0.015499216632945949 -0.035498250952365328 0 -0.015443137054760397 -0.035620945814049745 0 -0.015443137054760397 -0.035620945814049745 0 -0.015685950141821191 -0.035841170897922825 0 -0.016047306888505773 -0.035650871098084874 0 -0.015443137054760397 -0.035620945814049745 0 -0.01517727545416162 -0.03588891789119731 0 -0.015685950141821191 -0.035841170897922825 0 -0.014704861516066413 -0.035545903427289652 0 -0.015443137054760397 -0.035620945814049745 0 -0.01517727545416162 -0.03588891789119731 0 -0.01516049226778979 -0.036177400614531008 0 -0.01517727545416162 -0.03588891789119731 0 -0.015685950141821191 -0.035841170897922825 0 -0.015819391687915234 -0.036021069094082703 0 -0.01516049226778979 -0.036177400614531008 0 -0.015685950141821191 -0.035841170897922825 0 -0.015819391687915234 -0.036021069094082703 0 -0.015685950141821191 -0.035841170897922825 0 -0.016223949273500467 -0.035773477820397234 0 -0.015685950141821191 -0.035841170897922825 0 -0.016223949273500467 -0.035773477820397234 0 -0.016047306888505773 -0.035650871098084874 0 -0.016223949273500467 -0.035773477820397234 0 -0.016626171159885014 -0.035520059068140548 0 -0.016047306888505773 -0.035650871098084874 0 -0.016592664577512982 -0.0356306426218111 0 -0.016223949273500467 -0.035773477820397234 0 -0.016626171159885014 -0.035520059068140548 0 -0.016626171159885014 -0.035520059068140548 0 -0.016047306888505773 -0.035650871098084874 0 -0.016305003413750591 -0.035566340484137815 0 -0.016047306888505773 -0.035650871098084874 0 -0.015859601496980194 -0.035575493194241532 0 -0.016305003413750591 -0.035566340484137815 0 -0.015499216632945949 -0.035498250952365328 0 -0.015859601496980194 -0.035575493194241532 0 -0.015950646667893146 -0.035625004377423379 0 -0.015499216632945949 -0.035498250952365328 0 -0.015950646667893146 -0.035625004377423379 0 -0.015478360011459507 -0.035664654635867925 0 -0.015950646667893146 -0.035625004377423379 0 -0.016305003413750591 -0.035566340484137815 0 -0.016474598077776327 -0.035594679603021609 0 -0.015859601496980194 -0.035575493194241532 0 -0.015950646667893146 -0.035625004377423379 0 -0.016305003413750591 -0.035566340484137815 0 -0.016305003413750591 -0.035566340484137815 0 -0.01680002370637388 -0.035473449927982445 0 -0.016474598077776327 -0.035594679603021609 0 -0.01680002370637388 -0.035473449927982445 0 -0.016474598077776327 -0.035594679603021609 0 -0.016889137220726016 -0.03558135037506456 0 -0.015950646667893146 -0.035625004377423379 0 -0.016474598077776327 -0.035594679603021609 0 -0.016387367522026058 -0.035810169545217992 0 -0.016474598077776327 -0.035594679603021609 0 -0.016889137220726016 -0.03558135037506456 0 -0.016387367522026058 -0.035810169545217992 0 -0.017225198756320607 -0.035383646406897125 0 -0.01680002370637388 -0.035473449927982445 0 -0.016889137220726016 -0.03558135037506456 0 -0.017225198756320607 -0.035383646406897125 0 -0.01680002370637388 -0.035473449927982445 0 -0.017148065852598631 -0.035287586767997224 0 -0.017543530739044969 -0.035152945805345899 0 -0.017225198756320607 -0.035383646406897125 0 -0.017148065852598631 -0.035287586767997224 0 -0.016626171159885014 -0.035520059068140548 0 -0.016305003413750591 -0.035566340484137815 0 -0.01680002370637388 -0.035473449927982445 0 -0.016626171159885014 -0.035520059068140548 0 -0.01680002370637388 -0.035473449927982445 0 -0.017148065852598631 -0.035287586767997224 0 -0.016979657274244983 -0.035344369319969211 0 -0.016626171159885014 -0.035520059068140548 0 -0.017148065852598631 -0.035287586767997224 0 -0.017518838864956067 -0.035031998409161151 0 -0.016979657274244983 -0.035344369319969211 0 -0.017148065852598631 -0.035287586767997224 0 -0.017543530739044969 -0.035152945805345899 0 -0.017518838864956067 -0.035031998409161151 0 -0.017148065852598631 -0.035287586767997224 0 -0.016330780559699689 -0.03591934257014151 0 -0.016853041220672365 -0.035915999644358619 0 -0.016966440818659865 -0.035862405608882507 0 -0.016330780559699689 -0.03591934257014151 0 -0.016173731844203114 -0.035938152846734642 0 -0.015372152298288146 -0.035920152637778494 0 -0.016330780559699689 -0.03591934257014151 0 -0.016173731844203114 -0.035938152846734642 0 -0.016853041220672365 -0.035915999644358619 0 -0.016173731844203114 -0.035938152846734642 0 -0.016853041220672365 -0.035915999644358619 0 -0.016387367522026058 -0.035810169545217992 0 -0.017043684602556956 -0.035785515655169312 0 -0.016853041220672365 -0.035915999644358619 0 -0.016387367522026058 -0.035810169545217992 0 -0.017052368841361996 -0.035674625328595291 0 -0.016889137220726016 -0.03558135037506456 0 -0.016387367522026058 -0.035810169545217992 0 -0.017052368841361996 -0.035674625328595291 0 -0.017043684602556956 -0.035785515655169312 0 -0.016387367522026058 -0.035810169545217992 0 -0.016173731844203114 -0.035938152846734642 0 -0.016387367522026058 -0.035810169545217992 0 -0.015749175491423073 -0.035865785731754037 0 -0.015749175491423073 -0.035865785731754037 0 -0.015106201864057115 -0.035992082343359752 0 -0.015475786498230195 -0.035972758735896351 0 -0.015950646667893146 -0.035625004377423379 0 -0.015749175491423073 -0.035865785731754037 0 -0.015478360011459507 -0.035664654635867925 0 -0.015950646667893146 -0.035625004377423379 0 -0.016387367522026058 -0.035810169545217992 0 -0.015749175491423073 -0.035865785731754037 0 -0.015749175491423073 -0.035865785731754037 0 -0.015478360011459507 -0.035664654635867925 0 -0.015106201864057115 -0.035992082343359752 0 -0.015106201864057115 -0.035992082343359752 0 -0.014783523209419643 -0.036022244416098886 0 -0.014633235120308216 -0.03622953124882887 0 -0.015106201864057115 -0.035992082343359752 0 -0.015475786498230195 -0.035972758735896351 0 -0.014783523209419643 -0.036022244416098886 0 -0.016173731844203114 -0.035938152846734642 0 -0.015749175491423073 -0.035865785731754037 0 -0.015475786498230195 -0.035972758735896351 0 -0.016173731844203114 -0.035938152846734642 0 -0.015475786498230195 -0.035972758735896351 0 -0.015372152298288146 -0.035920152637778494 0 -0.015475786498230195 -0.035972758735896351 0 -0.014783523209419643 -0.036022244416098886 0 -0.015372152298288146 -0.035920152637778494 0 -0.014783523209419643 -0.036022244416098886 0 -0.014334406459451429 -0.035818898115744527 0 -0.015372152298288146 -0.035920152637778494 0 -0.014783523209419643 -0.036022244416098886 0 -0.01352908078390681 -0.035808129104724508 0 -0.014334406459451429 -0.035818898115744527 0 -0.01352908078390681 -0.035808129104724508 0 -0.012454800577417833 -0.036222204331178724 0 -0.0119783569153325 -0.035493457650271704 0 -0.014633235120308216 -0.03622953124882887 0 -0.012639805046991845 -0.037581011018626473 0 -0.012454800577417833 -0.036222204331178724 0 -0.01352908078390681 -0.035808129104724508 0 -0.014633235120308216 -0.03622953124882887 0 -0.012454800577417833 -0.036222204331178724 0 -0.014783523209419643 -0.036022244416098886 0 -0.01352908078390681 -0.035808129104724508 0 -0.014633235120308216 -0.03622953124882887 0 -0.015106201864057115 -0.035992082343359752 0 -0.014633235120308216 -0.03622953124882887 0 -0.015098591155447894 -0.035381052267749714 0 -0.015478360011459507 -0.035664654635867925 0 -0.015106201864057115 -0.035992082343359752 0 -0.015098591155447894 -0.035381052267749714 0 -0.015499216632945949 -0.035498250952365328 0 -0.015478360011459507 -0.035664654635867925 0 -0.015098591155447894 -0.035381052267749714 0 -0.014560647462180056 -0.035033328023672546 0 -0.015098591155447894 -0.035381052267749714 0 -0.014936384104594283 -0.035188391026943031 0 -0.014633235120308216 -0.03622953124882887 0 -0.015098591155447894 -0.035381052267749714 0 -0.014936384104594283 -0.035188391026943031 0 -0.014506169727145196 -0.036249637745206217 0 -0.013722870926579972 -0.036379046651399329 0 -0.012639805046991845 -0.037581011018626473 0 -0.010817728316010808 -0.038206691068684386 0 -0.010818128008663485 -0.036832208069908459 0 -0.013722870926579972 -0.036379046651399329 0 -0.012457899803573128 -0.036377667316926363 0 -0.014560647462180056 -0.035033328023672546 0 -0.014936384104594283 -0.035188391026943031 0 -0.014149555923856487 -0.034540703227764528 0 -0.013573615343659095 -0.03506306496211517 0 -0.014560647462180056 -0.035033328023672546 0 -0.014149555923856487 -0.034540703227764528 0 -0.010817728316010808 -0.038206691068684386 0 -0.010818128008663485 -0.036832208069908459 0 -0.0092803740510242153 -0.037429058692971987 0 -0.010818128008663485 -0.036832208069908459 0 -0.011152381088508745 -0.036026181847136816 0 -0.010091411862700829 -0.036002125210529923 0 -0.012639805046991845 -0.037581011018626473 0 -0.010818128008663485 -0.036832208069908459 0 -0.012454800577417833 -0.036222204331178724 0 -0.010818128008663485 -0.036832208069908459 0 -0.012454800577417833 -0.036222204331178724 0 -0.011152381088508745 -0.036026181847136816 0 -0.012454800577417833 -0.036222204331178724 0 -0.011152381088508745 -0.036026181847136816 0 -0.0119783569153325 -0.035493457650271704 0 -0.011152381088508745 -0.036026181847136816 0 -0.010783028310533434 -0.035441734480465822 0 -0.0119783569153325 -0.035493457650271704 0 -0.011152381088508745 -0.036026181847136816 0 -0.010783028310533434 -0.035441734480465822 0 -0.010091411862700829 -0.036002125210529923 0 -0.011224536223582413 -0.034875960839758184 0 -0.010783028310533434 -0.035441734480465822 0 -0.0119783569153325 -0.035493457650271704 0 -0.011224536223582413 -0.034875960839758184 0 -0.010783028310533434 -0.035441734480465822 0 -0.010366927264971383 -0.034961158271813481 0 -0.0119783569153325 -0.035493457650271704 0 -0.011990096701308102 -0.035023139466370375 0 -0.012714182453244367 -0.035410600897025087 0 -0.011224536223582413 -0.034875960839758184 0 -0.0119783569153325 -0.035493457650271704 0 -0.011990096701308102 -0.035023139466370375 0 -0.010860558791717696 -0.035014085781202998 0 -0.012200429835776135 -0.035486088420543224 0 -0.011990096701308102 -0.035023139466370375 0 -0.011240155181530756 -0.033949714475593563 0 -0.012434437581000126 -0.035515024528445169 0 -0.011224536223582413 -0.034875960839758184 0 -0.011240155181530756 -0.033949714475593563 0 -0.010661690984156235 -0.034332335974493831 0 -0.011224536223582413 -0.034875960839758184 0 -0.011990096701308102 -0.035023139466370375 0 -0.011240155181530756 -0.033949714475593563 0 -0.011224536223582413 -0.034875960839758184 0 -0.010661690984156235 -0.034332335974493831 0 -0.010366927264971383 -0.034961158271813481 0 -0.0094328320776436991 -0.036292987004617201 0 -0.010973673322192613 -0.035797324295775597 0 -0.010373748556498983 -0.036281184890371673 0 -0.0099711922428065095 -0.035916379764009174 0 -0.011090045398142455 -0.035724564387432441 0 -0.0090374449447066848 -0.036575067167878311 0 -0.0090948254125406101 -0.035615609830641028 0 -0.011090045398142455 -0.035724564387432441 0 -0.0095407323917026197 -0.034999620252310119 0 -0.0090948254125406101 -0.035615609830641028 0 -0.0077252491173535384 -0.034999874552565868 0 -0.0095407323917026197 -0.034999620252310119 0 -0.0090948254125406101 -0.035615609830641028 0 -0.011090045398142455 -0.035724564387432441 0 -0.0095407323917026197 -0.034999620252310119 0 -0.011090045398142455 -0.035724564387432441 0 -0.011356281481068091 -0.034999447466177738 0 -0.010373748556498983 -0.036281184890371673 0 -0.011090045398142455 -0.035724564387432441 0 -0.012434437581000126 -0.035515024528445169 0 -0.011090045398142455 -0.035724564387432441 0 -0.012294513140664457 -0.035407216297077819 0 -0.012434437581000126 -0.035515024528445169 0 -0.011090045398142455 -0.035724564387432441 0 -0.012294513140664457 -0.035407216297077819 0 -0.011356281481068091 -0.034999447466177738 0 -0.012294513140664457 -0.035407216297077819 0 -0.013455998135821663 -0.035503188544461932 0 -0.013170951180140085 -0.034999477741151204 0 -0.012294513140664457 -0.035407216297077819 0 -0.011356281481068091 -0.034999447466177738 0 -0.013170951180140085 -0.034999477741151204 0 -0.012294513140664457 -0.035407216297077819 0 -0.013455998135821663 -0.035503188544461932 0 -0.012434437581000126 -0.035515024528445169 0 -0.013455998135821663 -0.035503188544461932 0 -0.013459053234905347 -0.035603562594135364 0 -0.014382691999076592 -0.035681317432146149 0 -0.013455998135821663 -0.035503188544461932 0 -0.013459053234905347 -0.035603562594135364 0 -0.012434437581000126 -0.035515024528445169 0 -0.013459053234905347 -0.035603562594135364 0 -0.012434437581000126 -0.035515024528445169 0 -0.012714182453244367 -0.035410600897025087 0 -0.011990096701308102 -0.035023139466370375 0 -0.012434437581000126 -0.035515024528445169 0 -0.012714182453244367 -0.035410600897025087 0 -0.01352908078390681 -0.035808129104724508 0 -0.0119783569153325 -0.035493457650271704 0 -0.012714182453244367 -0.035410600897025087 0 -0.01352908078390681 -0.035808129104724508 0 -0.013459053234905347 -0.035603562594135364 0 -0.012714182453244367 -0.035410600897025087 0 -0.01352908078390681 -0.035808129104724508 0 -0.013459053234905347 -0.035603562594135364 0 -0.014334406459451429 -0.035818898115744527 0 -0.013459053234905347 -0.035603562594135364 0 -0.014334406459451429 -0.035818898115744527 0 -0.014382691999076592 -0.035681317432146149 0 -0.014334406459451429 -0.035818898115744527 0 -0.015372152298288146 -0.035920152637778494 0 -0.014382691999076592 -0.035681317432146149 0 -0.015372152298288146 -0.035920152637778494 0 -0.015205064403260412 -0.035640978674457605 0 -0.014382691999076592 -0.035681317432146149 0 -0.015372152298288146 -0.035920152637778494 0 -0.015205064403260412 -0.035640978674457605 0 -0.016098579152459044 -0.035789734025841707 0 -0.013455998135821663 -0.035503188544461932 0 -0.014382691999076592 -0.035681317432146149 0 -0.014499395645987222 -0.035402977399921758 0 -0.013455998135821663 -0.035503188544461932 0 -0.013170951180140085 -0.034999477741151204 0 -0.014499395645987222 -0.035402977399921758 0 -0.013170951180140085 -0.034999477741151204 0 -0.014985965955107546 -0.034999364874315216 0 -0.014499395645987222 -0.035402977399921758 0 -0.014985965955107546 -0.034999364874315216 0 -0.014499395645987222 -0.035402977399921758 0 -0.015824701267815364 -0.035403570175909449 0 -0.015205064403260412 -0.035640978674457605 0 -0.014382691999076592 -0.035681317432146149 0 -0.014499395645987222 -0.035402977399921758 0 -0.015205064403260412 -0.035640978674457605 0 -0.014499395645987222 -0.035402977399921758 0 -0.015824701267815364 -0.035403570175909449 0 -0.015824701267815364 -0.035403570175909449 0 -0.016810974958696288 -0.035613621233735272 0 -0.016098579152459044 -0.035789734025841707 0 -0.014985965955107546 -0.034999364874315216 0 -0.015824701267815364 -0.035403570175909449 0 -0.016800555484754072 -0.034999593686036966 0 -0.017850926952921831 -0.035429285784028361 0 -0.016800555484754072 -0.034999593686036966 0 -0.016810974958696288 -0.035613621233735272 0 -0.015824701267815364 -0.035403570175909449 0 -0.016800555484754072 -0.034999593686036966 0 -0.016810974958696288 -0.035613621233735272 0 -0.016810974958696288 -0.035613621233735272 0 -0.016098579152459044 -0.035789734025841707 0 -0.016966440818659865 -0.035862405608882507 0 -0.015205064403260412 -0.035640978674457605 0 -0.015824701267815364 -0.035403570175909449 0 -0.016098579152459044 -0.035789734025841707 0 -0.016330780559699689 -0.03591934257014151 0 -0.015372152298288146 -0.035920152637778494 0 -0.016098579152459044 -0.035789734025841707 0 -0.016330780559699689 -0.03591934257014151 0 -0.016098579152459044 -0.035789734025841707 0 -0.016966440818659865 -0.035862405608882507 0 -0.0025278370618571251 -0.03933787556910464 0 -0.001884034837331806 -0.038866438111206734 0 -0.0024506707662704905 -0.040374508051788605 0 -0.0045371875316222903 -0.037685966683239584 0 -0.0018884434011870027 -0.037616350735743771 0 -0.0025278370618571251 -0.03933787556910464 0 -0.003199983550763898 -0.039016172283879033 0 -0.0024506707662704905 -0.040374508051788605 0 -0.0056297321525395384 -0.036740630340294178 0 -0.0055763025538133979 -0.0361145091646261 0 -0.005019213892074291 -0.036987354429680229 0 -0.0056297321525395384 -0.036740630340294178 0 -0.0060916820469488851 -0.036672238433350053 0 -0.0062273693447238727 -0.037075741702741222 0 -0.0060916820469488851 -0.036672238433350053 0 -0.0058107667742439096 -0.036138320261974638 0 -0.0063998043634517481 -0.036386599701812489 0 -0.0056297321525395384 -0.036740630340294178 0 -0.0060916820469488851 -0.036672238433350053 0 -0.0058107667742439096 -0.036138320261974638 0 -0.0056297321525395384 -0.036740630340294178 0 -0.0055763025538133979 -0.0361145091646261 0 -0.0058107667742439096 -0.036138320261974638 0 -0.0055763025538133979 -0.0361145091646261 0 -0.0058107667742439096 -0.036138320261974638 0 -0.0058946128310186632 -0.03569080377081451 0 -0.003199983550763898 -0.039016172283879033 0 -0.0031832959565671571 -0.038297080315077787 0 -0.0038989675926794833 -0.037889328916532634 0 -0.0045371875316222903 -0.037685966683239584 0 -0.0049214511836680481 -0.036715631708567793 0 -0.003199983550763898 -0.039016172283879033 0 -0.0026524438067603686 -0.0386385574917983 0 -0.0031832959565671571 -0.038297080315077787 0 -0.0026524438067603686 -0.0386385574917983 0 -0.0023010812980829094 -0.03817229087598896 0 -0.0028048123606587128 -0.038085691360578308 0 -0.0026524438067603686 -0.0386385574917983 0 -0.0028048123606587128 -0.038085691360578308 0 -0.0031832959565671571 -0.038297080315077787 0 -0.0025278370618571251 -0.03933787556910464 0 -0.003199983550763898 -0.039016172283879033 0 -0.0026524438067603686 -0.0386385574917983 0 -0.0025278370618571251 -0.03933787556910464 0 -0.0026524438067603686 -0.0386385574917983 0 -0.001884034837331806 -0.038866438111206734 0 -0.0026524438067603686 -0.0386385574917983 0 -0.001884034837331806 -0.038866438111206734 0 -0.0023010812980829094 -0.03817229087598896 0 -0.0010582351112568926 -0.038383963836213925 0 -0.001884034837331806 -0.038866438111206734 0 -0.0015620052595829981 -0.037760261105340261 0 -0.0010582351112568926 -0.038383963836213925 0 -0.001884034837331806 -0.038866438111206734 0 -0.00064508111305631793 -0.039492140915226917 0 -0.001884034837331806 -0.038866438111206734 0 -0.0023010812980829094 -0.03817229087598896 0 -0.0015620052595829981 -0.037760261105340261 0 -0.0010582351112568926 -0.038383963836213925 0 -0.00064508111305631793 -0.039492140915226917 0 1.8014137322010569e-07 -0.037461902035168144 0 -0.00064508111305631793 -0.039492140915226917 0 1.8014137322010569e-07 -0.037461902035168144 0 0.002035813547836429 -0.037734545975563805 0 0.0016222690708791489 -0.037798248577079259 0 0.001808415613356137 -0.038293753086898454 0 0.0022005373964966123 -0.037967654326014823 0 0.0016222690708791489 -0.037798248577079259 0 0.0014028379721700876 -0.038187734813958318 0 0.00095025310741526589 -0.038075382857373441 0 0.00068117405540148201 -0.038840484961137539 0 -0.0018884434011870027 -0.037616350735743771 0 -0.001884034837331806 -0.038866438111206734 0 -0.00064508111305631793 -0.039492140915226917 0 -0.0024506707662704905 -0.040374508051788605 0 0.0014028379721700876 -0.038187734813958318 0 0.0012261221855042433 -0.038590735130032042 0 0.00095025310741526589 -0.038075382857373441 0 0.000784850941661061 -0.037748610643993145 0 -0.0018884434011870027 -0.037616350735743771 0 0.0016222690708791489 -0.037798248577079259 0 0.0014028379721700876 -0.038187734813958318 0 0.001808415613356137 -0.038293753086898454 0 0.0014028379721700876 -0.038187734813958318 0 0.001808415613356137 -0.038293753086898454 0 0.0012261221855042433 -0.038590735130032042 0 0.001808415613356137 -0.038293753086898454 0 0.0016996786106847151 -0.038705670602367147 0 0.0012261221855042433 -0.038590735130032042 0 -7.8055615647375538e-05 -0.03713854979704706 0 -0.0018876903584888413 -0.037617075370737885 0 -0.0012680755423985599 -0.035028264760500583 0 -0.0056297321525395384 -0.036740630340294178 0 -0.0060503012625647348 -0.037480906545667048 0 -0.0062273693447238727 -0.037075741702741222 0 -0.0018884434011870027 -0.037616350735743771 0 -0.0048714863966351982 -0.036657952166182887 0 -0.0056297321525395384 -0.036740630340294178 0 -0.005019213892074291 -0.036987354429680229 0 -0.0060503012625647348 -0.037480906545667048 0 -0.0018876903584888413 -0.037617075370737885 0 -0.0012680755423985599 -0.035028264760500583 0 -0.003321848348582547 -0.036082266628274198 0 -0.0036376249182703164 -0.038272830999947299 0 -0.0018876903584888413 -0.037617075370737885 0 -0.003321848348582547 -0.036082266628274198 0 -0.003321848348582547 -0.036082266628274198 0 -0.0048474127176833422 -0.037928253315496686 0 -0.0062402298301771257 -0.037804758498009502 0 -0.0060503012625647348 -0.037480906545667048 0 -0.0062402298301771257 -0.037804758498009502 0 -0.0065663144465377037 -0.03736186375016249 0 -0.0048714863966351982 -0.036657952166182887 0 -0.0061117542625411031 -0.037751956792461829 0 -0.0036376249182703164 -0.038272830999947299 0 -0.003321848348582547 -0.036082266628274198 0 -0.0048474127176833422 -0.037928253315496686 0 -0.0059762173564612544 -0.038412979399931789 0 -0.0048474127176833422 -0.037928253315496686 0 -0.0062402298301771257 -0.037804758498009502 0 -0.0062402298301771257 -0.037804758498009502 0 -0.0067854985097750061 -0.037604763429418687 0 -0.0065663144465377037 -0.03736186375016249 0 -0.0059762173564612544 -0.038412979399931789 0 -0.0062402298301771257 -0.037804758498009502 0 -0.0065992066307983266 -0.038029323141973402 0 -0.0062402298301771257 -0.037804758498009502 0 -0.0065992066307983266 -0.038029323141973402 0 -0.0069128403196253184 -0.037853783370493034 0 -0.0092663500277100751 -0.036166444153389994 0 -0.007656379328346518 -0.03742507756281703 0 -0.0059762173564612544 -0.038412979399931789 0 -0.0065992066307983266 -0.038029323141973402 0 -0.0071887315148726786 -0.038080489646487983 0 -0.0069809651653278916 -0.038965558094402698 0 -0.0071887315148726786 -0.038080489646487983 0 -0.0080500396261722704 -0.038212720618230687 0 -0.0065992066307983266 -0.038029323141973402 0 -0.0071887315148726786 -0.038080489646487983 0 -0.0069128403196253184 -0.037853783370493034 0 -0.0073920154341055129 -0.037971068625328612 0 -0.0069128403196253184 -0.037853783370493034 0 -0.0071828819252399067 -0.037700676087419685 0 -0.0071887315148726786 -0.038080489646487983 0 -0.0073920154341055129 -0.037971068625328612 0 -0.0069128403196253184 -0.037853783370493034 0 -0.0069128403196253184 -0.037853783370493034 0 -0.0071828819252399067 -0.037700676087419685 0 -0.0067854985097750061 -0.037604763429418687 0 -0.0073920154341055129 -0.037971068625328612 0 -0.0071828819252399067 -0.037700676087419685 0 -0.007682207219918925 -0.037709569673351317 0 -0.0062402298301771257 -0.037804758498009502 0 -0.0069128403196253184 -0.037853783370493034 0 -0.0067854985097750061 -0.037604763429418687 0 -0.0067854985097750061 -0.037604763429418687 0 -0.0071804293471372654 -0.037421785395050387 0 -0.0065663144465377037 -0.03736186375016249 0 -0.0071828819252399067 -0.037700676087419685 0 -0.0071804293471372654 -0.037421785395050387 0 -0.007682207219918925 -0.037709569673351317 0 -0.0071828819252399067 -0.037700676087419685 0 -0.0067854985097750061 -0.037604763429418687 0 -0.0071804293471372654 -0.037421785395050387 0 -0.0071804293471372654 -0.037421785395050387 0 -0.0081055502731937137 -0.037308618873973264 0 -0.0072636832846339171 -0.036888365580820696 0 -0.0071804293471372654 -0.037421785395050387 0 -0.0065663144465377037 -0.03736186375016249 0 -0.0072636832846339171 -0.036888365580820696 0 -0.0062273693447238727 -0.037075741702741222 0 -0.0065663144465377037 -0.03736186375016249 0 -0.006513169599456972 -0.03678225637700356 0 -0.0065663144465377037 -0.03736186375016249 0 -0.006513169599456972 -0.03678225637700356 0 -0.0072636832846339171 -0.036888365580820696 0 -0.0060503012625647348 -0.037480906545667048 0 -0.0062273693447238727 -0.037075741702741222 0 -0.0065663144465377037 -0.03736186375016249 0 -0.012457899803573128 -0.036377667316926363 0 -0.010917613209505999 -0.036506012607878807 0 -0.013573615343659095 -0.03506306496211517 0 -0.014149555923856487 -0.034540703227764528 0 -0.012897641940128409 -0.03430213936021035 0 -0.010817728316010808 -0.038206691068684386 0 -0.008989203365674733 -0.038555316766818309 0 -0.0092803740510242153 -0.037429058692971987 0 -0.0092663500277100751 -0.036166444153389994 0 -0.010917613209505999 -0.036506012607878807 0 -0.0069809651653278916 -0.038965558094402698 0 -0.008989203365674733 -0.038555316766818309 0 -0.0080500396261722704 -0.038212720618230687 0 -0.008989203365674733 -0.038555316766818309 0 -0.0080500396261722704 -0.038212720618230687 0 -0.0084317208274441273 -0.037811370304256971 0 -0.0073920154341055129 -0.037971068625328612 0 -0.0080500396261722704 -0.038212720618230687 0 -0.007682207219918925 -0.037709569673351317 0 -0.0080500396261722704 -0.038212720618230687 0 -0.007682207219918925 -0.037709569673351317 0 -0.0084317208274441273 -0.037811370304256971 0 -0.0071887315148726786 -0.038080489646487983 0 -0.0073920154341055129 -0.037971068625328612 0 -0.0080500396261722704 -0.038212720618230687 0 -0.007682207219918925 -0.037709569673351317 0 -0.0081055502731937137 -0.037308618873973264 0 -0.0084317208274441273 -0.037811370304256971 0 -0.0071804293471372654 -0.037421785395050387 0 -0.007682207219918925 -0.037709569673351317 0 -0.0081055502731937137 -0.037308618873973264 0 -0.0081055502731937137 -0.037308618873973264 0 -0.0092803740510242153 -0.037429058692971987 0 -0.0083903997313397594 -0.03674341630514559 0 -0.0081055502731937137 -0.037308618873973264 0 -0.0084317208274441273 -0.037811370304256971 0 -0.0092803740510242153 -0.037429058692971987 0 -0.008989203365674733 -0.038555316766818309 0 -0.0084317208274441273 -0.037811370304256971 0 -0.0092803740510242153 -0.037429058692971987 0 -0.010818128008663485 -0.036832208069908459 0 -0.0094798070505616311 -0.036569987096196549 0 -0.010091411862700829 -0.036002125210529923 0 -0.010818128008663485 -0.036832208069908459 0 -0.0092803740510242153 -0.037429058692971987 0 -0.0094798070505616311 -0.036569987096196549 0 -0.0092803740510242153 -0.037429058692971987 0 -0.0094798070505616311 -0.036569987096196549 0 -0.0083903997313397594 -0.03674341630514559 0 -0.0083903997313397594 -0.03674341630514559 0 -0.0086796360428239381 -0.035887760038456555 0 -0.0076962319557827945 -0.036447466781371264 0 -0.0094798070505616311 -0.036569987096196549 0 -0.0083903997313397594 -0.03674341630514559 0 -0.0086796360428239381 -0.035887760038456555 0 -0.0081055502731937137 -0.037308618873973264 0 -0.0083903997313397594 -0.03674341630514559 0 -0.0072636832846339171 -0.036888365580820696 0 -0.0081396824456430577 -0.035445042589151647 0 -0.0086796360428239381 -0.035887760038456555 0 -0.007597110200129654 -0.03591184238550256 0 -0.0081396824456430577 -0.035445042589151647 0 -0.0086796360428239381 -0.035887760038456555 0 -0.0087830736585356676 -0.035232072943645817 0 -0.0086796360428239381 -0.035887760038456555 0 -0.0096588970898653925 -0.035341955051978798 0 -0.0087830736585356676 -0.035232072943645817 0 -0.0094798070505616311 -0.036569987096196549 0 -0.0086796360428239381 -0.035887760038456555 0 -0.010091411862700829 -0.036002125210529923 0 -0.0086796360428239381 -0.035887760038456555 0 -0.010091411862700829 -0.036002125210529923 0 -0.0096588970898653925 -0.035341955051978798 0 -0.010783028310533434 -0.035441734480465822 0 -0.010091411862700829 -0.036002125210529923 0 -0.0096588970898653925 -0.035341955051978798 0 -0.0063998043634517481 -0.036386599701812489 0 -0.0070126936647082003 -0.036401718511798999 0 -0.0067803377666196133 -0.035898653902674431 0 -0.0063998043634517481 -0.036386599701812489 0 -0.006513169599456972 -0.03678225637700356 0 -0.0070126936647082003 -0.036401718511798999 0 -0.0060916820469488851 -0.036672238433350053 0 -0.0063998043634517481 -0.036386599701812489 0 -0.006513169599456972 -0.03678225637700356 0 -0.0060916820469488851 -0.036672238433350053 0 -0.0062273693447238727 -0.037075741702741222 0 -0.006513169599456972 -0.03678225637700356 0 -0.006513169599456972 -0.03678225637700356 0 -0.0072636832846339171 -0.036888365580820696 0 -0.0070126936647082003 -0.036401718511798999 0 -0.0083903997313397594 -0.03674341630514559 0 -0.0072636832846339171 -0.036888365580820696 0 -0.0076962319557827945 -0.036447466781371264 0 -0.0072636832846339171 -0.036888365580820696 0 -0.0076962319557827945 -0.036447466781371264 0 -0.0070126936647082003 -0.036401718511798999 0 -0.0076962319557827945 -0.036447466781371264 0 -0.0070126936647082003 -0.036401718511798999 0 -0.007597110200129654 -0.03591184238550256 0 -0.0070126936647082003 -0.036401718511798999 0 -0.007597110200129654 -0.03591184238550256 0 -0.0067803377666196133 -0.035898653902674431 0 -0.0086796360428239381 -0.035887760038456555 0 -0.0076962319557827945 -0.036447466781371264 0 -0.007597110200129654 -0.03591184238550256 0 -0.0081396824456430577 -0.035445042589151647 0 -0.007597110200129654 -0.03591184238550256 0 -0.007440209596604094 -0.035375250008019582 0 -0.007597110200129654 -0.03591184238550256 0 -0.007440209596604094 -0.035375250008019582 0 -0.0067803377666196133 -0.035898653902674431 0 -0.007440209596604094 -0.035375250008019582 0 -0.0068028054819026977 -0.035432637599249743 0 -0.0067803377666196133 -0.035898653902674431 0 -0.0058107667742439096 -0.036138320261974638 0 -0.0068028054819026977 -0.035432637599249743 0 -0.0067260732491422103 -0.034848193336418504 0 -0.0058092335595824034 -0.036153635144285552 0 -0.0064755066745781934 -0.035112965864403017 0 -0.0058107667742439096 -0.036138320261974638 0 -0.0063998043634517481 -0.036386599701812489 0 -0.0067803377666196133 -0.035898653902674431 0 -0.0058107667742439096 -0.036138320261974638 0 -0.0068028054819026977 -0.035432637599249743 0 -0.0067803377666196133 -0.035898653902674431 0 -0.0061137709633900719 -0.035674735930601317 0 -0.0061204321870498932 -0.035335870452106469 0 -0.0058946128310186632 -0.03569080377081451 0 -0.0058107667742439096 -0.036138320261974638 0 -0.0061137709633900719 -0.035674735930601317 0 -0.0058946128310186632 -0.03569080377081451 0 -0.0068028054819026977 -0.035432637599249743 0 -0.0067260732491422103 -0.034848193336418504 0 -0.0073555897092895499 -0.034898507985831363 0 -0.007440209596604094 -0.035375250008019582 0 -0.0068028054819026977 -0.035432637599249743 0 -0.0073555897092895499 -0.034898507985831363 0 -0.007440209596604094 -0.035375250008019582 0 -0.0081458653172412684 -0.034828979704127835 0 -0.0073555897092895499 -0.034898507985831363 0 -0.0081396824456430577 -0.035445042589151647 0 -0.007440209596604094 -0.035375250008019582 0 -0.0081458653172412684 -0.034828979704127835 0 -0.0081458653172412684 -0.034828979704127835 0 -0.0073555897092895499 -0.034898507985831363 0 -0.0076832104844227131 -0.034323955906578572 0 -0.0067260732491422103 -0.034848193336418504 0 -0.0073555897092895499 -0.034898507985831363 0 -0.0076832104844227131 -0.034323955906578572 0 -0.0067260732491422103 -0.034848193336418504 0 -0.0076832104844227131 -0.034323955906578572 0 -0.0077665738276965204 -0.03349509765785956 0 -0.0064755066745781934 -0.035112965864403017 0 -0.0069621033760734171 -0.03518697610122086 0 -0.0081458653172412684 -0.034828979704127835 0 -0.0076832104844227131 -0.034323955906578572 0 -0.0085112121007083763 -0.034085172400021513 0 -0.0076832104844227131 -0.034323955906578572 0 -0.0077665738276965204 -0.03349509765785956 0 -0.0085112121007083763 -0.034085172400021513 0 -0.0069621033760734171 -0.03518697610122086 0 -0.0052168084730082323 -0.036478428556683783 0 -0.0060569597039245833 -0.037037860854794054 0 -0.0049087242327021559 -0.037209369579876535 0 -0.0052067766001897137 -0.036702365834840142 0 -0.0052168084730082323 -0.036478428556683783 0 -0.0049214511836680481 -0.036715631708567793 0 -0.0061137709633900719 -0.035674735930601317 0 -0.0063935881675971102 -0.035288145143438941 0 -0.0061204321870498932 -0.035335870452106469 0 -0.0046043013361385951 -0.036965642223313722 0 -0.0038479532407752768 -0.037381428241358178 0 -0.0038989675926794833 -0.037889328916532634 0 -0.0052168084730082323 -0.036478428556683783 0 -0.0043114154839331677 -0.036857253059356332 0 -0.0048659810257284395 -0.037072681943876473 0 -0.0041608085287784804 -0.037053633421693467 0 -0.0044618130903014809 -0.036544374266767404 0 -0.0046043013361385951 -0.036965642223313722 0 -0.0041608085287784804 -0.037053633421693467 0 -0.0038479532407752768 -0.037381428241358178 0 -0.010366927264971383 -0.034961158271813481 0 -0.0096588970898653925 -0.035341955051978798 0 -0.0091815430799224388 -0.034694624759901732 0 -0.010366927264971383 -0.034961158271813481 0 -0.0091815430799224388 -0.034694624759901732 0 -0.0099236277146930486 -0.034338554709264044 0 -0.010783028310533434 -0.035441734480465822 0 -0.010366927264971383 -0.034961158271813481 0 -0.0096588970898653925 -0.035341955051978798 0 -0.0081458653172412684 -0.034828979704127835 0 -0.0091815430799224388 -0.034694624759901732 0 -0.0087830736585356676 -0.035232072943645817 0 -0.0096588970898653925 -0.035341955051978798 0 -0.0091815430799224388 -0.034694624759901732 0 -0.0087830736585356676 -0.035232072943645817 0 -0.0081396824456430577 -0.035445042589151647 0 -0.0081458653172412684 -0.034828979704127835 0 -0.0087830736585356676 -0.035232072943645817 0 -0.0081458653172412684 -0.034828979704127835 0 -0.0091815430799224388 -0.034694624759901732 0 -0.0085112121007083763 -0.034085172400021513 0 -0.0077665738276965204 -0.03349509765785956 0 -0.0085112121007083763 -0.034085172400021513 0 -0.0090400593751622845 -0.033296915886606479 0 -0.0085112121007083763 -0.034085172400021513 0 -0.0091609769711621051 -0.034116998994578172 0 -0.0090400593751622845 -0.033296915886606479 0 -0.0091815430799224388 -0.034694624759901732 0 -0.0085112121007083763 -0.034085172400021513 0 -0.0091609769711621051 -0.034116998994578172 0 -0.011240155181530756 -0.033949714475593563 0 -0.010661690984156235 -0.034332335974493831 0 -0.0090400593751622845 -0.033296915886606479 0 -0.010661690984156235 -0.034332335974493831 0 -0.0099236277146930486 -0.034338554709264044 0 -0.0090400593751622845 -0.033296915886606479 0 -0.0091815430799224388 -0.034694624759901732 0 -0.0091609769711621051 -0.034116998994578172 0 -0.0099236277146930486 -0.034338554709264044 0 -0.0091609769711621051 -0.034116998994578172 0 -0.0099236277146930486 -0.034338554709264044 0 -0.0090400593751622845 -0.033296915886606479 0 -0.010661690984156235 -0.034332335974493831 0 -0.010366927264971383 -0.034961158271813481 0 -0.0099236277146930486 -0.034338554709264044 0 -0.010860558791717696 -0.035014085781202998 0 -0.0084726789082921403 -0.035434028225341085 0 -0.0094328320776436991 -0.036292987004617201 0 -0.0084726789082921403 -0.035434028225341085 0 -0.0090374449447066848 -0.036575067167878311 0 -0.0080967979203177848 -0.035943025664743417 0 -0.0075024278059431871 -0.03681914164874283 0 -0.010373748556498983 -0.036281184890371673 0 -0.0099711922428065095 -0.035916379764009174 0 -0.0088187187761331089 -0.036102562013426431 0 -0.0090374449447066848 -0.036575067167878311 0 -0.0090948254125406101 -0.035615609830641028 0 -0.0080967979203177848 -0.035943025664743417 0 -0.0066801673958310328 -0.035767125773721105 0 -0.0082650108340264778 -0.035491517023561438 0 -0.0069751125998117371 -0.035355524371674281 0 -0.0069621033760734171 -0.03518697610122086 0 -0.0084726789082921403 -0.035434028225341085 0 -0.0080967979203177848 -0.035943025664743417 0 -0.0075024278059431871 -0.03681914164874283 0 -0.0071713432237950885 -0.035817572022702575 0 -0.0084726789082921403 -0.035434028225341085 0 -0.0065735432224782436 -0.036283030122801492 0 -0.0075024278059431871 -0.03681914164874283 0 -0.0071713432237950885 -0.035817572022702575 0 -0.0065326408535893356 -0.036711054184881034 0 -0.0070408684319441901 -0.035889305816948817 0 -0.0065735432224782436 -0.036283030122801492 0 -0.0080967979203177848 -0.035943025664743417 0 -0.0071713432237950885 -0.035817572022702575 0 -0.0077252491173535384 -0.034999874552565868 0 -0.0069879146388924845 -0.035859967151742493 0 -0.0077249255633170082 -0.034999989310903527 0 -0.0057142395534086239 -0.034999837562898928 0 -0.0070408684319441901 -0.035889305816948817 0 -0.0077248805673325082 -0.035000178183131225 0 -0.0090948254125406101 -0.035615609830641028 0 -0.0080967979203177848 -0.035943025664743417 0 -0.0077252491173535384 -0.034999874552565868 0 -0.0052926930839793419 -0.036112882545961886 0 -0.0044618130903014809 -0.036544374266767404 0 -0.0041652396189307446 -0.035957682454765535 0 -0.0052926930839793419 -0.036112882545961886 0 -0.0044618130903014809 -0.036544374266767404 0 -0.0052067766001897137 -0.036702365834840142 0 -0.0048659810257284395 -0.037072681943876473 0 -0.0044618130903014809 -0.036544374266767404 0 -0.0052067766001897137 -0.036702365834840142 0 -0.0052168084730082323 -0.036478428556683783 0 -0.0050800336012513094 -0.03678628921552176 0 -0.0052926930839793419 -0.036112882545961886 0 -0.0052067766001897137 -0.036702365834840142 0 -0.0058108957615306198 -0.036642640818348872 0 -0.0060569597039245833 -0.037037860854794054 0 -0.0052067766001897137 -0.036702365834840142 0 -0.0058108957615306198 -0.036642640818348872 0 -0.0069621033760734171 -0.03518697610122086 0 -0.0065735432224782436 -0.036283030122801492 0 -0.0060569597039245833 -0.037037860854794054 0 -0.0058108957615306198 -0.036642640818348872 0 -0.0063075816267206767 -0.036687558052212257 0 -0.0061112463240721874 -0.036385201691246705 0 -0.0065735432224782436 -0.036283030122801492 0 -0.0058108957615306198 -0.036642640818348872 0 -0.0062796209857543068 -0.036710979411274255 0 -0.0061172180693270829 -0.035985442148252035 0 -0.0069879146388924845 -0.035859967151742493 0 -0.0062796209857543068 -0.036710979411274255 0 -0.0061172180693270829 -0.035985442148252035 0 -0.0052926930839793419 -0.036112882545961886 0 -0.0058108957615306198 -0.036642640818348872 0 -0.0061172180693270829 -0.035985442148252035 0 -0.0069879146388924845 -0.035859967151742493 0 -0.0061172180693270829 -0.035985442148252035 0 -0.0057142395534086239 -0.034999837562898928 0 -0.0052926930839793419 -0.036112882545961886 0 -0.0061172180693270829 -0.035985442148252035 0 -0.0057142395534086239 -0.034999837562898928 0 -0.0057142395534086239 -0.034999837562898928 0 -0.0037035420931014452 -0.034999822369076207 0 -0.0041652396189307446 -0.035957682454765535 0 -0.0052926930839793419 -0.036112882545961886 0 -0.0057142395534086239 -0.034999837562898928 0 -0.0041652396189307446 -0.035957682454765535 0 -0.0037035420931014452 -0.034999822369076207 0 -0.0028814669018399665 -0.036097122841765368 0 -0.0041652396189307446 -0.035957682454765535 0 -0.0037035420931014452 -0.034999822369076207 0 -0.0021714523331973412 -0.035649695415148702 0 -0.0016931315807470141 -0.034999795173193876 0 -0.0037035420931014452 -0.034999822369076207 0 -0.0021714523331973412 -0.035649695415148702 0 -0.0028814669018399665 -0.036097122841765368 0 -0.0028814669018399665 -0.036097122841765368 0 -0.0027668293302239946 -0.03687807852199658 0 -0.0015659280025019488 -0.036396355254038129 0 -0.0028814669018399665 -0.036097122841765368 0 -0.0035287625614594162 -0.036592229798619182 0 -0.0027668293302239946 -0.03687807852199658 0 -0.0021714523331973412 -0.035649695415148702 0 -0.0028814669018399665 -0.036097122841765368 0 -0.0015659280025019488 -0.036396355254038129 0 -0.0028814669018399665 -0.036097122841765368 0 -0.0041652396189307446 -0.035957682454765535 0 -0.0035287625614594162 -0.036592229798619182 0 -0.0044618130903014809 -0.036544374266767404 0 -0.0041652396189307446 -0.035957682454765535 0 -0.0035287625614594162 -0.036592229798619182 0 -0.0041608085287784804 -0.037053633421693467 0 -0.0044618130903014809 -0.036544374266767404 0 -0.0035287625614594162 -0.036592229798619182 0 -0.0041608085287784804 -0.037053633421693467 0 -0.0035287625614594162 -0.036592229798619182 0 -0.0036594666339460082 -0.037070559873800903 0 -0.0036594666339460082 -0.037070559873800903 0 -0.0038479532407752768 -0.037381428241358178 0 -0.0032550420093189073 -0.037334431813261099 0 -0.0041608085287784804 -0.037053633421693467 0 -0.0036594666339460082 -0.037070559873800903 0 -0.0038479532407752768 -0.037381428241358178 0 -0.0038479532407752768 -0.037381428241358178 0 -0.0032550420093189073 -0.037334431813261099 0 -0.0033060847197644251 -0.037798785205313774 0 -0.0036594666339460082 -0.037070559873800903 0 -0.0032550420093189073 -0.037334431813261099 0 -0.0027668293302239946 -0.03687807852199658 0 -0.0035287625614594162 -0.036592229798619182 0 -0.0036594666339460082 -0.037070559873800903 0 -0.0027668293302239946 -0.03687807852199658 0 -0.0027668293302239946 -0.03687807852199658 0 -0.0019300213887379419 -0.037094660576022988 0 -0.0015659280025019488 -0.036396355254038129 0 -0.0027668293302239946 -0.03687807852199658 0 -0.0025490974156566321 -0.03758072620253905 0 -0.0019300213887379419 -0.037094660576022988 0 -0.0032550420093189073 -0.037334431813261099 0 -0.0027668293302239946 -0.03687807852199658 0 -0.0025490974156566321 -0.03758072620253905 0 -0.0032550420093189073 -0.037334431813261099 0 -0.0025490974156566321 -0.03758072620253905 0 -0.0033060847197644251 -0.037798785205313774 0 -0.0025490974156566321 -0.03758072620253905 0 -0.0028048123606587128 -0.038085691360578308 0 -0.0033060847197644251 -0.037798785205313774 0 -0.0025490974156566321 -0.03758072620253905 0 -0.0015620052595829981 -0.037760261105340261 0 -0.0019300213887379419 -0.037094660576022988 0 -0.0025490974156566321 -0.03758072620253905 0 -0.0023010812980829094 -0.03817229087598896 0 -0.0015620052595829981 -0.037760261105340261 0 -0.0025490974156566321 -0.03758072620253905 0 -0.0023010812980829094 -0.03817229087598896 0 -0.0028048123606587128 -0.038085691360578308 0 -0.0031832959565671571 -0.038297080315077787 0 -0.0038989675926794833 -0.037889328916532634 0 -0.0033060847197644251 -0.037798785205313774 0 -0.0028048123606587128 -0.038085691360578308 0 -0.0031832959565671571 -0.038297080315077787 0 -0.0033060847197644251 -0.037798785205313774 0 -0.0038479532407752768 -0.037381428241358178 0 -0.0038989675926794833 -0.037889328916532634 0 -0.0033060847197644251 -0.037798785205313774 0 1.8014137322010569e-07 -0.037461902035168144 0 -0.0015620052595829981 -0.037760261105340261 0 -0.001107804635174077 -0.037082151756477597 0 -0.0010582351112568926 -0.038383963836213925 0 1.8014137322010569e-07 -0.037461902035168144 0 -0.0015620052595829981 -0.037760261105340261 0 -0.0015620052595829981 -0.037760261105340261 0 -0.001107804635174077 -0.037082151756477597 0 -0.0019300213887379419 -0.037094660576022988 0 -0.001107804635174077 -0.037082151756477597 0 -0.00045210861865023646 -0.036699204899450007 0 -0.0015659280025019488 -0.036396355254038129 0 -0.001107804635174077 -0.037082151756477597 0 -0.0019300213887379419 -0.037094660576022988 0 -0.0015659280025019488 -0.036396355254038129 0 1.8014137322010569e-07 -0.037461902035168144 0 -0.001107804635174077 -0.037082151756477597 0 -0.00045210861865023646 -0.036699204899450007 0 -0.00071215747218317043 -0.036158705044564997 0 -0.0011022858811174413 -0.035658208972021911 0 0.0001721646106380273 -0.035921471184569072 0 -0.00045210861865023646 -0.036699204899450007 0 -0.00071215747218317043 -0.036158705044564997 0 0.0001721646106380273 -0.035921471184569072 0 -0.00045210861865023646 -0.036699204899450007 0 -0.00071215747218317043 -0.036158705044564997 0 -0.0015659280025019488 -0.036396355254038129 0 -0.00071215747218317043 -0.036158705044564997 0 -0.0015659280025019488 -0.036396355254038129 0 -0.0011022858811174413 -0.035658208972021911 0 -0.0021714523331973412 -0.035649695415148702 0 -0.0015659280025019488 -0.036396355254038129 0 -0.0011022858811174413 -0.035658208972021911 0 -0.0021714523331973412 -0.035649695415148702 0 -0.0011022858811174413 -0.035658208972021911 0 -0.0016931315807470141 -0.034999795173193876 0 -0.0011022858811174413 -0.035658208972021911 0 -0.0016931315807470141 -0.034999795173193876 0 0.00031736822210716198 -0.034999949364144557 0 -0.0011022858811174413 -0.035658208972021911 0 0.00031736822210716198 -0.034999949364144557 0 0.00062493135607185062 -0.036231260389950677 0 -0.00093889730601540264 -0.035688721711338363 0 0.00022264262415667643 -0.036101534881270457 0 0.00031736822210716198 -0.034999949364144557 0 0.0016547249625545666 -0.035858505293918604 0 0.00062493135607185062 -0.036231260389950677 0 0.00031736822210716198 -0.034999949364144557 0 0.0016547249625545666 -0.035858505293918604 0 0.0023280721528492741 -0.034999993683647999 0 0.0016547249625545666 -0.035858505293918604 0 0.00062493135607185062 -0.036231260389950677 0 0.0023486480691481655 -0.036708902168820098 0 0.00022264262415667643 -0.036101534881270457 0 0.0025891947783772758 -0.036003795232744655 0 0.0001721646106380273 -0.035921471184569072 0 0.0012670474609906767 -0.036201649083295706 0 0.00040708276124865782 -0.03692883906741902 0 0.0043386649271102366 -0.034999994088701226 0 0.0033429230227143402 -0.035855406075638398 0 0.0023280721528492741 -0.034999993683647999 0 0.0043402019556387948 -0.034999759057108219 0 0.0040608992957960862 -0.035462720936051885 0 0.0048500469892440029 -0.035695260881878146 0 0.0043385540013163503 -0.035000166246881313 0 0.0037078499592981284 -0.035654328828923922 0 0.0016547249625545666 -0.035858505293918604 0 0.0033429230227143402 -0.035855406075638398 0 0.0023280721528492741 -0.034999993683647999 0 0.0025891947783772758 -0.036003795232744655 0 0.0044607523408452497 -0.035912462266155319 0 0.0040608992957960862 -0.035462720936051885 0 0.0034857028644235039 -0.03596728355303002 0 0.0043034359855644881 -0.036168061305329048 0 0.0016547249625545666 -0.035858505293918604 0 0.0033429230227143402 -0.035855406075638398 0 0.0023486480691481655 -0.036708902168820098 0 0.0037078499592981284 -0.035654328828923922 0 0.0025891947783772758 -0.036003795232744655 0 0.0040608992957960862 -0.035462720936051885 0 0.0043034359855644881 -0.036168061305329048 0 0.0048500469892440029 -0.035695260881878146 0 0.0043628908204158883 -0.035625552729099827 0 0.004648956812681627 -0.036472006395217409 0 0.0052782659204128092 -0.036236552339766685 0 0.0044607523408452497 -0.035912462266155319 0 0.005106590536243294 -0.036167727594321804 0 0.0043628908204158883 -0.035625552729099827 0 0.004648956812681627 -0.036472006395217409 0 0.0036960229888378256 -0.036367517725638933 0 0.0033117815934174816 -0.035210518209616334 0 0.0043628908204158883 -0.035625552729099827 0 0.0036960229888378256 -0.036367517725638933 0 0.0036960229888378256 -0.036367517725638933 0 0.003292076481093227 -0.037340641339446791 0 0.0043039220325764033 -0.037230542346253288 0 0.004648956812681627 -0.036472006395217409 0 0.0043039220325764033 -0.037230542346253288 0 0.005445391358674603 -0.036872727597121784 0 0.004648956812681627 -0.036472006395217409 0 0.0036960229888378256 -0.036367517725638933 0 0.0043039220325764033 -0.037230542346253288 0 -0.00045210861865023646 -0.036699204899450007 0 0.0001721646106380273 -0.035921471184569072 0 0.00040708276124865782 -0.03692883906741902 0 1.8014137322010569e-07 -0.037461902035168144 0 -0.00045210861865023646 -0.036699204899450007 0 0.00040708276124865782 -0.03692883906741902 0 0.0025891947783772758 -0.036003795232744655 0 0.0012008905625941113 -0.036463698651177504 0 0.0033117815934174816 -0.035210518209616334 0 0.0036960229888378256 -0.036367517725638933 0 0.0021379836725464491 -0.036000874401204752 0 0.0036960229888378256 -0.036367517725638933 0 0.0021379836725464491 -0.036000874401204752 0 0.003292076481093227 -0.037340641339446791 0 0.0021379836725464491 -0.036000874401204752 0 0.002035813547836429 -0.037734545975563805 0 0.003292076481093227 -0.037340641339446791 0 1.8014137322010569e-07 -0.037461902035168144 0 0.0021379836725464491 -0.036000874401204752 0 0.002035813547836429 -0.037734545975563805 0 7.7500841304971936e-05 -0.037428947275871885 0 0.0012008905625941113 -0.036463698651177504 0 0.00068117405540148201 -0.038840484961137539 0 0.0018883464450827165 -0.03774199756022515 0 0.0016222690708791489 -0.037798248577079259 0 0.002035813547836429 -0.037734545975563805 0 0.0022005373964966123 -0.037967654326014823 0 0.002035813547836429 -0.037734545975563805 0 0.0022005373964966123 -0.037967654326014823 0 0.0031355590732882973 -0.037929427824461695 0 0.002035813547836429 -0.037734545975563805 0 0.0031355590732882973 -0.037929427824461695 0 0.003292076481093227 -0.037340641339446791 0 0.0031355590732882973 -0.037929427824461695 0 0.003292076481093227 -0.037340641339446791 0 0.0041707809000116631 -0.037778078216274685 0 0.003292076481093227 -0.037340641339446791 0 0.0043039220325764033 -0.037230542346253288 0 0.0041707809000116631 -0.037778078216274685 0 0.0043039220325764033 -0.037230542346253288 0 0.0041707809000116631 -0.037778078216274685 0 0.0052313032110057819 -0.037577549447251155 0 0.0031355590732882973 -0.037929427824461695 0 0.0041707809000116631 -0.037778078216274685 0 0.0039305466059956599 -0.038311301411876018 0 0.0031355590732882973 -0.037929427824461695 0 0.0039305466059956599 -0.038311301411876018 0 0.0028231539000851081 -0.03852000974418527 0 0.0039305466059956599 -0.038311301411876018 0 0.0040060177016391571 -0.038853803527744091 0 0.0053693123506432568 -0.038154421340554696 0 0.0041707809000116631 -0.037778078216274685 0 0.0039305466059956599 -0.038311301411876018 0 0.0053693123506432568 -0.038154421340554696 0 0.0039305466059956599 -0.038311301411876018 0 0.0040060177016391571 -0.038853803527744091 0 0.0028231539000851081 -0.03852000974418527 0 0.0040060177016391571 -0.038853803527744091 0 0.0028231539000851081 -0.03852000974418527 0 0.0034848419288017502 -0.039245489606527385 0 0.001808415613356137 -0.038293753086898454 0 0.0016996786106847151 -0.038705670602367147 0 0.0028231539000851081 -0.03852000974418527 0 0.0016996786106847151 -0.038705670602367147 0 0.0028231539000851081 -0.03852000974418527 0 0.0023419944547906539 -0.039022074766185848 0 0.001808415613356137 -0.038293753086898454 0 0.0022005373964966123 -0.037967654326014823 0 0.0028231539000851081 -0.03852000974418527 0 0.0022005373964966123 -0.037967654326014823 0 0.0031355590732882973 -0.037929427824461695 0 0.0028231539000851081 -0.03852000974418527 0 0.0064608924731233705 -0.038232318991718507 0 0.0062194276698528108 -0.037816434160515187 0 0.0069747262968232419 -0.037878144317077311 0 0.0071278303372750013 -0.038151339992513592 0 0.0064608924731233705 -0.038232318991718507 0 0.0069747262968232419 -0.037878144317077311 0 0.0071278303372750013 -0.038151339992513592 0 0.0064608924731233705 -0.038232318991718507 0 0.0070621533328146888 -0.038438216085923967 0 0.0064608924731233705 -0.038232318991718507 0 0.0059312706736916829 -0.03823087244468041 0 0.0053693123506432568 -0.038154421340554696 0 0.0064608924731233705 -0.038232318991718507 0 0.0059312706736916829 -0.03823087244468041 0 0.0064632360284775535 -0.038265555361046928 0 0.0053361864977224697 -0.03852355644099887 0 0.0053743880485990197 -0.038115611053137224 0 0.0040060177016391571 -0.038853803527744091 0 0.0047627760227018064 -0.03889699330818875 0 0.0053693123506432568 -0.038154421340554696 0 0.0064608924731233705 -0.038232318991718507 0 0.0053693123506432568 -0.038154421340554696 0 0.0062194276698528108 -0.037816434160515187 0 0.0053693123506432568 -0.038154421340554696 0 0.0062194276698528108 -0.037816434160515187 0 0.0052313032110057819 -0.037577549447251155 0 0.0041707809000116631 -0.037778078216274685 0 0.0053693123506432568 -0.038154421340554696 0 0.0052313032110057819 -0.037577549447251155 0 0.0043039220325764033 -0.037230542346253288 0 0.0052313032110057819 -0.037577549447251155 0 0.005445391358674603 -0.036872727597121784 0 0.0052313032110057819 -0.037577549447251155 0 0.006010122099268044 -0.037331575743854067 0 0.005445391358674603 -0.036872727597121784 0 0.0062194276698528108 -0.037816434160515187 0 0.0052313032110057819 -0.037577549447251155 0 0.006010122099268044 -0.037331575743854067 0 0.0062194276698528108 -0.037816434160515187 0 0.006010122099268044 -0.037331575743854067 0 0.0069521864707576091 -0.037498642986856033 0 0.0062194276698528108 -0.037816434160515187 0 0.0069521864707576091 -0.037498642986856033 0 0.0069747262968232419 -0.037878144317077311 0 0.0069521864707576091 -0.037498642986856033 0 0.0069747262968232419 -0.037878144317077311 0 0.0074040154071917698 -0.037540117784080701 0 0.0069521864707576091 -0.037498642986856033 0 0.0074040154071917698 -0.037540117784080701 0 0.0077495815328114661 -0.037216673942202107 0 0.0069521864707576091 -0.037498642986856033 0 0.0077495815328114661 -0.037216673942202107 0 0.0064942241528829917 -0.036743394574924648 0 0.006010122099268044 -0.037331575743854067 0 0.0069521864707576091 -0.037498642986856033 0 0.0064942241528829917 -0.036743394574924648 0 0.0064942241528829917 -0.036743394574924648 0 0.0078141158011157379 -0.036348648528754891 0 0.006922982140292095 -0.036041998929356972 0 0.0077495815328114661 -0.037216673942202107 0 0.0078141158011157379 -0.036348648528754891 0 0.0096751133421181679 -0.036673025735899221 0 0.0077495815328114661 -0.037216673942202107 0 0.0064942241528829917 -0.036743394574924648 0 0.0078141158011157379 -0.036348648528754891 0 0.006010122099268044 -0.037331575743854067 0 0.0064942241528829917 -0.036743394574924648 0 0.005445391358674603 -0.036872727597121784 0 0.0064942241528829917 -0.036743394574924648 0 0.005445391358674603 -0.036872727597121784 0 0.0052782659204128092 -0.036236552339766685 0 0.0064942241528829917 -0.036743394574924648 0 0.0052782659204128092 -0.036236552339766685 0 0.0059389455118301062 -0.035853289998814625 0 0.004648956812681627 -0.036472006395217409 0 0.005445391358674603 -0.036872727597121784 0 0.0052782659204128092 -0.036236552339766685 0 0.0052782659204128092 -0.036236552339766685 0 0.0048500469892440029 -0.035695260881878146 0 0.0059389455118301062 -0.035853289998814625 0 0.0043034359855644881 -0.036168061305329048 0 0.0052782659204128092 -0.036236552339766685 0 0.0048500469892440029 -0.035695260881878146 0 0.0064942241528829917 -0.036743394574924648 0 0.0059389455118301062 -0.035853289998814625 0 0.006922982140292095 -0.036041998929356972 0 0.0059389455118301062 -0.035853289998814625 0 0.0059215536780121269 -0.034999638892034682 0 0.0067713962472219372 -0.035504002619541813 0 0.0043402019556387948 -0.034999759057108219 0 0.0048500469892440029 -0.035695260881878146 0 0.0059215536780121269 -0.034999638892034682 0 0.0048500469892440029 -0.035695260881878146 0 0.0059389455118301062 -0.035853289998814625 0 0.0059215536780121269 -0.034999638892034682 0 0.0078141158011157379 -0.036348648528754891 0 0.0078529814561263244 -0.035602503466115876 0 0.006922982140292095 -0.036041998929356972 0 0.0078141158011157379 -0.036348648528754891 0 0.0078529814561263244 -0.035602503466115876 0 0.0090243646517214303 -0.035817267475422777 0 0.0078529814561263244 -0.035602503466115876 0 0.006922982140292095 -0.036041998929356972 0 0.0067713962472219372 -0.035504002619541813 0 0.0059389455118301062 -0.035853289998814625 0 0.006922982140292095 -0.036041998929356972 0 0.0067713962472219372 -0.035504002619541813 0 0.0059215536780121269 -0.034999638892034682 0 0.0075051579447702526 -0.035000007953792482 0 0.0067713962472219372 -0.035504002619541813 0 0.0078529814561263244 -0.035602503466115876 0 0.0075051579447702526 -0.035000007953792482 0 0.0067713962472219372 -0.035504002619541813 0 0.0078529814561263244 -0.035602503466115876 0 0.0075051579447702526 -0.035000007953792482 0 0.0090877492621754472 -0.034998248788098443 0 0.0078529814561263244 -0.035602503466115876 0 0.0090877492621754472 -0.034998248788098443 0 0.0090243646517214303 -0.035817267475422777 0 0.0090243646517214303 -0.035817267475422777 0 0.010246132865129648 -0.035719467950602171 0 0.0096751133421181679 -0.036673025735899221 0 0.0090877492621754472 -0.034998248788098443 0 0.0090243646517214303 -0.035817267475422777 0 0.010246132865129648 -0.035719467950602171 0 0.010246132865129648 -0.035719467950602171 0 0.010877284583791242 -0.034907955341631554 0 0.01173000432954947 -0.035891372864420838 0 0.010246132865129648 -0.035719467950602171 0 0.01173000432954947 -0.035891372864420838 0 0.011449094297821153 -0.036515028648176386 0 0.0090881932745024447 -0.035000034598914521 0 0.010824486689288048 -0.035614087791859622 0 0.011032119698696361 -0.034999877967002435 0 0.0090887215193406756 -0.035000009443232505 0 0.010886911305033891 -0.035280893003665229 0 0.0090877492621754472 -0.034998248788098443 0 0.010246132865129648 -0.035719467950602171 0 0.010877284583791242 -0.034907955341631554 0 0.010824486689288048 -0.035614087791859622 0 0.011032119698696361 -0.034999877967002435 0 0.012794931152914829 -0.035730348406710265 0 0.010886911305033891 -0.035280893003665229 0 0.012622155056326551 -0.035717390451353574 0 0.012975796383790605 -0.03499946806700751 0 0.012794931152914829 -0.035730348406710265 0 0.013991087169555409 -0.035552992155567564 0 0.011032119698696361 -0.034999877967002435 0 0.012975796383790605 -0.03499946806700751 0 0.012794931152914829 -0.035730348406710265 0 0.012794931152914829 -0.035730348406710265 0 0.01292104741444924 -0.036477336881222719 0 0.013920422471433097 -0.036178903098854479 0 0.012794931152914829 -0.035730348406710265 0 0.01173000432954947 -0.035891372864420838 0 0.01292104741444924 -0.036477336881222719 0 0.010877284583791242 -0.034907955341631554 0 0.012794931152914829 -0.035730348406710265 0 0.01173000432954947 -0.035891372864420838 0 0.01173000432954947 -0.035891372864420838 0 0.011449094297821153 -0.036515028648176386 0 0.01292104741444924 -0.036477336881222719 0 0.011449094297821153 -0.036515028648176386 0 0.01292104741444924 -0.036477336881222719 0 0.012596028154741699 -0.037308405284491426 0 0.01292104741444924 -0.036477336881222719 0 0.013920422471433097 -0.036178903098854479 0 0.014130912832635917 -0.036772522760963218 0 0.01292104741444924 -0.036477336881222719 0 0.013509495099738034 -0.037108704005146459 0 0.014130912832635917 -0.036772522760963218 0 0.013509495099738034 -0.037108704005146459 0 0.014130912832635917 -0.036772522760963218 0 0.014118107419578035 -0.037325279080147399 0 0.01292104741444924 -0.036477336881222719 0 0.013509495099738034 -0.037108704005146459 0 0.012596028154741699 -0.037308405284491426 0 0.013509495099738034 -0.037108704005146459 0 0.012596028154741699 -0.037308405284491426 0 0.013563065415568822 -0.037517181206687004 0 0.011449094297821153 -0.036515028648176386 0 0.012596028154741699 -0.037308405284491426 0 0.01127229701192844 -0.037392805051142411 0 0.012596028154741699 -0.037308405284491426 0 0.01127229701192844 -0.037392805051142411 0 0.011961909205299595 -0.038345659788600835 0 0.01127229701192844 -0.037392805051142411 0 0.0096751133421181679 -0.036673025735899221 0 0.0099752817456508266 -0.038113148529436564 0 0.0077933206280314778 -0.037238813644051162 0 0.0088248576306596237 -0.037684408540726924 0 0.0077495815328114661 -0.037216673942202107 0 0.0096751133421181679 -0.036673025735899221 0 0.0099752817456508266 -0.038113148529436564 0 0.0078141158011157379 -0.036348648528754891 0 0.0090243646517214303 -0.035817267475422777 0 0.0096751133421181679 -0.036673025735899221 0 0.011449094297821153 -0.036515028648176386 0 0.01127229701192844 -0.037392805051142411 0 0.0096751133421181679 -0.036673025735899221 0 0.010246132865129648 -0.035719467950602171 0 0.011449094297821153 -0.036515028648176386 0 0.0096751133421181679 -0.036673025735899221 0 0.016009494602358558 -0.035735762334392095 0 0.016750709694463718 -0.036254530492422408 0 0.017359591488027886 -0.035768290771245305 0 0.016862283686386138 -0.034999733593692267 0 0.016009494602358558 -0.035735762334392095 0 0.017359591488027886 -0.035768290771245305 0 0.016862283686386138 -0.034999733593692267 0 0.016009494602358558 -0.035735762334392095 0 0.014919079242165439 -0.034999666216105084 0 0.016009494602358558 -0.035735762334392095 0 0.014937379195560005 -0.036052659526817792 0 0.015854419003246807 -0.036339252679457 0 0.016009494602358558 -0.035735762334392095 0 0.015854419003246807 -0.036339252679457 0 0.016750709694463718 -0.036254530492422408 0 0.014937379195560005 -0.036052659526817792 0 0.014919079242165439 -0.034999666216105084 0 0.013991087169555409 -0.035552992155567564 0 0.016009494602358558 -0.035735762334392095 0 0.014937379195560005 -0.036052659526817792 0 0.014919079242165439 -0.034999666216105084 0 0.012975796383790605 -0.03499946806700751 0 0.014919079242165439 -0.034999666216105084 0 0.013991087169555409 -0.035552992155567564 0 0.014937379195560005 -0.036052659526817792 0 0.013991087169555409 -0.035552992155567564 0 0.013920422471433097 -0.036178903098854479 0 0.012794931152914829 -0.035730348406710265 0 0.013991087169555409 -0.035552992155567564 0 0.013920422471433097 -0.036178903098854479 0 0.014937379195560005 -0.036052659526817792 0 0.013920422471433097 -0.036178903098854479 0 0.014648156715205939 -0.036457676349258152 0 0.013920422471433097 -0.036178903098854479 0 0.014130912832635917 -0.036772522760963218 0 0.014648156715205939 -0.036457676349258152 0 0.014130912832635917 -0.036772522760963218 0 0.014582097262372917 -0.037028319590902498 0 0.014118107419578035 -0.037325279080147399 0 0.014582097262372917 -0.037028319590902498 0 0.014999456020501801 -0.036804726179257501 0 0.015033214298602252 -0.037130468672850941 0 0.014130912832635917 -0.036772522760963218 0 0.014582097262372917 -0.037028319590902498 0 0.014999456020501801 -0.036804726179257501 0 0.014130912832635917 -0.036772522760963218 0 0.014999456020501801 -0.036804726179257501 0 0.014648156715205939 -0.036457676349258152 0 0.014999456020501801 -0.036804726179257501 0 0.015532071068307561 -0.036907235925040846 0 0.015033214298602252 -0.037130468672850941 0 0.014999456020501801 -0.036804726179257501 0 0.015737834477144462 -0.036715202002565166 0 0.015532071068307561 -0.036907235925040846 0 0.014999456020501801 -0.036804726179257501 0 0.01529604468310272 -0.036511706141511641 0 0.015737834477144462 -0.036715202002565166 0 0.014937379195560005 -0.036052659526817792 0 0.01529604468310272 -0.036511706141511641 0 0.015854419003246807 -0.036339252679457 0 0.014937379195560005 -0.036052659526817792 0 0.01529604468310272 -0.036511706141511641 0 0.014648156715205939 -0.036457676349258152 0 0.014999456020501801 -0.036804726179257501 0 0.01529604468310272 -0.036511706141511641 0 0.014648156715205939 -0.036457676349258152 0 0.015854419003246807 -0.036339252679457 0 0.015737834477144462 -0.036715202002565166 0 0.016278479275016262 -0.036554385809850598 0 0.01529604468310272 -0.036511706141511641 0 0.015854419003246807 -0.036339252679457 0 0.015737834477144462 -0.036715202002565166 0 0.015737834477144462 -0.036715202002565166 0 0.016278479275016262 -0.036554385809850598 0 0.01613671191591113 -0.036758759139660743 0 0.015737834477144462 -0.036715202002565166 0 0.01613671191591113 -0.036758759139660743 0 0.015532071068307561 -0.036907235925040846 0 0.016278479275016262 -0.036554385809850598 0 0.016660302744491848 -0.036632066743264198 0 0.01714940778984193 -0.036454463952992816 0 0.016278479275016262 -0.036554385809850598 0 0.016660302744491848 -0.036632066743264198 0 0.01613671191591113 -0.036758759139660743 0 0.015854419003246807 -0.036339252679457 0 0.016278479275016262 -0.036554385809850598 0 0.016750709694463718 -0.036254530492422408 0 0.016278479275016262 -0.036554385809850598 0 0.016750709694463718 -0.036254530492422408 0 0.01714940778984193 -0.036454463952992816 0 0.0165287182258286 -0.036357201315946615 0 0.016429940985765921 -0.036586246573153937 0 0.016814054451650753 -0.036350573946679884 0 0.0165287182258286 -0.036357201315946615 0 0.016076986817966696 -0.036646862655938264 0 0.016173678629382123 -0.036257608326722902 0 0.0165287182258286 -0.036357201315946615 0 0.016429940985765921 -0.036586246573153937 0 0.016076986817966696 -0.036646862655938264 0 0.016429940985765921 -0.036586246573153937 0 0.016497973076750078 -0.036666107566795975 0 0.016764811006153686 -0.036614394999318234 0 0.016429940985765921 -0.036586246573153937 0 0.01613671191591113 -0.036758759139660743 0 0.016076986817966696 -0.036646862655938264 0 0.016660302744491848 -0.036632066743264198 0 0.016497973076750078 -0.036666107566795975 0 0.016764811006153686 -0.036614394999318234 0 0.016660302744491848 -0.036632066743264198 0 0.016497973076750078 -0.036666107566795975 0 0.01613671191591113 -0.036758759139660743 0 0.016429940985765921 -0.036586246573153937 0 0.016497973076750078 -0.036666107566795975 0 0.01613671191591113 -0.036758759139660743 0 0.01613671191591113 -0.036758759139660743 0 0.015812460451138165 -0.03683294024525148 0 0.016076986817966696 -0.036646862655938264 0 0.01613671191591113 -0.036758759139660743 0 0.015812460451138165 -0.03683294024525148 0 0.015532071068307561 -0.036907235925040846 0 0.015812460451138165 -0.03683294024525148 0 0.016076986817966696 -0.036646862655938264 0 0.015745533312285259 -0.036662914707242325 0 0.016076986817966696 -0.036646862655938264 0 0.015745533312285259 -0.036662914707242325 0 0.016173678629382123 -0.036257608326722902 0 0.015745533312285259 -0.036662914707242325 0 0.015321075082204106 -0.037149148728715511 0 0.015694761151624818 -0.036042417244973007 0 0.015321075082204106 -0.037149148728715511 0 0.015121774576481327 -0.03726981959865492 0 0.015694761151624818 -0.036042417244973007 0 0.015745533312285259 -0.036662914707242325 0 0.015321075082204106 -0.037149148728715511 0 0.015455536208531752 -0.037020220440296618 0 0.015812460451138165 -0.03683294024525148 0 0.015745533312285259 -0.036662914707242325 0 0.015455536208531752 -0.037020220440296618 0 0.015812460451138165 -0.03683294024525148 0 0.015455536208531752 -0.037020220440296618 0 0.015532071068307561 -0.036907235925040846 0 0.015455536208531752 -0.037020220440296618 0 0.015532071068307561 -0.036907235925040846 0 0.015033214298602252 -0.037130468672850941 0 0.015321075082204106 -0.037149148728715511 0 0.015455536208531752 -0.037020220440296618 0 0.015033214298602252 -0.037130468672850941 0 0.015321075082204106 -0.037149148728715511 0 0.015033214298602252 -0.037130468672850941 0 0.014711615205343802 -0.037404850227327979 0 0.015033214298602252 -0.037130468672850941 0 0.014611774367836217 -0.037239018332888771 0 0.014711615205343802 -0.037404850227327979 0 0.014582097262372917 -0.037028319590902498 0 0.015033214298602252 -0.037130468672850941 0 0.014611774367836217 -0.037239018332888771 0 0.014611774367836217 -0.037239018332888771 0 0.014118107419578035 -0.037325279080147399 0 0.014210110225061173 -0.03756227816010508 0 0.014582097262372917 -0.037028319590902498 0 0.014611774367836217 -0.037239018332888771 0 0.014118107419578035 -0.037325279080147399 0 0.014611774367836217 -0.037239018332888771 0 0.014711615205343802 -0.037404850227327979 0 0.014210110225061173 -0.03756227816010508 0 0.014711615205343802 -0.037404850227327979 0 0.014491173388083228 -0.03760323269334899 0 0.014210110225061173 -0.03756227816010508 0 0.01495029515662275 -0.03604551381247087 0 0.012521358444813948 -0.036971778162597967 0 0.014760928944761288 -0.037502505518016024 0 0.015121774576481327 -0.03726981959865492 0 0.014157239339851612 -0.037935855576632739 0 0.014711615205343802 -0.037404850227327979 0 0.014760928944761288 -0.037502505518016024 0 0.014491173388083228 -0.03760323269334899 0 0.014760928944761288 -0.037502505518016024 0 0.014491173388083228 -0.03760323269334899 0 0.01422882091808546 -0.03788268661464736 0 0.015321075082204106 -0.037149148728715511 0 0.014711615205343802 -0.037404850227327979 0 0.014760928944761288 -0.037502505518016024 0 0.015321075082204106 -0.037149148728715511 0 0.014760928944761288 -0.037502505518016024 0 0.015121774576481327 -0.03726981959865492 0 0.01468292445570402 -0.034850628939883228 0 0.014604041260592672 -0.035902738090383468 0 0.013675400629967629 -0.035128085609599097 0 0.01468292445570402 -0.034850628939883228 0 0.014604041260592672 -0.035902738090383468 0 0.015694761151624818 -0.036042417244973007 0 0.015502926776656779 -0.036061506266477292 0 0.015694761151624818 -0.036042417244973007 0 0.016285569300224942 -0.03602090738214677 0 0.014604041260592672 -0.035902738090383468 0 0.015502926776656779 -0.036061506266477292 0 0.015694761151624818 -0.036042417244973007 0 0.01495029515662275 -0.03604551381247087 0 0.015415558442697815 -0.036027337020612754 0 0.015745533312285259 -0.036662914707242325 0 0.015694761151624818 -0.036042417244973007 0 0.016173678629382123 -0.036257608326722902 0 0.015694761151624818 -0.036042417244973007 0 0.016173678629382123 -0.036257608326722902 0 0.016285569300224942 -0.03602090738214677 0 0.016285569300224942 -0.03602090738214677 0 0.016970671674175174 -0.035864175838092385 0 0.016759768403945829 -0.036097871438298922 0 0.016173678629382123 -0.036257608326722902 0 0.016285569300224942 -0.03602090738214677 0 0.016759768403945829 -0.036097871438298922 0 0.0165287182258286 -0.036357201315946615 0 0.016173678629382123 -0.036257608326722902 0 0.016759768403945829 -0.036097871438298922 0 0.0076083970887565622 -0.037791450586668808 0 0.0080196959045731459 -0.037741152623373221 0 0.0080172928642801445 -0.038008507066786539 0 0.0076083970887565622 -0.037791450586668808 0 0.0080098301130723387 -0.037486082416985603 0 0.0080196959045731459 -0.037741152623373221 0 0.0069747262968232419 -0.037878144317077311 0 0.0074040154071917698 -0.037540117784080701 0 0.0076083970887565622 -0.037791450586668808 0 0.0074040154071917698 -0.037540117784080701 0 0.0077495815328114661 -0.037216673942202107 0 0.0076492988389682149 -0.03735351193519882 0 0.0074040154071917698 -0.037540117784080701 0 0.0076083970887565622 -0.037791450586668808 0 0.0076492988389682149 -0.03735351193519882 0 0.0076083970887565622 -0.037791450586668808 0 0.0076492988389682149 -0.03735351193519882 0 0.0080098301130723387 -0.037486082416985603 0 0.0088248576306596237 -0.037684408540726924 0 0.0097424532758645429 -0.037936334020640748 0 0.01127229701192844 -0.037392805051142411 0 0.0099752817456508266 -0.038113148529436564 0 0.011961909205299595 -0.038345659788600835 0 0.012596028154741699 -0.037308405284491426 0 0.011961909205299595 -0.038345659788600835 0 0.013118462552277029 -0.037914301957261753 0 0.011961909205299595 -0.038345659788600835 0 0.013118462552277029 -0.037914301957261753 0 0.01380510240931076 -0.038322316651697996 0 0.013509495099738034 -0.037108704005146459 0 0.014118107419578035 -0.037325279080147399 0 0.013563065415568822 -0.037517181206687004 0 0.014118107419578035 -0.037325279080147399 0 0.013563065415568822 -0.037517181206687004 0 0.014210110225061173 -0.03756227816010508 0 0.012596028154741699 -0.037308405284491426 0 0.013563065415568822 -0.037517181206687004 0 0.013118462552277029 -0.037914301957261753 0 0.013118462552277029 -0.037914301957261753 0 0.013806961847114061 -0.037804244618680649 0 0.01380510240931076 -0.038322316651697996 0 0.013563065415568822 -0.037517181206687004 0 0.013118462552277029 -0.037914301957261753 0 0.013806961847114061 -0.037804244618680649 0 0.013806961847114061 -0.037804244618680649 0 0.014210110225061173 -0.03756227816010508 0 0.01422882091808546 -0.03788268661464736 0 0.013563065415568822 -0.037517181206687004 0 0.013806961847114061 -0.037804244618680649 0 0.014210110225061173 -0.03756227816010508 0 0.014491173388083228 -0.03760323269334899 0 0.014210110225061173 -0.03756227816010508 0 0.01422882091808546 -0.03788268661464736 0 0.014760928944761288 -0.037502505518016024 0 0.01422882091808546 -0.03788268661464736 0 0.014157239339851612 -0.037935855576632739 0 0.013806961847114061 -0.037804244618680649 0 0.01422882091808546 -0.03788268661464736 0 0.01380510240931076 -0.038322316651697996 0 0.013053380884423706 -0.037052190411310131 0 0.012521358444813948 -0.036971778162597967 0 0.012521358444813948 -0.036971778162597967 0 0.010008423073117311 -0.036306907284700027 0 0.0097424532758645429 -0.037936334020640748 0 0.012521358444813948 -0.036971778162597967 0 0.0084719388084118306 -0.037676414354212012 0 0.0080196959045731459 -0.037741152623373221 0 0.0080172928642801445 -0.038008507066786539 0 0.0080098301130723387 -0.037486082416985603 0 0.0084719388084118306 -0.037676414354212012 0 0.0080196959045731459 -0.037741152623373221 0 0.013704673474474896 -0.034116500384676583 0 0.012438694037046059 -0.034790968533346359 0 0.013675400629967629 -0.035128085609599097 0 0.01468292445570402 -0.034850628939883228 0 0.013704673474474896 -0.034116500384676583 0 0.013675400629967629 -0.035128085609599097 0 0.014604041260592672 -0.035902738090383468 0 0.013675400629967629 -0.035128085609599097 0 0.012769602829405384 -0.036049514631355251 0 0.012438694037046059 -0.034790968533346359 0 0.013675400629967629 -0.035128085609599097 0 0.012769602829405384 -0.036049514631355251 0 0.012438694037046059 -0.034790968533346359 0 0.010924211360262528 -0.035479630133916279 0 0.012769602829405384 -0.036049514631355251 0 0.010008423073117311 -0.036306907284700027 0 0.0092384196247674421 -0.036905001595703063 0 0.0076083970887565622 -0.037791450586668808 0 0.0080172928642801445 -0.038008507066786539 0 0.0075216676701573082 -0.038305410118097794 0 0.0071278303372750013 -0.038151339992513592 0 0.0069747262968232419 -0.037878144317077311 0 0.0076083970887565622 -0.037791450586668808 0 0.0071278303372750013 -0.038151339992513592 0 0.0076083970887565622 -0.037791450586668808 0 0.0075216676701573082 -0.038305410118097794 0 0.0071278303372750013 -0.038151339992513592 0 0.0075216676701573082 -0.038305410118097794 0 0.0070621533328146888 -0.038438216085923967 0 0.010924211360262528 -0.035479630133916279 0 0.010813948822207061 -0.037012011408634013 0 0.0091332559138526219 -0.036460288359912156 0 0.0092384196247674421 -0.036905001595703063 0 0.0080927527473256718 -0.03748160792346527 0 0.010813948822207061 -0.037012011408634013 0 0.0091332559138526219 -0.036460288359912156 0 0.0089169419261346475 -0.038331248319854079 0 0.010813948822207061 -0.037012011408634013 0 0.010578701875563539 -0.038390188935789722 0 0.0089169419261346475 -0.038331248319854079 0 0.010813948822207061 -0.037012011408634013 0 0.012204112724940609 -0.03762096509263374 0 0.010578701875563539 -0.038390188935789722 0 0.010924211360262528 -0.035479630133916279 0 0.010813948822207061 -0.037012011408634013 0 0.012769602829405384 -0.036049514631355251 0 0.014604041260592672 -0.035902738090383468 0 0.012769602829405384 -0.036049514631355251 0 0.013793174443809168 -0.036896206022811302 0 0.013793174443809168 -0.036896206022811302 0 0.013119785600912964 -0.038152526237458781 0 0.014388422781996854 -0.037452267158228789 0 0.013793174443809168 -0.036896206022811302 0 0.012204112724940609 -0.03762096509263374 0 0.013119785600912964 -0.038152526237458781 0 0.012769602829405384 -0.036049514631355251 0 0.013793174443809168 -0.036896206022811302 0 0.012204112724940609 -0.03762096509263374 0 0.010813948822207061 -0.037012011408634013 0 0.012769602829405384 -0.036049514631355251 0 0.012204112724940609 -0.03762096509263374 0 0.012204112724940609 -0.03762096509263374 0 0.013119785600912964 -0.038152526237458781 0 0.011734615057335711 -0.038510782018475423 0 0.013119785600912964 -0.038152526237458781 0 0.014388422781996854 -0.037452267158228789 0 0.014189198931680243 -0.038329706438098028 0 0.013119785600912964 -0.038152526237458781 0 0.013197473151470693 -0.039158227158400859 0 0.014189198931680243 -0.038329706438098028 0 0.013197473151470693 -0.039158227158400859 0 0.014189198931680243 -0.038329706438098028 0 0.014117653583983775 -0.039366077062364474 0 0.013119785600912964 -0.038152526237458781 0 0.012131372629351132 -0.03920834263980482 0 0.011734615057335711 -0.038510782018475423 0 0.013119785600912964 -0.038152526237458781 0 0.013197473151470693 -0.039158227158400859 0 0.012131372629351132 -0.03920834263980482 0 0.012131372629351132 -0.03920834263980482 0 0.010630798969600236 -0.039334867641926938 0 0.010969213546461791 -0.040145510259300257 0 0.010630798969600236 -0.039334867641926938 0 0.010578701875563539 -0.038390188935789722 0 0.011734615057335711 -0.038510782018475423 0 0.012131372629351132 -0.03920834263980482 0 0.010630798969600236 -0.039334867641926938 0 0.011734615057335711 -0.038510782018475423 0 0.010630798969600236 -0.039334867641926938 0 0.0093105500388329081 -0.040365193538847738 0 0.0090246826617637072 -0.039425604508564471 0 0.010630798969600236 -0.039334867641926938 0 0.010578701875563539 -0.038390188935789722 0 0.0090246826617637072 -0.039425604508564471 0 0.010578701875563539 -0.038390188935789722 0 0.0089169419261346475 -0.038331248319854079 0 0.0090246826617637072 -0.039425604508564471 0 0.012204112724940609 -0.03762096509263374 0 0.010578701875563539 -0.038390188935789722 0 0.011734615057335711 -0.038510782018475423 0 0.016970671674175174 -0.035864175838092385 0 0.016725532438628409 -0.036275397929328594 0 0.017160469394486327 -0.035577530273882919 0 0.016285569300224942 -0.03602090738214677 0 0.016970671674175174 -0.035864175838092385 0 0.016725532438628409 -0.036275397929328594 0 0.016285569300224942 -0.03602090738214677 0 0.016725532438628409 -0.036275397929328594 0 0.015332083372712859 -0.036480548490935162 0 0.015332083372712859 -0.036480548490935162 0 0.014388422781996854 -0.037452267158228789 0 0.015288447809950905 -0.037440691060297765 0 0.016725532438628409 -0.036275397929328594 0 0.015332083372712859 -0.036480548490935162 0 0.015288447809950905 -0.037440691060297765 0 0.014604041260592672 -0.035902738090383468 0 0.015502926776656779 -0.036061506266477292 0 0.015332083372712859 -0.036480548490935162 0 0.015502926776656779 -0.036061506266477292 0 0.016285569300224942 -0.03602090738214677 0 0.015332083372712859 -0.036480548490935162 0 0.014604041260592672 -0.035902738090383468 0 0.013793174443809168 -0.036896206022811302 0 0.015332083372712859 -0.036480548490935162 0 0.013793174443809168 -0.036896206022811302 0 0.015332083372712859 -0.036480548490935162 0 0.014388422781996854 -0.037452267158228789 0 0.014388422781996854 -0.037452267158228789 0 0.014189198931680243 -0.038329706438098028 0 0.015288447809950905 -0.037440691060297765 0 0.014189198931680243 -0.038329706438098028 0 0.015266359905988069 -0.038762071197385652 0 0.014117653583983775 -0.039366077062364474 0 0.014189198931680243 -0.038329706438098028 0 0.015266359905988069 -0.038762071197385652 0 0.015288447809950905 -0.037440691060297765 0 0.016725532438628409 -0.036275397929328594 0 0.015288447809950905 -0.037440691060297765 0 0.016870340294894988 -0.038228483974955971 0 0.015266359905988069 -0.038762071197385652 0 0.015288447809950905 -0.037440691060297765 0 0.016870340294894988 -0.038228483974955971 0 0.015266359905988069 -0.038762071197385652 0 0.016870340294894988 -0.038228483974955971 0 0.016004265843626537 -0.039513138436918969 0 0.016750369908189861 -0.036222045416892994 0 0.016955054650223317 -0.036674162932514229 0 0.016725532438628409 -0.036275397929328594 0 0.01716204035980283 -0.035138766154435327 0 0.017160469394486327 -0.035577530273882919 0 0.016603970157677662 -0.039586006950601528 0 0.016875578139708386 -0.039285959814836943 0 0.01723365842275628 -0.039110868861718592 0 0.016603970157677662 -0.039586006950601528 0 0.016875578139708386 -0.039285959814836943 0 0.016004265843626537 -0.039513138436918969 0 0.016955054650223317 -0.036674162932514229 0 0.016937108286773014 -0.037710008039546349 0 0.016870340294894988 -0.038228483974955971 0 0.016875578139708386 -0.039285959814836943 0 0.016004265843626537 -0.039513138436918969 0 0.016004265843626537 -0.039513138436918969 0 0.015330557593805682 -0.04023506596832039 0 0.015983282748980435 -0.04015071018629976 0 0.016603970157677662 -0.039586006950601528 0 0.016004265843626537 -0.039513138436918969 0 0.015983282748980435 -0.04015071018629976 0 0.016004265843626537 -0.039513138436918969 0 0.015330557593805682 -0.04023506596832039 0 0.014895821977481533 -0.039693491677069925 0 0.015330557593805682 -0.04023506596832039 0 0.014895821977481533 -0.039693491677069925 0 0.014492841928723656 -0.040488505871955162 0 0.015266359905988069 -0.038762071197385652 0 0.016004265843626537 -0.039513138436918969 0 0.014895821977481533 -0.039693491677069925 0 0.014895821977481533 -0.039693491677069925 0 0.014117653583983775 -0.039366077062364474 0 0.013913906187682269 -0.040200080913728682 0 0.015266359905988069 -0.038762071197385652 0 0.014895821977481533 -0.039693491677069925 0 0.014117653583983775 -0.039366077062364474 0 0.014895821977481533 -0.039693491677069925 0 0.013913906187682269 -0.040200080913728682 0 0.014492841928723656 -0.040488505871955162 0 0.013913906187682269 -0.040200080913728682 0 0.014492841928723656 -0.040488505871955162 0 0.013682598987781529 -0.040997827326498225 0 0.014492841928723656 -0.040488505871955162 0 0.014291660747786095 -0.041128767468268497 0 0.013682598987781529 -0.040997827326498225 0 0.014492841928723656 -0.040488505871955162 0 0.014291660747786095 -0.041128767468268497 0 0.014924606293528818 -0.040746969992313961 0 0.014291660747786095 -0.041128767468268497 0 0.014826806972457732 -0.041275550896088503 0 0.014924606293528818 -0.040746969992313961 0 0.014291660747786095 -0.041128767468268497 0 0.013886860553323832 -0.041803716425880481 0 0.013624451310431687 -0.041483836197194625 0 0.014291660747786095 -0.041128767468268497 0 0.013886860553323832 -0.041803716425880481 0 0.014826806972457732 -0.041275550896088503 0 0.014291660747786095 -0.041128767468268497 0 0.013682598987781529 -0.040997827326498225 0 0.013624451310431687 -0.041483836197194625 0 0.017807014267956705 -0.037665482257005882 0 0.018059513985102103 -0.033850186046229289 0 0.017807014267956705 -0.037665482257005882 0 0.013488205461204978 -0.041705366817750993 0 0.013886860553323832 -0.041803716425880481 0 0.014759955508939692 -0.041888065914350979 0 0.012935045372091104 -0.04260719922707517 0 0.013886860553323832 -0.041803716425880481 0 0.014759955508939692 -0.041888065914350979 0 0.014826806972457732 -0.041275550896088503 0 0.01500170158085018 -0.04161139346393225 0 0.015442047702119615 -0.04130862233673252 0 0.016056194536216348 -0.041031500681441943 0 0.017807014267956705 -0.037665482257005882 0 0.020611077830539275 -0.033779807794686319 0 0.017807014267956705 -0.037665482257005882 0 0.014463874338267152 -0.040806459905080583 0 0.014759955508939692 -0.041888065914350979 0 0.014826806972457732 -0.041275550896088503 0 0.015442047702119615 -0.04130862233673252 0 0.015442047702119615 -0.04130862233673252 0 0.015434440394771839 -0.040765512871269331 0 0.015890024511781679 -0.040682576427244613 0 0.014826806972457732 -0.041275550896088503 0 0.015442047702119615 -0.04130862233673252 0 0.015434440394771839 -0.040765512871269331 0 0.014826806972457732 -0.041275550896088503 0 0.015434440394771839 -0.040765512871269331 0 0.014924606293528818 -0.040746969992313961 0 0.015330557593805682 -0.04023506596832039 0 0.014492841928723656 -0.040488505871955162 0 0.014924606293528818 -0.040746969992313961 0 0.015330557593805682 -0.04023506596832039 0 0.015434440394771839 -0.040765512871269331 0 0.015983282748980435 -0.04015071018629976 0 0.015330557593805682 -0.04023506596832039 0 0.015434440394771839 -0.040765512871269331 0 0.014924606293528818 -0.040746969992313961 0 0.015983282748980435 -0.04015071018629976 0 0.015890024511781679 -0.040682576427244613 0 0.016554304979585682 -0.040131439667191689 0 0.015434440394771839 -0.040765512871269331 0 0.015983282748980435 -0.04015071018629976 0 0.015890024511781679 -0.040682576427244613 0 0.015442047702119615 -0.04130862233673252 0 0.016056194536216348 -0.041031500681441943 0 0.015890024511781679 -0.040682576427244613 0 0.016056194536216348 -0.041031500681441943 0 0.015890024511781679 -0.040682576427244613 0 0.016554304979585682 -0.040131439667191689 0 0.016056194536216348 -0.041031500681441943 0 0.016554304979585682 -0.040131439667191689 0 0.017558252038723809 -0.040758354638032165 0 0.020611077830539275 -0.033779807794686319 0 0.021303015873621389 -0.035665922184913587 0 0.016603970157677662 -0.039586006950601528 0 0.015983282748980435 -0.04015071018629976 0 0.016554304979585682 -0.040131439667191689 0 0.016603970157677662 -0.039586006950601528 0 0.016554304979585682 -0.040131439667191689 0 0.01723365842275628 -0.039110868861718592 0 0.011054312950781083 -0.041032457914589822 0 0.010969213546461791 -0.040145510259300257 0 0.012234941526418569 -0.040170068284434916 0 0.011054312950781083 -0.041032457914589822 0 0.0099920241037728934 -0.040929659183357461 0 0.010969213546461791 -0.040145510259300257 0 0.011054312950781083 -0.041032457914589822 0 0.012016725070717649 -0.041021043524561755 0 0.011587626556097979 -0.041591740339510748 0 0.011054312950781083 -0.041032457914589822 0 0.0099920241037728934 -0.040929659183357461 0 0.0098230849140318478 -0.041784924972234384 0 0.0099920241037728934 -0.040929659183357461 0 0.0098230849140318478 -0.041784924972234384 0 0.0087843364452872413 -0.041337002602509512 0 0.0099920241037728934 -0.040929659183357461 0 0.0093105500388329081 -0.040365193538847738 0 0.0087843364452872413 -0.041337002602509512 0 0.010630798969600236 -0.039334867641926938 0 0.0093105500388329081 -0.040365193538847738 0 0.010969213546461791 -0.040145510259300257 0 0.0099920241037728934 -0.040929659183357461 0 0.0093105500388329081 -0.040365193538847738 0 0.010969213546461791 -0.040145510259300257 0 0.012131372629351132 -0.03920834263980482 0 0.010969213546461791 -0.040145510259300257 0 0.012234941526418569 -0.040170068284434916 0 0.013197473151470693 -0.039158227158400859 0 0.012131372629351132 -0.03920834263980482 0 0.012234941526418569 -0.040170068284434916 0 0.014117653583983775 -0.039366077062364474 0 0.013913906187682269 -0.040200080913728682 0 0.013250035266188155 -0.039933999032508959 0 0.013197473151470693 -0.039158227158400859 0 0.014117653583983775 -0.039366077062364474 0 0.013250035266188155 -0.039933999032508959 0 0.013197473151470693 -0.039158227158400859 0 0.012234941526418569 -0.040170068284434916 0 0.013250035266188155 -0.039933999032508959 0 0.013913906187682269 -0.040200080913728682 0 0.013250035266188155 -0.039933999032508959 0 0.012916408221835545 -0.040768590750796578 0 0.013913906187682269 -0.040200080913728682 0 0.012916408221835545 -0.040768590750796578 0 0.013682598987781529 -0.040997827326498225 0 0.011054312950781083 -0.041032457914589822 0 0.012234941526418569 -0.040170068284434916 0 0.012016725070717649 -0.041021043524561755 0 0.012234941526418569 -0.040170068284434916 0 0.012916408221835545 -0.040768590750796578 0 0.012016725070717649 -0.041021043524561755 0 0.012234941526418569 -0.040170068284434916 0 0.013250035266188155 -0.039933999032508959 0 0.012916408221835545 -0.040768590750796578 0 0.012916408221835545 -0.040768590750796578 0 0.012016725070717649 -0.041021043524561755 0 0.012283279583668545 -0.041526941800344143 0 0.012016725070717649 -0.041021043524561755 0 0.012283279583668545 -0.041526941800344143 0 0.011587626556097979 -0.041591740339510748 0 0.012283279583668545 -0.041526941800344143 0 0.011658903425586672 -0.042112802958782371 0 0.011587626556097979 -0.041591740339510748 0 0.012916408221835545 -0.040768590750796578 0 0.012283279583668545 -0.041526941800344143 0 0.013074510309274435 -0.0415254212529561 0 0.012283279583668545 -0.041526941800344143 0 0.013074510309274435 -0.0415254212529561 0 0.012374961854857277 -0.042134944782201193 0 0.012283279583668545 -0.041526941800344143 0 0.012374961854857277 -0.042134944782201193 0 0.011658903425586672 -0.042112802958782371 0 0.012916408221835545 -0.040768590750796578 0 0.013682598987781529 -0.040997827326498225 0 0.013074510309274435 -0.0415254212529561 0 0.013074510309274435 -0.0415254212529561 0 0.01322386231781862 -0.041943338651356681 0 0.012374961854857277 -0.042134944782201193 0 0.013074510309274435 -0.0415254212529561 0 0.013624451310431687 -0.041483836197194625 0 0.01322386231781862 -0.041943338651356681 0 0.013682598987781529 -0.040997827326498225 0 0.013074510309274435 -0.0415254212529561 0 0.013624451310431687 -0.041483836197194625 0 0.018421321110901785 -0.040031082264159648 0 0.01463321017898429 -0.039925080351460453 0 0.015262620979263239 -0.040575494939635304 0 0.013886860553323832 -0.041803716425880481 0 0.01322386231781862 -0.041943338651356681 0 0.012935045372091104 -0.04260719922707517 0 0.013886860553323832 -0.041803716425880481 0 0.013624451310431687 -0.041483836197194625 0 0.01322386231781862 -0.041943338651356681 0 0.01322386231781862 -0.041943338651356681 0 0.012935045372091104 -0.04260719922707517 0 0.012374961854857277 -0.042134944782201193 0 0.01463321017898429 -0.039925080351460453 0 0.012090168503170217 -0.041128719214918917 0 0.015262620979263239 -0.040575494939635304 0 0.01463321017898429 -0.039925080351460453 0 0.010850286860053796 -0.039872675025405424 0 0.012090168503170217 -0.041128719214918917 0 0.012935045372091104 -0.04260719922707517 0 0.012374961854857277 -0.042134944782201193 0 0.010832426155108307 -0.043113583642931851 0 0.013488205461204978 -0.041705366817750993 0 0.010890062338744495 -0.041431007087161374 0 0.012374961854857277 -0.042134944782201193 0 0.010832426155108307 -0.043113583642931851 0 0.011658903425586672 -0.042112802958782371 0 0.011054312950781083 -0.041032457914589822 0 0.010840534849181757 -0.042045013831530316 0 0.0098230849140318478 -0.041784924972234384 0 0.011658903425586672 -0.042112802958782371 0 0.010840534849181757 -0.042045013831530316 0 0.011587626556097979 -0.041591740339510748 0 0.010832426155108307 -0.043113583642931851 0 0.011658903425586672 -0.042112802958782371 0 0.010840534849181757 -0.042045013831530316 0 0.011054312950781083 -0.041032457914589822 0 0.010840534849181757 -0.042045013831530316 0 0.011587626556097979 -0.041591740339510748 0 0.0098230849140318478 -0.041784924972234384 0 0.0098096964118736495 -0.042553673730130283 0 0.0088874423881010883 -0.042194559870962579 0 0.010840534849181757 -0.042045013831530316 0 0.0098230849140318478 -0.041784924972234384 0 0.0098096964118736495 -0.042553673730130283 0 0.010832426155108307 -0.043113583642931851 0 0.0098096964118736495 -0.042553673730130283 0 0.0085907614936284165 -0.04338187353018183 0 0.010890062338744495 -0.041431007087161374 0 0.0080051027039501274 -0.041718884014777212 0 0.010850286860053796 -0.039872675025405424 0 0.0089656754256610613 -0.040758018896362103 0 0.0074164268165613336 -0.040028857150933482 0 0.010832426155108307 -0.043113583642931851 0 0.010840534849181757 -0.042045013831530316 0 0.0098096964118736495 -0.042553673730130283 0 0.010850286860053796 -0.039872675025405424 0 0.0089656754256610613 -0.040758018896362103 0 0.0090675342766331369 -0.041597370307000149 0 0.0089656754256610613 -0.040758018896362103 0 0.0080190092185119209 -0.040756375154338602 0 0.0074164268165613336 -0.040028857150933482 0 0.0080190092185119209 -0.040756375154338602 0 0.0074164268165613336 -0.040028857150933482 0 0.0072769421786318608 -0.041194625644192712 0 0.0074164268165613336 -0.040028857150933482 0 0.005850196038596823 -0.041606287482291143 0 0.0072769421786318608 -0.041194625644192712 0 0.0074164268165613336 -0.040028857150933482 0 0.0045641904715665428 -0.040545793302824686 0 0.005850196038596823 -0.041606287482291143 0 0.0080051027039501274 -0.041718884014777212 0 0.0054571148257934491 -0.041982370990347531 0 0.0085907614936284165 -0.04338187353018183 0 0.0073943124757306113 -0.041961636636185594 0 0.0062744689014072406 -0.043424287852239785 0 0.0073943124757306113 -0.041961636636185594 0 0.0088874423881010883 -0.042194559870962579 0 0.0087843364452872413 -0.041337002602509512 0 0.0085907614936284165 -0.04338187353018183 0 0.0073943124757306113 -0.041961636636185594 0 0.0088874423881010883 -0.042194559870962579 0 0.0098096964118736495 -0.042553673730130283 0 0.0085907614936284165 -0.04338187353018183 0 0.0088874423881010883 -0.042194559870962579 0 0.0098230849140318478 -0.041784924972234384 0 0.0088874423881010883 -0.042194559870962579 0 0.0087843364452872413 -0.041337002602509512 0 0.0073943124757306113 -0.041961636636185594 0 0.0087843364452872413 -0.041337002602509512 0 0.0077025892954074859 -0.04055184262892373 0 0.0073943124757306113 -0.041961636636185594 0 0.0077025892954074859 -0.04055184262892373 0 0.0062873179596800869 -0.040990077645661864 0 0.0093105500388329081 -0.040365193538847738 0 0.0077025892954074859 -0.04055184262892373 0 0.0090246826617637072 -0.039425604508564471 0 0.0093105500388329081 -0.040365193538847738 0 0.0087843364452872413 -0.041337002602509512 0 0.0077025892954074859 -0.04055184262892373 0 0.0062873179596800869 -0.040990077645661864 0 0.0047694482860136571 -0.041605329722820862 0 0.0062248222873242699 -0.040192005218903828 0 0.0047694482860136571 -0.041605329722820862 0 0.0062248222873242699 -0.040192005218903828 0 0.005045470832665805 -0.039913459141435952 0 0.0077025892954074859 -0.04055184262892373 0 0.0062873179596800869 -0.040990077645661864 0 0.0062248222873242699 -0.040192005218903828 0 0.0073943124757306113 -0.041961636636185594 0 0.0062873179596800869 -0.040990077645661864 0 0.0051186911947339736 -0.04201740301691128 0 0.0062873179596800869 -0.040990077645661864 0 0.0051186911947339736 -0.04201740301691128 0 0.0039502683162747189 -0.040636622479382545 0 0.0061088170526474835 -0.040999943414212814 0 0.0043587439928243227 -0.041141129704453688 0 0.0051186911947339736 -0.04201740301691128 0 0.0062744689014072406 -0.043424287852239785 0 0.0037033572675528384 -0.043164297942305266 0 0.0073943124757306113 -0.041961636636185594 0 0.0051186911947339736 -0.04201740301691128 0 0.0062744689014072406 -0.043424287852239785 0 0.0045641904715665428 -0.040545793302824686 0 0.0024257749393948938 -0.041247948205194597 0 0.0036983258652065094 -0.042181281501214099 0 0.0054571148257934491 -0.041982370990347531 0 0.0031196071620913026 -0.042191998227877579 0 0.0024257749393948938 -0.041247948205194597 0 0.0012950329959242461 -0.042204776326624296 0 0.0015054663708170682 -0.042498557828247317 0 0.0031196071620913026 -0.042191998227877579 0 0.0014628716558781416 -0.042203196493204705 0 0.0028712549499743441 -0.041727382051577055 0 0.0012950329959242461 -0.042204776326624296 0 0.0018438561063387246 -0.040920715817303367 0 0.0037033572675528384 -0.043164297942305266 0 0.0028712549499743441 -0.041727382051577055 0 0.0012950329959242461 -0.042204776326624296 0 0.0051186911947339736 -0.04201740301691128 0 0.0037033572675528384 -0.043164297942305266 0 0.0028712549499743441 -0.041727382051577055 0 0.0001786742550842171 -0.042368740693974873 0 0.00069714407696121986 -0.042425647026482237 0 0.0003651968922457021 -0.042035549739977925 0 0.0001786742550842171 -0.042368740693974873 0 0.00069714407696121986 -0.042425647026482237 0 0.00034451933067299587 -0.042742313319290473 0 0.00069714407696121986 -0.042425647026482237 0 0.0012950329959242461 -0.042204776326624296 0 0.0003651968922457021 -0.042035549739977925 0 0.00069714407696121986 -0.042425647026482237 0 0.0012950329959242461 -0.042204776326624296 0 0.0015054663708170682 -0.042498557828247317 0 0.0012950329959242461 -0.042204776326624296 0 0.0003651968922457021 -0.042035549739977925 0 0.00060530513415192285 -0.041355185106735151 0 8.7765319589613899e-06 -0.041981973656401196 0 0.0003651968922457021 -0.042035549739977925 0 0.00060530513415192285 -0.041355185106735151 0 0.001185805579496164 -0.04177484687868839 0 0.0025714526632458564 -0.041454542043921572 0 0.0012950329959242461 -0.042204776326624296 0 0.00060530513415192285 -0.041355185106735151 0 0.0018438561063387246 -0.040920715817303367 0 0.0017284348986055756 -0.042215088405640144 0 0.0022784866827948182 -0.04112061360990632 0 0.0032770088601465162 -0.041987959980932917 0 0.0010032001048137212 -0.041381873791926628 0 0.0017284348986055756 -0.042215088405640144 0 0.0022784866827948182 -0.04112061360990632 0 0.0028712549499743441 -0.041727382051577055 0 0.0039502683162747189 -0.040636622479382545 0 0.0018438561063387246 -0.040920715817303367 0 0.0051186911947339736 -0.04201740301691128 0 0.0028712549499743441 -0.041727382051577055 0 0.0039502683162747189 -0.040636622479382545 0 0.0043587439928243227 -0.041141129704453688 0 0.0025714526632458564 -0.041454542043921572 0 0.0047694482860136571 -0.041605329722820862 0 0.0032770088601465162 -0.041987959980932917 0 0.0036490620742080119 -0.04064100471594341 0 0.0022784866827948182 -0.04112061360990632 0 0.0032770088601465162 -0.041987959980932917 0 0.0036490620742080119 -0.04064100471594341 0 0.0047694482860136571 -0.041605329722820862 0 0.0036490620742080119 -0.04064100471594341 0 0.005045470832665805 -0.039913459141435952 0 0.0036490620742080119 -0.04064100471594341 0 0.0039648428953095675 -0.039791418468117068 0 0.005045470832665805 -0.039913459141435952 0 0.0039648428953095675 -0.039791418468117068 0 0.0027615283495793738 -0.040030536924135343 0 0.0034848419288017502 -0.039245489606527385 0 0.0036490620742080119 -0.04064100471594341 0 0.0039648428953095675 -0.039791418468117068 0 0.0027615283495793738 -0.040030536924135343 0 0.0039648428953095675 -0.039791418468117068 0 0.0046417265419273299 -0.039467550200103715 0 0.005045470832665805 -0.039913459141435952 0 0.0010032001048137212 -0.041381873791926628 0 0.0022784866827948182 -0.04112061360990632 0 0.0013419629137480754 -0.040568869090723096 0 0.0022784866827948182 -0.04112061360990632 0 0.0013419629137480754 -0.040568869090723096 0 0.0027615283495793738 -0.040030536924135343 0 0.0022784866827948182 -0.04112061360990632 0 0.0036490620742080119 -0.04064100471594341 0 0.0027615283495793738 -0.040030536924135343 0 0.0013419629137480754 -0.040568869090723096 0 0.0027615283495793738 -0.040030536924135343 0 0.0016484460411810707 -0.039723256391675919 0 0.0011029058411436885 -0.039060660865545986 0 0.0016484460411810707 -0.039723256391675919 0 0.0023419944547906539 -0.039022074766185848 0 0.0027615283495793738 -0.040030536924135343 0 0.0016484460411810707 -0.039723256391675919 0 0.0023419944547906539 -0.039022074766185848 0 0.0027615283495793738 -0.040030536924135343 0 0.0023419944547906539 -0.039022074766185848 0 0.0034848419288017502 -0.039245489606527385 0 0.0028231539000851081 -0.03852000974418527 0 0.0023419944547906539 -0.039022074766185848 0 0.0034848419288017502 -0.039245489606527385 0 0.0011029058411436885 -0.039060660865545986 0 0.0016996786106847151 -0.038705670602367147 0 0.0023419944547906539 -0.039022074766185848 0 0.0039648428953095675 -0.039791418468117068 0 0.0034848419288017502 -0.039245489606527385 0 0.0046417265419273299 -0.039467550200103715 0 0.0040060177016391571 -0.038853803527744091 0 0.0034848419288017502 -0.039245489606527385 0 0.0046417265419273299 -0.039467550200103715 0 0.0059312706736916829 -0.03823087244468041 0 0.0057361900068693518 -0.038505143269724151 0 0.0064632360284775535 -0.038265555361046928 0 0.0040060177016391571 -0.038853803527744091 0 0.0047627760227018064 -0.03889699330818875 0 0.0046417265419273299 -0.039467550200103715 0 0.0053361864977224697 -0.03852355644099887 0 0.0051891034287774706 -0.039047567126849973 0 0.0064632360284775535 -0.038265555361046928 0 0.0070758701664821507 -0.038269922919742481 0 0.0063541023505115967 -0.038892948245209655 0 0.0057361900068693518 -0.038505143269724151 0 0.0064632360284775535 -0.038265555361046928 0 0.0063541023505115967 -0.038892948245209655 0 0.0064632360284775535 -0.038265555361046928 0 0.0070621533328146888 -0.038438216085923967 0 0.0070758701664821507 -0.038269922919742481 0 0.0064608924731233705 -0.038232318991718507 0 0.0064632360284775535 -0.038265555361046928 0 0.0070621533328146888 -0.038438216085923967 0 0.0091332559138526219 -0.036460288359912156 0 0.0070758701664821507 -0.038269922919742481 0 0.0089169419261346475 -0.038331248319854079 0 0.0080927527473256718 -0.03748160792346527 0 0.0071446267271881025 -0.038215626522979169 0 0.0070758701664821507 -0.038269922919742481 0 0.0089169419261346475 -0.038331248319854079 0 0.0074746061085350169 -0.039526049603016027 0 0.0070758701664821507 -0.038269922919742481 0 0.0074746061085350169 -0.039526049603016027 0 0.0063541023505115967 -0.038892948245209655 0 0.0089169419261346475 -0.038331248319854079 0 0.0090246826617637072 -0.039425604508564471 0 0.0074746061085350169 -0.039526049603016027 0 0.0077025892954074859 -0.04055184262892373 0 0.0090246826617637072 -0.039425604508564471 0 0.0074746061085350169 -0.039526049603016027 0 0.0077025892954074859 -0.04055184262892373 0 0.0074746061085350169 -0.039526049603016027 0 0.0062248222873242699 -0.040192005218903828 0 0.0074746061085350169 -0.039526049603016027 0 0.0062248222873242699 -0.040192005218903828 0 0.0063541023505115967 -0.038892948245209655 0 0.0062248222873242699 -0.040192005218903828 0 0.005045470832665805 -0.039913459141435952 0 0.0063541023505115967 -0.038892948245209655 0 0.0051891034287774706 -0.039047567126849973 0 0.0050617785269003309 -0.039910581515852785 0 0.0057361900068693518 -0.038505143269724151 0 0.005045470832665805 -0.039913459141435952 0 0.0063541023505115967 -0.038892948245209655 0 0.033811581449699132 -0.029304785627706081 0 0.034996681655866675 -0.027405968107906353 0 0.033912920163033745 -0.030706944865883198 0 0.034999797915280885 -0.027397429779173827 0 0.034695257921480677 -0.02775328101218634 0 0.034999871199090482 -0.02739662893267629 0 0.035921455647730756 -0.026033072907331249 0 0.034999855964564064 -0.025389654171822946 0 0.033811581449699132 -0.029304785627706081 0 0.034996681655866675 -0.027405968107906353 0 0.033692572530815486 -0.029642515677603259 0 0.033692572530815486 -0.029642515677603259 0 0.033381730861281642 -0.029655405474392698 0 0.032875840994862404 -0.029258256347694016 0 0.033811581449699132 -0.029304785627706081 0 0.033692572530815486 -0.029642515677603259 0 0.033381730861281642 -0.029655405474392698 0 0.033381730861281642 -0.029655405474392698 0 0.033644761801586848 -0.029937221821754387 0 0.033522011121354327 -0.030386690176748353 0 0.031807515085978129 -0.030949292239037873 0 0.032503991606356253 -0.030477610965401913 0 0.032875840994862404 -0.029258256347694016 0 0.032719480511650245 -0.030454830503603612 0 0.03287188827269228 -0.029519042926411197 0 0.033381730861281642 -0.029655405474392698 0 0.033644761801586848 -0.029937221821754387 0 0.032875840994862404 -0.029258256347694016 0 0.030706939373369942 -0.031236101977107675 0 0.031807515085978129 -0.030949292239037873 0 0.029172499544573686 -0.030234828247793669 0 0.030706939373369942 -0.031236101977107675 0 0.032503991606356253 -0.030477610965401913 0 0.030793234341137517 -0.031688959252007771 0 0.030706939373369942 -0.031236101977107675 0 0.030217191232248537 -0.031703301028054888 0 0.030793234341137517 -0.031688959252007771 0 0.030706939373369942 -0.031236101977107675 0 0.031807515085978129 -0.030949292239037873 0 0.032503991606356253 -0.030477610965401913 0 0.033522011121354327 -0.030386690176748353 0 0.033303435512382018 -0.031380191561992322 0 0.033444489109186279 -0.031200061867255647 0 0.032719480511650245 -0.030454830503603612 0 0.031301627076629784 -0.030739304090137757 0 0.033644761801586848 -0.029937221821754387 0 0.033522011121354327 -0.030386690176748353 0 0.033444489109186279 -0.031200061867255647 0 0.033811581449699132 -0.029304785627706081 0 0.033522011121354327 -0.030386690176748353 0 0.033912920163033745 -0.030706944865883198 0 0.033811581449699132 -0.029304785627706081 0 0.033381730861281642 -0.029655405474392698 0 0.033522011121354327 -0.030386690176748353 0 0.033522011121354327 -0.030386690176748353 0 0.033303435512382018 -0.031380191561992322 0 0.033912920163033745 -0.030706944865883198 0 0.033303435512382018 -0.031380191561992322 0 0.03283493601657976 -0.032356876461510496 0 0.033444489109186279 -0.031200061867255647 0 0.033303435512382018 -0.031380191561992322 0 0.033048472731084362 -0.032318186868287045 0 0.03283493601657976 -0.032356876461510496 0 0.033303435512382018 -0.031380191561992322 0 0.033048472731084362 -0.032318186868287045 0 0.033912920163033745 -0.030706944865883198 0 0.033048472731084362 -0.032318186868287045 0 0.033912920163033745 -0.030706944865883198 0 0.033485586339878977 -0.032456204672931407 0 0.034996681655866675 -0.027405968107906353 0 0.033912920163033745 -0.030706944865883198 0 0.034996880830259147 -0.031764725487487717 0 0.033912920163033745 -0.030706944865883198 0 0.034996880830259147 -0.031764725487487717 0 0.033485586339878977 -0.032456204672931407 0 0.034996880830259147 -0.031764725487487717 0 0.033134924402293979 -0.033791013961273125 0 0.033485586339878977 -0.032456204672931407 0 0.034996880830259147 -0.031764725487487717 0 0.03499847280470729 -0.034998398365143756 0 0.033134924402293979 -0.033791013961273125 0 0.03499847280470729 -0.034998398365143756 0 0.031361568171681925 -0.034997296967172457 0 0.033134924402293979 -0.033791013961273125 0 0.031361568171681925 -0.034997296967172457 0 0.033134924402293979 -0.033791013961273125 0 0.031170239983669173 -0.034436357611677564 0 0.033134924402293979 -0.033791013961273125 0 0.032383542549518855 -0.033391817751581843 0 0.031170239983669173 -0.034436357611677564 0 0.033134924402293979 -0.033791013961273125 0 0.032383542549518855 -0.033391817751581843 0 0.033485586339878977 -0.032456204672931407 0 0.033048472731084362 -0.032318186868287045 0 0.032383542549518855 -0.033391817751581843 0 0.033485586339878977 -0.032456204672931407 0 0.033048472731084362 -0.032318186868287045 0 0.032383542549518855 -0.033391817751581843 0 0.032364115511417275 -0.033076561383528963 0 0.032364115511417275 -0.033076561383528963 0 0.032013625326478355 -0.033268292335488392 0 0.031406221209707381 -0.033909588326319247 0 0.032383542549518855 -0.033391817751581843 0 0.032364115511417275 -0.033076561383528963 0 0.031406221209707381 -0.033909588326319247 0 0.032013625326478355 -0.033268292335488392 0 0.03123246795397526 -0.033888862753759262 0 0.031406221209707381 -0.033909588326319247 0 0.032013625326478355 -0.033268292335488392 0 0.03123246795397526 -0.033888862753759262 0 0.031661724110491313 -0.033552940686681666 0 0.031406221209707381 -0.033909588326319247 0 0.029993606505588848 -0.034625423984992798 0 0.030559017978557024 -0.034324782334461935 0 0.03123246795397526 -0.033888862753759262 0 0.031406221209707381 -0.033909588326319247 0 0.030559017978557024 -0.034324782334461935 0 0.032383542549518855 -0.033391817751581843 0 0.031406221209707381 -0.033909588326319247 0 0.031170239983669173 -0.034436357611677564 0 0.031361568171681925 -0.034997296967172457 0 0.031170239983669173 -0.034436357611677564 0 0.028630378124259784 -0.034998983350573221 0 0.031406221209707381 -0.033909588326319247 0 0.031170239983669173 -0.034436357611677564 0 0.029993606505588848 -0.034625423984992798 0 0.031170239983669173 -0.034436357611677564 0 0.029993606505588848 -0.034625423984992798 0 0.028630378124259784 -0.034998983350573221 0 0.026577413824259832 -0.034999694880845679 0 0.025551206854601119 -0.035249151698424373 0 0.025712228857420114 -0.035348885447104524 0 0.026580343833705951 -0.034999582441221644 0 0.027102996099786617 -0.034827002516611617 0 0.028630378124259784 -0.034998983350573221 0 0.026583198504412819 -0.034999321358606145 0 0.028757991599177732 -0.034987603244540859 0 0.029993606505588848 -0.034625423984992798 0 0.028630378124259784 -0.034998983350573221 0 0.028757991599177732 -0.034987603244540859 0 0.029993606505588848 -0.034625423984992798 0 0.028757991599177732 -0.034987603244540859 0 0.030559017978557024 -0.034324782334461935 0 0.025551206854601119 -0.035249151698424373 0 0.025300763803828091 -0.035053246850602883 0 0.025712228857420114 -0.035348885447104524 0 0.027102996099786617 -0.034827002516611617 0 0.028069439669714841 -0.034996263827155281 0 0.025551206854601119 -0.035249151698424373 0 0.025300763803828091 -0.035053246850602883 0 0.025345569215422123 -0.035056997654559524 0 0.025300763803828091 -0.035053246850602883 0 0.025345569215422123 -0.035056997654559524 0 0.025351451860084362 -0.035039010423236761 0 0.025333019241231554 -0.034958053622120087 0 0.025031366175347881 -0.034332097487322209 0 0.025300763803828091 -0.035053246850602883 0 0.025167001593128995 -0.03394881686182713 0 0.024646625934288558 -0.033606573575895721 0 0.028757991599177732 -0.034987603244540859 0 0.030559017978557024 -0.034324782334461935 0 0.030525038201694318 -0.034300746253808627 0 0.03123246795397526 -0.033888862753759262 0 0.030559017978557024 -0.034324782334461935 0 0.030525038201694318 -0.034300746253808627 0 0.028069439669714841 -0.034996263827155281 0 0.027008025021964466 -0.03245094201540915 0 0.03123246795397526 -0.033888862753759262 0 0.030525038201694318 -0.034300746253808627 0 0.031661724110491313 -0.033552940686681666 0 0.025345569215422123 -0.035056997654559524 0 0.025344503561007436 -0.034968784222167093 0 0.025351451860084362 -0.035039010423236761 0 0.027008025021964466 -0.03245094201540915 0 0.025031366175347881 -0.034332097487322209 0 0.024771750460399155 -0.032555732730868245 0 0.024646625934288558 -0.033606573575895721 0 0.024987060466514992 -0.032761901124915498 0 0.024981763756368069 -0.03326765949182299 0 0.025167001593128995 -0.03394881686182713 0 0.024646625934288558 -0.033606573575895721 0 0.024981763756368069 -0.03326765949182299 0 0.025167001593128995 -0.03394881686182713 0 0.02523879561101617 -0.033155316637665438 0 0.024981763756368069 -0.03326765949182299 0 0.024646625934288558 -0.033606573575895721 0 0.024987060466514992 -0.032761901124915498 0 0.024981763756368069 -0.03326765949182299 0 0.024987060466514992 -0.032761901124915498 0 0.025233885010692403 -0.032526983717374426 0 0.024981763756368069 -0.03326765949182299 0 0.025233885010692403 -0.032526983717374426 0 0.02523879561101617 -0.033155316637665438 0 0.024987060466514992 -0.032761901124915498 0 0.025233885010692403 -0.032526983717374426 0 0.025288823924646396 -0.032020217581254916 0 0.025233885010692403 -0.032526983717374426 0 0.025288823924646396 -0.032020217581254916 0 0.025388027183323905 -0.031940060031581764 0 0.025233885010692403 -0.032526983717374426 0 0.025388027183323905 -0.031940060031581764 0 0.025361934396218703 -0.03227214891151943 0 0.025388027183323905 -0.031940060031581764 0 0.025380374875450327 -0.03189981271528259 0 0.025361934396218703 -0.03227214891151943 0 0.025388027183323905 -0.031940060031581764 0 0.025544071109102669 -0.031603271037583862 0 0.025380374875450327 -0.03189981271528259 0 0.025288823924646396 -0.032020217581254916 0 0.025388027183323905 -0.031940060031581764 0 0.025544071109102669 -0.031603271037583862 0 0.025544071109102669 -0.031603271037583862 0 0.025449135621701612 -0.031776548767288519 0 0.025380374875450327 -0.03189981271528259 0 0.025288823924646396 -0.032020217581254916 0 0.02577048981227861 -0.031288625522431307 0 0.025320591160224417 -0.031650927509978527 0 0.02577048981227861 -0.031288625522431307 0 0.025320591160224417 -0.031650927509978527 0 0.026607898022866644 -0.030679357821554946 0 0.02577048981227861 -0.031288625522431307 0 0.026607898022866644 -0.030679357821554946 0 0.025798763202646041 -0.031479054020484419 0 0.025288823924646396 -0.032020217581254916 0 0.025544071109102669 -0.031603271037583862 0 0.02577048981227861 -0.031288625522431307 0 0.025544071109102669 -0.031603271037583862 0 0.02577048981227861 -0.031288625522431307 0 0.025798763202646041 -0.031479054020484419 0 0.027008025021964466 -0.03245094201540915 0 0.025737211493250027 -0.030088255419111802 0 0.024771750460399155 -0.032555732730868245 0 0.025288823924646396 -0.032020217581254916 0 0.025320591160224417 -0.031650927509978527 0 0.024771750460399155 -0.032555732730868245 0 0.024987060466514992 -0.032761901124915498 0 0.025288823924646396 -0.032020217581254916 0 0.032013625326478355 -0.033268292335488392 0 0.031661724110491313 -0.033552940686681666 0 0.032663962531573977 -0.032547699644288872 0 0.025821802433955685 -0.027993965922948477 0 0.026266804344203549 -0.029174388489422314 0 0.027207881911539462 -0.029314591127751068 0 0.027008025021964466 -0.03245094201540915 0 0.030083307592407654 -0.030673062634417506 0 0.032013625326478355 -0.033268292335488392 0 0.03283493601657976 -0.032356876461510496 0 0.032663962531573977 -0.032547699644288872 0 0.033048472731084362 -0.032318186868287045 0 0.032364115511417275 -0.033076561383528963 0 0.03283493601657976 -0.032356876461510496 0 0.032364115511417275 -0.033076561383528963 0 0.032013625326478355 -0.033268292335488392 0 0.03283493601657976 -0.032356876461510496 0 0.030083307592407654 -0.030673062634417506 0 0.031301627076629784 -0.030739304090137757 0 0.03283493601657976 -0.032356876461510496 0 0.032663962531573977 -0.032547699644288872 0 0.033444489109186279 -0.031200061867255647 0 0.026266804344203549 -0.029174388489422314 0 0.027207881911539462 -0.029314591127751068 0 0.026607898022866644 -0.030679357821554946 0 0.025737211493250027 -0.030088255419111802 0 0.026452959438122613 -0.030955979519403227 0 0.027207881911539462 -0.029314591127751068 0 0.026607898022866644 -0.030679357821554946 0 0.029172499544573686 -0.030234828247793669 0 0.026607898022866644 -0.030679357821554946 0 0.027264027508476906 -0.031149451128989789 0 0.029172499544573686 -0.030234828247793669 0 0.026607898022866644 -0.030679357821554946 0 0.027264027508476906 -0.031149451128989789 0 0.02643795136715462 -0.031503910805037956 0 0.027264027508476906 -0.031149451128989789 0 0.026957764233044839 -0.031672522563182405 0 0.02643795136715462 -0.031503910805037956 0 0.029172499544573686 -0.030234828247793669 0 0.029376104895020305 -0.031416934205599933 0 0.028304101981870201 -0.031229798616358325 0 0.027264027508476906 -0.031149451128989789 0 0.029172499544573686 -0.030234828247793669 0 0.028304101981870201 -0.031229798616358325 0 0.030706939373369942 -0.031236101977107675 0 0.029172499544573686 -0.030234828247793669 0 0.029376104895020305 -0.031416934205599933 0 0.029376104895020305 -0.031416934205599933 0 0.028304101981870201 -0.031229798616358325 0 0.028429075938922889 -0.031763490126935481 0 0.028429075938922889 -0.031763490126935481 0 0.027801098363561275 -0.032170786135800628 0 0.02850245685675365 -0.032361439205182439 0 0.028429075938922889 -0.031763490126935481 0 0.028969927752335197 -0.0319673818223929 0 0.02850245685675365 -0.032361439205182439 0 0.028969927752335197 -0.0319673818223929 0 0.029031667592109532 -0.032330700243924364 0 0.02850245685675365 -0.032361439205182439 0 0.028969927752335197 -0.0319673818223929 0 0.029549457874688632 -0.032009953274236044 0 0.029031667592109532 -0.032330700243924364 0 0.029376104895020305 -0.031416934205599933 0 0.028429075938922889 -0.031763490126935481 0 0.028969927752335197 -0.0319673818223929 0 0.029376104895020305 -0.031416934205599933 0 0.028969927752335197 -0.0319673818223929 0 0.029549457874688632 -0.032009953274236044 0 0.029376104895020305 -0.031416934205599933 0 0.029549457874688632 -0.032009953274236044 0 0.030217191232248537 -0.031703301028054888 0 0.030706939373369942 -0.031236101977107675 0 0.029376104895020305 -0.031416934205599933 0 0.030217191232248537 -0.031703301028054888 0 0.029549457874688632 -0.032009953274236044 0 0.030217191232248537 -0.031703301028054888 0 0.029896222172979933 -0.032241565069193422 0 0.026957764233044839 -0.031672522563182405 0 0.027119837394940307 -0.032085658155170081 0 0.026448833165672935 -0.032065815963993397 0 0.027264027508476906 -0.031149451128989789 0 0.026957764233044839 -0.031672522563182405 0 0.027654024443882434 -0.031670531948425368 0 0.026957764233044839 -0.031672522563182405 0 0.027654024443882434 -0.031670531948425368 0 0.027119837394940307 -0.032085658155170081 0 0.028304101981870201 -0.031229798616358325 0 0.028429075938922889 -0.031763490126935481 0 0.027654024443882434 -0.031670531948425368 0 0.027264027508476906 -0.031149451128989789 0 0.028304101981870201 -0.031229798616358325 0 0.027654024443882434 -0.031670531948425368 0 0.027654024443882434 -0.031670531948425368 0 0.027801098363561275 -0.032170786135800628 0 0.027119837394940307 -0.032085658155170081 0 0.028429075938922889 -0.031763490126935481 0 0.027654024443882434 -0.031670531948425368 0 0.027801098363561275 -0.032170786135800628 0 0.027801098363561275 -0.032170786135800628 0 0.027119837394940307 -0.032085658155170081 0 0.02727602894228557 -0.032541240125267185 0 0.027119837394940307 -0.032085658155170081 0 0.026773527337426963 -0.032453947771392905 0 0.02727602894228557 -0.032541240125267185 0 0.026448833165672935 -0.032065815963993397 0 0.026292151414759372 -0.032711699085009802 0 0.026773527337426963 -0.032453947771392905 0 0.027119837394940307 -0.032085658155170081 0 0.026448833165672935 -0.032065815963993397 0 0.026773527337426963 -0.032453947771392905 0 0.026957764233044839 -0.031672522563182405 0 0.026448833165672935 -0.032065815963993397 0 0.02643795136715462 -0.031503910805037956 0 0.026448833165672935 -0.032065815963993397 0 0.025918559120529153 -0.031830303113993541 0 0.02643795136715462 -0.031503910805037956 0 0.026448833165672935 -0.032065815963993397 0 0.025918559120529153 -0.031830303113993541 0 0.025908268123423533 -0.032299623433833691 0 0.026448833165672935 -0.032065815963993397 0 0.025908268123423533 -0.032299623433833691 0 0.026292151414759372 -0.032711699085009802 0 0.025908268123423533 -0.032299623433833691 0 0.025547281738399107 -0.032137982261362046 0 0.025515876370717124 -0.032459044373741093 0 0.025547281738399107 -0.032137982261362046 0 0.025246350349602837 -0.032349047642186768 0 0.025515876370717124 -0.032459044373741093 0 0.025547281738399107 -0.032137982261362046 0 0.025577312790577726 -0.0318189131025177 0 0.025336596068305666 -0.032082946236267292 0 0.025918559120529153 -0.031830303113993541 0 0.025908268123423533 -0.032299623433833691 0 0.025547281738399107 -0.032137982261362046 0 0.025918559120529153 -0.031830303113993541 0 0.025547281738399107 -0.032137982261362046 0 0.025577312790577726 -0.0318189131025177 0 0.025918559120529153 -0.031830303113993541 0 0.025577312790577726 -0.0318189131025177 0 0.025798763202646041 -0.031479054020484419 0 0.025577312790577726 -0.0318189131025177 0 0.025449135621701612 -0.031776548767288519 0 0.025289944250280159 -0.031939210292667872 0 0.025544071109102669 -0.031603271037583862 0 0.025449135621701612 -0.031776548767288519 0 0.025798763202646041 -0.031479054020484419 0 0.025577312790577726 -0.0318189131025177 0 0.025449135621701612 -0.031776548767288519 0 0.025798763202646041 -0.031479054020484419 0 0.026607898022866644 -0.030679357821554946 0 0.025798763202646041 -0.031479054020484419 0 0.02643795136715462 -0.031503910805037956 0 0.025918559120529153 -0.031830303113993541 0 0.025798763202646041 -0.031479054020484419 0 0.02643795136715462 -0.031503910805037956 0 0.025032128533786873 -0.032093246953394709 0 0.025095226548329078 -0.032112285133852662 0 0.025290824832123034 -0.031979345752289084 0 0.025032128533786873 -0.032093246953394709 0 0.025095226548329078 -0.032112285133852662 0 0.024779760374287706 -0.032180216122102881 0 0.025032128533786873 -0.032093246953394709 0 0.025289944250280159 -0.031939210292667872 0 0.025290824832123034 -0.031979345752289084 0 0.025449135621701612 -0.031776548767288519 0 0.025289944250280159 -0.031939210292667872 0 0.025380374875450327 -0.03189981271528259 0 0.025577312790577726 -0.0318189131025177 0 0.025289944250280159 -0.031939210292667872 0 0.025336596068305666 -0.032082946236267292 0 0.025032128533786873 -0.032093246953394709 0 0.025289944250280159 -0.031939210292667872 0 0.025064553877763546 -0.03219682745085016 0 0.025289944250280159 -0.031939210292667872 0 0.025064553877763546 -0.03219682745085016 0 0.025336596068305666 -0.032082946236267292 0 0.025547281738399107 -0.032137982261362046 0 0.025336596068305666 -0.032082946236267292 0 0.025246350349602837 -0.032349047642186768 0 0.025064553877763546 -0.03219682745085016 0 0.025246350349602837 -0.032349047642186768 0 0.024909020469500789 -0.032472971669734244 0 0.025064553877763546 -0.03219682745085016 0 0.025336596068305666 -0.032082946236267292 0 0.025246350349602837 -0.032349047642186768 0 0.025064553877763546 -0.03219682745085016 0 0.024682263111594112 -0.032289239373897494 0 0.024909020469500789 -0.032472971669734244 0 0.025032128533786873 -0.032093246953394709 0 0.025064553877763546 -0.03219682745085016 0 0.024682263111594112 -0.032289239373897494 0 0.025032128533786873 -0.032093246953394709 0 0.024682263111594112 -0.032289239373897494 0 0.024779760374287706 -0.032180216122102881 0 0.024682263111594112 -0.032289239373897494 0 0.02442347636931794 -0.032268036290977971 0 0.0241090430788822 -0.032443962798866174 0 0.024682263111594112 -0.032289239373897494 0 0.02442347636931794 -0.032268036290977971 0 0.024779760374287706 -0.032180216122102881 0 0.02442347636931794 -0.032268036290977971 0 0.024145048917147138 -0.032278065564436118 0 0.023912359427254212 -0.032466584062206198 0 0.02442347636931794 -0.032268036290977971 0 0.0241090430788822 -0.032443962798866174 0 0.023912359427254212 -0.032466584062206198 0 0.02442347636931794 -0.032268036290977971 0 0.024145048917147138 -0.032278065564436118 0 0.024494336461753034 -0.032211381728704788 0 0.021877165669396303 -0.034664715926751813 0 0.021037694472080329 -0.034820071923188506 0 0.024494336461753034 -0.032211381728704788 0 0.024826134434229621 -0.032168988629820441 0 0.024897064952507039 -0.032182521273793674 0 0.02442347636931794 -0.032268036290977971 0 0.024494336461753034 -0.032211381728704788 0 0.024826134434229621 -0.032168988629820441 0 0.024494336461753034 -0.032211381728704788 0 0.024897064952507039 -0.032182521273793674 0 0.0242962364607394 -0.032222500144254963 0 0.024145048917147138 -0.032278065564436118 0 0.024494336461753034 -0.032211381728704788 0 0.0242962364607394 -0.032222500144254963 0 0.02442347636931794 -0.032268036290977971 0 0.024779760374287706 -0.032180216122102881 0 0.024826134434229621 -0.032168988629820441 0 0.025095226548329078 -0.032112285133852662 0 0.024779760374287706 -0.032180216122102881 0 0.024826134434229621 -0.032168988629820441 0 0.025095226548329078 -0.032112285133852662 0 0.024826134434229621 -0.032168988629820441 0 0.025293422983929722 -0.032245120824567299 0 0.024826134434229621 -0.032168988629820441 0 0.025293422983929722 -0.032245120824567299 0 0.024897064952507039 -0.032182521273793674 0 0.021877165669396303 -0.034664715926751813 0 0.023630602321562236 -0.034380181936498562 0 0.019072190215402476 -0.037033935322291107 0 0.018889918525834527 -0.036617629524222546 0 0.019369847330720516 -0.036463902068209798 0 0.019072190215402476 -0.037033935322291107 0 0.018889918525834527 -0.036617629524222546 0 0.018728313378422276 -0.036856882498851114 0 0.025293422983929722 -0.032245120824567299 0 0.024897064952507039 -0.032182521273793674 0 0.025383342994525892 -0.032226429423403653 0 0.025293422983929722 -0.032245120824567299 0 0.025675352074321423 -0.032385139965907438 0 0.025383342994525892 -0.032226429423403653 0 0.025293422983929722 -0.032245120824567299 0 0.025675352074321423 -0.032385139965907438 0 0.02550016663094359 -0.032286517612992983 0 0.025675352074321423 -0.032385139965907438 0 0.02550016663094359 -0.032286517612992983 0 0.025613424275264165 -0.032759779202403569 0 0.02550016663094359 -0.032286517612992983 0 0.025421048506585543 -0.032221826857491545 0 0.025613424275264165 -0.032759779202403569 0 0.02550016663094359 -0.032286517612992983 0 0.025327771136274237 -0.032130668488465838 0 0.025421048506585543 -0.032221826857491545 0 0.025095226548329078 -0.032112285133852662 0 0.025327771136274237 -0.032130668488465838 0 0.025290824832123034 -0.031979345752289084 0 0.025327771136274237 -0.032130668488465838 0 0.025290824832123034 -0.031979345752289084 0 0.025421048506585543 -0.032221826857491545 0 0.025293422983929722 -0.032245120824567299 0 0.02550016663094359 -0.032286517612992983 0 0.025327771136274237 -0.032130668488465838 0 0.025095226548329078 -0.032112285133852662 0 0.025293422983929722 -0.032245120824567299 0 0.025327771136274237 -0.032130668488465838 0 0.025380374875450327 -0.03189981271528259 0 0.025290824832123034 -0.031979345752289084 0 0.025421048506585543 -0.032221826857491545 0 0.025289944250280159 -0.031939210292667872 0 0.025380374875450327 -0.03189981271528259 0 0.025290824832123034 -0.031979345752289084 0 0.025380374875450327 -0.03189981271528259 0 0.025361934396218703 -0.03227214891151943 0 0.025421048506585543 -0.032221826857491545 0 0.025361934396218703 -0.03227214891151943 0 0.025421048506585543 -0.032221826857491545 0 0.025397225819523004 -0.032675810566032415 0 0.025421048506585543 -0.032221826857491545 0 0.025397225819523004 -0.032675810566032415 0 0.025613424275264165 -0.032759779202403569 0 0.025233885010692403 -0.032526983717374426 0 0.025361934396218703 -0.03227214891151943 0 0.025397225819523004 -0.032675810566032415 0 0.025233885010692403 -0.032526983717374426 0 0.025397225819523004 -0.032675810566032415 0 0.02523879561101617 -0.033155316637665438 0 0.025397225819523004 -0.032675810566032415 0 0.02523879561101617 -0.033155316637665438 0 0.025441205668560184 -0.03340836645070739 0 0.025397225819523004 -0.032675810566032415 0 0.025441205668560184 -0.03340836645070739 0 0.025613424275264165 -0.032759779202403569 0 0.025441205668560184 -0.03340836645070739 0 0.025869095809471967 -0.033657624401432731 0 0.025381174487637458 -0.034560432045945506 0 0.025167001593128995 -0.03394881686182713 0 0.025441205668560184 -0.03340836645070739 0 0.025381174487637458 -0.034560432045945506 0 0.025167001593128995 -0.03394881686182713 0 0.02523879561101617 -0.033155316637665438 0 0.025441205668560184 -0.03340836645070739 0 0.025441205668560184 -0.03340836645070739 0 0.025613424275264165 -0.032759779202403569 0 0.025869095809471967 -0.033657624401432731 0 0.025613424275264165 -0.032759779202403569 0 0.025869095809471967 -0.033657624401432731 0 0.025933435766087459 -0.033073439949381361 0 0.025675352074321423 -0.032385139965907438 0 0.025613424275264165 -0.032759779202403569 0 0.025933435766087459 -0.033073439949381361 0 0.024891157199829449 -0.035676822872540537 0 0.025181502196404238 -0.035430281247127847 0 0.025381174487637458 -0.034560432045945506 0 0.025474972249822283 -0.03465391871974921 0 0.025164127981600316 -0.034635543008815196 0 0.024891157199829449 -0.035676822872540537 0 0.025181502196404238 -0.035430281247127847 0 0.024516720035519361 -0.036017593254149799 0 0.025300763803828091 -0.035053246850602883 0 0.025181502196404238 -0.035430281247127847 0 0.025381174487637458 -0.034560432045945506 0 0.025300763803828091 -0.035053246850602883 0 0.025167001593128995 -0.03394881686182713 0 0.025381174487637458 -0.034560432045945506 0 0.025300763803828091 -0.035053246850602883 0 0.025181502196404238 -0.035430281247127847 0 0.025209900334720925 -0.035486941886733486 0 0.025300763803828091 -0.035053246850602883 0 0.025209900334720925 -0.035486941886733486 0 0.025712228857420114 -0.035348885447104524 0 0.025181502196404238 -0.035430281247127847 0 0.025209900334720925 -0.035486941886733486 0 0.024560811092136054 -0.035567774097086703 0 0.025181502196404238 -0.035430281247127847 0 0.024560811092136054 -0.035567774097086703 0 0.024516720035519361 -0.036017593254149799 0 0.025209900334720925 -0.035486941886733486 0 0.024560811092136054 -0.035567774097086703 0 0.024637652441209565 -0.034999629311646172 0 0.024560811092136054 -0.035567774097086703 0 0.024637652441209565 -0.034999629311646172 0 0.023554434123772314 -0.035598291397401755 0 0.026577413824259832 -0.034999694880845679 0 0.024637652441209565 -0.034999629311646172 0 0.025712228857420114 -0.035348885447104524 0 0.025209900334720925 -0.035486941886733486 0 0.024637652441209565 -0.034999629311646172 0 0.025712228857420114 -0.035348885447104524 0 0.022693384552382109 -0.034999456779611207 0 0.023554434123772314 -0.035598291397401755 0 0.022365845115806606 -0.036268819780301921 0 0.022693384552382109 -0.034999456779611207 0 0.022365845115806606 -0.036268819780301921 0 0.021350325383725 -0.035779389846001916 0 0.024637652441209565 -0.034999629311646172 0 0.022693384552382109 -0.034999456779611207 0 0.023554434123772314 -0.035598291397401755 0 0.024560811092136054 -0.035567774097086703 0 0.023554434123772314 -0.035598291397401755 0 0.024516720035519361 -0.036017593254149799 0 0.023554434123772314 -0.035598291397401755 0 0.02333141650139698 -0.036617270337671988 0 0.024516720035519361 -0.036017593254149799 0 0.023554434123772314 -0.035598291397401755 0 0.022365845115806606 -0.036268819780301921 0 0.02333141650139698 -0.036617270337671988 0 0.022365845115806606 -0.036268819780301921 0 0.02333141650139698 -0.036617270337671988 0 0.022487161297280265 -0.037990775853744933 0 0.02333141650139698 -0.036617270337671988 0 0.023851650379248725 -0.037798201398718728 0 0.022487161297280265 -0.037990775853744933 0 0.02333141650139698 -0.036617270337671988 0 0.024516720035519361 -0.036017593254149799 0 0.023851650379248725 -0.037798201398718728 0 0.024891157199829449 -0.035676822872540537 0 0.024516720035519361 -0.036017593254149799 0 0.02484228041678984 -0.035744328201527904 0 0.02435018008068851 -0.036530304468550233 0 0.024634206248372131 -0.035404357959795282 0 0.023792720654755899 -0.035045684389244304 0 0.023268883635451505 -0.03625207664771881 0 0.021850616541358333 -0.035345086002642315 0 0.025474972249822283 -0.03465391871974921 0 0.024634206248372131 -0.035404357959795282 0 0.026331944428948869 -0.03343407284953679 0 0.026573487150937269 -0.032918248722673238 0 0.025933435766087459 -0.033073439949381361 0 0.025869095809471967 -0.033657624401432731 0 0.026331944428948869 -0.03343407284953679 0 0.025933435766087459 -0.033073439949381361 0 0.024634206248372131 -0.035404357959795282 0 0.023630602321562236 -0.034380181936498562 0 0.025748634365031203 -0.032873863304501143 0 0.023630602321562236 -0.034380181936498562 0 0.025675352074321423 -0.032385139965907438 0 0.026573487150937269 -0.032918248722673238 0 0.025933435766087459 -0.033073439949381361 0 0.018889918525834527 -0.036617629524222546 0 0.019369847330720516 -0.036463902068209798 0 0.019064843730509182 -0.036279649892711485 0 0.024634206248372131 -0.035404357959795282 0 0.020649631994169318 -0.036403354269197559 0 0.023630602321562236 -0.034380181936498562 0 0.020649631994169318 -0.036403354269197559 0 0.018889918525834527 -0.036617629524222546 0 0.019064843730509182 -0.036279649892711485 0 0.018647028483736384 -0.036362450319046613 0 0.018889918525834527 -0.036617629524222546 0 0.018647028483736384 -0.036362450319046613 0 0.018498183435004673 -0.036669995077807618 0 0.020649631994169318 -0.036403354269197559 0 0.01828246457373273 -0.036487868095791381 0 0.01820511205153522 -0.036518389928325991 0 0.018167753312819813 -0.03662729829932803 0 0.017840353212971609 -0.036322389279611886 0 0.018450683977911699 -0.036501969241317336 0 0.01820511205153522 -0.036518389928325991 0 0.018269552610797216 -0.036209101745554508 0 0.01820511205153522 -0.036518389928325991 0 0.018167753312819813 -0.03662729829932803 0 0.018498183435004673 -0.036669995077807618 0 0.018647028483736384 -0.036362450319046613 0 0.01820511205153522 -0.036518389928325991 0 0.018498183435004673 -0.036669995077807618 0 0.01828246457373273 -0.036487868095791381 0 0.018341576212346021 -0.036485776184230941 0 0.01820511205153522 -0.036518389928325991 0 0.018269552610797216 -0.036209101745554508 0 0.017840353212971609 -0.036322389279611886 0 0.018743980402922713 -0.036455400326053725 0 0.018450683977911699 -0.036501969241317336 0 0.018269552610797216 -0.036209101745554508 0 0.020649631994169318 -0.036403354269197559 0 0.019459265680081918 -0.036772493377619522 0 0.022365845115806606 -0.036268819780301921 0 0.022487161297280265 -0.037990775853744933 0 0.020631216344844518 -0.037102724278485703 0 0.022365845115806606 -0.036268819780301921 0 0.020631216344844518 -0.037102724278485703 0 0.021350325383725 -0.035779389846001916 0 0.019459265680081918 -0.036772493377619522 0 0.018365510170774618 -0.035949582140995917 0 0.020631216344844518 -0.037102724278485703 0 0.020072240075256348 -0.035872555541905396 0 0.021350325383725 -0.035779389846001916 0 0.020631216344844518 -0.037102724278485703 0 0.020072240075256348 -0.035872555541905396 0 0.018357955266893673 -0.035980302490907806 0 0.020072240075256348 -0.035872555541905396 0 0.020749735617662749 -0.034999763016866477 0 0.0188051070612292 -0.03499967154333497 0 0.020072240075256348 -0.035872555541905396 0 0.020749735617662749 -0.034999763016866477 0 0.021350325383725 -0.035779389846001916 0 0.022693384552382109 -0.034999456779611207 0 0.020749735617662749 -0.034999763016866477 0 0.021350325383725 -0.035779389846001916 0 0.016862283686386138 -0.034999733593692267 0 0.0188051070612292 -0.03499967154333497 0 0.017359591488027886 -0.035768290771245305 0 0.0188051070612292 -0.03499967154333497 0 0.018357955266893673 -0.035980302490907806 0 0.017359591488027886 -0.035768290771245305 0 0.020072240075256348 -0.035872555541905396 0 0.0188051070612292 -0.03499967154333497 0 0.018357955266893673 -0.035980302490907806 0 0.018269552610797216 -0.036209101745554508 0 0.018357955266893673 -0.035980302490907806 0 0.017840353212971609 -0.036322389279611886 0 0.018357955266893673 -0.035980302490907806 0 0.01752204704011737 -0.036200773505417484 0 0.017840353212971609 -0.036322389279611886 0 0.018357955266893673 -0.035980302490907806 0 0.017359591488027886 -0.035768290771245305 0 0.01752204704011737 -0.036200773505417484 0 0.016750709694463718 -0.036254530492422408 0 0.017359591488027886 -0.035768290771245305 0 0.01752204704011737 -0.036200773505417484 0 0.016750709694463718 -0.036254530492422408 0 0.01752204704011737 -0.036200773505417484 0 0.01714940778984193 -0.036454463952992816 0 0.01752204704011737 -0.036200773505417484 0 0.01714940778984193 -0.036454463952992816 0 0.017840353212971609 -0.036322389279611886 0 0.017873861288337421 -0.036553624678547628 0 0.01780026092987284 -0.036337027650109772 0 0.017510840091390496 -0.03661999417440874 0 0.017840353212971609 -0.036322389279611886 0 0.017219449517076605 -0.036630549789131016 0 0.016660302744491848 -0.036632066743264198 0 0.01714940778984193 -0.036454463952992816 0 0.017219449517076605 -0.036630549789131016 0 0.01714940778984193 -0.036454463952992816 0 0.017840353212971609 -0.036322389279611886 0 0.017219449517076605 -0.036630549789131016 0 0.016660302744491848 -0.036632066743264198 0 0.017219449517076605 -0.036630549789131016 0 0.016764811006153686 -0.036614394999318234 0 0.017219449517076605 -0.036630549789131016 0 0.01691023963780142 -0.036540594683381118 0 0.016764811006153686 -0.036614394999318234 0 0.01691023963780142 -0.036540594683381118 0 0.016764811006153686 -0.036614394999318234 0 0.016814054451650753 -0.036350573946679884 0 0.016429940985765921 -0.036586246573153937 0 0.016764811006153686 -0.036614394999318234 0 0.016814054451650753 -0.036350573946679884 0 0.016814054451650753 -0.036350573946679884 0 0.016800675266476852 -0.036437879103401918 0 0.016948210702769046 -0.036081228443560931 0 0.01691023963780142 -0.036540594683381118 0 0.016814054451650753 -0.036350573946679884 0 0.016800675266476852 -0.036437879103401918 0 0.017219449517076605 -0.036630549789131016 0 0.01691023963780142 -0.036540594683381118 0 0.016800675266476852 -0.036437879103401918 0 0.017195761617346532 -0.036628035503537985 0 0.017157470899323998 -0.036514809473208912 0 0.017510840091390496 -0.03661999417440874 0 0.017219449517076605 -0.036630549789131016 0 0.017483638057777296 -0.036745007655094253 0 0.017510840091390496 -0.03661999417440874 0 0.017483638057777296 -0.036745007655094253 0 0.017529089863086319 -0.036724594861911937 0 0.017873861288337421 -0.036553624678547628 0 0.017744645682846671 -0.037194106822967234 0 0.018167753312819813 -0.03662729829932803 0 0.018498183435004673 -0.036669995077807618 0 0.0185413916770352 -0.037083249823298234 0 0.018498183435004673 -0.036669995077807618 0 0.018728313378422276 -0.036856882498851114 0 0.0185413916770352 -0.037083249823298234 0 0.018889918525834527 -0.036617629524222546 0 0.018498183435004673 -0.036669995077807618 0 0.018728313378422276 -0.036856882498851114 0 0.019072190215402476 -0.037033935322291107 0 0.018728313378422276 -0.036856882498851114 0 0.0185413916770352 -0.037083249823298234 0 0.019072190215402476 -0.037033935322291107 0 0.0185413916770352 -0.037083249823298234 0 0.018850942844200649 -0.037512482961661972 0 0.017157470899323998 -0.036514809473208912 0 0.017002036375826788 -0.036715964463921898 0 0.017483638057777296 -0.036745007655094253 0 0.017529089863086319 -0.036724594861911937 0 0.017564013605205653 -0.036632123805551357 0 0.017744645682846671 -0.037194106822967234 0 0.021037694472080329 -0.034820071923188506 0 0.017529089863086319 -0.036724594861911937 0 0.017564013605205653 -0.036632123805551357 0 0.017472316473322078 -0.036595350021786523 0 0.024145048917147138 -0.032278065564436118 0 0.024018277372360383 -0.032086885342450334 0 0.02374183649103917 -0.03246032134286414 0 0.021037694472080329 -0.034820071923188506 0 0.019515832781325584 -0.03360146215108014 0 0.017564013605205653 -0.036632123805551357 0 0.017472316473322078 -0.036595350021786523 0 0.017532343310981521 -0.036440923435519627 0 0.022640378428248835 -0.0330627808768377 0 0.021037694472080329 -0.034820071923188506 0 0.024145048917147138 -0.032278065564436118 0 0.02374183649103917 -0.03246032134286414 0 0.023912359427254212 -0.032466584062206198 0 0.017002036375826788 -0.036715964463921898 0 0.019515832781325584 -0.03360146215108014 0 0.016788800627864142 -0.036124075091989227 0 0.016674998402422026 -0.035658261087098034 0 0.017156737006090408 -0.035652747505721769 0 0.016788800627864142 -0.036124075091989227 0 0.016948210702769046 -0.036081228443560931 0 0.017156737006090408 -0.035652747505721769 0 0.01708349618082006 -0.035832805086430455 0 0.016948210702769046 -0.036081228443560931 0 0.017156737006090408 -0.035652747505721769 0 0.016970671674175174 -0.035864175838092385 0 0.016759768403945829 -0.036097871438298922 0 0.01708349618082006 -0.035832805086430455 0 0.016759768403945829 -0.036097871438298922 0 0.01708349618082006 -0.035832805086430455 0 0.016948210702769046 -0.036081228443560931 0 0.0165287182258286 -0.036357201315946615 0 0.016814054451650753 -0.036350573946679884 0 0.016759768403945829 -0.036097871438298922 0 0.016814054451650753 -0.036350573946679884 0 0.016759768403945829 -0.036097871438298922 0 0.016948210702769046 -0.036081228443560931 0 0.016800675266476852 -0.036437879103401918 0 0.016788800627864142 -0.036124075091989227 0 0.016948210702769046 -0.036081228443560931 0 0.017698314267420062 -0.034900614818671551 0 0.017345505630182285 -0.03541783263787384 0 0.017576441273779598 -0.034908383401925432 0 0.016970671674175174 -0.035864175838092385 0 0.017160469394486327 -0.035577530273882919 0 0.017345505630182285 -0.03541783263787384 0 0.017160469394486327 -0.035577530273882919 0 0.017345505630182285 -0.03541783263787384 0 0.017576441273779598 -0.034908383401925432 0 0.016970671674175174 -0.035864175838092385 0 0.01708349618082006 -0.035832805086430455 0 0.017345505630182285 -0.03541783263787384 0 0.01708349618082006 -0.035832805086430455 0 0.017345505630182285 -0.03541783263787384 0 0.017156737006090408 -0.035652747505721769 0 0.017698314267420062 -0.034900614818671551 0 0.017345505630182285 -0.03541783263787384 0 0.017156737006090408 -0.035652747505721769 0 0.017698314267420062 -0.034900614818671551 0 0.017156737006090408 -0.035652747505721769 0 0.017015334032995048 -0.035078726136536155 0 0.016674998402422026 -0.035658261087098034 0 0.017156737006090408 -0.035652747505721769 0 0.017015334032995048 -0.035078726136536155 0 0.019515832781325584 -0.03360146215108014 0 0.022613419731997136 -0.031579265959731227 0 0.02374183649103917 -0.03246032134286414 0 0.023633680833206775 -0.032623350949732829 0 0.023912359427254212 -0.032466584062206198 0 0.020621844854483921 -0.028915816341816107 0 0.021739050018614519 -0.030876920043941092 0 0.019608627718248037 -0.031153342668574672 0 0.019515832781325584 -0.03360146215108014 0 0.018369403006434686 -0.032990183797708114 0 0.021739050018614519 -0.030876920043941092 0 0.019608627718248037 -0.031153342668574672 0 0.020763431893373006 -0.033002886283362648 0 0.021739050018614519 -0.030876920043941092 0 0.020763431893373006 -0.033002886283362648 0 0.022890429950774248 -0.032895434002682127 0 0.019608627718248037 -0.031153342668574672 0 0.018432851107315441 -0.033952047828029797 0 0.020763431893373006 -0.033002886283362648 0 0.017698314267420062 -0.034900614818671551 0 0.017015334032995048 -0.035078726136536155 0 0.018432851107315441 -0.033952047828029797 0 0.018369403006434686 -0.032990183797708114 0 0.018298039515706604 -0.033960048644394912 0 0.018432851107315441 -0.033952047828029797 0 0.020763431893373006 -0.033002886283362648 0 0.020003050035758904 -0.03428845001560403 0 0.018432851107315441 -0.033952047828029797 0 0.020003050035758904 -0.03428845001560403 0 0.018325312226110883 -0.034645631662411254 0 0.021784093504207486 -0.03374075036928767 0 0.020763431893373006 -0.033002886283362648 0 0.020003050035758904 -0.03428845001560403 0 0.021784093504207486 -0.03374075036928767 0 0.020763431893373006 -0.033002886283362648 0 0.022890429950774248 -0.032895434002682127 0 0.021412020798096947 -0.033893394687201019 0 0.020003050035758904 -0.03428845001560403 0 0.020297468664604176 -0.035317898161724232 0 0.021784093504207486 -0.03374075036928767 0 0.021412020798096947 -0.033893394687201019 0 0.020003050035758904 -0.03428845001560403 0 0.020003050035758904 -0.03428845001560403 0 0.018325312226110883 -0.034645631662411254 0 0.018925570890363837 -0.035288530776472669 0 0.018325312226110883 -0.034645631662411254 0 0.017576441273779598 -0.034908383401925432 0 0.01761449047662857 -0.035142464763853694 0 0.018325312226110883 -0.034645631662411254 0 0.01761449047662857 -0.035142464763853694 0 0.018925570890363837 -0.035288530776472669 0 0.017698314267420062 -0.034900614818671551 0 0.018432851107315441 -0.033952047828029797 0 0.017576441273779598 -0.034908383401925432 0 0.018432851107315441 -0.033952047828029797 0 0.018325312226110883 -0.034645631662411254 0 0.017576441273779598 -0.034908383401925432 0 0.01716204035980283 -0.035138766154435327 0 0.017160469394486327 -0.035577530273882919 0 0.017576441273779598 -0.034908383401925432 0 0.01716204035980283 -0.035138766154435327 0 0.016899738059625177 -0.036026994251172131 0 0.01761449047662857 -0.035142464763853694 0 0.01716204035980283 -0.035138766154435327 0 0.017576441273779598 -0.034908383401925432 0 0.01761449047662857 -0.035142464763853694 0 0.016899738059625177 -0.036026994251172131 0 0.01761449047662857 -0.035142464763853694 0 0.018498503958135327 -0.036715825922685533 0 0.01761449047662857 -0.035142464763853694 0 0.018925570890363837 -0.035288530776472669 0 0.018498503958135327 -0.036715825922685533 0 0.016899738059625177 -0.036026994251172131 0 0.018498503958135327 -0.036715825922685533 0 0.01723365842275628 -0.039110868861718592 0 0.016937108286773014 -0.037710008039546349 0 0.017232191933233571 -0.039076083625433439 0 0.018498503958135327 -0.036715825922685533 0 0.019025588848006678 -0.039278374095553979 0 0.020101319164431374 -0.037254892513925969 0 0.018498503958135327 -0.036715825922685533 0 0.01723365842275628 -0.039110868861718592 0 0.019025588848006678 -0.039278374095553979 0 0.019025588848006678 -0.039278374095553979 0 0.020449101029357 -0.040870550208502755 0 0.017558252038723809 -0.040758354638032165 0 0.016554304979585682 -0.040131439667191689 0 0.01723365842275628 -0.039110868861718592 0 0.017558252038723809 -0.040758354638032165 0 0.01723365842275628 -0.039110868861718592 0 0.019025588848006678 -0.039278374095553979 0 0.017558252038723809 -0.040758354638032165 0 0.021099883779935626 -0.039353409407900997 0 0.023101929445286641 -0.040515813302595412 0 0.020449101029357 -0.040870550208502755 0 0.021099883779935626 -0.039353409407900997 0 0.023000329231214724 -0.038716177982221316 0 0.023101929445286641 -0.040515813302595412 0 0.019025588848006678 -0.039278374095553979 0 0.021099883779935626 -0.039353409407900997 0 0.020449101029357 -0.040870550208502755 0 0.019025588848006678 -0.039278374095553979 0 0.021099883779935626 -0.039353409407900997 0 0.020101319164431374 -0.037254892513925969 0 0.020268860782770969 -0.036955199388371197 0 0.022172727182541926 -0.038998377376208704 0 0.021099883779935626 -0.039353409407900997 0 0.020101319164431374 -0.037254892513925969 0 0.023000329231214724 -0.038716177982221316 0 0.020101319164431374 -0.037254892513925969 0 0.022094439120025358 -0.037258034390211359 0 0.022237440849009363 -0.035308872824679531 0 0.020101319164431374 -0.037254892513925969 0 0.020297468664604176 -0.035317898161724232 0 0.022237440849009363 -0.035308872824679531 0 0.018498503958135327 -0.036715825922685533 0 0.020101319164431374 -0.037254892513925969 0 0.020297468664604176 -0.035317898161724232 0 0.020003050035758904 -0.03428845001560403 0 0.018925570890363837 -0.035288530776472669 0 0.020297468664604176 -0.035317898161724232 0 0.018925570890363837 -0.035288530776472669 0 0.018498503958135327 -0.036715825922685533 0 0.020297468664604176 -0.035317898161724232 0 0.021412020798096947 -0.033893394687201019 0 0.020297468664604176 -0.035317898161724232 0 0.022237440849009363 -0.035308872824679531 0 0.021412020798096947 -0.033893394687201019 0 0.023654831877148088 -0.033090888673251162 0 0.022237440849009363 -0.035308872824679531 0 0.023654831877148088 -0.033090888673251162 0 0.025139266630560719 -0.034122777986849429 0 0.02677118479669522 -0.031023952978431971 0 0.025139266630560719 -0.034122777986849429 0 0.022237440849009363 -0.035308872824679531 0 0.024019857318238705 -0.036131883800931033 0 0.023654831877148088 -0.033090888673251162 0 0.025139266630560719 -0.034122777986849429 0 0.022237440849009363 -0.035308872824679531 0 0.022094439120025358 -0.037258034390211359 0 0.022237440849009363 -0.035308872824679531 0 0.024019857318238705 -0.036131883800931033 0 0.024019857318238705 -0.036131883800931033 0 0.024719702437895032 -0.038254191620123112 0 0.02628264602248798 -0.035778858868320704 0 0.025139266630560719 -0.034122777986849429 0 0.024019857318238705 -0.036131883800931033 0 0.02628264602248798 -0.035778858868320704 0 0.028534942998825221 -0.031295955808906914 0 0.025707285144754455 -0.032338864504302074 0 0.023000329231214724 -0.038716177982221316 0 0.025780209910738452 -0.040046312098925632 0 0.023101929445286641 -0.040515813302595412 0 0.022094439120025358 -0.037258034390211359 0 0.024019857318238705 -0.036131883800931033 0 0.024719702437895032 -0.038254191620123112 0 0.022172727182541926 -0.038998377376208704 0 0.028534942998825221 -0.031295955808906914 0 0.032868353025605757 -0.02277339251111422 0 0.032784896283946256 -0.022757110917846567 0 0.032944859512861205 -0.022729859049596405 0 0.027408189082022257 -0.037635745841313482 0 0.028854722235105802 -0.03457078577378956 0 0.030310451068810022 -0.036744101113910639 0 0.030222244044629934 -0.030102558197702318 0 0.031025569068738872 -0.03013425877519494 0 0.032868353025605757 -0.02277339251111422 0 0.032944859512861205 -0.022729859049596405 0 0.032920873484874484 -0.022780571290446004 0 0.032868353025605757 -0.02277339251111422 0 0.032784896283946256 -0.022757110917846567 0 0.032818102622175743 -0.022829687449313959 0 0.024719702437895032 -0.038254191620123112 0 0.027408189082022257 -0.037635745841313482 0 0.02628264602248798 -0.035778858868320704 0 0.028534942998825221 -0.031295955808906914 0 0.030222244044629934 -0.030102558197702318 0 0.032528691333945772 -0.02285844087515344 0 0.032784896283946256 -0.022757110917846567 0 0.032779270605800728 -0.022847072889902675 0 0.027408189082022257 -0.037635745841313482 0 0.02628264602248798 -0.035778858868320704 0 0.028854722235105802 -0.03457078577378956 0 0.028854722235105802 -0.03457078577378956 0 0.027817037558302886 -0.032778021840015478 0 0.030263653635794335 -0.031655120763841922 0 0.02628264602248798 -0.035778858868320704 0 0.028854722235105802 -0.03457078577378956 0 0.027817037558302886 -0.032778021840015478 0 0.025139266630560719 -0.034122777986849429 0 0.02628264602248798 -0.035778858868320704 0 0.027817037558302886 -0.032778021840015478 0 0.027817037558302886 -0.032778021840015478 0 0.02677118479669522 -0.031023952978431971 0 0.029796480346987817 -0.029328006592261206 0 0.025139266630560719 -0.034122777986849429 0 0.027817037558302886 -0.032778021840015478 0 0.02677118479669522 -0.031023952978431971 0 0.027817037558302886 -0.032778021840015478 0 0.029796480346987817 -0.029328006592261206 0 0.030263653635794335 -0.031655120763841922 0 0.029796480346987817 -0.029328006592261206 0 0.028159102064509691 -0.027023648771001784 0 0.030929678065687968 -0.027257890428195052 0 0.02677118479669522 -0.031023952978431971 0 0.029796480346987817 -0.029328006592261206 0 0.028159102064509691 -0.027023648771001784 0 0.026652559028877584 -0.030390990429911568 0 0.029221884162384564 -0.029423621076608418 0 0.028159102064509691 -0.027023648771001784 0 0.031892195590869213 -0.025442639119174187 0 0.030929678065687968 -0.027257890428195052 0 0.026652559028877584 -0.030390990429911568 0 0.024051011149193367 -0.031952679892744626 0 0.025032431941608233 -0.033736120918006714 0 0.0242008679291702 -0.033295238254103909 0 0.025063126540688527 -0.032764975728601119 0 0.025032431941608233 -0.033736120918006714 0 0.023505557834344798 -0.034140720308998847 0 0.0242008679291702 -0.033295238254103909 0 0.02677118479669522 -0.031023952978431971 0 0.028159102064509691 -0.027023648771001784 0 0.024420450033075861 -0.029731910105526688 0 0.023654831877148088 -0.033090888673251162 0 0.02677118479669522 -0.031023952978431971 0 0.024420450033075861 -0.029731910105526688 0 0.021784093504207486 -0.03374075036928767 0 0.021412020798096947 -0.033893394687201019 0 0.023505557834344798 -0.034140720308998847 0 0.021694520354645818 -0.033608230103118669 0 0.024051011149193367 -0.031952679892744626 0 0.021412020798096947 -0.033893394687201019 0 0.023654831877148088 -0.033090888673251162 0 0.024420450033075861 -0.029731910105526688 0 0.021784093504207486 -0.03374075036928767 0 0.023505557834344798 -0.034140720308998847 0 0.022890429950774248 -0.032895434002682127 0 0.023505557834344798 -0.034140720308998847 0 0.022890429950774248 -0.032895434002682127 0 0.0242008679291702 -0.033295238254103909 0 0.0242008679291702 -0.033295238254103909 0 0.024008006789007927 -0.032782820206019359 0 0.024520759349766334 -0.032707421364271495 0 0.022890429950774248 -0.032895434002682127 0 0.0242008679291702 -0.033295238254103909 0 0.024008006789007927 -0.032782820206019359 0 0.024008006789007927 -0.032782820206019359 0 0.023732467042195272 -0.032608886526713336 0 0.024363248734732886 -0.032514494042583768 0 0.024008006789007927 -0.032782820206019359 0 0.024363248734732886 -0.032514494042583768 0 0.024520759349766334 -0.032707421364271495 0 0.022890429950774248 -0.032895434002682127 0 0.024008006789007927 -0.032782820206019359 0 0.023732467042195272 -0.032608886526713336 0 0.023633680833206775 -0.032623350949732829 0 0.022890429950774248 -0.032895434002682127 0 0.023732467042195272 -0.032608886526713336 0 0.022613419731997136 -0.031579265959731227 0 0.02300405971429521 -0.032867753016870241 0 0.023633680833206775 -0.032623350949732829 0 0.023732467042195272 -0.032608886526713336 0 0.023912359427254212 -0.032466584062206198 0 0.023732467042195272 -0.032608886526713336 0 0.0241090430788822 -0.032443962798866174 0 0.023912359427254212 -0.032466584062206198 0 0.024682263111594112 -0.032289239373897494 0 0.0241090430788822 -0.032443962798866174 0 0.024363248734732886 -0.032514494042583768 0 0.023732467042195272 -0.032608886526713336 0 0.0241090430788822 -0.032443962798866174 0 0.024363248734732886 -0.032514494042583768 0 0.024682263111594112 -0.032289239373897494 0 0.024363248734732886 -0.032514494042583768 0 0.024909020469500789 -0.032472971669734244 0 0.024363248734732886 -0.032514494042583768 0 0.024909020469500789 -0.032472971669734244 0 0.024520759349766334 -0.032707421364271495 0 0.024909020469500789 -0.032472971669734244 0 0.025063126540688527 -0.032764975728601119 0 0.024520759349766334 -0.032707421364271495 0 0.025246350349602837 -0.032349047642186768 0 0.024909020469500789 -0.032472971669734244 0 0.025256987305457744 -0.032622702452340245 0 0.025246350349602837 -0.032349047642186768 0 0.025256987305457744 -0.032622702452340245 0 0.025515876370717124 -0.032459044373741093 0 0.024909020469500789 -0.032472971669734244 0 0.025256987305457744 -0.032622702452340245 0 0.025063126540688527 -0.032764975728601119 0 0.025256987305457744 -0.032622702452340245 0 0.025063126540688527 -0.032764975728601119 0 0.0256319153601876 -0.033022634835170414 0 0.025121659866326456 -0.03276357402647076 0 0.026353220347419777 -0.032589648485733737 0 0.025032431941608233 -0.033736120918006714 0 0.025063126540688527 -0.032764975728601119 0 0.026679409027287476 -0.033249159283777537 0 0.0242008679291702 -0.033295238254103909 0 0.025063126540688527 -0.032764975728601119 0 0.024520759349766334 -0.032707421364271495 0 0.029221884162384564 -0.029423621076608418 0 0.032135383977279303 -0.028830906064217038 0 0.026805139417500345 -0.032201832938806789 0 0.029111120158557706 -0.031708976908472984 0 0.029045116425553984 -0.032356903896236459 0 0.026679409027287476 -0.033249159283777537 0 0.026805139417500345 -0.032201832938806789 0 0.029045116425553984 -0.032356903896236459 0 0.031892195590869213 -0.025442639119174187 0 0.034873332254240441 -0.025491972555768641 0 0.033562912472280451 -0.025926894476093129 0 0.034380356705435038 -0.025956817839018761 0 0.034873332254240441 -0.025491972555768641 0 0.033562912472280451 -0.025926894476093129 0 0.025063126540688527 -0.032764975728601119 0 0.026679409027287476 -0.033249159283777537 0 0.026805139417500345 -0.032201832938806789 0 0.0256319153601876 -0.033022634835170414 0 0.025515876370717124 -0.032459044373741093 0 0.025824478314246696 -0.032627243645496518 0 0.0256319153601876 -0.033022634835170414 0 0.025824478314246696 -0.032627243645496518 0 0.026292151414759372 -0.032711699085009802 0 0.025256987305457744 -0.032622702452340245 0 0.0256319153601876 -0.033022634835170414 0 0.025515876370717124 -0.032459044373741093 0 0.025908268123423533 -0.032299623433833691 0 0.025515876370717124 -0.032459044373741093 0 0.025824478314246696 -0.032627243645496518 0 0.026353220347419777 -0.032589648485733737 0 0.027594911038368752 -0.032764584763306986 0 0.0256319153601876 -0.033022634835170414 0 0.026292151414759372 -0.032711699085009802 0 0.026848415917784401 -0.033352542625127893 0 0.025908268123423533 -0.032299623433833691 0 0.025824478314246696 -0.032627243645496518 0 0.026292151414759372 -0.032711699085009802 0 0.026292151414759372 -0.032711699085009802 0 0.026841414961537313 -0.03282834962160492 0 0.026848415917784401 -0.033352542625127893 0 0.026292151414759372 -0.032711699085009802 0 0.026773527337426963 -0.032453947771392905 0 0.026841414961537313 -0.03282834962160492 0 0.026773527337426963 -0.032453947771392905 0 0.026841414961537313 -0.03282834962160492 0 0.02727602894228557 -0.032541240125267185 0 0.028169788679943814 -0.033067354607479164 0 0.026848415917784401 -0.033352542625127893 0 0.02947244436928962 -0.033470588634155758 0 0.035755963402230674 -0.027522493699952303 0 0.035437326230907021 -0.026568223960338793 0 0.034873332254240441 -0.025491972555768641 0 0.029111120158557706 -0.031708976908472984 0 0.031713414019364158 -0.031267424338293597 0 0.029045116425553984 -0.032356903896236459 0 0.032525621404822472 -0.030388161245496169 0 0.032135383977279303 -0.028830906064217038 0 0.027594911038368752 -0.032764584763306986 0 0.032525621404822472 -0.030388161245496169 0 0.026841414961537313 -0.03282834962160492 0 0.027364695199141417 -0.032889673245510662 0 0.02727602894228557 -0.032541240125267185 0 0.027364695199141417 -0.032889673245510662 0 0.02727602894228557 -0.032541240125267185 0 0.027926659339029141 -0.032631820799657513 0 0.027801098363561275 -0.032170786135800628 0 0.02727602894228557 -0.032541240125267185 0 0.027926659339029141 -0.032631820799657513 0 0.027801098363561275 -0.032170786135800628 0 0.027926659339029141 -0.032631820799657513 0 0.02850245685675365 -0.032361439205182439 0 0.027926659339029141 -0.032631820799657513 0 0.028169788679943814 -0.033067354607479164 0 0.028531260700948996 -0.032762268991477717 0 0.027364695199141417 -0.032889673245510662 0 0.027926659339029141 -0.032631820799657513 0 0.028169788679943814 -0.033067354607479164 0 0.027364695199141417 -0.032889673245510662 0 0.028169788679943814 -0.033067354607479164 0 0.026848415917784401 -0.033352542625127893 0 0.026841414961537313 -0.03282834962160492 0 0.027364695199141417 -0.032889673245510662 0 0.026848415917784401 -0.033352542625127893 0 0.029896222172979933 -0.032241565069193422 0 0.02947244436928962 -0.033470588634155758 0 0.030793234341137517 -0.031688959252007771 0 0.029549457874688632 -0.032009953274236044 0 0.029421674906403603 -0.032677308422395683 0 0.029031667592109532 -0.032330700243924364 0 0.029549457874688632 -0.032009953274236044 0 0.029896222172979933 -0.032241565069193422 0 0.029421674906403603 -0.032677308422395683 0 0.029896222172979933 -0.032241565069193422 0 0.029421674906403603 -0.032677308422395683 0 0.02947244436928962 -0.033470588634155758 0 0.029421674906403603 -0.032677308422395683 0 0.028881030745674368 -0.032944309160748531 0 0.02947244436928962 -0.033470588634155758 0 0.029421674906403603 -0.032677308422395683 0 0.028881030745674368 -0.032944309160748531 0 0.028909130154487369 -0.032670505643276122 0 0.028881030745674368 -0.032944309160748531 0 0.028909130154487369 -0.032670505643276122 0 0.028531260700948996 -0.032762268991477717 0 0.028909130154487369 -0.032670505643276122 0 0.029031667592109532 -0.032330700243924364 0 0.02850245685675365 -0.032361439205182439 0 0.029421674906403603 -0.032677308422395683 0 0.028909130154487369 -0.032670505643276122 0 0.029031667592109532 -0.032330700243924364 0 0.027926659339029141 -0.032631820799657513 0 0.02850245685675365 -0.032361439205182439 0 0.028531260700948996 -0.032762268991477717 0 0.028909130154487369 -0.032670505643276122 0 0.02850245685675365 -0.032361439205182439 0 0.028531260700948996 -0.032762268991477717 0 0.028169788679943814 -0.033067354607479164 0 0.028881030745674368 -0.032944309160748531 0 0.028531260700948996 -0.032762268991477717 0 0.028169788679943814 -0.033067354607479164 0 0.028881030745674368 -0.032944309160748531 0 0.02947244436928962 -0.033470588634155758 0 0.035755963402230674 -0.027522493699952303 0 0.03557458467152512 -0.026971292750307546 0 0.035437326230907021 -0.026568223960338793 0 0.035755963402230674 -0.027522493699952303 0 0.035494276735980095 -0.02725600184971785 0 0.03557458467152512 -0.026971292750307546 0 0.035494276735980095 -0.02725600184971785 0 0.035630972154626808 -0.028009908116118802 0 0.034922039847841917 -0.027539117193002213 0 0.035755963402230674 -0.027522493699952303 0 0.035494276735980095 -0.02725600184971785 0 0.035630972154626808 -0.028009908116118802 0 0.032525621404822472 -0.030388161245496169 0 0.033528110246653565 -0.030044967246745952 0 0.035442796158221941 -0.026418764322139465 0 0.035457334468921471 -0.026191586330229794 0 0.035455100972461642 -0.025929420419522321 0 0.035494276735980095 -0.02725600184971785 0 0.035442796158221941 -0.026418764322139465 0 0.034922039847841917 -0.027539117193002213 0 0.035494276735980095 -0.02725600184971785 0 0.035442796158221941 -0.026418764322139465 0 0.035533908386558476 -0.026557915012224022 0 0.035494276735980095 -0.02725600184971785 0 0.03557458467152512 -0.026971292750307546 0 0.035533908386558476 -0.026557915012224022 0 0.035533908386558476 -0.026557915012224022 0 0.035437326230907021 -0.026568223960338793 0 0.035457334468921471 -0.026191586330229794 0 0.03557458467152512 -0.026971292750307546 0 0.035533908386558476 -0.026557915012224022 0 0.035437326230907021 -0.026568223960338793 0 0.035442796158221941 -0.026418764322139465 0 0.035533908386558476 -0.026557915012224022 0 0.035457334468921471 -0.026191586330229794 0 0.035437326230907021 -0.026568223960338793 0 0.034873332254240441 -0.025491972555768641 0 0.0351985767819437 -0.026051312921692944 0 0.035437326230907021 -0.026568223960338793 0 0.035457334468921471 -0.026191586330229794 0 0.0351985767819437 -0.026051312921692944 0 0.035457334468921471 -0.026191586330229794 0 0.0351985767819437 -0.026051312921692944 0 0.034974562520327226 -0.026163938440298136 0 0.034873332254240441 -0.025491972555768641 0 0.0351985767819437 -0.026051312921692944 0 0.034885087185710734 -0.025920114231114101 0 0.034380356705435038 -0.025956817839018761 0 0.034885087185710734 -0.025920114231114101 0 0.034974562520327226 -0.026163938440298136 0 0.034380356705435038 -0.025956817839018761 0 0.034873332254240441 -0.025491972555768641 0 0.034885087185710734 -0.025920114231114101 0 0.0351985767819437 -0.026051312921692944 0 0.034885087185710734 -0.025920114231114101 0 0.034974562520327226 -0.026163938440298136 0 0.034974562520327226 -0.026163938440298136 0 0.034557055319434433 -0.026558302328766537 0 0.033937521660432207 -0.026340133316700758 0 0.035457334468921471 -0.026191586330229794 0 0.034974562520327226 -0.026163938440298136 0 0.035200188431418145 -0.026417903808246147 0 0.034974562520327226 -0.026163938440298136 0 0.035200188431418145 -0.026417903808246147 0 0.034557055319434433 -0.026558302328766537 0 0.035200188431418145 -0.026417903808246147 0 0.034557055319434433 -0.026558302328766537 0 0.034374553096688493 -0.027213613692143056 0 0.035200188431418145 -0.026417903808246147 0 0.035455100972461642 -0.025929420419522321 0 0.035580477982611901 -0.026266288276840292 0 0.035457334468921471 -0.026191586330229794 0 0.035200188431418145 -0.026417903808246147 0 0.035455100972461642 -0.025929420419522321 0 0.035200188431418145 -0.026417903808246147 0 0.035580477982611901 -0.026266288276840292 0 0.035289445343261845 -0.027235422622117613 0 0.035200188431418145 -0.026417903808246147 0 0.034374553096688493 -0.027213613692143056 0 0.035289445343261845 -0.027235422622117613 0 0.034374553096688493 -0.027213613692143056 0 0.035289445343261845 -0.027235422622117613 0 0.034395444797545818 -0.028056477770338789 0 0.034374553096688493 -0.027213613692143056 0 0.033282200333021074 -0.028158137865538682 0 0.034395444797545818 -0.028056477770338789 0 0.033282200333021074 -0.028158137865538682 0 0.033549794891664285 -0.027072133923980283 0 0.031960962286887593 -0.027925630290424965 0 0.034374553096688493 -0.027213613692143056 0 0.033282200333021074 -0.028158137865538682 0 0.033549794891664285 -0.027072133923980283 0 0.034557055319434433 -0.026558302328766537 0 0.033549794891664285 -0.027072133923980283 0 0.033937521660432207 -0.026340133316700758 0 0.034557055319434433 -0.026558302328766537 0 0.034374553096688493 -0.027213613692143056 0 0.033549794891664285 -0.027072133923980283 0 0.033549794891664285 -0.027072133923980283 0 0.033937521660432207 -0.026340133316700758 0 0.032596804975683354 -0.026647841539878151 0 0.033549794891664285 -0.027072133923980283 0 0.032596804975683354 -0.026647841539878151 0 0.031960962286887593 -0.027925630290424965 0 0.033562912472280451 -0.025926894476093129 0 0.033937521660432207 -0.026340133316700758 0 0.032596804975683354 -0.026647841539878151 0 0.034380356705435038 -0.025956817839018761 0 0.034974562520327226 -0.026163938440298136 0 0.033937521660432207 -0.026340133316700758 0 0.034380356705435038 -0.025956817839018761 0 0.033562912472280451 -0.025926894476093129 0 0.033937521660432207 -0.026340133316700758 0 0.031892195590869213 -0.025442639119174187 0 0.032596804975683354 -0.026647841539878151 0 0.030929678065687968 -0.027257890428195052 0 0.031892195590869213 -0.025442639119174187 0 0.033562912472280451 -0.025926894476093129 0 0.032596804975683354 -0.026647841539878151 0 0.032596804975683354 -0.026647841539878151 0 0.030929678065687968 -0.027257890428195052 0 0.031960962286887593 -0.027925630290424965 0 0.029796480346987817 -0.029328006592261206 0 0.030929678065687968 -0.027257890428195052 0 0.031960962286887593 -0.027925630290424965 0 0.033282200333021074 -0.028158137865538682 0 0.031960962286887593 -0.027925630290424965 0 0.031744057786326815 -0.029552389501533119 0 0.029796480346987817 -0.029328006592261206 0 0.031960962286887593 -0.027925630290424965 0 0.031744057786326815 -0.029552389501533119 0 0.029796480346987817 -0.029328006592261206 0 0.031744057786326815 -0.029552389501533119 0 0.030263653635794335 -0.031655120763841922 0 0.031744057786326815 -0.029552389501533119 0 0.030263653635794335 -0.031655120763841922 0 0.032119295667601702 -0.031003788837799095 0 0.033282200333021074 -0.028158137865538682 0 0.033384719143846026 -0.029502301097891981 0 0.034395444797545818 -0.028056477770338789 0 0.033282200333021074 -0.028158137865538682 0 0.031744057786326815 -0.029552389501533119 0 0.033384719143846026 -0.029502301097891981 0 0.031744057786326815 -0.029552389501533119 0 0.033384719143846026 -0.029502301097891981 0 0.032119295667601702 -0.031003788837799095 0 0.033384719143846026 -0.029502301097891981 0 0.033440335041519359 -0.03130460307463525 0 0.035852497697877496 -0.028399239713316211 0 0.033440335041519359 -0.03130460307463525 0 0.031747588441726059 -0.033252516167645955 0 0.034937935824428827 -0.032960804558050186 0 0.033384719143846026 -0.029502301097891981 0 0.033440335041519359 -0.03130460307463525 0 0.032119295667601702 -0.031003788837799095 0 0.033440335041519359 -0.03130460307463525 0 0.032119295667601702 -0.031003788837799095 0 0.031747588441726059 -0.033252516167645955 0 0.028854722235105802 -0.03457078577378956 0 0.030263653635794335 -0.031655120763841922 0 0.031747588441726059 -0.033252516167645955 0 0.030263653635794335 -0.031655120763841922 0 0.032119295667601702 -0.031003788837799095 0 0.031747588441726059 -0.033252516167645955 0 0.028854722235105802 -0.03457078577378956 0 0.031747588441726059 -0.033252516167645955 0 0.030310451068810022 -0.036744101113910639 0 0.031747588441726059 -0.033252516167645955 0 0.033459916451359477 -0.035854296700815101 0 0.030310451068810022 -0.036744101113910639 0 0.031747588441726059 -0.033252516167645955 0 0.033459916451359477 -0.035854296700815101 0 0.034937935824428827 -0.032960804558050186 0 0.035648626016930203 -0.024046588067536793 0 0.035233997219968977 -0.030746688319489353 0 0.038108197623069967 -0.013111286965470377 0 0.037956485724837237 -0.013162492558624922 0 0.038016611628131511 -0.013175451511396789 0 0.037984556030507398 -0.013036026833077363 0 0.038108197623069967 -0.013111286965470377 0 0.038016611628131511 -0.013175451511396789 0 0.035648626016930203 -0.024046588067536793 0 0.035490766150171819 -0.017900240257476743 0 0.037984556030507398 -0.013036026833077363 0 0.038593236311189855 -0.012386189678720185 0 0.038218814709054499 -0.01254662492006 0 0.037984556030507398 -0.013036026833077363 0 0.038045712192281311 -0.012679671339534229 0 0.038218814709054499 -0.01254662492006 0 0.038005795587221503 -0.013042181050334913 0 0.038359773241009448 -0.012754009515813701 0 0.035648626016930203 -0.024046588067536793 0 0.031025569068738872 -0.03013425877519494 0 0.033082826893365627 -0.022712022281431158 0 0.032944859512861205 -0.022729859049596405 0 0.033009237942861716 -0.022763291638458607 0 0.032944859512861205 -0.022729859049596405 0 0.033009237942861716 -0.022763291638458607 0 0.032920873484874484 -0.022780571290446004 0 0.037557521536145833 -0.012789706052881876 0 0.037422347232873195 -0.013241139778763495 0 0.036923872984530245 -0.012758673173120062 0 0.037557521536145833 -0.012789706052881876 0 0.036923872984530245 -0.012758673173120062 0 0.037340552413718642 -0.012338533707833157 0 0.035648626016930203 -0.024046588067536793 0 0.037121437895298835 -0.018993030388237908 0 0.037557521536145833 -0.012789706052881876 0 0.037878256992875566 -0.012694443749514063 0 0.037726630031452178 -0.012409959268259479 0 0.037984556030507398 -0.013036026833077363 0 0.037557521536145833 -0.012789706052881876 0 0.037422347232873195 -0.013241139778763495 0 0.037984556030507398 -0.013036026833077363 0 0.038108197623069967 -0.013111286965470377 0 0.037422347232873195 -0.013241139778763495 0 0.037984556030507398 -0.013036026833077363 0 0.037557521536145833 -0.012789706052881876 0 0.037878256992875566 -0.012694443749514063 0 0.037984556030507398 -0.013036026833077363 0 0.038045712192281311 -0.012679671339534229 0 0.037878256992875566 -0.012694443749514063 0 0.036828359685616117 -0.0267228740234185 0 0.035673045497426503 -0.026083728917977757 0 0.035834970225311749 -0.026889891105035604 0 0.037475684711361944 -0.025718460657932141 0 0.036828359685616117 -0.0267228740234185 0 0.035673045497426503 -0.026083728917977757 0 0.035673045497426503 -0.026083728917977757 0 0.035442542917319832 -0.026650464760146042 0 0.035360101956405349 -0.026183036712417295 0 0.035673045497426503 -0.026083728917977757 0 0.035834970225311749 -0.026889891105035604 0 0.035442542917319832 -0.026650464760146042 0 0.035834970225311749 -0.026889891105035604 0 0.035442542917319832 -0.026650464760146042 0 0.035852497697877496 -0.028399239713316211 0 0.035442542917319832 -0.026650464760146042 0 0.035852497697877496 -0.028399239713316211 0 0.035625368714349945 -0.026861539427702655 0 0.035442542917319832 -0.026650464760146042 0 0.035625368714349945 -0.026861539427702655 0 0.035500115642781271 -0.026152612658059213 0 0.033440335041519359 -0.03130460307463525 0 0.034937935824428827 -0.032960804558050186 0 0.035852497697877496 -0.028399239713316211 0 0.035233997219968977 -0.030746688319489353 0 0.036119263530184784 -0.028462280457251181 0 0.036828359685616117 -0.0267228740234185 0 0.035834970225311749 -0.026889891105035604 0 0.035852497697877496 -0.028399239713316211 0 0.033384719143846026 -0.029502301097891981 0 0.035852497697877496 -0.028399239713316211 0 0.034395444797545818 -0.028056477770338789 0 0.035289445343261845 -0.027235422622117613 0 0.035852497697877496 -0.028399239713316211 0 0.034395444797545818 -0.028056477770338789 0 0.035289445343261845 -0.027235422622117613 0 0.035852497697877496 -0.028399239713316211 0 0.035625368714349945 -0.026861539427702655 0 0.035580477982611901 -0.026266288276840292 0 0.035289445343261845 -0.027235422622117613 0 0.035625368714349945 -0.026861539427702655 0 0.035580477982611901 -0.026266288276840292 0 0.035625368714349945 -0.026861539427702655 0 0.035700765048260308 -0.025637045813154354 0 0.035625368714349945 -0.026861539427702655 0 0.035700765048260308 -0.025637045813154354 0 0.035500115642781271 -0.026152612658059213 0 0.035700765048260308 -0.025637045813154354 0 0.036095352879192348 -0.024281242397936838 0 0.035707940064470971 -0.02535884216365563 0 0.035700765048260308 -0.025637045813154354 0 0.036095352879192348 -0.024281242397936838 0 0.035909731314905546 -0.024494175058370961 0 0.035700765048260308 -0.025637045813154354 0 0.035909731314905546 -0.024494175058370961 0 0.035565540941058557 -0.025526261333707195 0 0.035909731314905546 -0.024494175058370961 0 0.035723250233461797 -0.0257330070981436 0 0.036570214597196324 -0.026161268102234955 0 0.035565540941058557 -0.025526261333707195 0 0.035504946570702897 -0.025885263207050733 0 0.035723250233461797 -0.0257330070981436 0 0.035909731314905546 -0.024494175058370961 0 0.035565540941058557 -0.025526261333707195 0 0.035723250233461797 -0.0257330070981436 0 0.035700765048260308 -0.025637045813154354 0 0.035565540941058557 -0.025526261333707195 0 0.035500115642781271 -0.026152612658059213 0 0.035565540941058557 -0.025526261333707195 0 0.035500115642781271 -0.026152612658059213 0 0.035360101956405349 -0.026183036712417295 0 0.035565540941058557 -0.025526261333707195 0 0.035360101956405349 -0.026183036712417295 0 0.035504946570702897 -0.025885263207050733 0 0.035442542917319832 -0.026650464760146042 0 0.035500115642781271 -0.026152612658059213 0 0.035360101956405349 -0.026183036712417295 0 0.037121437895298835 -0.018993030388237908 0 0.035597420460277175 -0.020175038024691828 0 0.035673045497426503 -0.026083728917977757 0 0.035345924947626048 -0.026093341313482656 0 0.035360101956405349 -0.026183036712417295 0 0.035597420460277175 -0.020175038024691828 0 0.035560748681035446 -0.021465930587251939 0 0.035345924947626048 -0.026093341313482656 0 0.035371209419101768 -0.026112464087784927 0 0.035360101956405349 -0.026183036712417295 0 0.035371209419101768 -0.026112464087784927 0 0.035360101956405349 -0.026183036712417295 0 0.035504946570702897 -0.025885263207050733 0 0.035597420460277175 -0.020175038024691828 0 0.036334737761137104 -0.02088578708272492 0 0.037279704447664548 -0.01889056993392324 0 0.035504138441356588 -0.017108671446613252 0 0.034937610676223335 -0.019223313046322982 0 0.035371209419101768 -0.026112464087784927 0 0.035504946570702897 -0.025885263207050733 0 0.035723250233461797 -0.0257330070981436 0 0.035353691296377693 -0.02625004973270002 0 0.035723250233461797 -0.0257330070981436 0 0.036570214597196324 -0.026161268102234955 0 0.035353691296377693 -0.02625004973270002 0 0.035371209419101768 -0.026112464087784927 0 0.035723250233461797 -0.0257330070981436 0 0.037279704447664548 -0.01889056993392324 0 0.035504138441356588 -0.017108671446613252 0 0.03732859559383573 -0.017025075096620552 0 0.035504138441356588 -0.017108671446613252 0 0.03732859559383573 -0.017025075096620552 0 0.03659219976308839 -0.01608400368220855 0 0.037422347232873195 -0.013241139778763495 0 0.036290993960215984 -0.013488488800544611 0 0.036923872984530245 -0.012758673173120062 0 0.036304713480333553 -0.012796042201840897 0 0.036923872984530245 -0.012758673173120062 0 0.036616119631744354 -0.01245281222901517 0 0.036290993960215984 -0.013488488800544611 0 0.036304713480333553 -0.012796042201840897 0 0.036923872984530245 -0.012758673173120062 0 0.035597420460277175 -0.020175038024691828 0 0.036785553614817224 -0.014247254112584101 0 0.034999993837968368 -0.017850583427066365 0 0.036110788047726883 -0.018196368804569908 0 0.036289145968772293 -0.016514517206185918 0 0.034999993837968368 -0.017850583427066365 0 0.036110788047726883 -0.018196368804569908 0 0.034999987875803017 -0.019368308438957513 0 0.036448960107059926 -0.017191715436027676 0 0.036334737761137104 -0.02088578708272492 0 0.037253078354626996 -0.017888378443567089 0 0.036110788047726883 -0.018196368804569908 0 0.036289145968772293 -0.016514517206185918 0 0.037253078354626996 -0.017888378443567089 0 0.036110788047726883 -0.018196368804569908 0 0.036927848744215737 -0.019096386171479608 0 0.036110788047726883 -0.018196368804569908 0 0.036927848744215737 -0.019096386171479608 0 0.034999987875803017 -0.019368308438957513 0 0.036334737761137104 -0.02088578708272492 0 0.03500216495942407 -0.019367274938496722 0 0.034998681529560566 -0.019368925931181731 0 0.036526697959002971 -0.022829849124028127 0 0.035000467137103836 -0.021378749122854104 0 0.036334737761137104 -0.02088578708272492 0 0.036714479578423713 -0.023645610678547199 0 0.035909731314905546 -0.024494175058370961 0 0.036570214597196324 -0.026161268102234955 0 0.036526697959002971 -0.022829849124028127 0 0.037703726488674004 -0.019514672735959325 0 0.034998681529560566 -0.019368925931181731 0 0.036526697959002971 -0.022829849124028127 0 0.036095352879192348 -0.024281242397936838 0 0.035909731314905546 -0.024494175058370961 0 0.036526697959002971 -0.022829849124028127 0 0.036095352879192348 -0.024281242397936838 0 0.036526697959002971 -0.022829849124028127 0 0.035922189994810012 -0.023464799856088653 0 0.036526697959002971 -0.022829849124028127 0 0.035000467137103836 -0.021378749122854104 0 0.035922189994810012 -0.023464799856088653 0 0.035000467137103836 -0.021378749122854104 0 0.034999721561228006 -0.023383684323507514 0 0.035922189994810012 -0.023464799856088653 0 0.034999721561228006 -0.023383684323507514 0 0.035774149048524766 -0.024326466806106225 0 0.035922189994810012 -0.023464799856088653 0 0.035774149048524766 -0.024326466806106225 0 0.035998694390916845 -0.024643170818121427 0 0.035989007671143422 -0.024886104332248169 0 0.035774149048524766 -0.024326466806106225 0 0.035922189994810012 -0.023464799856088653 0 0.035998694390916845 -0.024643170818121427 0 0.036095352879192348 -0.024281242397936838 0 0.035922189994810012 -0.023464799856088653 0 0.035998694390916845 -0.024643170818121427 0 0.036095352879192348 -0.024281242397936838 0 0.035707940064470971 -0.02535884216365563 0 0.035998694390916845 -0.024643170818121427 0 0.035580477982611901 -0.026266288276840292 0 0.035700765048260308 -0.025637045813154354 0 0.035707940064470971 -0.02535884216365563 0 0.035455100972461642 -0.025929420419522321 0 0.035580477982611901 -0.026266288276840292 0 0.035707940064470971 -0.02535884216365563 0 0.035455100972461642 -0.025929420419522321 0 0.035707940064470971 -0.02535884216365563 0 0.035147122592554252 -0.025661097553949946 0 0.035707940064470971 -0.02535884216365563 0 0.035998694390916845 -0.024643170818121427 0 0.035147122592554252 -0.025661097553949946 0 0.035998694390916845 -0.024643170818121427 0 0.035989007671143422 -0.024886104332248169 0 0.035147122592554252 -0.025661097553949946 0 0.035989007671143422 -0.024886104332248169 0 0.035147122592554252 -0.025661097553949946 0 0.036030609679842208 -0.024952705298788003 0 0.035124725938708509 -0.025764411979322038 0 0.034396008764171628 -0.026902229779161665 0 0.035442796158221941 -0.026418764322139465 0 0.035455100972461642 -0.025929420419522321 0 0.035147122592554252 -0.025661097553949946 0 0.035147122592554252 -0.025661097553949946 0 0.033882941748405136 -0.028041301049424653 0 0.032494410284563173 -0.028879628960663872 0 0.035147122592554252 -0.025661097553949946 0 0.034922039847841917 -0.027539117193002213 0 0.033882941748405136 -0.028041301049424653 0 0.035442796158221941 -0.026418764322139465 0 0.035147122592554252 -0.025661097553949946 0 0.034922039847841917 -0.027539117193002213 0 0.032525621404822472 -0.030388161245496169 0 0.032440271572286919 -0.03062599711778129 0 0.036177282880789363 -0.027781090729998084 0 0.035630972154626808 -0.028009908116118802 0 0.032503991606356253 -0.030477610965401913 0 0.02947244436928962 -0.033470588634155758 0 0.032503991606356253 -0.030477610965401913 0 0.030793234341137517 -0.031688959252007771 0 0.035630972154626808 -0.028009908116118802 0 0.033914868700798871 -0.028602678562751092 0 0.032503991606356253 -0.030477610965401913 0 0.035630972154626808 -0.028009908116118802 0 0.034922039847841917 -0.027539117193002213 0 0.033914868700798871 -0.028602678562751092 0 0.033882941748405136 -0.028041301049424653 0 0.033914868700798871 -0.028602678562751092 0 0.032904082092458063 -0.02919211760686214 0 0.034922039847841917 -0.027539117193002213 0 0.033882941748405136 -0.028041301049424653 0 0.033914868700798871 -0.028602678562751092 0 0.033914868700798871 -0.028602678562751092 0 0.032503991606356253 -0.030477610965401913 0 0.032904082092458063 -0.02919211760686214 0 0.030217191232248537 -0.031703301028054888 0 0.029896222172979933 -0.032241565069193422 0 0.030793234341137517 -0.031688959252007771 0 0.032875840994862404 -0.029258256347694016 0 0.032494410284563173 -0.028879628960663872 0 0.032904082092458063 -0.02919211760686214 0 0.033882941748405136 -0.028041301049424653 0 0.032494410284563173 -0.028879628960663872 0 0.032904082092458063 -0.02919211760686214 0 0.032503991606356253 -0.030477610965401913 0 0.032875840994862404 -0.029258256347694016 0 0.032904082092458063 -0.02919211760686214 0 0.035921455647730756 -0.026033072907331249 0 0.036030609679842208 -0.024952705298788003 0 0.035851983762080077 -0.025076089999840085 0 0.033692572530815486 -0.029642515677603259 0 0.032875840994862404 -0.029258256347694016 0 0.032494410284563173 -0.028879628960663872 0 0.034695257921480677 -0.02775328101218634 0 0.034396008764171628 -0.026902229779161665 0 0.035921455647730756 -0.026033072907331249 0 0.034999855964564064 -0.025389654171822946 0 0.035851983762080077 -0.025076089999840085 0 0.035774149048524766 -0.024326466806106225 0 0.034999855964564064 -0.025389654171822946 0 0.035851983762080077 -0.025076089999840085 0 0.034999721561228006 -0.023383684323507514 0 0.035774149048524766 -0.024326466806106225 0 0.034999855964564064 -0.025389654171822946 0 0.035774149048524766 -0.024326466806106225 0 0.035989007671143422 -0.024886104332248169 0 0.035851983762080077 -0.025076089999840085 0 0.035989007671143422 -0.024886104332248169 0 0.036030609679842208 -0.024952705298788003 0 0.035851983762080077 -0.025076089999840085 0 0.036111933587107084 -0.0098345097558100621 0 0.034999778718225572 -0.010807367205301503 0 0.034999660692754245 -0.008965965889401498 0 0.036111933587107084 -0.0098345097558100621 0 0.034999660692754245 -0.008965965889401498 0 0.035919703750193037 -0.0087131609972675023 0 0.036111933587107084 -0.0098345097558100621 0 0.035919703750193037 -0.0087131609972675023 0 0.036602804884171759 -0.008612692029683849 0 0.036111933587107084 -0.0098345097558100621 0 0.036602804884171759 -0.008612692029683849 0 0.036831258491359063 -0.009489783544943918 0 0.036602804884171759 -0.008612692029683849 0 0.036831258491359063 -0.009489783544943918 0 0.03713666923714376 -0.0084737942689510747 0 0.036831258491359063 -0.009489783544943918 0 0.03727821960506509 -0.0093850154806961843 0 0.03713666923714376 -0.0084737942689510747 0 0.036831258491359063 -0.009489783544943918 0 0.036716138207203187 -0.01057596285717626 0 0.037078305751829528 -0.01008460324775861 0 0.036831258491359063 -0.009489783544943918 0 0.037078305751829528 -0.01008460324775861 0 0.03727821960506509 -0.0093850154806961843 0 0.036111933587107084 -0.0098345097558100621 0 0.036831258491359063 -0.009489783544943918 0 0.036716138207203187 -0.01057596285717626 0 0.036716138207203187 -0.01057596285717626 0 0.037078305751829528 -0.01008460324775861 0 0.037133761274217712 -0.010863351906623958 0 0.037078305751829528 -0.01008460324775861 0 0.037133761274217712 -0.010863351906623958 0 0.037288431543796241 -0.010108570463257093 0 0.037133761274217712 -0.010863351906623958 0 0.037307754806031913 -0.011753242742376624 0 0.037285090608599872 -0.010876257107376117 0 0.036716138207203187 -0.01057596285717626 0 0.037133761274217712 -0.010863351906623958 0 0.036726992301007871 -0.011713986984488509 0 0.036716138207203187 -0.01057596285717626 0 0.036726992301007871 -0.011713986984488509 0 0.035958689076321562 -0.011505900353123653 0 0.037133761274217712 -0.010863351906623958 0 0.036726992301007871 -0.011713986984488509 0 0.037307754806031913 -0.011753242742376624 0 0.036726992301007871 -0.011713986984488509 0 0.035958689076321562 -0.011505900353123653 0 0.036092174677617869 -0.012792869624875143 0 0.036111933587107084 -0.0098345097558100621 0 0.036716138207203187 -0.01057596285717626 0 0.035958689076321562 -0.011505900353123653 0 0.036111933587107084 -0.0098345097558100621 0 0.034999778718225572 -0.010807367205301503 0 0.035958689076321562 -0.011505900353123653 0 0.034999778718225572 -0.010807367205301503 0 0.035958689076321562 -0.011505900353123653 0 0.034999716893607508 -0.012648688958756649 0 0.035958689076321562 -0.011505900353123653 0 0.034999716893607508 -0.012648688958756649 0 0.036092174677617869 -0.012792869624875143 0 0.034999716893607508 -0.012648688958756649 0 0.035746227176249333 -0.014003854596977687 0 0.034999662454604452 -0.014490662973773062 0 0.034999716893607508 -0.012648688958756649 0 0.036092174677617869 -0.012792869624875143 0 0.035746227176249333 -0.014003854596977687 0 0.036092174677617869 -0.012792869624875143 0 0.036333785772115483 -0.013946020113138493 0 0.035746227176249333 -0.014003854596977687 0 0.036092174677617869 -0.012792869624875143 0 0.036333785772115483 -0.013946020113138493 0 0.036790885334019953 -0.012875150279857658 0 0.036333785772115483 -0.013946020113138493 0 0.035746227176249333 -0.014003854596977687 0 0.035862846881504366 -0.015010601601632804 0 0.036333785772115483 -0.013946020113138493 0 0.036571100367237118 -0.014671947413631458 0 0.035862846881504366 -0.015010601601632804 0 0.035746227176249333 -0.014003854596977687 0 0.034999662454604452 -0.014490662973773062 0 0.035862846881504366 -0.015010601601632804 0 0.034999662454604452 -0.014490662973773062 0 0.03499976669057444 -0.01633180950399394 0 0.035862846881504366 -0.015010601601632804 0 0.03499976669057444 -0.01633180950399394 0 0.035862846881504366 -0.015010601601632804 0 0.035916284392008592 -0.016039806473385071 0 0.035862846881504366 -0.015010601601632804 0 0.036533047701316906 -0.015421284061640029 0 0.035916284392008592 -0.016039806473385071 0 0.036533047701316906 -0.015421284061640029 0 0.035916284392008592 -0.016039806473385071 0 0.037075104517593799 -0.016130883056918611 0 0.036571100367237118 -0.014671947413631458 0 0.035862846881504366 -0.015010601601632804 0 0.036533047701316906 -0.015421284061640029 0 0.036128869671850646 -0.016310666108799467 0 0.037095416869993965 -0.016206229936522678 0 0.037253078354626996 -0.017888378443567089 0 0.036289145968772293 -0.016514517206185918 0 0.037575493278371015 -0.016686775228508997 0 0.03500016533934884 -0.016332751981814615 0 0.036128869671850646 -0.016310666108799467 0 0.034999993837968368 -0.017850583427066365 0 0.034999989946403659 -0.016332866232629341 0 0.036289145968772293 -0.016514517206185918 0 0.036876597032989518 -0.014158512277797162 0 0.036638858952503017 -0.012602427258523445 0 0.036644983500082613 -0.012036835082710341 0 0.036912839421051689 -0.012146595899675447 0 0.036933305613310728 -0.011696154143438739 0 0.036923872984530245 -0.012758673173120062 0 0.036912839421051689 -0.012146595899675447 0 0.036616119631744354 -0.01245281222901517 0 0.036785553614817224 -0.014247254112584101 0 0.036876597032989518 -0.014158512277797162 0 0.036315177796857341 -0.012085086410946796 0 0.036912839421051689 -0.012146595899675447 0 0.036616119631744354 -0.01245281222901517 0 0.036304713480333553 -0.012796042201840897 0 0.036315177796857341 -0.012085086410946796 0 0.036616119631744354 -0.01245281222901517 0 0.036448960107059926 -0.017191715436027676 0 0.037095416869993965 -0.016206229936522678 0 0.03732859559383573 -0.017025075096620552 0 0.037375532857818923 -0.015173308786075049 0 0.03659219976308839 -0.01608400368220855 0 0.035504138441356588 -0.017108671446613252 0 0.03659219976308839 -0.01608400368220855 0 0.036075954077779311 -0.015005406203225557 0 0.037874045424844786 -0.01690364155952008 0 0.036831260301721319 -0.016752544410883186 0 0.037474044599959434 -0.015868566882866544 0 0.036876597032989518 -0.014158512277797162 0 0.037095416869993965 -0.016206229936522678 0 0.037375532857818923 -0.015173308786075049 0 0.03659219976308839 -0.01608400368220855 0 0.036075954077779311 -0.015005406203225557 0 0.036831260301721319 -0.016752544410883186 0 0.037474044599959434 -0.015868566882866544 0 0.037247563948675969 -0.015218023451479552 0 0.036533047701316906 -0.015421284061640029 0 0.037075104517593799 -0.016130883056918611 0 0.037367976312648578 -0.014995236816944091 0 0.037095416869993965 -0.016206229936522678 0 0.037262438387382128 -0.015090086489205373 0 0.037874045424844786 -0.01690364155952008 0 0.037474044599959434 -0.015868566882866544 0 0.037974884469023362 -0.014575489717512536 0 0.036571100367237118 -0.014671947413631458 0 0.036533047701316906 -0.015421284061640029 0 0.037367976312648578 -0.014995236816944091 0 0.037474044599959434 -0.015868566882866544 0 0.037247563948675969 -0.015218023451479552 0 0.037974884469023362 -0.014575489717512536 0 0.036644983500082613 -0.012036835082710341 0 0.036933305613310728 -0.011696154143438739 0 0.036966829166781005 -0.011358448953977118 0 0.036933305613310728 -0.011696154143438739 0 0.037040834714234631 -0.01144306210723788 0 0.036966829166781005 -0.011358448953977118 0 0.036876597032989518 -0.014158512277797162 0 0.037459346614288416 -0.013063636180491889 0 0.036912839421051689 -0.012146595899675447 0 0.036933305613310728 -0.011696154143438739 0 0.037070930607537529 -0.011812546858004435 0 0.036933305613310728 -0.011696154143438739 0 0.037040834714234631 -0.01144306210723788 0 0.037173191846916441 -0.011495030775617764 0 0.037459346614288416 -0.013063636180491889 0 0.037348021563713543 -0.011874783247254621 0 0.036966829166781005 -0.011358448953977118 0 0.037090726185032799 -0.011381137741033689 0 0.037307754806031913 -0.011753242742376624 0 0.037974884469023362 -0.014575489717512536 0 0.037454934852976442 -0.013439309935780042 0 0.037307754806031913 -0.011753242742376624 0 0.037040834714234631 -0.01144306210723788 0 0.036966829166781005 -0.011358448953977118 0 0.037090726185032799 -0.011381137741033689 0 0.037040834714234631 -0.01144306210723788 0 0.037090726185032799 -0.011381137741033689 0 0.037172157809956613 -0.011166660250818389 0 0.037262438387382128 -0.015090086489205373 0 0.037500225212603017 -0.013669005967906506 0 0.037367976312648578 -0.014995236816944091 0 0.036927827504153091 -0.014014181448750839 0 0.037454934852976442 -0.013439309935780042 0 0.037247563948675969 -0.015218023451479552 0 0.037974884469023362 -0.014575489717512536 0 0.037454934852976442 -0.013439309935780042 0 0.036333785772115483 -0.013946020113138493 0 0.036571100367237118 -0.014671947413631458 0 0.036927827504153091 -0.014014181448750839 0 0.036571100367237118 -0.014671947413631458 0 0.037367976312648578 -0.014995236816944091 0 0.036927827504153091 -0.014014181448750839 0 0.036927827504153091 -0.014014181448750839 0 0.037454934852976442 -0.013439309935780042 0 0.036790885334019953 -0.012875150279857658 0 0.036333785772115483 -0.013946020113138493 0 0.036927827504153091 -0.014014181448750839 0 0.036790885334019953 -0.012875150279857658 0 0.036726992301007871 -0.011713986984488509 0 0.036092174677617869 -0.012792869624875143 0 0.036790885334019953 -0.012875150279857658 0 0.036726992301007871 -0.011713986984488509 0 0.036790885334019953 -0.012875150279857658 0 0.037307754806031913 -0.011753242742376624 0 0.037454934852976442 -0.013439309935780042 0 0.036790885334019953 -0.012875150279857658 0 0.037307754806031913 -0.011753242742376624 0 0.037307754806031913 -0.011753242742376624 0 0.037172157809956613 -0.011166660250818389 0 0.037285090608599872 -0.010876257107376117 0 0.037090726185032799 -0.011381137741033689 0 0.037307754806031913 -0.011753242742376624 0 0.037172157809956613 -0.011166660250818389 0 0.037441482648959253 -0.010605505686909726 0 0.037172157809956613 -0.011166660250818389 0 0.037285090608599872 -0.010876257107376117 0 0.037441482648959253 -0.010605505686909726 0 0.037520510538204273 -0.010939314511544371 0 0.03754903800627156 -0.010568464508623728 0 0.037441482648959253 -0.010605505686909726 0 0.037520510538204273 -0.010939314511544371 0 0.037172157809956613 -0.011166660250818389 0 0.037531155726247892 -0.01088991887256179 0 0.038027738832487411 -0.01094948076365122 0 0.037520510538204273 -0.010939314511544371 0 0.037172157809956613 -0.011166660250818389 0 0.037173191846916441 -0.011495030775617764 0 0.037040834714234631 -0.01144306210723788 0 0.037172157809956613 -0.011166660250818389 0 0.037173191846916441 -0.011495030775617764 0 0.037520510538204273 -0.010939314511544371 0 0.037173191846916441 -0.011495030775617764 0 0.037475109277332455 -0.011627579659718813 0 0.036933305613310728 -0.011696154143438739 0 0.037173191846916441 -0.011495030775617764 0 0.037070930607537529 -0.011812546858004435 0 0.037173191846916441 -0.011495030775617764 0 0.037070930607537529 -0.011812546858004435 0 0.037270350878377483 -0.011938947351961268 0 0.037475109277332455 -0.011627579659718813 0 0.037598756839643796 -0.012035148966822937 0 0.037270350878377483 -0.011938947351961268 0 0.037173191846916441 -0.011495030775617764 0 0.037475109277332455 -0.011627579659718813 0 0.037270350878377483 -0.011938947351961268 0 0.037520510538204273 -0.010939314511544371 0 0.037879549006680224 -0.011708170075360154 0 0.037475109277332455 -0.011627579659718813 0 0.037520510538204273 -0.010939314511544371 0 0.037879549006680224 -0.011708170075360154 0 0.038376318282563868 -0.011363242422802873 0 0.037879549006680224 -0.011708170075360154 0 0.037955955543435504 -0.01212102313306454 0 0.038246460294380273 -0.011893487801431804 0 0.037879549006680224 -0.011708170075360154 0 0.037475109277332455 -0.011627579659718813 0 0.037598756839643796 -0.012035148966822937 0 0.037598756839643796 -0.012035148966822937 0 0.037955955543435504 -0.01212102313306454 0 0.037726630031452178 -0.012409959268259479 0 0.037879549006680224 -0.011708170075360154 0 0.037598756839643796 -0.012035148966822937 0 0.037955955543435504 -0.01212102313306454 0 0.037878256992875566 -0.012694443749514063 0 0.037726630031452178 -0.012409959268259479 0 0.038036666114869076 -0.012460076342808681 0 0.037955955543435504 -0.01212102313306454 0 0.037726630031452178 -0.012409959268259479 0 0.038036666114869076 -0.012460076342808681 0 0.038045712192281311 -0.012679671339534229 0 0.037878256992875566 -0.012694443749514063 0 0.038036666114869076 -0.012460076342808681 0 0.037598756839643796 -0.012035148966822937 0 0.037726630031452178 -0.012409959268259479 0 0.037340552413718642 -0.012338533707833157 0 0.037557521536145833 -0.012789706052881876 0 0.037726630031452178 -0.012409959268259479 0 0.037340552413718642 -0.012338533707833157 0 0.036923872984530245 -0.012758673173120062 0 0.036912839421051689 -0.012146595899675447 0 0.037340552413718642 -0.012338533707833157 0 0.036912839421051689 -0.012146595899675447 0 0.037340552413718642 -0.012338533707833157 0 0.037270350878377483 -0.011938947351961268 0 0.036912839421051689 -0.012146595899675447 0 0.037070930607537529 -0.011812546858004435 0 0.037270350878377483 -0.011938947351961268 0 0.037598756839643796 -0.012035148966822937 0 0.037340552413718642 -0.012338533707833157 0 0.037270350878377483 -0.011938947351961268 0 0.037956485724837237 -0.013162492558624922 0 0.037778814228270043 -0.013363957481681408 0 0.03782402282390826 -0.013385191426124456 0 0.037956485724837237 -0.013162492558624922 0 0.038016611628131511 -0.013175451511396789 0 0.03782402282390826 -0.013385191426124456 0 0.033009237942861716 -0.022763291638458607 0 0.032960975995894135 -0.022787997011251861 0 0.032920873484874484 -0.022780571290446004 0 0.035490766150171819 -0.017900240257476743 0 0.036138210585572546 -0.012914465623654269 0 0.038359773241009448 -0.012754009515813701 0 0.037457042836460078 -0.012207488528703235 0 0.038593236311189855 -0.012386189678720185 0 0.038572657667275946 -0.011936926821386123 0 0.039098645302331779 -0.011770526675203357 0 0.038593236311189855 -0.012386189678720185 0 0.038218814709054499 -0.01254662492006 0 0.038285599797838257 -0.012218050639952164 0 0.038045712192281311 -0.012679671339534229 0 0.038036666114869076 -0.012460076342808681 0 0.038218814709054499 -0.01254662492006 0 0.038036666114869076 -0.012460076342808681 0 0.038218814709054499 -0.01254662492006 0 0.038285599797838257 -0.012218050639952164 0 0.037955955543435504 -0.01212102313306454 0 0.038036666114869076 -0.012460076342808681 0 0.038285599797838257 -0.012218050639952164 0 0.037955955543435504 -0.01212102313306454 0 0.038285599797838257 -0.012218050639952164 0 0.038246460294380273 -0.011893487801431804 0 0.038285599797838257 -0.012218050639952164 0 0.038572657667275946 -0.011936926821386123 0 0.038246460294380273 -0.011893487801431804 0 0.038593236311189855 -0.012386189678720185 0 0.038285599797838257 -0.012218050639952164 0 0.038572657667275946 -0.011936926821386123 0 0.038572657667275946 -0.011936926821386123 0 0.038246460294380273 -0.011893487801431804 0 0.038376318282563868 -0.011363242422802873 0 0.037879549006680224 -0.011708170075360154 0 0.038246460294380273 -0.011893487801431804 0 0.038376318282563868 -0.011363242422802873 0 0.038572657667275946 -0.011936926821386123 0 0.038376318282563868 -0.011363242422802873 0 0.039098645302331779 -0.011770526675203357 0 0.03754924079922254 -0.010550951956151669 0 0.037687660571275275 -0.010590026324981862 0 0.037662831260511495 -0.010336408657782334 0 0.038027738832487411 -0.01094948076365122 0 0.037457042836460078 -0.012207488528703235 0 0.036138210585572546 -0.012914465623654269 0 0.037457042836460078 -0.012207488528703235 0 0.037662831260511495 -0.010336408657782334 0 0.03754903800627156 -0.010568464508623728 0 0.037652650544735697 -0.010070505227574113 0 0.037520510538204273 -0.010939314511544371 0 0.03754924079922254 -0.010550951956151669 0 0.03754903800627156 -0.010568464508623728 0 0.03754924079922254 -0.010550951956151669 0 0.037662831260511495 -0.010336408657782334 0 0.03754903800627156 -0.010568464508623728 0 0.03754903800627156 -0.010568464508623728 0 0.037552391735346267 -0.010266780077805493 0 0.037652650544735697 -0.010070505227574113 0 0.037441482648959253 -0.010605505686909726 0 0.03754903800627156 -0.010568464508623728 0 0.037552391735346267 -0.010266780077805493 0 0.037552391735346267 -0.010266780077805493 0 0.037652650544735697 -0.010070505227574113 0 0.037643215728409618 -0.0095675050295020644 0 0.037652650544735697 -0.010070505227574113 0 0.037643215728409618 -0.0095675050295020644 0 0.037767586480572261 -0.0096077243593117086 0 0.037643215728409618 -0.0095675050295020644 0 0.037533612105301387 -0.009547225191849763 0 0.037573007977418249 -0.0090832911374068501 0 0.037643215728409618 -0.0095675050295020644 0 0.037533612105301387 -0.009547225191849763 0 0.037509417821549804 -0.010015921499252645 0 0.037552391735346267 -0.010266780077805493 0 0.037643215728409618 -0.0095675050295020644 0 0.037509417821549804 -0.010015921499252645 0 0.037441482648959253 -0.010605505686909726 0 0.037509417821549804 -0.010015921499252645 0 0.03740443261874267 -0.010314520324320483 0 0.037441482648959253 -0.010605505686909726 0 0.037552391735346267 -0.010266780077805493 0 0.037509417821549804 -0.010015921499252645 0 0.037133761274217712 -0.010863351906623958 0 0.037285090608599872 -0.010876257107376117 0 0.037288431543796241 -0.010108570463257093 0 0.037441482648959253 -0.010605505686909726 0 0.03740443261874267 -0.010314520324320483 0 0.037285090608599872 -0.010876257107376117 0 0.03740443261874267 -0.010314520324320483 0 0.037285090608599872 -0.010876257107376117 0 0.037288431543796241 -0.010108570463257093 0 0.037288431543796241 -0.010108570463257093 0 0.0374260394486828 -0.0096721938838016785 0 0.03727821960506509 -0.0093850154806961843 0 0.037078305751829528 -0.01008460324775861 0 0.037288431543796241 -0.010108570463257093 0 0.03727821960506509 -0.0093850154806961843 0 0.037533612105301387 -0.009547225191849763 0 0.037509417821549804 -0.010015921499252645 0 0.0374260394486828 -0.0096721938838016785 0 0.037509417821549804 -0.010015921499252645 0 0.03740443261874267 -0.010314520324320483 0 0.0374260394486828 -0.0096721938838016785 0 0.03740443261874267 -0.010314520324320483 0 0.037288431543796241 -0.010108570463257093 0 0.0374260394486828 -0.0096721938838016785 0 0.03727821960506509 -0.0093850154806961843 0 0.037329372130524015 -0.0087265912061781827 0 0.037474935321055614 -0.0089309385359980318 0 0.037533612105301387 -0.009547225191849763 0 0.0374260394486828 -0.0096721938838016785 0 0.037474935321055614 -0.0089309385359980318 0 0.0374260394486828 -0.0096721938838016785 0 0.03727821960506509 -0.0093850154806961843 0 0.037474935321055614 -0.0089309385359980318 0 0.03727821960506509 -0.0093850154806961843 0 0.03713666923714376 -0.0084737942689510747 0 0.037329372130524015 -0.0087265912061781827 0 0.03713666923714376 -0.0084737942689510747 0 0.037329372130524015 -0.0087265912061781827 0 0.037378835745418226 -0.0081045083088695739 0 0.037329372130524015 -0.0087265912061781827 0 0.037474935321055614 -0.0089309385359980318 0 0.037378835745418226 -0.0081045083088695739 0 0.037524410036907999 -0.008440687363748792 0 0.037474935321055614 -0.0089309385359980318 0 0.037378835745418226 -0.0081045083088695739 0 0.037524410036907999 -0.008440687363748792 0 0.037655306026304888 -0.0087830019253965375 0 0.037579175595951315 -0.0081580575854357275 0 0.037643215728409618 -0.0095675050295020644 0 0.037573007977418249 -0.0090832911374068501 0 0.037655306026304888 -0.0087830019253965375 0 0.037524410036907999 -0.008440687363748792 0 0.037573007977418249 -0.0090832911374068501 0 0.037655306026304888 -0.0087830019253965375 0 0.037533612105301387 -0.009547225191849763 0 0.037573007977418249 -0.0090832911374068501 0 0.037474935321055614 -0.0089309385359980318 0 0.037524410036907999 -0.008440687363748792 0 0.037573007977418249 -0.0090832911374068501 0 0.037474935321055614 -0.0089309385359980318 0 0.03771848740563729 -0.0086945233940552858 0 0.037655306026304888 -0.0087830019253965375 0 0.037677974625258966 -0.0082897579912465779 0 0.03771848740563729 -0.0086945233940552858 0 0.037741912489901976 -0.0087780548605632027 0 0.037758470771128365 -0.0091309444613130956 0 0.03771848740563729 -0.0086945233940552858 0 0.037655306026304888 -0.0087830019253965375 0 0.037758470771128365 -0.0091309444613130956 0 0.037655306026304888 -0.0087830019253965375 0 0.037677974625258966 -0.0082897579912465779 0 0.037579175595951315 -0.0081580575854357275 0 0.03771848740563729 -0.0086945233940552858 0 0.037677974625258966 -0.0082897579912465779 0 0.03772963231488595 -0.0081706170637289507 0 0.03772963231488595 -0.0081706170637289507 0 0.037822863640871965 -0.0080668221397548721 0 0.037826182176635019 -0.0084717625250515065 0 0.037826182176635019 -0.0084717625250515065 0 0.037741912489901976 -0.0087780548605632027 0 0.037766366817024201 -0.0088050369939175043 0 0.03771848740563729 -0.0086945233940552858 0 0.03772963231488595 -0.0081706170637289507 0 0.037741912489901976 -0.0087780548605632027 0 0.03772963231488595 -0.0081706170637289507 0 0.037826182176635019 -0.0084717625250515065 0 0.037741912489901976 -0.0087780548605632027 0 0.037741912489901976 -0.0087780548605632027 0 0.037712935689532073 -0.0091178953651135011 0 0.037758470771128365 -0.0091309444613130956 0 0.037712935689532073 -0.0091178953651135011 0 0.037766366817024201 -0.0088050369939175043 0 0.037623675211826579 -0.0090375279305138414 0 0.037741912489901976 -0.0087780548605632027 0 0.037712935689532073 -0.0091178953651135011 0 0.037766366817024201 -0.0088050369939175043 0 0.037712935689532073 -0.0091178953651135011 0 0.037623675211826579 -0.0090375279305138414 0 0.03748701738171234 -0.0091878567395833298 0 0.037623675211826579 -0.0090375279305138414 0 0.03748701738171234 -0.0091878567395833298 0 0.037494706369032287 -0.0091302729996773132 0 0.037712935689532073 -0.0091178953651135011 0 0.03748701738171234 -0.0091878567395833298 0 0.037856028267163624 -0.0093631088582006756 0 0.037712935689532073 -0.0091178953651135011 0 0.037856028267163624 -0.0093631088582006756 0 0.037758470771128365 -0.0091309444613130956 0 0.037856028267163624 -0.0093631088582006756 0 0.037758470771128365 -0.0091309444613130956 0 0.037767586480572261 -0.0096077243593117086 0 0.037643215728409618 -0.0095675050295020644 0 0.037655306026304888 -0.0087830019253965375 0 0.037758470771128365 -0.0091309444613130956 0 0.037643215728409618 -0.0095675050295020644 0 0.037758470771128365 -0.0091309444613130956 0 0.037767586480572261 -0.0096077243593117086 0 0.037652650544735697 -0.010070505227574113 0 0.037767586480572261 -0.0096077243593117086 0 0.037871078709360802 -0.010154366104765385 0 0.037704765278348082 -0.009639005266625247 0 0.038466007673033001 -0.0089092060193090017 0 0.037856028267163624 -0.0093631088582006756 0 0.037767586480572261 -0.0096077243593117086 0 0.037871078709360802 -0.010154366104765385 0 0.037856028267163624 -0.0093631088582006756 0 0.038356329220038239 -0.0087580002400629419 0 0.037617963085194599 -0.0086861930608145132 0 0.038356329220038239 -0.0087580002400629419 0 0.037808421504453703 -0.0081345966036769184 0 0.037617963085194599 -0.0086861930608145132 0 0.037687660571275275 -0.010590026324981862 0 0.037662831260511495 -0.010336408657782334 0 0.037871078709360802 -0.010154366104765385 0 0.037662831260511495 -0.010336408657782334 0 0.037652650544735697 -0.010070505227574113 0 0.037871078709360802 -0.010154366104765385 0 0.037457042836460078 -0.012207488528703235 0 0.038466007673033001 -0.0089092060193090017 0 0.038740719492152173 -0.0081535275351445457 0 0.038356329220038239 -0.0087580002400629419 0 0.038291455559241794 -0.0082550653411331849 0 0.038740719492152173 -0.0081535275351445457 0 0.038291455559241794 -0.0082550653411331849 0 0.038144347519045843 -0.0077736683565261117 0 0.036612836498392656 -0.012398825072723281 0 0.036207681577222317 -0.012180553173433424 0 0.038741600163450692 -0.0092016236211828525 0 0.036138210585572546 -0.012914465623654269 0 0.038466007673033001 -0.0089092060193090017 0 0.038356329220038239 -0.0087580002400629419 0 0.038291455559241794 -0.0082550653411331849 0 0.037808421504453703 -0.0081345966036769184 0 0.038291455559241794 -0.0082550653411331849 0 0.038144347519045843 -0.0077736683565261117 0 0.037808421504453703 -0.0081345966036769184 0 0.028534942998825221 -0.031295955808906914 0 0.034376273646754663 -0.018668937984920926 0 0.034376273646754663 -0.018668937984920926 0 0.034448739360229852 -0.015225348930205987 0 0.032784896283946256 -0.022757110917846567 0 0.032818102622175743 -0.022829687449313959 0 0.032779270605800728 -0.022847072889902675 0 0.033933443545563602 -0.019046680622617721 0 0.034376273646754663 -0.018668937984920926 0 0.036138210585572546 -0.012914465623654269 0 0.034376273646754663 -0.018668937984920926 0 0.032960975995894135 -0.022787997011251861 0 0.032818102622175743 -0.022829687449313959 0 0.032799011616422631 -0.022836024655925543 0 0.032960975995894135 -0.022787997011251861 0 0.032818102622175743 -0.022829687449313959 0 0.032920873484874484 -0.022780571290446004 0 0.032868353025605757 -0.02277339251111422 0 0.032818102622175743 -0.022829687449313959 0 0.032920873484874484 -0.022780571290446004 0 0.037519483899591741 -0.0075859839627186671 0 0.037231169190309839 -0.0081144388451608006 0 0.036687972265670048 -0.0073481511523566471 0 0.034448739360229852 -0.015225348930205987 0 0.033942632333408891 -0.014646789090993815 0 0.029986811366804932 -0.022875419504409886 0 0.031307496908324087 -0.023205008984908456 0 0.029917315292016047 -0.023151953582440502 0 0.031446481337947675 -0.022657553869299938 0 0.029986811366804932 -0.022875419504409886 0 0.031307496908324087 -0.023205008984908456 0 0.031446481337947675 -0.022657553869299938 0 0.032685396675642193 -0.023235562168798251 0 0.031307496908324087 -0.023205008984908456 0 0.038144347519045843 -0.0077736683565261117 0 0.037519483899591741 -0.0075859839627186671 0 0.037808421504453703 -0.0081345966036769184 0 0.037519483899591741 -0.0075859839627186671 0 0.037808421504453703 -0.0081345966036769184 0 0.037231169190309839 -0.0081144388451608006 0 0.037808421504453703 -0.0081345966036769184 0 0.037231169190309839 -0.0081144388451608006 0 0.037617963085194599 -0.0086861930608145132 0 0.037231169190309839 -0.0081144388451608006 0 0.037075672748973748 -0.0086588008697204063 0 0.036445312907541355 -0.0082035124432254629 0 0.037231169190309839 -0.0081144388451608006 0 0.036445312907541355 -0.0082035124432254629 0 0.036687972265670048 -0.0073481511523566471 0 0.037075672748973748 -0.0086588008697204063 0 0.037617963085194599 -0.0086861930608145132 0 0.037427239127610125 -0.0090485727462420971 0 0.037231169190309839 -0.0081144388451608006 0 0.037075672748973748 -0.0086588008697204063 0 0.037617963085194599 -0.0086861930608145132 0 0.03748701738171234 -0.0091878567395833298 0 0.037856028267163624 -0.0093631088582006756 0 0.037427239127610125 -0.0090485727462420971 0 0.037856028267163624 -0.0093631088582006756 0 0.037617963085194599 -0.0086861930608145132 0 0.037427239127610125 -0.0090485727462420971 0 0.03748701738171234 -0.0091878567395833298 0 0.037427239127610125 -0.0090485727462420971 0 0.037025139147795511 -0.0092056204153033571 0 0.037075672748973748 -0.0086588008697204063 0 0.037427239127610125 -0.0090485727462420971 0 0.037025139147795511 -0.0092056204153033571 0 0.03748701738171234 -0.0091878567395833298 0 0.037025139147795511 -0.0092056204153033571 0 0.037494706369032287 -0.0091302729996773132 0 0.037025139147795511 -0.0092056204153033571 0 0.036037597138741315 -0.009106412866473677 0 0.035739362016948446 -0.0099867702362015 0 0.037063398798084769 -0.0092346825255854009 0 0.036876345802227262 -0.0095012055277466489 0 0.037025139147795511 -0.0092056204153033571 0 0.03797182226303477 -0.0091880172822254441 0 0.037494706369032287 -0.0091302729996773132 0 0.037025139147795511 -0.0092056204153033571 0 0.036037597138741315 -0.009106412866473677 0 0.03648668706080159 -0.0087149984233818763 0 0.036037597138741315 -0.009106412866473677 0 0.035122065493384758 -0.0089520231801096545 0 0.034814308535982816 -0.0093839957628206773 0 0.035952552279836972 -0.0091084302723893496 0 0.035194205143210429 -0.0095380058410769152 0 0.036037597138741315 -0.009106412866473677 0 0.035403386802229292 -0.0098669011677669678 0 0.035739362016948446 -0.0099867702362015 0 0.035122065493384758 -0.0089520231801096545 0 0.035688328282009907 -0.0085651034923449627 0 0.034762141689659437 -0.0086391574765789184 0 0.035688328282009907 -0.0085651034923449627 0 0.035315739915361508 -0.007984259458733628 0 0.034762141689659437 -0.0086391574765789184 0 0.036037597138741315 -0.009106412866473677 0 0.035122065493384758 -0.0089520231801096545 0 0.035688328282009907 -0.0085651034923449627 0 0.036037597138741315 -0.009106412866473677 0 0.035688328282009907 -0.0085651034923449627 0 0.03648668706080159 -0.0087149984233818763 0 0.037075672748973748 -0.0086588008697204063 0 0.037025139147795511 -0.0092056204153033571 0 0.03648668706080159 -0.0087149984233818763 0 0.035688328282009907 -0.0085651034923449627 0 0.03648668706080159 -0.0087149984233818763 0 0.036445312907541355 -0.0082035124432254629 0 0.037075672748973748 -0.0086588008697204063 0 0.03648668706080159 -0.0087149984233818763 0 0.036445312907541355 -0.0082035124432254629 0 0.036445312907541355 -0.0082035124432254629 0 0.035315739915361508 -0.007984259458733628 0 0.03603691461395276 -0.0076696713806769347 0 0.035688328282009907 -0.0085651034923449627 0 0.036445312907541355 -0.0082035124432254629 0 0.035315739915361508 -0.007984259458733628 0 0.035315739915361508 -0.007984259458733628 0 0.035641394261146327 -0.0071658813490992276 0 0.03603691461395276 -0.0076696713806769347 0 0.025707285144754455 -0.032338864504302074 0 0.028231138424711907 -0.024979323689040354 0 0.035641394261146327 -0.0071658813490992276 0 0.03603691461395276 -0.0076696713806769347 0 0.036687972265670048 -0.0073481511523566471 0 0.036445312907541355 -0.0082035124432254629 0 0.03603691461395276 -0.0076696713806769347 0 0.036687972265670048 -0.0073481511523566471 0 0.028231138424711907 -0.024979323689040354 0 0.033942632333408891 -0.014646789090993815 0 0.029986811366804932 -0.022875419504409886 0 0.028529336463391178 -0.023091540495648325 0 0.029917315292016047 -0.023151953582440502 0 0.031537536820581087 -0.016744738754872975 0 0.028871692956277058 -0.018102881228277225 0 0.034339933323633547 -0.0072984650136523211 0 0.033835215685660586 -0.0084406759611948216 0 0.032903488690164899 -0.0074949115691508722 0 0.026690385672023458 -0.027796559806210656 0 0.026887976596069153 -0.028141504655964145 0 0.025019578087306208 -0.028528613073337521 0 0.028231138424711907 -0.024979323689040354 0 0.021303015873621389 -0.035665922184913587 0 0.028603603460545891 -0.027815268281252706 0 0.026690385672023458 -0.027796559806210656 0 0.026887976596069153 -0.028141504655964145 0 0.035315739915361508 -0.007984259458733628 0 0.035641394261146327 -0.0071658813490992276 0 0.034339933323633547 -0.0072984650136523211 0 0.028231138424711907 -0.024979323689040354 0 0.031537536820581087 -0.016744738754872975 0 0.035315739915361508 -0.007984259458733628 0 0.034529485378679579 -0.0081909835648006409 0 0.034762141689659437 -0.0086391574765789184 0 0.035315739915361508 -0.007984259458733628 0 0.034339933323633547 -0.0072984650136523211 0 0.034529485378679579 -0.0081909835648006409 0 0.034339933323633547 -0.0072984650136523211 0 0.034529485378679579 -0.0081909835648006409 0 0.033835215685660586 -0.0084406759611948216 0 0.033835215685660586 -0.0084406759611948216 0 0.034105975176221319 -0.0087925782275015216 0 0.033668197340495518 -0.0086873818746807663 0 0.034529485378679579 -0.0081909835648006409 0 0.033835215685660586 -0.0084406759611948216 0 0.034105975176221319 -0.0087925782275015216 0 0.034529485378679579 -0.0081909835648006409 0 0.034762141689659437 -0.0086391574765789184 0 0.034105975176221319 -0.0087925782275015216 0 0.035122065493384758 -0.0089520231801096545 0 0.034762141689659437 -0.0086391574765789184 0 0.034564294534483078 -0.0090480561762276337 0 0.034762141689659437 -0.0086391574765789184 0 0.034564294534483078 -0.0090480561762276337 0 0.034105975176221319 -0.0087925782275015216 0 0.034564294534483078 -0.0090480561762276337 0 0.034156586758875077 -0.0090650850256210353 0 0.034416504522401303 -0.0092224270985417408 0 0.035122065493384758 -0.0089520231801096545 0 0.034564294534483078 -0.0090480561762276337 0 0.034814308535982816 -0.0093839957628206773 0 0.034564294534483078 -0.0090480561762276337 0 0.034416504522401303 -0.0092224270985417408 0 0.034814308535982816 -0.0093839957628206773 0 0.034105975176221319 -0.0087925782275015216 0 0.033751617787357031 -0.008915733424163368 0 0.033668197340495518 -0.0086873818746807663 0 0.034564294534483078 -0.0090480561762276337 0 0.034105975176221319 -0.0087925782275015216 0 0.034156586758875077 -0.0090650850256210353 0 0.034105975176221319 -0.0087925782275015216 0 0.034156586758875077 -0.0090650850256210353 0 0.033751617787357031 -0.008915733424163368 0 0.034156586758875077 -0.0090650850256210353 0 0.033927162876221842 -0.009091445981348683 0 0.033751617787357031 -0.008915733424163368 0 0.033927162876221842 -0.009091445981348683 0 0.033751617787357031 -0.008915733424163368 0 0.033630140942102843 -0.0089525887505528846 0 0.034156586758875077 -0.0090650850256210353 0 0.034163366008950015 -0.0091684178819244969 0 0.033927162876221842 -0.009091445981348683 0 0.034156586758875077 -0.0090650850256210353 0 0.034163366008950015 -0.0091684178819244969 0 0.034416504522401303 -0.0092224270985417408 0 0.034163366008950015 -0.0091684178819244969 0 0.033927162876221842 -0.009091445981348683 0 0.034098185957782426 -0.0092592617510414005 0 0.034163366008950015 -0.0091684178819244969 0 0.034098185957782426 -0.0092592617510414005 0 0.034416504522401303 -0.0092224270985417408 0 0.033927162876221842 -0.009091445981348683 0 0.033827724234472112 -0.0091771077779565034 0 0.034098185957782426 -0.0092592617510414005 0 0.033927162876221842 -0.009091445981348683 0 0.033661443852548725 -0.0090465576730966411 0 0.033630140942102843 -0.0089525887505528846 0 0.033927162876221842 -0.009091445981348683 0 0.033827724234472112 -0.0091771077779565034 0 0.033661443852548725 -0.0090465576730966411 0 0.035173256077374149 -0.010110337214740781 0 0.035263810655614479 -0.010168586986311642 0 0.035112015502167686 -0.010204430557597413 0 0.033827724234472112 -0.0091771077779565034 0 0.034098185957782426 -0.0092592617510414005 0 0.033620741968514133 -0.0094194712412903701 0 0.036949180591456701 -0.0097637253584291813 0 0.035622127612127304 -0.0070843809683327459 0 0.034593855471005477 -0.0098720659368955604 0 0.03404769954818037 -0.0081443505977737852 0 0.035173256077374149 -0.010110337214740781 0 0.035112015502167686 -0.010204430557597413 0 0.035076092444696796 -0.010168610465964591 0 0.03829363402192501 -0.0086984628162886813 0 0.038463645517998107 -0.0088519274043986074 0 0.038485108023890831 -0.0085329146946883667 0 0.03829363402192501 -0.0086984628162886813 0 0.038463645517998107 -0.0088519274043986074 0 0.038221133703543103 -0.0088826692889169955 0 0.036949180591456701 -0.0097637253584291813 0 0.036876345802227262 -0.0095012055277466489 0 0.038463645517998107 -0.0088519274043986074 0 0.03797182226303477 -0.0091880172822254441 0 0.038221133703543103 -0.0088826692889169955 0 0.035263810655614479 -0.010168586986311642 0 0.035403386802229292 -0.0098669011677669678 0 0.035739362016948446 -0.0099867702362015 0 0.034593855471005477 -0.0098720659368955604 0 0.035194205143210429 -0.0095380058410769152 0 0.035173256077374149 -0.010110337214740781 0 0.035263810655614479 -0.010168586986311642 0 0.035403386802229292 -0.0098669011677669678 0 0.034098185957782426 -0.0092592617510414005 0 0.034416504522401303 -0.0092224270985417408 0 0.034814308535982816 -0.0093839957628206773 0 0.03797182226303477 -0.0091880172822254441 0 0.037809067157255953 -0.0089780056982919111 0 0.038016623758130211 -0.0089504180001324877 0 0.03797182226303477 -0.0091880172822254441 0 0.038221133703543103 -0.0088826692889169955 0 0.038016623758130211 -0.0089504180001324877 0 0.03797182226303477 -0.0091880172822254441 0 0.037494706369032287 -0.0091302729996773132 0 0.037809067157255953 -0.0089780056982919111 0 0.037623675211826579 -0.0090375279305138414 0 0.037494706369032287 -0.0091302729996773132 0 0.037809067157255953 -0.0089780056982919111 0 0.037766366817024201 -0.0088050369939175043 0 0.037623675211826579 -0.0090375279305138414 0 0.037834666573420946 -0.0088374205388989484 0 0.037623675211826579 -0.0090375279305138414 0 0.037809067157255953 -0.0089780056982919111 0 0.037834666573420946 -0.0088374205388989484 0 0.037809067157255953 -0.0089780056982919111 0 0.037834666573420946 -0.0088374205388989484 0 0.038063447164291157 -0.0087712945684093255 0 0.037834666573420946 -0.0088374205388989484 0 0.038063447164291157 -0.0087712945684093255 0 0.037968530566104115 -0.0085822219304356843 0 0.037766366817024201 -0.0088050369939175043 0 0.037834666573420946 -0.0088374205388989484 0 0.037968530566104115 -0.0085822219304356843 0 0.038221133703543103 -0.0088826692889169955 0 0.038016623758130211 -0.0089504180001324877 0 0.038063447164291157 -0.0087712945684093255 0 0.037809067157255953 -0.0089780056982919111 0 0.038016623758130211 -0.0089504180001324877 0 0.038063447164291157 -0.0087712945684093255 0 0.03829363402192501 -0.0086984628162886813 0 0.038221133703543103 -0.0088826692889169955 0 0.038063447164291157 -0.0087712945684093255 0 0.03829363402192501 -0.0086984628162886813 0 0.038063447164291157 -0.0087712945684093255 0 0.038226988759021599 -0.0084904812528598106 0 0.038226988759021599 -0.0084904812528598106 0 0.037968530566104115 -0.0085822219304356843 0 0.038074761888917431 -0.008213028557648841 0 0.038063447164291157 -0.0087712945684093255 0 0.038226988759021599 -0.0084904812528598106 0 0.037968530566104115 -0.0085822219304356843 0 0.037826182176635019 -0.0084717625250515065 0 0.037968530566104115 -0.0085822219304356843 0 0.038074761888917431 -0.008213028557648841 0 0.037826182176635019 -0.0084717625250515065 0 0.037766366817024201 -0.0088050369939175043 0 0.037968530566104115 -0.0085822219304356843 0 0.037822863640871965 -0.0080668221397548721 0 0.037826182176635019 -0.0084717625250515065 0 0.038074761888917431 -0.008213028557648841 0 0.037822863640871965 -0.0080668221397548721 0 0.038074761888917431 -0.008213028557648841 0 0.03788952364833291 -0.0077684356179624917 0 0.038226988759021599 -0.0084904812528598106 0 0.038074761888917431 -0.008213028557648841 0 0.038502397234869132 -0.0082048997786141383 0 0.038074761888917431 -0.008213028557648841 0 0.038502397234869132 -0.0082048997786141383 0 0.038300359027555048 -0.0077778861182089438 0 0.035475525449840499 -0.0050703311640339522 0 0.034757721132613745 -0.0051074863640617274 0 0.034774906246549026 -0.0045597642399077586 0 0.035475525449840499 -0.0050703311640339522 0 0.034757721132613745 -0.0051074863640617274 0 0.034575450662719873 -0.0056946438721722668 0 0.037168768642160371 -0.0066065877003209008 0 0.035622127612127304 -0.0070843809683327459 0 0.038502397234869132 -0.0082048997786141383 0 0.038779640271550113 -0.0085323507698668345 0 0.038485108023890831 -0.0085329146946883667 0 0.038463645517998107 -0.0088519274043986074 0 0.038779640271550113 -0.0085323507698668345 0 0.038485108023890831 -0.0085329146946883667 0 0.035622127612127304 -0.0070843809683327459 0 0.03404769954818037 -0.0081443505977737852 0 0.038226988759021599 -0.0084904812528598106 0 0.038502397234869132 -0.0082048997786141383 0 0.038485108023890831 -0.0085329146946883667 0 0.03829363402192501 -0.0086984628162886813 0 0.038226988759021599 -0.0084904812528598106 0 0.038485108023890831 -0.0085329146946883667 0 0.035416450760314383 -0.0060824977030100235 0 0.034547863860886728 -0.0062518500090924982 0 0.034575450662719873 -0.0056946438721722668 0 0.035475525449840499 -0.0050703311640339522 0 0.035416450760314383 -0.0060824977030100235 0 0.034575450662719873 -0.0056946438721722668 0 0.035475525449840499 -0.0050703311640339522 0 0.035416450760314383 -0.0060824977030100235 0 0.036408708212246801 -0.0056568968635781359 0 0.037168768642160371 -0.0066065877003209008 0 0.037314517402769379 -0.0067288257638937875 0 0.038074761888917431 -0.008213028557648841 0 0.038300359027555048 -0.0077778861182089438 0 0.03788952364833291 -0.0077684356179624917 0 0.038300359027555048 -0.0077778861182089438 0 0.03788952364833291 -0.0077684356179624917 0 0.037643847740141449 -0.0070008550825544306 0 0.037314517402769379 -0.0067288257638937875 0 0.037628802924976223 -0.0069738868393768539 0 0.036408708212246801 -0.0056568968635781359 0 0.037643847740141449 -0.0070008550825544306 0 0.036478540041711409 -0.006753295284735888 0 0.035416450760314383 -0.0060824977030100235 0 0.036408708212246801 -0.0056568968635781359 0 0.036478540041711409 -0.006753295284735888 0 0.036478540041711409 -0.006753295284735888 0 0.037457042276663341 -0.0075038365407589219 0 0.035717482830549242 -0.0072954444385828583 0 0.037643847740141449 -0.0070008550825544306 0 0.036478540041711409 -0.006753295284735888 0 0.037457042276663341 -0.0075038365407589219 0 0.035256372363355735 -0.0056252422753396451 0 0.034960959756371597 -0.0058921308506179621 0 0.035211834907795725 -0.0058760565084394843 0 0.035256372363355735 -0.0056252422753396451 0 0.035211834907795725 -0.0058760565084394843 0 0.035512935989816662 -0.0058713739852655532 0 0.036343265177426427 -0.0065533111686204588 0 0.035270524984561631 -0.0065564060185522481 0 0.035256372363355735 -0.0056252422753396451 0 0.03473241229935501 -0.0058552524673860309 0 0.034960959756371597 -0.0058921308506179621 0 0.03473241229935501 -0.0058552524673860309 0 0.034645665590539318 -0.0060559659301266909 0 0.034960959756371597 -0.0058921308506179621 0 0.035416450760314383 -0.0060824977030100235 0 0.035717482830549242 -0.0072954444385828583 0 0.034547863860886728 -0.0062518500090924982 0 0.035416450760314383 -0.0060824977030100235 0 0.036478540041711409 -0.006753295284735888 0 0.035717482830549242 -0.0072954444385828583 0 0.035717482830549242 -0.0072954444385828583 0 0.034547863860886728 -0.0062518500090924982 0 0.034405518394368319 -0.0063868762386516146 0 0.035270524984561631 -0.0065564060185522481 0 0.034508176222346074 -0.0064192717038624126 0 0.03473241229935501 -0.0058552524673860309 0 0.034645665590539318 -0.0060559659301266909 0 0.034405518394368319 -0.0063868762386516146 0 0.034645665590539318 -0.0060559659301266909 0 0.034541840646359595 -0.0061688658109748567 0 0.034404411536362638 -0.0062005405593063669 0 0.034645665590539318 -0.0060559659301266909 0 0.034405518394368319 -0.0063868762386516146 0 0.034404411536362638 -0.0062005405593063669 0 0.034645665590539318 -0.0060559659301266909 0 0.034541840646359595 -0.0061688658109748567 0 0.034811899210347774 -0.006077827932249303 0 0.034541840646359595 -0.0061688658109748567 0 0.034652354013567324 -0.0061955329754741955 0 0.034397291553424525 -0.0063085132175183323 0 0.034541840646359595 -0.0061688658109748567 0 0.034652354013567324 -0.0061955329754741955 0 0.034811899210347774 -0.006077827932249303 0 0.034652354013567324 -0.0061955329754741955 0 0.034873414466803747 -0.0060778181847592544 0 0.034811899210347774 -0.006077827932249303 0 0.034652354013567324 -0.0061955329754741955 0 0.034806938753355395 -0.0061245591938765649 0 0.034873414466803747 -0.0060778181847592544 0 0.034652354013567324 -0.0061955329754741955 0 0.034806938753355395 -0.0061245591938765649 0 0.034641907049759127 -0.0062463323296164828 0 0.034652354013567324 -0.0061955329754741955 0 0.034480741895178219 -0.006339819688447915 0 0.034641907049759127 -0.0062463323296164828 0 0.034652354013567324 -0.0061955329754741955 0 0.034480741895178219 -0.006339819688447915 0 0.034397291553424525 -0.0063085132175183323 0 0.03501166333093015 -0.0059958627485009281 0 0.035114976378609754 -0.0059025608805792296 0 0.035244092059700333 -0.0058556939117720211 0 0.03501166333093015 -0.0059958627485009281 0 0.035114976378609754 -0.0059025608805792296 0 0.034931113179629873 -0.0060328298129159238 0 0.03501166333093015 -0.0059958627485009281 0 0.034806938753355395 -0.0061245591938765649 0 0.034873414466803747 -0.0060778181847592544 0 0.03501166333093015 -0.0059958627485009281 0 0.034806938753355395 -0.0061245591938765649 0 0.034931113179629873 -0.0060328298129159238 0 0.034873414466803747 -0.0060778181847592544 0 0.035093775724416333 -0.0059747407121430295 0 0.034811899210347774 -0.006077827932249303 0 0.03501166333093015 -0.0059958627485009281 0 0.034873414466803747 -0.0060778181847592544 0 0.035093775724416333 -0.0059747407121430295 0 0.03501166333093015 -0.0059958627485009281 0 0.035093775724416333 -0.0059747407121430295 0 0.035244092059700333 -0.0058556939117720211 0 0.035093775724416333 -0.0059747407121430295 0 0.035303240650899209 -0.0059084677036977049 0 0.035385451110470166 -0.005840154665496893 0 0.035093775724416333 -0.0059747407121430295 0 0.035303240650899209 -0.0059084677036977049 0 0.035004923042099283 -0.0059780833615783163 0 0.034645665590539318 -0.0060559659301266909 0 0.035004923042099283 -0.0059780833615783163 0 0.034811899210347774 -0.006077827932249303 0 0.035093775724416333 -0.0059747407121430295 0 0.035004923042099283 -0.0059780833615783163 0 0.034811899210347774 -0.006077827932249303 0 0.034645665590539318 -0.0060559659301266909 0 0.035004923042099283 -0.0059780833615783163 0 0.034960959756371597 -0.0058921308506179621 0 0.035303240650899209 -0.0059084677036977049 0 0.035004923042099283 -0.0059780833615783163 0 0.035211834907795725 -0.0058760565084394843 0 0.035004923042099283 -0.0059780833615783163 0 0.034960959756371597 -0.0058921308506179621 0 0.035211834907795725 -0.0058760565084394843 0 0.035303240650899209 -0.0059084677036977049 0 0.035211834907795725 -0.0058760565084394843 0 0.035512935989816662 -0.0058713739852655532 0 0.035303240650899209 -0.0059084677036977049 0 0.035512935989816662 -0.0058713739852655532 0 0.035574935455102326 -0.0058479236213812924 0 0.035512935989816662 -0.0058713739852655532 0 0.03582406058739894 -0.0059620257831158553 0 0.035574935455102326 -0.0058479236213812924 0 0.03582406058739894 -0.0059620257831158553 0 0.035758057650602602 -0.0057341658802234083 0 0.035574935455102326 -0.0058479236213812924 0 0.035758057650602602 -0.0057341658802234083 0 0.035574935455102326 -0.0058479236213812924 0 0.035539643005062002 -0.0056594377154761105 0 0.035574935455102326 -0.0058479236213812924 0 0.035385451110470166 -0.005840154665496893 0 0.035539643005062002 -0.0056594377154761105 0 0.035303240650899209 -0.0059084677036977049 0 0.035574935455102326 -0.0058479236213812924 0 0.035385451110470166 -0.005840154665496893 0 0.035093775724416333 -0.0059747407121430295 0 0.035385451110470166 -0.005840154665496893 0 0.035244092059700333 -0.0058556939117720211 0 0.035385451110470166 -0.005840154665496893 0 0.03537954609982942 -0.0057426753181439565 0 0.035244092059700333 -0.0058556939117720211 0 0.035539643005062002 -0.0056594377154761105 0 0.03537954609982942 -0.0057426753181439565 0 0.035422637890986874 -0.0055905689951079455 0 0.035385451110470166 -0.005840154665496893 0 0.035539643005062002 -0.0056594377154761105 0 0.03537954609982942 -0.0057426753181439565 0 0.03537954609982942 -0.0057426753181439565 0 0.035422637890986874 -0.0055905689951079455 0 0.035279663575541409 -0.005758212516263606 0 0.035422637890986874 -0.0055905689951079455 0 0.035380166521610253 -0.0055754196642237679 0 0.035294747736781797 -0.0056773037895534043 0 0.035422637890986874 -0.0055905689951079455 0 0.035279663575541409 -0.005758212516263606 0 0.035294747736781797 -0.0056773037895534043 0 0.035279663575541409 -0.005758212516263606 0 0.035114976378609754 -0.0059025608805792296 0 0.035244092059700333 -0.0058556939117720211 0 0.03537954609982942 -0.0057426753181439565 0 0.035279663575541409 -0.005758212516263606 0 0.035244092059700333 -0.0058556939117720211 0 0.035560391174282231 -0.0052826652582525172 0 0.035545991881053118 -0.0053401491553049137 0 0.035579410725832768 -0.0051164628001838181 0 0.035560391174282231 -0.0052826652582525172 0 0.03549570866022763 -0.0054466874074199116 0 0.035537413891395246 -0.0054634708325156421 0 0.035560391174282231 -0.0052826652582525172 0 0.035545991881053118 -0.0053401491553049137 0 0.03549570866022763 -0.0054466874074199116 0 0.035422637890986874 -0.0055905689951079455 0 0.03549570866022763 -0.0054466874074199116 0 0.035380166521610253 -0.0055754196642237679 0 0.035422637890986874 -0.0055905689951079455 0 0.03549570866022763 -0.0054466874074199116 0 0.035537413891395246 -0.0054634708325156421 0 0.035539643005062002 -0.0056594377154761105 0 0.035537413891395246 -0.0054634708325156421 0 0.035635918074299604 -0.005425886499784276 0 0.035539643005062002 -0.0056594377154761105 0 0.035422637890986874 -0.0055905689951079455 0 0.035537413891395246 -0.0054634708325156421 0 0.035560391174282231 -0.0052826652582525172 0 0.035537413891395246 -0.0054634708325156421 0 0.035635918074299604 -0.005425886499784276 0 0.035635918074299604 -0.005425886499784276 0 0.03559163720417944 -0.0052128982788465445 0 0.035610806899910211 -0.0052344189837394296 0 0.035560391174282231 -0.0052826652582525172 0 0.035635918074299604 -0.005425886499784276 0 0.03559163720417944 -0.0052128982788465445 0 0.035560391174282231 -0.0052826652582525172 0 0.03559163720417944 -0.0052128982788465445 0 0.035574537244392836 -0.0050751508353774292 0 0.035635918074299604 -0.005425886499784276 0 0.035776432664177855 -0.0055331220846494902 0 0.035610806899910211 -0.0052344189837394296 0 0.035758057650602602 -0.0057341658802234083 0 0.035539643005062002 -0.0056594377154761105 0 0.035635918074299604 -0.005425886499784276 0 0.035758057650602602 -0.0057341658802234083 0 0.035635918074299604 -0.005425886499784276 0 0.035776432664177855 -0.0055331220846494902 0 0.035758057650602602 -0.0057341658802234083 0 0.035776432664177855 -0.0055331220846494902 0 0.036200641511334515 -0.0061685053368439116 0 0.03582406058739894 -0.0059620257831158553 0 0.035758057650602602 -0.0057341658802234083 0 0.036200641511334515 -0.0061685053368439116 0 0.035776432664177855 -0.0055331220846494902 0 0.036200641511334515 -0.0061685053368439116 0 0.035535292420466026 -0.005371997459978497 0 0.035776432664177855 -0.0055331220846494902 0 0.035535292420466026 -0.005371997459978497 0 0.035610806899910211 -0.0052344189837394296 0 0.036269022225951512 -0.0061602528025864016 0 0.036435659859437891 -0.0060298073813390288 0 0.036200641511334515 -0.0061685053368439116 0 0.037097138916268452 -0.0065935778971241126 0 0.037273380663902192 -0.0067241900507742994 0 0.037097138916268452 -0.0065935778971241126 0 0.037466814914958013 -0.0074953288515627985 0 0.03730801149868207 -0.0071901166620687591 0 0.037097138916268452 -0.0065935778971241126 0 0.037466814914958013 -0.0074953288515627985 0 0.03767358680833497 -0.0073469345662380602 0 0.03701428502443279 -0.0065658649694264231 0 0.036795286143591177 -0.0064641201492355704 0 0.037097138916268452 -0.0065935778971241126 0 0.037814908135111097 -0.0071450227090241935 0 0.03767358680833497 -0.0073469345662380602 0 0.036200641511334515 -0.0061685053368439116 0 0.037097138916268452 -0.0065935778971241126 0 0.035859738642266131 -0.0057275587792380142 0 0.035512935989816662 -0.0058713739852655532 0 0.03582406058739894 -0.0059620257831158553 0 0.035859738642266131 -0.0057275587792380142 0 0.03582406058739894 -0.0059620257831158553 0 0.036200641511334515 -0.0061685053368439116 0 0.035859738642266131 -0.0057275587792380142 0 0.036343265177426427 -0.0065533111686204588 0 0.036795286143591177 -0.0064641201492355704 0 0.035256372363355735 -0.0056252422753396451 0 0.035512935989816662 -0.0058713739852655532 0 0.035859738642266131 -0.0057275587792380142 0 0.037457042276663341 -0.0075038365407589219 0 0.037814908135111097 -0.0071450227090241935 0 0.037775223540386323 -0.0072313242596047196 0 0.037643847740141449 -0.0070008550825544306 0 0.037457042276663341 -0.0075038365407589219 0 0.037775223540386323 -0.0072313242596047196 0 0.037814908135111097 -0.0071450227090241935 0 0.037775223540386323 -0.0072313242596047196 0 0.03767358680833497 -0.0073469345662380602 0 0.037713810344276157 -0.0075566080145274481 0 0.037775223540386323 -0.0072313242596047196 0 0.03767358680833497 -0.0073469345662380602 0 0.037713810344276157 -0.0075566080145274481 0 0.037775223540386323 -0.0072313242596047196 0 0.03773732295924908 -0.0076094710503512297 0 0.037643847740141449 -0.0070008550825544306 0 0.037775223540386323 -0.0072313242596047196 0 0.03773732295924908 -0.0076094710503512297 0 0.03788952364833291 -0.0077684356179624917 0 0.037643847740141449 -0.0070008550825544306 0 0.03773732295924908 -0.0076094710503512297 0 0.03772963231488595 -0.0081706170637289507 0 0.037822863640871965 -0.0080668221397548721 0 0.03773732295924908 -0.0076094710503512297 0 0.037822863640871965 -0.0080668221397548721 0 0.03788952364833291 -0.0077684356179624917 0 0.03773732295924908 -0.0076094710503512297 0 0.03772963231488595 -0.0081706170637289507 0 0.037713810344276157 -0.0075566080145274481 0 0.037647369633935591 -0.0078350849766348034 0 0.03772963231488595 -0.0081706170637289507 0 0.037713810344276157 -0.0075566080145274481 0 0.03773732295924908 -0.0076094710503512297 0 0.037677974625258966 -0.0082897579912465779 0 0.037647369633935591 -0.0078350849766348034 0 0.037579175595951315 -0.0081580575854357275 0 0.037677974625258966 -0.0082897579912465779 0 0.03772963231488595 -0.0081706170637289507 0 0.037647369633935591 -0.0078350849766348034 0 0.037579175595951315 -0.0081580575854357275 0 0.037466814914958013 -0.0074953288515627985 0 0.037417240934811365 -0.0076826728948261123 0 0.037647369633935591 -0.0078350849766348034 0 0.037579175595951315 -0.0081580575854357275 0 0.037466814914958013 -0.0074953288515627985 0 0.037713810344276157 -0.0075566080145274481 0 0.037647369633935591 -0.0078350849766348034 0 0.03767358680833497 -0.0073469345662380602 0 0.037647369633935591 -0.0078350849766348034 0 0.037466814914958013 -0.0074953288515627985 0 0.03767358680833497 -0.0073469345662380602 0 0.037417240934811365 -0.0076826728948261123 0 0.037378835745418226 -0.0081045083088695739 0 0.037317412782378725 -0.0073495222386851791 0 0.037417240934811365 -0.0076826728948261123 0 0.037317412782378725 -0.0073495222386851791 0 0.037350771422248734 -0.0069454020371185086 0 0.037466814914958013 -0.0074953288515627985 0 0.03730801149868207 -0.0071901166620687591 0 0.037417240934811365 -0.0076826728948261123 0 0.03730801149868207 -0.0071901166620687591 0 0.037417240934811365 -0.0076826728948261123 0 0.037350771422248734 -0.0069454020371185086 0 0.037524410036907999 -0.008440687363748792 0 0.037579175595951315 -0.0081580575854357275 0 0.037417240934811365 -0.0076826728948261123 0 0.037524410036907999 -0.008440687363748792 0 0.037417240934811365 -0.0076826728948261123 0 0.037378835745418226 -0.0081045083088695739 0 0.03713666923714376 -0.0084737942689510747 0 0.037378835745418226 -0.0081045083088695739 0 0.037170132926419346 -0.007461470957719556 0 0.03713666923714376 -0.0084737942689510747 0 0.037170132926419346 -0.007461470957719556 0 0.036825178888635686 -0.0077128492275690937 0 0.037378835745418226 -0.0081045083088695739 0 0.037170132926419346 -0.007461470957719556 0 0.037317412782378725 -0.0073495222386851791 0 0.037317412782378725 -0.0073495222386851791 0 0.037241195574010358 -0.0067367789226070339 0 0.037350771422248734 -0.0069454020371185086 0 0.037170132926419346 -0.007461470957719556 0 0.037317412782378725 -0.0073495222386851791 0 0.037241195574010358 -0.0067367789226070339 0 0.037170132926419346 -0.007461470957719556 0 0.037241195574010358 -0.0067367789226070339 0 0.036738049972377361 -0.0064780892229025847 0 0.037241195574010358 -0.0067367789226070339 0 0.037328156387307722 -0.0064693334265724552 0 0.03702247811321413 -0.0057993260854008969 0 0.037241195574010358 -0.0067367789226070339 0 0.037350771422248734 -0.0069454020371185086 0 0.037328156387307722 -0.0064693334265724552 0 0.037350771422248734 -0.0069454020371185086 0 0.037273380663902192 -0.0067241900507742994 0 0.037328156387307722 -0.0064693334265724552 0 0.037097138916268452 -0.0065935778971241126 0 0.03730801149868207 -0.0071901166620687591 0 0.037350771422248734 -0.0069454020371185086 0 0.037097138916268452 -0.0065935778971241126 0 0.037350771422248734 -0.0069454020371185086 0 0.037273380663902192 -0.0067241900507742994 0 0.035535292420466026 -0.005371997459978497 0 0.035543417648299852 -0.0049860086177167754 0 0.035610806899910211 -0.0052344189837394296 0 0.035535292420466026 -0.005371997459978497 0 0.035543417648299852 -0.0049860086177167754 0 0.035555715482322524 -0.0046980952885557767 0 0.036435659859437891 -0.0060298073813390288 0 0.036444511125839227 -0.0055769456267655707 0 0.035543417648299852 -0.0049860086177167754 0 0.035562406584637545 -0.0049338735683997987 0 0.035559126132743431 -0.004688362299879666 0 0.035543417648299852 -0.0049860086177167754 0 0.035559126132743431 -0.004688362299879666 0 0.035555715482322524 -0.0046980952885557767 0 0.035543417648299852 -0.0049860086177167754 0 0.035610806899910211 -0.0052344189837394296 0 0.035562406584637545 -0.0049338735683997987 0 0.035562406584637545 -0.0049338735683997987 0 0.035572346965844291 -0.0048973963044300541 0 0.035574537244392836 -0.0050751508353774292 0 0.03559163720417944 -0.0052128982788465445 0 0.035562406584637545 -0.0049338735683997987 0 0.035574537244392836 -0.0050751508353774292 0 0.03559163720417944 -0.0052128982788465445 0 0.035610806899910211 -0.0052344189837394296 0 0.035562406584637545 -0.0049338735683997987 0 0.035562406584637545 -0.0049338735683997987 0 0.035570394509377802 -0.0046783300348662814 0 0.035559126132743431 -0.004688362299879666 0 0.035562406584637545 -0.0049338735683997987 0 0.035572346965844291 -0.0048973963044300541 0 0.035570394509377802 -0.0046783300348662814 0 0.035572346965844291 -0.0048973963044300541 0 0.035570394509377802 -0.0046783300348662814 0 0.035577658706288755 -0.0047072602616745731 0 0.035572346965844291 -0.0048973963044300541 0 0.035577658706288755 -0.0047072602616745731 0 0.035579410725832768 -0.0051164628001838181 0 0.035560391174282231 -0.0052826652582525172 0 0.035574537244392836 -0.0050751508353774292 0 0.035579410725832768 -0.0051164628001838181 0 0.035572346965844291 -0.0048973963044300541 0 0.035574537244392836 -0.0050751508353774292 0 0.035579410725832768 -0.0051164628001838181 0 0.035379265225399942 -0.0040778395731145053 0 0.035314399612895904 -0.0045145796167290805 0 0.035593873145126007 -0.0042128815538252287 0 0.035583186866507917 -0.0044519074181712413 0 0.035597548487403409 -0.0041519094838685317 0 0.035593873145126007 -0.0042128815538252287 0 0.035583186866507917 -0.0044519074181712413 0 0.035577658706288755 -0.0047072602616745731 0 0.035583186866507917 -0.0044519074181712413 0 0.035570394509377802 -0.0046783300348662814 0 0.035577658706288755 -0.0047072602616745731 0 0.035570394509377802 -0.0046783300348662814 0 0.035578356468319035 -0.0044695072700791406 0 0.035559126132743431 -0.004688362299879666 0 0.035583186866507917 -0.0044519074181712413 0 0.035570394509377802 -0.0046783300348662814 0 0.035578356468319035 -0.0044695072700791406 0 0.035583186866507917 -0.0044519074181712413 0 0.035578356468319035 -0.0044695072700791406 0 0.035597548487403409 -0.0041519094838685317 0 0.035578356468319035 -0.0044695072700791406 0 0.035597548487403409 -0.0041519094838685317 0 0.035588566043960955 -0.0043230181129955145 0 0.035588566043960955 -0.0043230181129955145 0 0.035559126132743431 -0.004688362299879666 0 0.035555715482322524 -0.0046980952885557767 0 0.035578356468319035 -0.0044695072700791406 0 0.035588566043960955 -0.0043230181129955145 0 0.035559126132743431 -0.004688362299879666 0 0.036444511125839227 -0.0055769456267655707 0 0.036311794470700487 -0.0049505151816763146 0 0.035588566043960955 -0.0043230181129955145 0 0.035555715482322524 -0.0046980952885557767 0 0.035610789264534322 -0.0041145293721958623 0 0.036311794470700487 -0.0049505151816763146 0 0.035900641095749856 -0.0042142975088130287 0 0.035610789264534322 -0.0041145293721958623 0 0.035609034603835729 -0.0038357669879433808 0 0.035636234600045918 -0.0035926934797798518 0 0.035609034603835729 -0.0038357669879433808 0 0.035530318551709461 -0.0033104307768808483 0 0.035636234600045918 -0.0035926934797798518 0 0.035588566043960955 -0.0043230181129955145 0 0.035610789264534322 -0.0041145293721958623 0 0.035609034603835729 -0.0038357669879433808 0 0.035597548487403409 -0.0041519094838685317 0 0.035588566043960955 -0.0043230181129955145 0 0.035609034603835729 -0.0038357669879433808 0 0.035597548487403409 -0.0041519094838685317 0 0.035609034603835729 -0.0038357669879433808 0 0.035564256860951993 -0.0035873644739245506 0 0.035609034603835729 -0.0038357669879433808 0 0.035564256860951993 -0.0035873644739245506 0 0.035530318551709461 -0.0033104307768808483 0 0.035593873145126007 -0.0042128815538252287 0 0.035597548487403409 -0.0041519094838685317 0 0.035564256860951993 -0.0035873644739245506 0 0.035379265225399942 -0.0040778395731145053 0 0.035392277820696018 -0.0035474175990907078 0 0.035858927220625295 -0.0017917372578233784 0 0.035000004183912879 -0.0018178222998800639 0 0.035377168559510418 -0.0029118489661001607 0 0.035488987312309539 -0.0033209843567969604 0 0.035000707941206195 -0.0018228229632467749 0 0.034999992735899529 -1.8976197914915931e-06 0 0.036185611099395942 -0.0002768817589718233 0 0.034999994594998439 -0.001817438664717711 0 0.035392277820696018 -0.0035474175990907078 0 0.035391757286382837 -0.0030408499731413123 0 0.035244978611992349 -0.0035623082410470189 0 0.035377168559510418 -0.0029118489661001607 0 0.035488987312309539 -0.0033209843567969604 0 0.035564256860951993 -0.0035873644739245506 0 0.035377168559510418 -0.0029118489661001607 0 0.035530318551709461 -0.0033104307768808483 0 0.035377168559510418 -0.0029118489661001607 0 0.035530318551709461 -0.0033104307768808483 0 0.035436623325356027 -0.0028492480894599026 0 0.035377168559510418 -0.0029118489661001607 0 0.035000707941206195 -0.0018228229632467749 0 0.035436623325356027 -0.0028492480894599026 0 0.035436623325356027 -0.0028492480894599026 0 0.035636234600045918 -0.0035926934797798518 0 0.03499935646898459 -0.0034382766748098409 0 0.035000707941206195 -0.0018228229632467749 0 0.035436623325356027 -0.0028492480894599026 0 0.03499935646898459 -0.0034382766748098409 0 0.035530318551709461 -0.0033104307768808483 0 0.035436623325356027 -0.0028492480894599026 0 0.035636234600045918 -0.0035926934797798518 0 0.036281419980431912 -0.0048424472666913406 0 0.034999937901469914 -0.0034427298395498349 0 0.035897150994673277 -0.0053708294635546657 0 0.035900641095749856 -0.0042142975088130287 0 0.034999957988988167 -0.0034413708433898814 0 0.034999691205562886 -0.0052832445425481864 0 0.035932884843274331 -0.0064526336821697844 0 0.035897150994673277 -0.0053708294635546657 0 0.034999937901469914 -0.0034427298395498349 0 0.034999691205562886 -0.0052832445425481864 0 0.035897150994673277 -0.0053708294635546657 0 0.034999691205562886 -0.0052832445425481864 0 0.035932884843274331 -0.0064526336821697844 0 0.034999809255326607 -0.0071247111019900715 0 0.035932884843274331 -0.0064526336821697844 0 0.035897150994673277 -0.0053708294635546657 0 0.036738049972377361 -0.0064780892229025847 0 0.03702247811321413 -0.0057993260854008969 0 0.036281419980431912 -0.0048424472666913406 0 0.036738049972377361 -0.0064780892229025847 0 0.036281419980431912 -0.0048424472666913406 0 0.035897150994673277 -0.0053708294635546657 0 0.036738049972377361 -0.0064780892229025847 0 0.037241195574010358 -0.0067367789226070339 0 0.03702247811321413 -0.0057993260854008969 0 0.036738049972377361 -0.0064780892229025847 0 0.035932884843274331 -0.0064526336821697844 0 0.036738049972377361 -0.0064780892229025847 0 0.036346908983434498 -0.0075727810874535771 0 0.036738049972377361 -0.0064780892229025847 0 0.036346908983434498 -0.0075727810874535771 0 0.036825178888635686 -0.0077128492275690937 0 0.037170132926419346 -0.007461470957719556 0 0.036738049972377361 -0.0064780892229025847 0 0.036825178888635686 -0.0077128492275690937 0 0.036602804884171759 -0.008612692029683849 0 0.03713666923714376 -0.0084737942689510747 0 0.036825178888635686 -0.0077128492275690937 0 0.036602804884171759 -0.008612692029683849 0 0.036346908983434498 -0.0075727810874535771 0 0.036825178888635686 -0.0077128492275690937 0 0.035919703750193037 -0.0087131609972675023 0 0.036602804884171759 -0.008612692029683849 0 0.036346908983434498 -0.0075727810874535771 0 0.035919703750193037 -0.0087131609972675023 0 0.036346908983434498 -0.0075727810874535771 0 0.034999809255326607 -0.0071247111019900715 0 0.035932884843274331 -0.0064526336821697844 0 0.036346908983434498 -0.0075727810874535771 0 0.034999809255326607 -0.0071247111019900715 0 0.034999660692754245 -0.008965965889401498 0 0.035919703750193037 -0.0087131609972675023 0 0.034999809255326607 -0.0071247111019900715 0 0.011901932923604069 -0.019479974908081139 0 0.010963822049832931 -0.021062758331822865 0 0.010878361058631558 -0.019893969523080316 0 0.012161538472326839 -0.020292321521700983 0 0.011901932923604069 -0.019479974908081139 0 0.010963822049832931 -0.021062758331822865 0 0.011901932923604069 -0.019479974908081139 0 0.010878361058631558 -0.019893969523080316 0 0.011707255520298538 -0.018905879377053136 0 0.011901932923604069 -0.019479974908081139 0 0.012320903137989855 -0.019572545620349793 0 0.012477361145832335 -0.01920063813592391 0 0.012161538472326839 -0.020292321521700983 0 0.011901932923604069 -0.019479974908081139 0 0.012320903137989855 -0.019572545620349793 0 0.012648139462704103 -0.019701578672294811 0 0.012764128964730344 -0.019126848708021879 0 0.012477361145832335 -0.01920063813592391 0 0.012320903137989855 -0.019572545620349793 0 0.012648139462704103 -0.019701578672294811 0 0.012477361145832335 -0.01920063813592391 0 0.012971134438396079 -0.019510922717927221 0 0.012648139462704103 -0.019701578672294811 0 0.012764128964730344 -0.019126848708021879 0 0.012971134438396079 -0.019510922717927221 0 0.012764128964730344 -0.019126848708021879 0 0.01295005103754965 -0.019081125150326901 0 0.012971134438396079 -0.019510922717927221 0 0.013069826661345188 -0.019186093268700622 0 0.01295005103754965 -0.019081125150326901 0 0.012971134438396079 -0.019510922717927221 0 0.013130174226759411 -0.021128148954947756 0 0.013226149643199129 -0.019337834421756388 0 0.012161538472326839 -0.020292321521700983 0 0.012648139462704103 -0.019701578672294811 0 0.013130174226759411 -0.021128148954947756 0 0.012971134438396079 -0.019510922717927221 0 0.012648139462704103 -0.019701578672294811 0 0.013130174226759411 -0.021128148954947756 0 0.012161538472326839 -0.020292321521700983 0 0.012320903137989855 -0.019572545620349793 0 0.012648139462704103 -0.019701578672294811 0 0.0054708133753883217 -0.033017090625115604 0 0.0051008828375273792 -0.03318008693068681 0 0.0052010913583642703 -0.032728591999330564 0 0.012161538472326839 -0.020292321521700983 0 0.013130174226759411 -0.021128148954947756 0 0.010963822049832931 -0.021062758331822865 0 0.0089472867509401109 -0.027587622891799356 0 0.0079400544316617847 -0.028632494743220542 0 0.013130174226759411 -0.021128148954947756 0 0.010963822049832931 -0.021062758331822865 0 0.010420795663292001 -0.025203526798778981 0 0.010963822049832931 -0.021062758331822865 0 0.010079680356706195 -0.020730807293454282 0 0.010016422059227661 -0.021668566669736759 0 0.011426630557596525 -0.020814274473486973 0 0.0067757607541826881 -0.024543391105607344 0 0.010963822049832931 -0.021062758331822865 0 0.0065358184871278152 -0.025646061654391646 0 0.010420795663292001 -0.025203526798778981 0 0.010079680356706195 -0.020730807293454282 0 0.009229959976642629 -0.021141248244929748 0 0.010016422059227661 -0.021668566669736759 0 0.033840278592048058 -0.012191009344086462 0 0.03424058497277551 -0.0075333058752091843 0 0.033370262210120197 -0.007707493461314721 0 0.010079680356706195 -0.020730807293454282 0 0.009229959976642629 -0.021141248244929748 0 0.0092124962879539304 -0.019436728571625539 0 0.022239287896897057 -0.015735718104631778 0 0.021602087134990646 -0.013752522236708047 0 0.010963822049832931 -0.021062758331822865 0 0.010079680356706195 -0.020730807293454282 0 0.010878361058631558 -0.019893969523080316 0 0.0092124962879539304 -0.019436728571625539 0 0.010878361058631558 -0.019893969523080316 0 0.01076493450508269 -0.018744215251250255 0 0.010079680356706195 -0.020730807293454282 0 0.0092124962879539304 -0.019436728571625539 0 0.010878361058631558 -0.019893969523080316 0 0.010945850730128924 -0.018693733063057688 0 0.012593906568840452 -0.017993974782989246 0 0.01076493450508269 -0.018744215251250255 0 0.011839323911708359 -0.01711178916341588 0 0.013398024351786929 -0.017463154265991706 0 0.010878361058631558 -0.019893969523080316 0 0.01076493450508269 -0.018744215251250255 0 0.011707255520298538 -0.018905879377053136 0 0.01076493450508269 -0.018744215251250255 0 0.010354577733488104 -0.017656056592414909 0 0.011839323911708359 -0.01711178916341588 0 0.021602087134990646 -0.013752522236708047 0 0.021560643839193712 -0.011469138103755893 0 0.0092124962879539304 -0.019436728571625539 0 0.01076493450508269 -0.018744215251250255 0 0.010354577733488104 -0.017656056592414909 0 0.0092124962879539304 -0.019436728571625539 0 0.010354577733488104 -0.017656056592414909 0 0.0091458854180784289 -0.016456757574927969 0 0.03424058497277551 -0.0075333058752091843 0 0.033846604142373338 -0.0067738533458864131 0 0.033677218546988581 -0.0070579290155104732 0 0.010354577733488104 -0.017656056592414909 0 0.0091458854180784289 -0.016456757574927969 0 0.010730523813323718 -0.016172025914220942 0 0.0091458854180784289 -0.016456757574927969 0 0.010730523813323718 -0.016172025914220942 0 0.010523986193774424 -0.015876556852321731 0 0.0097673482345309141 -0.01607393559319592 0 0.016600663655028991 -0.01185199312735611 0 0.01021044942663598 -0.016267112353318559 0 0.015369235833931428 -0.015561500385585745 0 0.011839323911708359 -0.01711178916341588 0 0.010730523813323718 -0.016172025914220942 0 0.012591288177452177 -0.016032869360761769 0 0.010730523813323718 -0.016172025914220942 0 0.010523986193774424 -0.015876556852321731 0 0.01317786034439202 -0.015263291867671589 0 0.010730523813323718 -0.016172025914220942 0 0.01317786034439202 -0.015263291867671589 0 0.013402935987736611 -0.015792650191909632 0 0.010354577733488104 -0.017656056592414909 0 0.011839323911708359 -0.01711178916341588 0 0.010730523813323718 -0.016172025914220942 0 0.01279400784175244 -0.016296112983957712 0 0.013526846169669421 -0.01651401757116306 0 0.012977557129799411 -0.016859910153720011 0 0.015369235833931428 -0.015561500385585745 0 0.016734442090430391 -0.016075377352310197 0 0.01279400784175244 -0.016296112983957712 0 0.013526846169669421 -0.01651401757116306 0 0.014675167530937628 -0.016121727967426561 0 0.016600663655028991 -0.01185199312735611 0 0.015369235833931428 -0.015561500385585745 0 0.015369235833931428 -0.015561500385585745 0 0.014416496860366279 -0.015992954167149541 0 0.013526846169669421 -0.01651401757116306 0 0.013877460844466073 -0.016653164866706611 0 0.013451174059174911 -0.016868508214342475 0 0.013877460844466073 -0.016653164866706611 0 0.013398024351786929 -0.017463154265991706 0 0.014204033978618585 -0.016671581894235409 0 0.013877460844466073 -0.016653164866706611 0 0.013451174059174911 -0.016868508214342475 0 0.013398024351786929 -0.017463154265991706 0 0.013526846169669421 -0.01651401757116306 0 0.013451174059174911 -0.016868508214342475 0 0.012977557129799411 -0.016859910153720011 0 0.013451174059174911 -0.016868508214342475 0 0.012977557129799411 -0.016859910153720011 0 0.013398024351786929 -0.017463154265991706 0 0.011839323911708359 -0.01711178916341588 0 0.012591288177452177 -0.016032869360761769 0 0.012977557129799411 -0.016859910153720011 0 0.011839323911708359 -0.01711178916341588 0 0.012977557129799411 -0.016859910153720011 0 0.013398024351786929 -0.017463154265991706 0 0.01076493450508269 -0.018744215251250255 0 0.011993711824266416 -0.01843644591978481 0 0.011707255520298538 -0.018905879377053136 0 0.011993711824266416 -0.01843644591978481 0 0.012253716620962639 -0.018658609637331691 0 0.012468709669304811 -0.018569602109474507 0 0.011993711824266416 -0.01843644591978481 0 0.012053838802410261 -0.018719559585749869 0 0.011707255520298538 -0.018905879377053136 0 0.011993711824266416 -0.01843644591978481 0 0.012253716620962639 -0.018658609637331691 0 0.012053838802410261 -0.018719559585749869 0 0.012253716620962639 -0.018658609637331691 0 0.012053838802410261 -0.018719559585749869 0 0.012234881301657639 -0.018890512051530098 0 0.012053838802410261 -0.018719559585749869 0 0.012234881301657639 -0.018890512051530098 0 0.011707255520298538 -0.018905879377053136 0 0.011901932923604069 -0.019479974908081139 0 0.012234881301657639 -0.018890512051530098 0 0.012477361145832335 -0.01920063813592391 0 0.011901932923604069 -0.019479974908081139 0 0.012234881301657639 -0.018890512051530098 0 0.011707255520298538 -0.018905879377053136 0 0.012695930798228552 -0.018856864259538191 0 0.012839328867451909 -0.018946166979947533 0 0.012764128964730344 -0.019126848708021879 0 0.012695930798228552 -0.018856864259538191 0 0.012764128964730344 -0.019126848708021879 0 0.012523091906552536 -0.018941414049150753 0 0.012695930798228552 -0.018856864259538191 0 0.012839328867451909 -0.018946166979947533 0 0.012789593023986096 -0.018795419306220713 0 0.012839328867451909 -0.018946166979947533 0 0.012789593023986096 -0.018795419306220713 0 0.012902757914823888 -0.018866198203743589 0 0.012839328867451909 -0.018946166979947533 0 0.012764128964730344 -0.019126848708021879 0 0.01295005103754965 -0.019081125150326901 0 0.012764128964730344 -0.019126848708021879 0 0.012477361145832335 -0.01920063813592391 0 0.012523091906552536 -0.018941414049150753 0 0.012234881301657639 -0.018890512051530098 0 0.012477361145832335 -0.01920063813592391 0 0.012523091906552536 -0.018941414049150753 0 0.012234881301657639 -0.018890512051530098 0 0.012523091906552536 -0.018941414049150753 0 0.012490848110726526 -0.018740795728303162 0 0.012695930798228552 -0.018856864259538191 0 0.012523091906552536 -0.018941414049150753 0 0.012490848110726526 -0.018740795728303162 0 0.012253716620962639 -0.018658609637331691 0 0.012234881301657639 -0.018890512051530098 0 0.012490848110726526 -0.018740795728303162 0 0.012253716620962639 -0.018658609637331691 0 0.012490848110726526 -0.018740795728303162 0 0.012468709669304811 -0.018569602109474507 0 0.012490848110726526 -0.018740795728303162 0 0.012700532865575364 -0.01868174886241615 0 0.012468709669304811 -0.018569602109474507 0 0.012695930798228552 -0.018856864259538191 0 0.012490848110726526 -0.018740795728303162 0 0.012700532865575364 -0.01868174886241615 0 0.012695930798228552 -0.018856864259538191 0 0.012700532865575364 -0.01868174886241615 0 0.012789593023986096 -0.018795419306220713 0 0.012700532865575364 -0.01868174886241615 0 0.012789593023986096 -0.018795419306220713 0 0.01281256327115715 -0.018675308661524753 0 0.012700532865575364 -0.01868174886241615 0 0.012758424073259406 -0.018594147706605973 0 0.01281256327115715 -0.018675308661524753 0 0.013398024351786929 -0.017463154265991706 0 0.014204033978618585 -0.016671581894235409 0 0.014883420972166784 -0.016538626090377789 0 0.011993711824266416 -0.01843644591978481 0 0.012468709669304811 -0.018569602109474507 0 0.012777419613882252 -0.018493248826773234 0 0.012700532865575364 -0.01868174886241615 0 0.012758424073259406 -0.018594147706605973 0 0.012682695499823907 -0.018580045563886777 0 0.012593906568840452 -0.017993974782989246 0 0.01386147759253769 -0.017497261863634733 0 0.012682695499823907 -0.018580045563886777 0 0.012468709669304811 -0.018569602109474507 0 0.012777419613882252 -0.018493248826773234 0 0.012700532865575364 -0.01868174886241615 0 0.012682695499823907 -0.018580045563886777 0 0.012468709669304811 -0.018569602109474507 0 0.012758424073259406 -0.018594147706605973 0 0.012682695499823907 -0.018580045563886777 0 0.012777419613882252 -0.018493248826773234 0 0.012758424073259406 -0.018594147706605973 0 0.012777419613882252 -0.018493248826773234 0 0.012785414053618663 -0.018587806603714899 0 0.013526846169669421 -0.01651401757116306 0 0.013877460844466073 -0.016653164866706611 0 0.014675167530937628 -0.016121727967426561 0 0.013877460844466073 -0.016653164866706611 0 0.014204033978618585 -0.016671581894235409 0 0.014675167530937628 -0.016121727967426561 0 0.014204033978618585 -0.016671581894235409 0 0.014675167530937628 -0.016121727967426561 0 0.014883420972166784 -0.016538626090377789 0 0.012777419613882252 -0.018493248826773234 0 0.012766720909439172 -0.01860479182956408 0 0.012732435965370789 -0.018705149678632363 0 0.01386147759253769 -0.017497261863634733 0 0.014063485113565411 -0.017521785372193992 0 0.014675167530937628 -0.016121727967426561 0 0.014883420972166784 -0.016538626090377789 0 0.016040304345646142 -0.015980972282779435 0 0.012777419613882252 -0.018493248826773234 0 0.012785414053618663 -0.018587806603714899 0 0.012766720909439172 -0.01860479182956408 0 0.012785414053618663 -0.018587806603714899 0 0.012802320008430509 -0.018638799114792572 0 0.012766720909439172 -0.01860479182956408 0 0.012785414053618663 -0.018587806603714899 0 0.012802320008430509 -0.018638799114792572 0 0.01281256327115715 -0.018675308661524753 0 0.012758424073259406 -0.018594147706605973 0 0.012785414053618663 -0.018587806603714899 0 0.01281256327115715 -0.018675308661524753 0 0.012741624521673 -0.018620725714749105 0 0.012802320008430509 -0.018638799114792572 0 0.012777996583815818 -0.018666311552918164 0 0.012741624521673 -0.018620725714749105 0 0.012802320008430509 -0.018638799114792572 0 0.012766720909439172 -0.01860479182956408 0 0.012741624521673 -0.018620725714749105 0 0.012766720909439172 -0.01860479182956408 0 0.012700165761286334 -0.018614684261236542 0 0.012766720909439172 -0.01860479182956408 0 0.012700165761286334 -0.018614684261236542 0 0.012732435965370789 -0.018705149678632363 0 0.012596597392360352 -0.018608839846690067 0 0.012700165761286334 -0.018614684261236542 0 0.012732435965370789 -0.018705149678632363 0 0.012596597392360352 -0.018608839846690067 0 0.012445673050164868 -0.018592829687126649 0 0.012732435965370789 -0.018705149678632363 0 0.012596597392360352 -0.018608839846690067 0 0.012700165761286334 -0.018614684261236542 0 0.012638979245214716 -0.018594762093347039 0 0.012596597392360352 -0.018608839846690067 0 0.012478530817429234 -0.018538468286062249 0 0.012638979245214716 -0.018594762093347039 0 0.012596597392360352 -0.018608839846690067 0 0.012445673050164868 -0.018592829687126649 0 0.012478530817429234 -0.018538468286062249 0 0.012478530817429234 -0.018538468286062249 0 0.012565338479276829 -0.018568655469064402 0 0.012352154359453433 -0.018449929804946474 0 0.012478530817429234 -0.018538468286062249 0 0.012638979245214716 -0.018594762093347039 0 0.012565338479276829 -0.018568655469064402 0 0.012638979245214716 -0.018594762093347039 0 0.01269404269944604 -0.018620595839308023 0 0.012565338479276829 -0.018568655469064402 0 0.012741624521673 -0.018620725714749105 0 0.012700165761286334 -0.018614684261236542 0 0.012638979245214716 -0.018594762093347039 0 0.012741624521673 -0.018620725714749105 0 0.012638979245214716 -0.018594762093347039 0 0.01269404269944604 -0.018620595839308023 0 0.012741624521673 -0.018620725714749105 0 0.01269404269944604 -0.018620595839308023 0 0.012777996583815818 -0.018666311552918164 0 0.012710570324094223 -0.018652257124318967 0 0.012565338479276829 -0.018568655469064402 0 0.012653258551880965 -0.01863833747095665 0 0.01269404269944604 -0.018620595839308023 0 0.012710570324094223 -0.018652257124318967 0 0.012777996583815818 -0.018666311552918164 0 0.01269404269944604 -0.018620595839308023 0 0.012710570324094223 -0.018652257124318967 0 0.012565338479276829 -0.018568655469064402 0 0.012710570324094223 -0.018652257124318967 0 0.012810581002569968 -0.01873318059367924 0 0.012777996583815818 -0.018666311552918164 0 0.012565338479276829 -0.018568655469064402 0 0.012653258551880965 -0.01863833747095665 0 0.012337106631869783 -0.018470831643810717 0 0.012653258551880965 -0.01863833747095665 0 0.012810581002569968 -0.01873318059367924 0 0.012863686964254887 -0.018801955694766607 0 0.012710570324094223 -0.018652257124318967 0 0.012653258551880965 -0.01863833747095665 0 0.012810581002569968 -0.01873318059367924 0 0.012810581002569968 -0.01873318059367924 0 0.0129295712872683 -0.018855605583983234 0 0.012863686964254887 -0.018801955694766607 0 0.012810581002569968 -0.01873318059367924 0 0.0129295712872683 -0.018855605583983234 0 0.012857843150531052 -0.01873908768955522 0 0.0129295712872683 -0.018855605583983234 0 0.012902757914823888 -0.018866198203743589 0 0.013000232198207508 -0.019002503786963231 0 0.012902757914823888 -0.018866198203743589 0 0.01295005103754965 -0.019081125150326901 0 0.013000232198207508 -0.019002503786963231 0 0.012839328867451909 -0.018946166979947533 0 0.012902757914823888 -0.018866198203743589 0 0.01295005103754965 -0.019081125150326901 0 0.0129295712872683 -0.018855605583983234 0 0.012902757914823888 -0.018866198203743589 0 0.012857843150531052 -0.01873908768955522 0 0.012902757914823888 -0.018866198203743589 0 0.01281256327115715 -0.018675308661524753 0 0.012857843150531052 -0.01873908768955522 0 0.012789593023986096 -0.018795419306220713 0 0.012902757914823888 -0.018866198203743589 0 0.01281256327115715 -0.018675308661524753 0 0.012802320008430509 -0.018638799114792572 0 0.01281256327115715 -0.018675308661524753 0 0.012857843150531052 -0.01873908768955522 0 0.012802320008430509 -0.018638799114792572 0 0.012777996583815818 -0.018666311552918164 0 0.012857843150531052 -0.01873908768955522 0 0.012810581002569968 -0.01873318059367924 0 0.012777996583815818 -0.018666311552918164 0 0.012857843150531052 -0.01873908768955522 0 0.011304029416110821 -0.017969357925856178 0 0.011822014044041042 -0.018165162733788393 0 0.011345587689597647 -0.017566719977008562 0 0.011001692315479109 -0.018212650585542275 0 0.011304029416110821 -0.017969357925856178 0 0.011573992730186673 -0.018258799593869179 0 0.011304029416110821 -0.017969357925856178 0 0.011573992730186673 -0.018258799593869179 0 0.011822014044041042 -0.018165162733788393 0 0.011990787623502855 -0.018465175948603859 0 0.011822014044041042 -0.018165162733788393 0 0.012207696176382258 -0.018418469975486948 0 0.011573992730186673 -0.018258799593869179 0 0.011990787623502855 -0.018465175948603859 0 0.011822014044041042 -0.018165162733788393 0 0.011822014044041042 -0.018165162733788393 0 0.012165296144698296 -0.018309138526529729 0 0.011345587689597647 -0.017566719977008562 0 0.011822014044041042 -0.018165162733788393 0 0.012207696176382258 -0.018418469975486948 0 0.012165296144698296 -0.018309138526529729 0 0.012207696176382258 -0.018418469975486948 0 0.012352154359453433 -0.018449929804946474 0 0.012165296144698296 -0.018309138526529729 0 0.011990787623502855 -0.018465175948603859 0 0.012207696176382258 -0.018418469975486948 0 0.012254384000739358 -0.018655824198891998 0 0.012445673050164868 -0.018592829687126649 0 0.012478530817429234 -0.018538468286062249 0 0.012207696176382258 -0.018418469975486948 0 0.012445673050164868 -0.018592829687126649 0 0.012207696176382258 -0.018418469975486948 0 0.012254384000739358 -0.018655824198891998 0 0.012478530817429234 -0.018538468286062249 0 0.012207696176382258 -0.018418469975486948 0 0.012352154359453433 -0.018449929804946474 0 0.012337106631869783 -0.018470831643810717 0 0.012165296144698296 -0.018309138526529729 0 0.012054276263122481 -0.018394503876766333 0 0.012565338479276829 -0.018568655469064402 0 0.012352154359453433 -0.018449929804946474 0 0.012337106631869783 -0.018470831643810717 0 0.012352154359453433 -0.018449929804946474 0 0.012337106631869783 -0.018470831643810717 0 0.012165296144698296 -0.018309138526529729 0 0.011931160316126255 -0.018221689659072084 0 0.011814787141749612 -0.018133491784265592 0 0.012165296144698296 -0.018309138526529729 0 0.011928493641824817 -0.018560459957532881 0 0.012054276263122481 -0.018394503876766333 0 0.011807978220793894 -0.018498152551356811 0 0.011928493641824817 -0.018560459957532881 0 0.012054276263122481 -0.018394503876766333 0 0.012054276263122481 -0.018394503876766333 0 0.012352671607878146 -0.0182927969101957 0 0.011929851819013361 -0.018142020433336938 0 0.011686422474636146 -0.018348371002088377 0 0.012054276263122481 -0.018394503876766333 0 0.011929851819013361 -0.018142020433336938 0 0.012337106631869783 -0.018470831643810717 0 0.012054276263122481 -0.018394503876766333 0 0.012352671607878146 -0.0182927969101957 0 0.0044838853273277612 -0.033564687896912436 0 0.0043884076778367672 -0.033648038257413172 0 0.0045320288055199732 -0.033376200959428864 0 0.0083326576043464377 -0.026179766857702211 0 0.0080697016370104759 -0.025824573418877433 0 0.0044838853273277612 -0.033564687896912436 0 0.0043884076778367672 -0.033648038257413172 0 0.0044175504369769183 -0.033572854699869259 0 0.0043884076778367672 -0.033648038257413172 0 0.0044175504369769183 -0.033572854699869259 0 0.0043621505295574469 -0.034004188743228123 0 0.0047470654909876637 -0.033746806812808984 0 0.0044175504369769183 -0.033572854699869259 0 0.0043621505295574469 -0.034004188743228123 0 0.013130174226759411 -0.021128148954947756 0 0.013450424058535554 -0.019255160087589748 0 0.013226149643199129 -0.019337834421756388 0 0.012973567541447545 -0.018827154729661504 0 0.013226149643199129 -0.019337834421756388 0 0.012996866087602555 -0.018921571505866569 0 0.0097025747438015692 -0.023451556706790607 0 0.012015213425623061 -0.022294390523407936 0 0.0097025747438015692 -0.023451556706790607 0 0.011361692332031482 -0.022090446130409402 0 0.012973567541447545 -0.018827154729661504 0 0.012841893130119969 -0.018712685803608353 0 0.012996866087602555 -0.018921571505866569 0 0.012971134438396079 -0.019510922717927221 0 0.013226149643199129 -0.019337834421756388 0 0.013069826661345188 -0.019186093268700622 0 0.013226149643199129 -0.019337834421756388 0 0.013069826661345188 -0.019186093268700622 0 0.013034765128453134 -0.018987230824916629 0 0.013069826661345188 -0.019186093268700622 0 0.01295005103754965 -0.019081125150326901 0 0.013000232198207508 -0.019002503786963231 0 0.0129295712872683 -0.018855605583983234 0 0.013000232198207508 -0.019002503786963231 0 0.013034765128453134 -0.018987230824916629 0 0.013069826661345188 -0.019186093268700622 0 0.013000232198207508 -0.019002503786963231 0 0.013034765128453134 -0.018987230824916629 0 0.0129295712872683 -0.018855605583983234 0 0.013034765128453134 -0.018987230824916629 0 0.012863686964254887 -0.018801955694766607 0 0.013034765128453134 -0.018987230824916629 0 0.012996866087602555 -0.018921571505866569 0 0.012863686964254887 -0.018801955694766607 0 0.013226149643199129 -0.019337834421756388 0 0.013034765128453134 -0.018987230824916629 0 0.012996866087602555 -0.018921571505866569 0 0.012841893130119969 -0.018712685803608353 0 0.012996866087602555 -0.018921571505866569 0 0.012863686964254887 -0.018801955694766607 0 0.012653258551880965 -0.01863833747095665 0 0.012352671607878146 -0.0182927969101957 0 0.012841893130119969 -0.018712685803608353 0 0.0083326576043464377 -0.026179766857702211 0 0.0097025747438015692 -0.023451556706790607 0 0.012352671607878146 -0.0182927969101957 0 0.01291875103522212 -0.018695771217476162 0 0.012841893130119969 -0.018712685803608353 0 0.012653258551880965 -0.01863833747095665 0 0.012841893130119969 -0.018712685803608353 0 0.012863686964254887 -0.018801955694766607 0 0.0044838853273277612 -0.033564687896912436 0 0.0049608666956377726 -0.033530283493894183 0 0.0047297851177154045 -0.033371334294449384 0 0.012653258551880965 -0.01863833747095665 0 0.012337106631869783 -0.018470831643810717 0 0.012352671607878146 -0.0182927969101957 0 0.0047297851177154045 -0.033371334294449384 0 0.0048613594086513532 -0.033134013865843304 0 0.0045320288055199732 -0.033376200959428864 0 0.0044838853273277612 -0.033564687896912436 0 0.0047297851177154045 -0.033371334294449384 0 0.0045320288055199732 -0.033376200959428864 0 0.0047297851177154045 -0.033371334294449384 0 0.0049256491578200546 -0.033350100876226502 0 0.0048613594086513532 -0.033134013865843304 0 0.0089472867509401109 -0.027587622891799356 0 0.0097025747438015692 -0.023451556706790607 0 0.0049256491578200546 -0.033350100876226502 0 0.0051008828375273792 -0.03318008693068681 0 0.0048613594086513532 -0.033134013865843304 0 0.0054708133753883217 -0.033017090625115604 0 0.0049608666956377726 -0.033530283493894183 0 0.0051008828375273792 -0.03318008693068681 0 0.0049608666956377726 -0.033530283493894183 0 0.0049256491578200546 -0.033350100876226502 0 0.0051008828375273792 -0.03318008693068681 0 0.0049608666956377726 -0.033530283493894183 0 0.0047297851177154045 -0.033371334294449384 0 0.0049256491578200546 -0.033350100876226502 0 0.0052010913583642703 -0.032728591999330564 0 0.0048613594086513532 -0.033134013865843304 0 0.0047437497000305034 -0.03275063939308432 0 0.0051008828375273792 -0.03318008693068681 0 0.0052010913583642703 -0.032728591999330564 0 0.0048613594086513532 -0.033134013865843304 0 0.0048613594086513532 -0.033134013865843304 0 0.0047437497000305034 -0.03275063939308432 0 0.0045320288055199732 -0.033376200959428864 0 0.0052010913583642703 -0.032728591999330564 0 0.0047437497000305034 -0.03275063939308432 0 0.0055036046038075444 -0.032107177550529359 0 0.0032059898453777815 -0.038200133873533493 0 0.0046269319575344145 -0.037874317834931261 0 0.0043884076778367672 -0.033648038257413172 0 0.0043621505295574469 -0.034004188743228123 0 0.0043325167187936086 -0.033648969214926598 0 0.0043799050169462941 -0.034527926744534101 0 0.0043621505295574469 -0.034004188743228123 0 0.0043325167187936086 -0.033648969214926598 0 0.0043884076778367672 -0.033648038257413172 0 0.0045320288055199732 -0.033376200959428864 0 0.0043325167187936086 -0.033648969214926598 0 0.0047437497000305034 -0.03275063939308432 0 0.0045320288055199732 -0.033376200959428864 0 0.0043325167187936086 -0.033648969214926598 0 0.001621889593282987 -0.043663660614374343 0 0.00029728071844939457 -0.04293839475270423 0 0.00086975033286134935 -0.043037813689139913 0 0.0032059898453777815 -0.038200133873533493 0 0.0024084793911086939 -0.038256741712112304 0 0.00080637622576307656 -0.041048141277139558 0 0.00029728071844939457 -0.04293839475270423 0 0.00026072961601981184 -0.043015316852757599 0 0.00015783752702474462 -0.04298069560355524 0 0.00026072961601981184 -0.043015316852757599 0 0.00034451933067299587 -0.042742313319290473 0 0.00029728071844939457 -0.04293839475270423 0 0.00026072961601981184 -0.043015316852757599 0 0.00086975033286134935 -0.043037813689139913 0 0.00026072961601981184 -0.043015316852757599 0 0.00086975033286134935 -0.043037813689139913 0 0.00068860291190003581 -0.042745867339836131 0 0.00086975033286134935 -0.043037813689139913 0 0.00068860291190003581 -0.042745867339836131 0 0.0015054663708170682 -0.042498557828247317 0 0.00069714407696121986 -0.042425647026482237 0 0.00068860291190003581 -0.042745867339836131 0 0.0015054663708170682 -0.042498557828247317 0 0.00026072961601981184 -0.043015316852757599 0 0.00068860291190003581 -0.042745867339836131 0 0.00034451933067299587 -0.042742313319290473 0 0.00069714407696121986 -0.042425647026482237 0 0.00068860291190003581 -0.042745867339836131 0 0.00034451933067299587 -0.042742313319290473 0 0.0024257749393948938 -0.041247948205194597 0 0.0015054663708170682 -0.042498557828247317 0 0.0036983258652065094 -0.042181281501214099 0 0.001621889593282987 -0.043663660614374343 0 0.0015054663708170682 -0.042498557828247317 0 0.0033680624735679524 -0.043744556431054821 0 0.001621889593282987 -0.043663660614374343 0 0.00086975033286134935 -0.043037813689139913 0 0.0015054663708170682 -0.042498557828247317 0 0.0015054663708170682 -0.042498557828247317 0 0.0036983258652065094 -0.042181281501214099 0 0.0033680624735679524 -0.043744556431054821 0 0.0045641904715665428 -0.040545793302824686 0 0.0036983258652065094 -0.042181281501214099 0 0.005850196038596823 -0.041606287482291143 0 0.0036983258652065094 -0.042181281501214099 0 0.0057957923669612168 -0.043742387662836113 0 0.005850196038596823 -0.041606287482291143 0 0.0046269319575344145 -0.037874317834931261 0 0.005101987477134964 -0.038350481277780506 0 0.0036983258652065094 -0.042181281501214099 0 0.0033680624735679524 -0.043744556431054821 0 0.0057957923669612168 -0.043742387662836113 0 0.0052010913583642703 -0.032728591999330564 0 0.0055036046038075444 -0.032107177550529359 0 0.0055940469954697354 -0.032329597259382059 0 0.0055036046038075444 -0.032107177550529359 0 0.0055940469954697354 -0.032329597259382059 0 0.0057867907959247089 -0.031853015621794829 0 0.0055036046038075444 -0.032107177550529359 0 0.0057867907959247089 -0.031853015621794829 0 0.0058056240931969828 -0.032083788974143164 0 0.0055940469954697354 -0.032329597259382059 0 0.0058243789625672731 -0.032071176373613793 0 0.0057867907959247089 -0.031853015621794829 0 0.0054708133753883217 -0.033017090625115604 0 0.0055940469954697354 -0.032329597259382059 0 0.0058243789625672731 -0.032071176373613793 0 0.0054708133753883217 -0.033017090625115604 0 0.0052010913583642703 -0.032728591999330564 0 0.0055940469954697354 -0.032329597259382059 0 0.009229959976642629 -0.021141248244929748 0 0.010016422059227661 -0.021668566669736759 0 0.0091571015478565786 -0.022447756638586842 0 0.0067757607541826881 -0.024543391105607344 0 0.01488009282975975 -0.024100637950304725 0 0.0065358184871278152 -0.025646061654391646 0 0.0051068366318592958 -0.030469244168770733 0 0.0027880514867784571 -0.030808781568270504 0 0.0058243789625672731 -0.032071176373613793 0 0.0057867907959247089 -0.031853015621794829 0 0.0051068366318592958 -0.030469244168770733 0 0.0065358184871278152 -0.025646061654391646 0 0.010420795663292001 -0.025203526798778981 0 0.0051068366318592958 -0.030469244168770733 0 0.0079400544316617847 -0.028632494743220542 0 0.0051251718253936748 -0.030475914198997978 0 0.0057867907959247089 -0.031853015621794829 0 0.0053331913459545898 -0.0315758593546063 0 0.0051068366318592958 -0.030469244168770733 0 0.0057867907959247089 -0.031853015621794829 0 0.0053331913459545898 -0.0315758593546063 0 0.0058056240931969828 -0.032083788974143164 0 0.0053331913459545898 -0.0315758593546063 0 0.0051068366318592958 -0.030469244168770733 0 0.0042817703942443506 -0.031983199081465893 0 0.0053331913459545898 -0.0315758593546063 0 0.0042817703942443506 -0.031983199081465893 0 0.0058056240931969828 -0.032083788974143164 0 0.0051068366318592958 -0.030469244168770733 0 0.0042817703942443506 -0.031983199081465893 0 0.0027880514867784571 -0.030808781568270504 0 0.0079960238032683855 -0.042809353574168707 0 0.0057957923669612168 -0.043742387662836113 0 0.0093002314865157712 -0.04365165666647549 0 0.005101987477134964 -0.038350481277780506 0 0.0091044248443504956 -0.035692950036042316 0 0.0042817703942443506 -0.031983199081465893 0 0.0058056240931969828 -0.032083788974143164 0 0.0032474559623908682 -0.033056918025819476 0 0.0079960238032683855 -0.042809353574168707 0 0.0057957923669612168 -0.043742387662836113 0 0.0069159478160332232 -0.042164406212726685 0 0.0057957923669612168 -0.043742387662836113 0 0.005850196038596823 -0.041606287482291143 0 0.0069159478160332232 -0.042164406212726685 0 0.005850196038596823 -0.041606287482291143 0 0.0069159478160332232 -0.042164406212726685 0 0.0072769421786318608 -0.041194625644192712 0 0.0079960238032683855 -0.042809353574168707 0 0.0080314567985727125 -0.041603243963789158 0 0.0088050573986233841 -0.042250866043660865 0 0.0079960238032683855 -0.042809353574168707 0 0.0080314567985727125 -0.041603243963789158 0 0.0069159478160332232 -0.042164406212726685 0 0.0080314567985727125 -0.041603243963789158 0 0.0069159478160332232 -0.042164406212726685 0 0.0072769421786318608 -0.041194625644192712 0 0.0080314567985727125 -0.041603243963789158 0 0.0083135064083314295 -0.041213925129443392 0 0.0088937201311592474 -0.041556480340024612 0 0.0080314567985727125 -0.041603243963789158 0 0.0072769421786318608 -0.041194625644192712 0 0.0083135064083314295 -0.041213925129443392 0 0.0089656754256610613 -0.040758018896362103 0 0.0080190092185119209 -0.040756375154338602 0 0.0083135064083314295 -0.041213925129443392 0 0.0080190092185119209 -0.040756375154338602 0 0.0072769421786318608 -0.041194625644192712 0 0.0083135064083314295 -0.041213925129443392 0 0.0089656754256610613 -0.040758018896362103 0 0.0083135064083314295 -0.041213925129443392 0 0.0088937201311592474 -0.041556480340024612 0 0.0093989369589926181 -0.040969224851100869 0 0.010702219505767666 -0.04247470608597656 0 0.012538187112802277 -0.041093595725332645 0 0.0080314567985727125 -0.041603243963789158 0 0.0090493451897697766 -0.041603781032897656 0 0.0088937201311592474 -0.041556480340024612 0 0.01081441497611116 -0.036683831358100466 0 0.013877947203601214 -0.035140372734091103 0 0.0080713681189745964 -0.039573409032645751 0 0.01081441497611116 -0.036683831358100466 0 0.0089656754256610613 -0.040758018896362103 0 0.0090675342766331369 -0.041597370307000149 0 0.0088937201311592474 -0.041556480340024612 0 0.01081441497611116 -0.036683831358100466 0 0.01072108972894679 -0.036775778229470701 0 0.0093989369589926181 -0.040969224851100869 0 0.0088050573986233841 -0.042250866043660865 0 0.0095658224509734841 -0.042292147404829325 0 0.0093989369589926181 -0.040969224851100869 0 0.0095658224509734841 -0.042292147404829325 0 0.010702219505767666 -0.04247470608597656 0 0.0080314567985727125 -0.041603243963789158 0 0.0093989369589926181 -0.040969224851100869 0 0.0088050573986233841 -0.042250866043660865 0 0.0079960238032683855 -0.042809353574168707 0 0.0093602758494177058 -0.043444222881191763 0 0.0093002314865157712 -0.04365165666647549 0 0.0088050573986233841 -0.042250866043660865 0 0.0095658224509734841 -0.042292147404829325 0 0.0093602758494177058 -0.043444222881191763 0 0.0079960238032683855 -0.042809353574168707 0 0.0088050573986233841 -0.042250866043660865 0 0.0093602758494177058 -0.043444222881191763 0 0.0093602758494177058 -0.043444222881191763 0 0.010702219505767666 -0.04247470608597656 0 0.0093163835705678422 -0.043774163215347245 0 0.0095658224509734841 -0.042292147404829325 0 0.0093602758494177058 -0.043444222881191763 0 0.010702219505767666 -0.04247470608597656 0 0.0090215551550385398 -0.036565457779327994 0 0.0091044248443504956 -0.035692950036042316 0 0.026266591593721116 -0.023761522173014069 0 0.024784961059152743 -0.023961397923669459 0 0.027589632015497252 -0.018059468540448941 0 0.010702219505767666 -0.04247470608597656 0 0.0093163835705678422 -0.043774163215347245 0 0.014131369590859677 -0.043128776721509027 0 0.010702219505767666 -0.04247470608597656 0 0.014131369590859677 -0.043128776721509027 0 0.012538187112802277 -0.041093595725332645 0 0.0091044248443504956 -0.035692950036042316 0 0.018674858461134272 -0.030813973542514288 0 0.016582375378939761 -0.028602586160839917 0 0.016722167251947639 -0.02860171744625542 0 0.016648278921573008 -0.028606218000128008 0 0.018674858461134272 -0.030813973542514288 0 0.024976956420647699 -0.023305486352750149 0 0.014131369590859677 -0.043128776721509027 0 0.012538187112802277 -0.041093595725332645 0 0.014614028530927085 -0.042725783140051085 0 0.018674858461134272 -0.030813973542514288 0 0.016629543900329134 -0.033233129061747427 0 0.01081441497611116 -0.036683831358100466 0 0.014475271538543102 -0.034638094535915223 0 0.013877947203601214 -0.035140372734091103 0 0.020411664454891412 -0.031423978648837524 0 0.010850286860053796 -0.039872675025405424 0 0.0090675342766331369 -0.041597370307000149 0 0.012090168503170217 -0.041128719214918917 0 0.012538187112802277 -0.041093595725332645 0 0.016014487446405375 -0.041521624409479027 0 0.014614028530927085 -0.042725783140051085 0 0.016885197753352385 -0.028334079044733156 0 0.015914432912735442 -0.029292086197888919 0 0.0181968696871012 -0.029462453063356649 0 0.013435746041997078 -0.02895197030688558 0 0.016885197753352385 -0.028334079044733156 0 0.015914432912735442 -0.029292086197888919 0 0.014475271538543102 -0.034638094535915223 0 0.018059513985102103 -0.033850186046229289 0 0.016885197753352385 -0.028334079044733156 0 0.0181968696871012 -0.029462453063356649 0 0.019778836214636074 -0.027933730354169104 0 0.020411664454891412 -0.031423978648837524 0 0.027432767466202726 -0.016489827949868491 0 0.0181968696871012 -0.029462453063356649 0 0.019778836214636074 -0.027933730354169104 0 0.02041353902199099 -0.029591759934041235 0 0.033064459489521907 -0.0085923124970490108 0 0.033102472874669261 -0.0085845529465061726 0 0.033243060376718848 -0.0086147777999477544 0 0.027432767466202726 -0.016489827949868491 0 0.025854437785194532 -0.022244924006345188 0 0.033102472874669261 -0.0085845529465061726 0 0.033186240533694032 -0.0084881403612014142 0 0.033199322178687013 -0.0083181290005221176 0 0.033064459489521907 -0.0085923124970490108 0 0.033102472874669261 -0.0085845529465061726 0 0.033135647089539602 -0.0086180863295312188 0 0.023177243624946806 -0.021720782227210345 0 0.02679073917823202 -0.022347977259892678 0 0.022598593074814644 -0.022979244068891836 0 0.033102472874669261 -0.0085845529465061726 0 0.033186240533694032 -0.0084881403612014142 0 0.033243060376718848 -0.0086147777999477544 0 0.033186240533694032 -0.0084881403612014142 0 0.033243060376718848 -0.0086147777999477544 0 0.033409600943960005 -0.0082789437798273507 0 0.018674858461134272 -0.030813973542514288 0 0.025854437785194532 -0.022244924006345188 0 0.014173652201958547 -0.043068233795295632 0 0.01537111468330399 -0.042916417531416923 0 0.014614028530927085 -0.042725783140051085 0 0.016014487446405375 -0.041521624409479027 0 0.01537111468330399 -0.042916417531416923 0 0.014614028530927085 -0.042725783140051085 0 0.020411664454891412 -0.031423978648837524 0 0.025854437785194532 -0.022244924006345188 0 0.033199322178687013 -0.0083181290005221176 0 0.033285256759534074 -0.0081264329735553018 0 0.033409600943960005 -0.0082789437798273507 0 0.033186240533694032 -0.0084881403612014142 0 0.033199322178687013 -0.0083181290005221176 0 0.033409600943960005 -0.0082789437798273507 0 0.033102472874669261 -0.0085845529465061726 0 0.033199322178687013 -0.0083181290005221176 0 0.033050840780122916 -0.0082653446219233644 0 0.033199322178687013 -0.0083181290005221176 0 0.033190513734428155 -0.0081358271506151627 0 0.033050840780122916 -0.0082653446219233644 0 0.033199322178687013 -0.0083181290005221176 0 0.033190513734428155 -0.0081358271506151627 0 0.033285256759534074 -0.0081264329735553018 0 0.033190513734428155 -0.0081358271506151627 0 0.033285256759534074 -0.0081264329735553018 0 0.033297927343735823 -0.008007481787271396 0 0.033285256759534074 -0.0081264329735553018 0 0.033409600943960005 -0.0082789437798273507 0 0.033325081328013449 -0.0079425291468350947 0 0.031161608954262884 -0.011844346229730313 0 0.031834366829051719 -0.010511141371671917 0 0.033409600943960005 -0.0082789437798273507 0 0.033471446139543129 -0.0079280201195685573 0 0.033325081328013449 -0.0079425291468350947 0 0.030667880989299345 -0.016082258844140183 0 0.027589632015497252 -0.018059468540448941 0 0.030470729174378069 -0.012440033323961557 0 0.033840278592048058 -0.012191009344086462 0 0.030667880989299345 -0.016082258844140183 0 0.033020121422621868 -0.018039910284869801 0 0.022239287896897057 -0.015735718104631778 0 0.01488009282975975 -0.024100637950304725 0 0.0091044248443504956 -0.035692950036042316 0 0.01488009282975975 -0.024100637950304725 0 0.016582375378939761 -0.028602586160839917 0 0.016585237397106919 -0.028589665719116721 0 0.016648278921573008 -0.028606218000128008 0 0.0042817703942443506 -0.031983199081465893 0 0.0032474559623908682 -0.033056918025819476 0 0.0027880514867784571 -0.030808781568270504 0 0.030667880989299345 -0.016082258844140183 0 0.033020121422621868 -0.018039910284869801 0 0.029715707274883738 -0.020862928522801177 0 0.01488009282975975 -0.024100637950304725 0 0.024976956420647699 -0.023305486352750149 0 0.025854437785194532 -0.022244924006345188 0 0.031161608954262884 -0.011844346229730313 0 0.026266591593721116 -0.023761522173014069 0 0.027589632015497252 -0.018059468540448941 0 0.029715707274883738 -0.020862928522801177 0 0.030667880989299345 -0.016082258844140183 0 0.027589632015497252 -0.018059468540448941 0 0.029715707274883738 -0.020862928522801177 0 0.033835215685660586 -0.0084406759611948216 0 0.032903488690164899 -0.0074949115691508722 0 0.032385383165409648 -0.0085246626370406448 0 0.033789829311092999 -0.008475276917265023 0 0.032835645833896476 -0.0085454565242326207 0 0.024577816157179945 -0.027742821720707835 0 0.026690385672023458 -0.027796559806210656 0 0.025019578087306208 -0.028528613073337521 0 0.028871692956277058 -0.018102881228277225 0 0.026311007729989604 -0.018758777279852156 0 0.024577816157179945 -0.027742821720707835 0 0.025019578087306208 -0.028528613073337521 0 0.022878746859176534 -0.029018713667946793 0 0.032903488690164899 -0.0074949115691508722 0 0.032385383165409648 -0.0085246626370406448 0 0.030977065011686268 -0.0078336210388940657 0 0.032835645833896476 -0.0085454565242326207 0 0.032483435454519143 -0.0078399868015734779 0 0.033484407028583296 -0.0084954089027458341 0 0.033230290546215457 -0.0085324812993701326 0 0.033339795538615054 -0.0086565939105801328 0 0.032385383165409648 -0.0085246626370406448 0 0.030676301626710093 -0.0084620172706203079 0 0.030977065011686268 -0.0078336210388940657 0 0.033230290546215457 -0.0085324812993701326 0 0.033207174754497498 -0.008624407824815836 0 0.033339795538615054 -0.0086565939105801328 0 0.022104188763656333 -0.027622598014058079 0 0.024577816157179945 -0.027742821720707835 0 0.022878746859176534 -0.029018713667946793 0 0.027432767466202726 -0.016489827949868491 0 0.026311007729989604 -0.018758777279852156 0 0.022104188763656333 -0.027622598014058079 0 0.02041353902199099 -0.029591759934041235 0 0.022878746859176534 -0.029018713667946793 0 0.022104188763656333 -0.027622598014058079 0 0.019778836214636074 -0.027933730354169104 0 0.02041353902199099 -0.029591759934041235 0 0.033102472874669261 -0.0085845529465061726 0 0.033135647089539602 -0.0086180863295312188 0 0.033146692915246884 -0.0086964166744335179 0 0.027432767466202726 -0.016489827949868491 0 0.032483435454519143 -0.0078399868015734779 0 0.033064459489521907 -0.0085923124970490108 0 0.033230290546215457 -0.0085324812993701326 0 0.033135647089539602 -0.0086180863295312188 0 0.028825208459116378 -0.0083077997678775162 0 0.030676301626710093 -0.0084620172706203079 0 0.030977065011686268 -0.0078336210388940657 0 0.033110267057800631 -0.0085809892633026252 0 0.033110593519246001 -0.0084905344334694922 0 0.033230290546215457 -0.0085324812993701326 0 0.033135647089539602 -0.0086180863295312188 0 0.033207174754497498 -0.008624407824815836 0 0.033135647089539602 -0.0086180863295312188 0 0.033146692915246884 -0.0086964166744335179 0 0.033207174754497498 -0.008624407824815836 0 0.033190513734428155 -0.0081358271506151627 0 0.033050840780122916 -0.0082653446219233644 0 0.033109360394321559 -0.0080755629387006152 0 0.033190513734428155 -0.0081358271506151627 0 0.033109360394321559 -0.0080755629387006152 0 0.033226785206966432 -0.0080056444001491353 0 0.033146692915246884 -0.0086964166744335179 0 0.033339795538615054 -0.0086565939105801328 0 0.033476015839101605 -0.008984508176114351 0 0.033050840780122916 -0.0082653446219233644 0 0.033109360394321559 -0.0080755629387006152 0 0.033006254611035693 -0.0080192252499614643 0 0.033110593519246001 -0.0084905344334694922 0 0.033220048601882504 -0.0084957638219394244 0 0.033146692915246884 -0.0086964166744335179 0 0.033207174754497498 -0.008624407824815836 0 0.033339795538615054 -0.0086565939105801328 0 0.033484407028583296 -0.0084954089027458341 0 0.033339795538615054 -0.0086565939105801328 0 0.033480847011665704 -0.0087640221885935572 0 0.033484407028583296 -0.0084954089027458341 0 0.033480847011665704 -0.0087640221885935572 0 0.033668197340495518 -0.0086873818746807663 0 0.033480847011665704 -0.0087640221885935572 0 0.033494359585797842 -0.0088581306759704624 0 0.033476015839101605 -0.008984508176114351 0 0.033339795538615054 -0.0086565939105801328 0 0.033480847011665704 -0.0087640221885935572 0 0.033476015839101605 -0.008984508176114351 0 0.033480847011665704 -0.0087640221885935572 0 0.033494359585797842 -0.0088581306759704624 0 0.033668197340495518 -0.0086873818746807663 0 0.033494359585797842 -0.0088581306759704624 0 0.033751617787357031 -0.008915733424163368 0 0.033668197340495518 -0.0086873818746807663 0 0.033494359585797842 -0.0088581306759704624 0 0.033751617787357031 -0.008915733424163368 0 0.033393793843375701 -0.0088640706665921252 0 0.033835215685660586 -0.0084406759611948216 0 0.033484407028583296 -0.0084954089027458341 0 0.033668197340495518 -0.0086873818746807663 0 0.032576931611468116 -0.0080727484206748155 0 0.033021921651707052 -0.0083138557980846836 0 0.032894848270452554 -0.007894056833561456 0 0.033620741968514133 -0.0094194712412903701 0 0.033388521450054734 -0.0088185761052412166 0 0.033127721664538957 -0.0086396418086303987 0 0.033620741968514133 -0.0094194712412903701 0 0.033661443852548725 -0.0090465576730966411 0 0.033388521450054734 -0.0088185761052412166 0 0.032576931611468116 -0.0080727484206748155 0 0.033021921651707052 -0.0083138557980846836 0 0.033127721664538957 -0.0086396418086303987 0 0.03404769954818037 -0.0081443505977737852 0 0.033027133735048363 -0.0086474069562965435 0 0.033827724234472112 -0.0091771077779565034 0 0.033620741968514133 -0.0094194712412903701 0 0.033661443852548725 -0.0090465576730966411 0 0.033661443852548725 -0.0090465576730966411 0 0.033630140942102843 -0.0089525887505528846 0 0.033388521450054734 -0.0088185761052412166 0 0.033751617787357031 -0.008915733424163368 0 0.033630140942102843 -0.0089525887505528846 0 0.033393793843375701 -0.0088640706665921252 0 0.033630140942102843 -0.0089525887505528846 0 0.033393793843375701 -0.0088640706665921252 0 0.033388521450054734 -0.0088185761052412166 0 0.033393793843375701 -0.0088640706665921252 0 0.033388521450054734 -0.0088185761052412166 0 0.033127721664538957 -0.0086396418086303987 0 0.03303264737182577 -0.0083103176929030954 0 0.033220048601882504 -0.0084957638219394244 0 0.033494359585797842 -0.0088581306759704624 0 0.033393793843375701 -0.0088640706665921252 0 0.033476015839101605 -0.008984508176114351 0 0.033021921651707052 -0.0083138557980846836 0 0.033127721664538957 -0.0086396418086303987 0 0.033476015839101605 -0.008984508176114351 0 0.033021921651707052 -0.0083138557980846836 0 0.033004367274021028 -0.0080752860779488653 0 0.033006254611035693 -0.0080192252499614643 0 0.033393793843375701 -0.0088640706665921252 0 0.033127721664538957 -0.0086396418086303987 0 0.033476015839101605 -0.008984508176114351 0 0.033021921651707052 -0.0083138557980846836 0 0.032985684159635445 -0.0080106654210875036 0 0.032894848270452554 -0.007894056833561456 0 0.033021921651707052 -0.0083138557980846836 0 0.033004367274021028 -0.0080752860779488653 0 0.032985684159635445 -0.0080106654210875036 0 0.033004367274021028 -0.0080752860779488653 0 0.032985684159635445 -0.0080106654210875036 0 0.033063807319662672 -0.0077867635734847037 0 0.033004367274021028 -0.0080752860779488653 0 0.033090310667754974 -0.0079739947756970204 0 0.033063807319662672 -0.0077867635734847037 0 0.033004367274021028 -0.0080752860779488653 0 0.033090310667754974 -0.0079739947756970204 0 0.033006254611035693 -0.0080192252499614643 0 0.033109360394321559 -0.0080755629387006152 0 0.033090310667754974 -0.0079739947756970204 0 0.033006254611035693 -0.0080192252499614643 0 0.033109360394321559 -0.0080755629387006152 0 0.033090310667754974 -0.0079739947756970204 0 0.033226785206966432 -0.0080056444001491353 0 0.033090310667754974 -0.0079739947756970204 0 0.033334859296865471 -0.0076338232768812884 0 0.033063807319662672 -0.0077867635734847037 0 0.033090310667754974 -0.0079739947756970204 0 0.033334859296865471 -0.0076338232768812884 0 0.033226785206966432 -0.0080056444001491353 0 0.033334859296865471 -0.0076338232768812884 0 0.033389778531848935 -0.0068368974489484025 0 0.033184260285337316 -0.0071911174631931214 0 0.033334859296865471 -0.0076338232768812884 0 0.033184260285337316 -0.0071911174631931214 0 0.033063807319662672 -0.0077867635734847037 0 0.033389778531848935 -0.0068368974489484025 0 0.033184260285337316 -0.0071911174631931214 0 0.033223449629034868 -0.0061834025955891962 0 0.033335133531800884 -0.005897105845749033 0 0.033248010132271563 -0.0062736281765943232 0 0.033184260285337316 -0.0071911174631931214 0 0.032795793258811275 -0.0073273245570001583 0 0.033223449629034868 -0.0061834025955891962 0 0.033184260285337316 -0.0071911174631931214 0 0.033002891584657877 -0.0075212415224672124 0 0.032795793258811275 -0.0073273245570001583 0 0.033184260285337316 -0.0071911174631931214 0 0.033002891584657877 -0.0075212415224672124 0 0.033063807319662672 -0.0077867635734847037 0 0.033002891584657877 -0.0075212415224672124 0 0.033063807319662672 -0.0077867635734847037 0 0.032954944630149585 -0.0077306484036253941 0 0.032576931611468116 -0.0080727484206748155 0 0.032894848270452554 -0.007894056833561456 0 0.032795793258811275 -0.0073273245570001583 0 0.032954944630149585 -0.0077306484036253941 0 0.032894848270452554 -0.007894056833561456 0 0.032795793258811275 -0.0073273245570001583 0 0.032985684159635445 -0.0080106654210875036 0 0.032954944630149585 -0.0077306484036253941 0 0.032894848270452554 -0.007894056833561456 0 0.032985684159635445 -0.0080106654210875036 0 0.033063807319662672 -0.0077867635734847037 0 0.032954944630149585 -0.0077306484036253941 0 0.033002891584657877 -0.0075212415224672124 0 0.032954944630149585 -0.0077306484036253941 0 0.032795793258811275 -0.0073273245570001583 0 0.033855549466083462 -0.0051323653444698535 0 0.034236244856691217 -0.0050947025612509515 0 0.034073105182356588 -0.0056189742931476994 0 0.034236244856691217 -0.0050947025612509515 0 0.034575450662719873 -0.0056946438721722668 0 0.034073105182356588 -0.0056189742931476994 0 0.034757721132613745 -0.0051074863640617274 0 0.034236244856691217 -0.0050947025612509515 0 0.034575450662719873 -0.0056946438721722668 0 0.03404769954818037 -0.0081443505977737852 0 0.033335133531800884 -0.005897105845749033 0 0.034657401739356379 -0.0047705161063763876 0 0.034496717777078384 -0.0046153014173920355 0 0.034236244856691217 -0.0050947025612509515 0 0.034757721132613745 -0.0051074863640617274 0 0.034774906246549026 -0.0045597642399077586 0 0.034236244856691217 -0.0050947025612509515 0 0.034496717777078384 -0.0046153014173920355 0 0.033855549466083462 -0.0051323653444698535 0 0.034236244856691217 -0.0050947025612509515 0 0.035622127612127304 -0.0070843809683327459 0 0.034363340231726977 -0.0046349790506849094 0 0.033356592733219684 -0.0076844076718667999 0 0.032974822371874969 -0.0074028362997831856 0 0.033380772658111964 -0.0073357028056328186 0 0.033356592733219684 -0.0076844076718667999 0 0.033370262210120197 -0.007707493461314721 0 0.033471446139543129 -0.0079280201195685573 0 0.033307805773205947 -0.0077368738515346111 0 0.031834366829051719 -0.010511141371671917 0 0.033356592733219684 -0.0076844076718667999 0 0.033370262210120197 -0.007707493461314721 0 0.033380772658111964 -0.0073357028056328186 0 0.033840278592048058 -0.012191009344086462 0 0.033370262210120197 -0.007707493461314721 0 0.030470729174378069 -0.012440033323961557 0 0.033840278592048058 -0.012191009344086462 0 0.030667880989299345 -0.016082258844140183 0 0.030470729174378069 -0.012440033323961557 0 0.033356592733219684 -0.0076844076718667999 0 0.033471446139543129 -0.0079280201195685573 0 0.033325081328013449 -0.0079425291468350947 0 0.033325081328013449 -0.0079425291468350947 0 0.033297927343735823 -0.008007481787271396 0 0.033400480012768234 -0.0078417981344246594 0 0.033285256759534074 -0.0081264329735553018 0 0.033325081328013449 -0.0079425291468350947 0 0.033297927343735823 -0.008007481787271396 0 0.033190513734428155 -0.0081358271506151627 0 0.033226785206966432 -0.0080056444001491353 0 0.033297927343735823 -0.008007481787271396 0 0.033226785206966432 -0.0080056444001491353 0 0.033297927343735823 -0.008007481787271396 0 0.033400480012768234 -0.0078417981344246594 0 0.033334859296865471 -0.0076338232768812884 0 0.033226785206966432 -0.0080056444001491353 0 0.033400480012768234 -0.0078417981344246594 0 0.033334859296865471 -0.0076338232768812884 0 0.033400480012768234 -0.0078417981344246594 0 0.033612689148283206 -0.0076776086778154451 0 0.033325081328013449 -0.0079425291468350947 0 0.033400480012768234 -0.0078417981344246594 0 0.033612689148283206 -0.0076776086778154451 0 0.03332640275733504 -0.0078919414878148679 0 0.033297876627612868 -0.0075157158288447629 0 0.033356592733219684 -0.0076844076718667999 0 0.033325081328013449 -0.0079425291468350947 0 0.032974822371874969 -0.0074028362997831856 0 0.033297876627612868 -0.0075157158288447629 0 0.033310926154819585 -0.0068398802053325639 0 0.032974822371874969 -0.0074028362997831856 0 0.032905745529343236 -0.0066928952190172721 0 0.033285257798571409 -0.0067981113752934707 0 0.033334859296865471 -0.0076338232768812884 0 0.033612689148283206 -0.0076776086778154451 0 0.033715787643847688 -0.006975555350342031 0 0.033334859296865471 -0.0076338232768812884 0 0.033389778531848935 -0.0068368974489484025 0 0.033715787643847688 -0.006975555350342031 0 0.032905745529343236 -0.0066928952190172721 0 0.033285257798571409 -0.0067981113752934707 0 0.033114341859758673 -0.0063518887310231569 0 0.032974822371874969 -0.0074028362997831856 0 0.033285257798571409 -0.0067981113752934707 0 0.033380772658111964 -0.0073357028056328186 0 0.033285257798571409 -0.0067981113752934707 0 0.033380772658111964 -0.0073357028056328186 0 0.033677218546988581 -0.0070579290155104732 0 0.033370262210120197 -0.007707493461314721 0 0.033380772658111964 -0.0073357028056328186 0 0.033677218546988581 -0.0070579290155104732 0 0.03424058497277551 -0.0075333058752091843 0 0.033370262210120197 -0.007707493461314721 0 0.033677218546988581 -0.0070579290155104732 0 0.033285257798571409 -0.0067981113752934707 0 0.033677218546988581 -0.0070579290155104732 0 0.033557148416380182 -0.0064952366254011906 0 0.033846604142373338 -0.0067738533458864131 0 0.033677218546988581 -0.0070579290155104732 0 0.033557148416380182 -0.0064952366254011906 0 0.033557148416380182 -0.0064952366254011906 0 0.033491729697136582 -0.0060154743917596306 0 0.033788421155877546 -0.0063012615962111732 0 0.033557148416380182 -0.0064952366254011906 0 0.033255876303641067 -0.0062149821617415637 0 0.033491729697136582 -0.0060154743917596306 0 0.033285257798571409 -0.0067981113752934707 0 0.033557148416380182 -0.0064952366254011906 0 0.033255876303641067 -0.0062149821617415637 0 0.033285257798571409 -0.0067981113752934707 0 0.033255876303641067 -0.0062149821617415637 0 0.033114341859758673 -0.0063518887310231569 0 0.032905745529343236 -0.0066928952190172721 0 0.033114341859758673 -0.0063518887310231569 0 0.033279363667585771 -0.0061539011462709318 0 0.033389778531848935 -0.0068368974489484025 0 0.033715787643847688 -0.006975555350342031 0 0.033279363667585771 -0.0061539011462709318 0 0.033310926154819585 -0.0068398802053325639 0 0.033269481366748364 -0.006242192283894438 0 0.033279363667585771 -0.0061539011462709318 0 0.033146303746977475 -0.0060602604904884073 0 0.033279346804687103 -0.0059836816875008733 0 0.033114341859758673 -0.0063518887310231569 0 0.033279363667585771 -0.0061539011462709318 0 0.033146303746977475 -0.0060602604904884073 0 0.033255876303641067 -0.0062149821617415637 0 0.033114341859758673 -0.0063518887310231569 0 0.033146303746977475 -0.0060602604904884073 0 0.033255876303641067 -0.0062149821617415637 0 0.033146303746977475 -0.0060602604904884073 0 0.033052626466213916 -0.005762072934688554 0 0.033052626466213916 -0.005762072934688554 0 0.033279346804687103 -0.0059836816875008733 0 0.033313418165654231 -0.0059547241175142377 0 0.033146303746977475 -0.0060602604904884073 0 0.033052626466213916 -0.005762072934688554 0 0.033279346804687103 -0.0059836816875008733 0 0.033052626466213916 -0.005762072934688554 0 0.033313418165654231 -0.0059547241175142377 0 0.032989405040876808 -0.0058528235239509278 0 0.033052626466213916 -0.005762072934688554 0 0.032116621660304122 -0.0054123526100169567 0 0.032989405040876808 -0.0058528235239509278 0 0.032843499311685315 -0.0057434541375683528 0 0.033067420970553783 -0.0056081376229344115 0 0.033341608297707083 -0.0056487568740591926 0 0.033551947859143672 -0.0057558007171082037 0 0.033596953182572366 -0.0054869052135654789 0 0.033341608297707083 -0.0056487568740591926 0 0.033551947859143672 -0.0057558007171082037 0 0.033491729697136582 -0.0060154743917596306 0 0.033052626466213916 -0.005762072934688554 0 0.033341608297707083 -0.0056487568740591926 0 0.033491729697136582 -0.0060154743917596306 0 0.033255876303641067 -0.0062149821617415637 0 0.033052626466213916 -0.005762072934688554 0 0.033491729697136582 -0.0060154743917596306 0 0.034547863860886728 -0.0062518500090924982 0 0.034575450662719873 -0.0056946438721722668 0 0.034014534679600125 -0.0060169390569030905 0 0.034547863860886728 -0.0062518500090924982 0 0.034014534679600125 -0.0060169390569030905 0 0.033993888495235235 -0.0062124376712742466 0 0.034575450662719873 -0.0056946438721722668 0 0.034073105182356588 -0.0056189742931476994 0 0.034014534679600125 -0.0060169390569030905 0 0.033855549466083462 -0.0051323653444698535 0 0.034073105182356588 -0.0056189742931476994 0 0.033732498446889483 -0.0058960927548633796 0 0.034073105182356588 -0.0056189742931476994 0 0.033732498446889483 -0.0058960927548633796 0 0.034014534679600125 -0.0060169390569030905 0 0.033732498446889483 -0.0058960927548633796 0 0.034014534679600125 -0.0060169390569030905 0 0.033600161078415972 -0.0060828715973667404 0 0.034014534679600125 -0.0060169390569030905 0 0.033600161078415972 -0.0060828715973667404 0 0.033993888495235235 -0.0062124376712742466 0 0.033600161078415972 -0.0060828715973667404 0 0.033223449629034868 -0.0061834025955891962 0 0.033357962971922797 -0.0060612752436613338 0 0.033732498446889483 -0.0058960927548633796 0 0.033600161078415972 -0.0060828715973667404 0 0.033223449629034868 -0.0061834025955891962 0 0.033855549466083462 -0.0051323653444698535 0 0.033732498446889483 -0.0058960927548633796 0 0.033223449629034868 -0.0061834025955891962 0 0.033389778531848935 -0.0068368974489484025 0 0.033279363667585771 -0.0061539011462709318 0 0.033223449629034868 -0.0061834025955891962 0 0.033279363667585771 -0.0061539011462709318 0 0.033223449629034868 -0.0061834025955891962 0 0.033357962971922797 -0.0060612752436613338 0 0.033279363667585771 -0.0061539011462709318 0 0.033279346804687103 -0.0059836816875008733 0 0.033357962971922797 -0.0060612752436613338 0 0.033279346804687103 -0.0059836816875008733 0 0.033357962971922797 -0.0060612752436613338 0 0.03359398199572855 -0.0060864394681278923 0 0.033313418165654231 -0.0059547241175142377 0 0.03359398199572855 -0.0060864394681278923 0 0.033716233670661094 -0.0061599482384028801 0 0.033279346804687103 -0.0059836816875008733 0 0.033313418165654231 -0.0059547241175142377 0 0.03359398199572855 -0.0060864394681278923 0 0.03359398199572855 -0.0060864394681278923 0 0.0340708125117282 -0.0062353580795354155 0 0.033716233670661094 -0.0061599482384028801 0 0.033600161078415972 -0.0060828715973667404 0 0.033357962971922797 -0.0060612752436613338 0 0.03359398199572855 -0.0060864394681278923 0 0.033600161078415972 -0.0060828715973667404 0 0.03359398199572855 -0.0060864394681278923 0 0.033993888495235235 -0.0062124376712742466 0 0.03359398199572855 -0.0060864394681278923 0 0.033993888495235235 -0.0062124376712742466 0 0.0340708125117282 -0.0062353580795354155 0 0.033993888495235235 -0.0062124376712742466 0 0.034405518394368319 -0.0063868762386516146 0 0.0340708125117282 -0.0062353580795354155 0 0.034547863860886728 -0.0062518500090924982 0 0.033993888495235235 -0.0062124376712742466 0 0.034405518394368319 -0.0063868762386516146 0 0.034541840646359595 -0.0061688658109748567 0 0.034223263221012434 -0.0062773291693411244 0 0.034404411536362638 -0.0062005405593063669 0 0.034405518394368319 -0.0063868762386516146 0 0.034404411536362638 -0.0062005405593063669 0 0.0340708125117282 -0.0062353580795354155 0 0.034223263221012434 -0.0062773291693411244 0 0.034404411536362638 -0.0062005405593063669 0 0.0340708125117282 -0.0062353580795354155 0 0.034223263221012434 -0.0062773291693411244 0 0.0340708125117282 -0.0062353580795354155 0 0.033952074243429997 -0.0062807859744047631 0 0.034223263221012434 -0.0062773291693411244 0 0.033952074243429997 -0.0062807859744047631 0 0.033976081261977292 -0.0063998251295259122 0 0.033952074243429997 -0.0062807859744047631 0 0.033716233670661094 -0.0061599482384028801 0 0.033678670534192233 -0.0063485232487977359 0 0.033952074243429997 -0.0062807859744047631 0 0.033678670534192233 -0.0063485232487977359 0 0.033976081261977292 -0.0063998251295259122 0 0.0340708125117282 -0.0062353580795354155 0 0.033952074243429997 -0.0062807859744047631 0 0.033716233670661094 -0.0061599482384028801 0 0.033313418165654231 -0.0059547241175142377 0 0.033716233670661094 -0.0061599482384028801 0 0.033432951129617312 -0.0061187691322817303 0 0.033432951129617312 -0.0061187691322817303 0 0.033678670534192233 -0.0063485232487977359 0 0.033359611275779605 -0.0063647201116563013 0 0.033716233670661094 -0.0061599482384028801 0 0.033432951129617312 -0.0061187691322817303 0 0.033678670534192233 -0.0063485232487977359 0 0.033678670534192233 -0.0063485232487977359 0 0.033359611275779605 -0.0063647201116563013 0 0.033469601719079096 -0.0065737293142257378 0 0.033678670534192233 -0.0063485232487977359 0 0.033714774059383376 -0.0065637408809184911 0 0.033469601719079096 -0.0065737293142257378 0 0.033485579474701099 -0.0066762928331709111 0 0.033714774059383376 -0.0065637408809184911 0 0.033469601719079096 -0.0065737293142257378 0 0.033485579474701099 -0.0066762928331709111 0 0.033714774059383376 -0.0065637408809184911 0 0.033808132841659448 -0.0067641306804438698 0 0.033714774059383376 -0.0065637408809184911 0 0.034036369949191785 -0.0065466418011838421 0 0.033808132841659448 -0.0067641306804438698 0 0.033714774059383376 -0.0065637408809184911 0 0.033976081261977292 -0.0063998251295259122 0 0.034036369949191785 -0.0065466418011838421 0 0.033678670534192233 -0.0063485232487977359 0 0.033714774059383376 -0.0065637408809184911 0 0.033976081261977292 -0.0063998251295259122 0 0.034223263221012434 -0.0062773291693411244 0 0.033976081261977292 -0.0063998251295259122 0 0.034177828494593714 -0.0064039935468187146 0 0.034036369949191785 -0.0065466418011838421 0 0.034177828494593714 -0.0064039935468187146 0 0.034293343950865023 -0.006455860169391035 0 0.033976081261977292 -0.0063998251295259122 0 0.034036369949191785 -0.0065466418011838421 0 0.034177828494593714 -0.0064039935468187146 0 0.034480741895178219 -0.006339819688447915 0 0.034397291553424525 -0.0063085132175183323 0 0.034293343950865023 -0.006455860169391035 0 0.034177828494593714 -0.0064039935468187146 0 0.034397291553424525 -0.0063085132175183323 0 0.034293343950865023 -0.006455860169391035 0 0.034223263221012434 -0.0062773291693411244 0 0.034177828494593714 -0.0064039935468187146 0 0.034397291553424525 -0.0063085132175183323 0 0.034541840646359595 -0.0061688658109748567 0 0.034223263221012434 -0.0062773291693411244 0 0.034397291553424525 -0.0063085132175183323 0 0.032022577358884245 -0.0059523484625698137 0 0.032757730907962496 -0.0061404329193428314 0 0.032016343408537276 -0.0066983812987269093 0 0.032022577358884245 -0.0059523484625698137 0 0.030971311477004198 -0.0056579684022067507 0 0.032016343408537276 -0.0066983812987269093 0 0.032022577358884245 -0.0059523484625698137 0 0.031741788900212863 -0.0056303063120301923 0 0.032365557746848891 -0.005772719009454111 0 0.032022577358884245 -0.0059523484625698137 0 0.032365557746848891 -0.005772719009454111 0 0.032757730907962496 -0.0061404329193428314 0 0.030839995759288419 -0.005167873749069964 0 0.030427849383539513 -0.004424827556265336 0 0.032022577358884245 -0.0059523484625698137 0 0.030971311477004198 -0.0056579684022067507 0 0.031741788900212863 -0.0056303063120301923 0 0.030971311477004198 -0.0056579684022067507 0 0.031741788900212863 -0.0056303063120301923 0 0.031337089681833359 -0.0054851182727653101 0 0.033067420970553783 -0.0056081376229344115 0 0.030427849383539513 -0.004424827556265336 0 0.032116621660304122 -0.0054123526100169567 0 0.031741788900212863 -0.0056303063120301923 0 0.031337089681833359 -0.0054851182727653101 0 0.032116621660304122 -0.0054123526100169567 0 0.032365557746848891 -0.005772719009454111 0 0.032989405040876808 -0.0058528235239509278 0 0.032116621660304122 -0.0054123526100169567 0 0.031741788900212863 -0.0056303063120301923 0 0.032365557746848891 -0.005772719009454111 0 0.032365557746848891 -0.005772719009454111 0 0.032989405040876808 -0.0058528235239509278 0 0.032757730907962496 -0.0061404329193428314 0 0.033432951129617312 -0.0061187691322817303 0 0.032989405040876808 -0.0058528235239509278 0 0.033172314899301218 -0.0061455810287958249 0 0.033313418165654231 -0.0059547241175142377 0 0.033432951129617312 -0.0061187691322817303 0 0.032989405040876808 -0.0058528235239509278 0 0.033432951129617312 -0.0061187691322817303 0 0.033172314899301218 -0.0061455810287958249 0 0.033359611275779605 -0.0063647201116563013 0 0.033172314899301218 -0.0061455810287958249 0 0.033111609405760939 -0.0063806703558675262 0 0.033359611275779605 -0.0063647201116563013 0 0.032989405040876808 -0.0058528235239509278 0 0.033172314899301218 -0.0061455810287958249 0 0.032757730907962496 -0.0061404329193428314 0 0.033172314899301218 -0.0061455810287958249 0 0.033111609405760939 -0.0063806703558675262 0 0.032757730907962496 -0.0061404329193428314 0 0.032757730907962496 -0.0061404329193428314 0 0.032890237805326628 -0.0067285658066290072 0 0.032016343408537276 -0.0066983812987269093 0 0.033111609405760939 -0.0063806703558675262 0 0.032757730907962496 -0.0061404329193428314 0 0.032890237805326628 -0.0067285658066290072 0 0.033111609405760939 -0.0063806703558675262 0 0.032890237805326628 -0.0067285658066290072 0 0.033244732207906157 -0.0066046065788462104 0 0.032890237805326628 -0.0067285658066290072 0 0.033244732207906157 -0.0066046065788462104 0 0.033325694896397355 -0.0068652819225207612 0 0.033359611275779605 -0.0063647201116563013 0 0.033244732207906157 -0.0066046065788462104 0 0.033469601719079096 -0.0065737293142257378 0 0.033111609405760939 -0.0063806703558675262 0 0.033359611275779605 -0.0063647201116563013 0 0.033244732207906157 -0.0066046065788462104 0 0.033244732207906157 -0.0066046065788462104 0 0.033469601719079096 -0.0065737293142257378 0 0.033325694896397355 -0.0068652819225207612 0 0.033485579474701099 -0.0066762928331709111 0 0.033469601719079096 -0.0065737293142257378 0 0.033325694896397355 -0.0068652819225207612 0 0.033325694896397355 -0.0068652819225207612 0 0.03339463623272397 -0.0067249993238987869 0 0.033349675699526737 -0.0067278422435283584 0 0.033485579474701099 -0.0066762928331709111 0 0.033325694896397355 -0.0068652819225207612 0 0.033349675699526737 -0.0067278422435283584 0 0.033104652916297987 -0.0069546588561586308 0 0.033317407297985276 -0.0071834350112628146 0 0.032890237805326628 -0.0067285658066290072 0 0.033325694896397355 -0.0068652819225207612 0 0.03251604602589965 -0.0076253924015225261 0 0.033325694896397355 -0.0068652819225207612 0 0.033426957984591874 -0.0067295461690377104 0 0.03339463623272397 -0.0067249993238987869 0 0.03251604602589965 -0.0076253924015225261 0 0.032016343408537276 -0.0066983812987269093 0 0.030987995837521036 -0.008361497836867909 0 0.033426957984591874 -0.0067295461690377104 0 0.033326695758024924 -0.0067375171647210364 0 0.033438503632176715 -0.0067047981299635543 0 0.033317407297985276 -0.0071834350112628146 0 0.030100268816513693 -0.0070045910991540575 0 0.032890237805326628 -0.0067285658066290072 0 0.03251604602589965 -0.0076253924015225261 0 0.032016343408537276 -0.0066983812987269093 0 0.030971311477004198 -0.0056579684022067507 0 0.032016343408537276 -0.0066983812987269093 0 0.030015809041381826 -0.0068856424970510227 0 0.032016343408537276 -0.0066983812987269093 0 0.030015809041381826 -0.0068856424970510227 0 0.030987995837521036 -0.008361497836867909 0 0.030015809041381826 -0.0068856424970510227 0 0.030987995837521036 -0.008361497836867909 0 0.028446307420856517 -0.0078000041893583651 0 0.031182269824709445 -0.009299471603698397 0 0.027951813825876196 -0.0096496451682435199 0 0.028446307420856517 -0.0078000041893583651 0 0.030100268816513693 -0.0070045910991540575 0 0.026048155187440407 -0.0062547359573709802 0 0.030100268816513693 -0.0070045910991540575 0 0.029126943648001273 -0.0082813440797877905 0 0.027627348503354902 -0.0087398121937305451 0 0.027157960996133261 -0.0078360048507002521 0 0.028446307420856517 -0.0078000041893583651 0 0.027951813825876196 -0.0096496451682435199 0 0.027627348503354902 -0.0087398121937305451 0 0.028446307420856517 -0.0078000041893583651 0 0.026048155187440407 -0.0062547359573709802 0 0.027083440249374473 -0.0086447057510807262 0 0.026048155187440407 -0.0062547359573709802 0 0.024468213384604916 -0.0070447721409658652 0 0.027894075104562419 -0.0095919942302811079 0 0.027627348503354902 -0.0087398121937305451 0 0.025221809887498055 -0.0098084892943730278 0 0.025323889996424317 -0.0059712884552168251 0 0.024468213384604916 -0.0070447721409658652 0 0.027627348503354902 -0.0087398121937305451 0 0.027157960996133261 -0.0078360048507002521 0 0.025221809887498055 -0.0098084892943730278 0 0.027157960996133261 -0.0078360048507002521 0 0.026377106999545905 -0.0070120539333148532 0 0.025221809887498055 -0.0098084892943730278 0 0.027157960996133261 -0.0078360048507002521 0 0.026377106999545905 -0.0070120539333148532 0 0.027928663255190715 -0.0068227757335706345 0 0.026377106999545905 -0.0070120539333148532 0 0.027928663255190715 -0.0068227757335706345 0 0.028086373558513966 -0.0053976646242763346 0 0.030971311477004198 -0.0056579684022067507 0 0.030015809041381826 -0.0068856424970510227 0 0.028086373558513966 -0.0053976646242763346 0 0.030015809041381826 -0.0068856424970510227 0 0.027928663255190715 -0.0068227757335706345 0 0.028086373558513966 -0.0053976646242763346 0 0.030015809041381826 -0.0068856424970510227 0 0.028446307420856517 -0.0078000041893583651 0 0.027928663255190715 -0.0068227757335706345 0 0.027157960996133261 -0.0078360048507002521 0 0.028446307420856517 -0.0078000041893583651 0 0.027928663255190715 -0.0068227757335706345 0 0.022567497783763431 -0.0054325293646801612 0 0.023032488959962318 -0.0051173065212342566 0 0.022321854863533285 -0.0046671904765417018 0 0.022567497783763431 -0.0054325293646801612 0 0.021433070636334841 -0.005003030653575445 0 0.021996273392575941 -0.0056647226684870787 0 0.022567497783763431 -0.0054325293646801612 0 0.022321854863533285 -0.0046671904765417018 0 0.021433070636334841 -0.005003030653575445 0 0.022567497783763431 -0.0054325293646801612 0 0.023032488959962318 -0.0051173065212342566 0 0.023005098707981869 -0.0057446527554008949 0 0.023032488959962318 -0.0051173065212342566 0 0.023196016677662485 -0.0055721866731111265 0 0.023005098707981869 -0.0057446527554008949 0 0.024222135268120164 -0.0049810670768914555 0 0.023032488959962318 -0.0051173065212342566 0 0.023196016677662485 -0.0055721866731111265 0 0.024222135268120164 -0.0049810670768914555 0 0.023032488959962318 -0.0051173065212342566 0 0.022978225985735727 -0.0043679644568556811 0 0.024222135268120164 -0.0049810670768914555 0 0.022978225985735727 -0.0043679644568556811 0 0.023492529980938974 -0.0034954474131265924 0 0.023032488959962318 -0.0051173065212342566 0 0.022978225985735727 -0.0043679644568556811 0 0.022321854863533285 -0.0046671904765417018 0 0.022978225985735727 -0.0043679644568556811 0 0.022321854863533285 -0.0046671904765417018 0 0.022169650352122032 -0.0035823369696452441 0 0.022321854863533285 -0.0046671904765417018 0 0.022169650352122032 -0.0035823369696452441 0 0.021115893069811563 -0.0039045599141915672 0 0.022978225985735727 -0.0043679644568556811 0 0.022169650352122032 -0.0035823369696452441 0 0.023492529980938974 -0.0034954474131265924 0 0.022169650352122032 -0.0035823369696452441 0 0.023492529980938974 -0.0034954474131265924 0 0.022630430167177026 -0.0029442186310880383 0 0.022630430167177026 -0.0029442186310880383 0 0.023415352171087252 -0.0029764854460069662 0 0.022902951348251634 -0.0024524312075995735 0 0.023492529980938974 -0.0034954474131265924 0 0.022630430167177026 -0.0029442186310880383 0 0.023415352171087252 -0.0029764854460069662 0 0.023415352171087252 -0.0029764854460069662 0 0.023448461017030381 -0.0025903952661115036 0 0.022902951348251634 -0.0024524312075995735 0 0.022169650352122032 -0.0035823369696452441 0 0.022630430167177026 -0.0029442186310880383 0 0.02160796231271506 -0.0026326432046931496 0 0.022630430167177026 -0.0029442186310880383 0 0.022153336062518261 -0.0021616102186400223 0 0.02160796231271506 -0.0026326432046931496 0 0.030971311477004198 -0.0056579684022067507 0 0.027308425778553129 -0.0024253793254821361 0 0.02912384531842932 -0.0014447536925712723 0 0.030971311477004198 -0.0056579684022067507 0 0.028086373558513966 -0.0053976646242763346 0 0.027308425778553129 -0.0024253793254821361 0 0.024222135268120164 -0.0049810670768914555 0 0.023492529980938974 -0.0034954474131265924 0 0.026119634079520771 -0.0026433457203514895 0 0.025323889996424317 -0.0059712884552168251 0 0.027241879947878456 -0.0024109848195941726 0 0.024222135268120164 -0.0049810670768914555 0 0.026119634079520771 -0.0026433457203514895 0 0.027308425778553129 -0.0024253793254821361 0 0.026377106999545905 -0.0070120539333148532 0 0.028086373558513966 -0.0053976646242763346 0 0.027308425778553129 -0.0024253793254821361 0 0.023492529980938974 -0.0034954474131265924 0 0.023848413444093084 -0.0031429688270887598 0 0.023415352171087252 -0.0029764854460069662 0 0.023755932602882109 -0.0034270131650922585 0 0.024598254978566065 -0.003124326457935111 0 0.023808443077532764 -0.0030217176424137101 0 0.023448461017030381 -0.0025903952661115036 0 0.023796783504078049 -0.0023635514940283709 0 0.023848413444093084 -0.0031429688270887598 0 0.023808443077532764 -0.0030217176424137101 0 0.023415352171087252 -0.0029764854460069662 0 0.02378635739199314 -0.0030927627603399431 0 0.023870381531139673 -0.0021738380932430994 0 0.023808443077532764 -0.0030217176424137101 0 0.023415352171087252 -0.0029764854460069662 0 0.023448461017030381 -0.0025903952661115036 0 0.023848413444093084 -0.0031429688270887598 0 0.023808443077532764 -0.0030217176424137101 0 0.024183363038735649 -0.0029529916322997667 0 0.023808443077532764 -0.0030217176424137101 0 0.024183363038735649 -0.0029529916322997667 0 0.023895283135999645 -0.0027435038508271791 0 0.026119634079520771 -0.0026433457203514895 0 0.027308425778553129 -0.0024253793254821361 0 0.02912384531842932 -0.0014447536925712723 0 0.024598254978566065 -0.003124326457935111 0 0.030427849383539513 -0.004424827556265336 0 0.024183363038735649 -0.0029529916322997667 0 0.023923696718633248 -0.0024755725749386354 0 0.023895283135999645 -0.0027435038508271791 0 0.033551947859143672 -0.0057558007171082037 0 0.033596953182572366 -0.0054869052135654789 0 0.03376920140116698 -0.0058760668181209773 0 0.030427849383539513 -0.004424827556265336 0 0.022514800728383182 -0.0043909562033279167 0 0.033551947859143672 -0.0057558007171082037 0 0.033491729697136582 -0.0060154743917596306 0 0.03376920140116698 -0.0058760668181209773 0 0.023808219818665405 -0.0017289349486433038 0 0.023339548819549548 -0.0021432979505883018 0 0.022854257015093492 -0.0016495301291553077 0 0.023808219818665405 -0.0017289349486433038 0 0.022854257015093492 -0.0016495301291553077 0 0.023342930867574888 -0.00089057807740060323 0 0.022514800728383182 -0.0043909562033279167 0 0.017426884416705982 -0.0044712428107023449 0 0.022514800728383182 -0.0043909562033279167 0 0.023870381531139673 -0.0021738380932430994 0 0.023808219818665405 -0.0017289349486433038 0 0.023339548819549548 -0.0021432979505883018 0 0.023796783504078049 -0.0023635514940283709 0 0.023448461017030381 -0.0025903952661115036 0 0.023339548819549548 -0.0021432979505883018 0 0.023796783504078049 -0.0023635514940283709 0 0.023448461017030381 -0.0025903952661115036 0 0.023339548819549548 -0.0021432979505883018 0 0.022902951348251634 -0.0024524312075995735 0 0.022630430167177026 -0.0029442186310880383 0 0.022902951348251634 -0.0024524312075995735 0 0.022153336062518261 -0.0021616102186400223 0 0.023339548819549548 -0.0021432979505883018 0 0.022902951348251634 -0.0024524312075995735 0 0.022854257015093492 -0.0016495301291553077 0 0.022902951348251634 -0.0024524312075995735 0 0.022153336062518261 -0.0021616102186400223 0 0.022854257015093492 -0.0016495301291553077 0 0.022153336062518261 -0.0021616102186400223 0 0.021964296715147359 -0.0013442465658121303 0 0.021199056623215324 -0.0019638656213816505 0 0.022153336062518261 -0.0021616102186400223 0 0.021964296715147359 -0.0013442465658121303 0 0.022854257015093492 -0.0016495301291553077 0 0.022854257015093492 -0.0016495301291553077 0 0.022625997148380091 -0.00083141138635303691 0 0.023342930867574888 -0.00089057807740060323 0 0.021964296715147359 -0.0013442465658121303 0 0.022854257015093492 -0.0016495301291553077 0 0.022625997148380091 -0.00083141138635303691 0 0.021964296715147359 -0.0013442465658121303 0 0.022625997148380091 -0.00083141138635303691 0 0.021990589229349659 -0.00022567617309806375 0 0.019883339390487961 -0.015843750005460518 0 0.017811316617645297 -0.01621441288535308 0 0.017854278035684748 -0.016816384987143929 0 0.022922318254460082 -0.00010621678061042397 0 0.022625997148380091 -0.00083141138635303691 0 0.021990589229349659 -0.00022567617309806375 0 0.016600663655028991 -0.01185199312735611 0 0.021013471120585769 -0.0080267179476056078 0 0.020015395028150591 -0.016154276203705919 0 0.019883339390487961 -0.015843750005460518 0 0.017854278035684748 -0.016816384987143929 0 0.022922318254460082 -0.00010621678061042397 0 0.022625997148380091 -0.00083141138635303691 0 0.023342930867574888 -0.00089057807740060323 0 0.016600663655028991 -0.01185199312735611 0 0.017426884416705982 -0.0044712428107023449 0 0.010523986193774424 -0.015876556852321731 0 0.012037550811373766 -0.01318769381585509 0 0.0097728488432190959 -0.011018184198402316 0 0.010523986193774424 -0.015876556852321731 0 0.014489191803274893 -0.014952002411997987 0 0.012037550811373766 -0.01318769381585509 0 0.014489191803274893 -0.014952002411997987 0 0.012037550811373766 -0.01318769381585509 0 0.012557189969024012 -0.010200864619002123 0 0.012037550811373766 -0.01318769381585509 0 0.0097728488432190959 -0.011018184198402316 0 0.012557189969024012 -0.010200864619002123 0 0.033846604142373338 -0.0067738533458864131 0 0.033557148416380182 -0.0064952366254011906 0 0.033788421155877546 -0.0063012615962111732 0 0.021560643839193712 -0.011469138103755893 0 0.02174411425911572 -0.008958281559540102 0 0.0091458854180784289 -0.016456757574927969 0 0.010523986193774424 -0.015876556852321731 0 0.0097728488432190959 -0.011018184198402316 0 0.022514800728383182 -0.0043909562033279167 0 0.02174411425911572 -0.008958281559540102 0 0.033491729697136582 -0.0060154743917596306 0 0.03376920140116698 -0.0058760668181209773 0 0.033788421155877546 -0.0063012615962111732 0 0.010751715748860439 -0.0054005087820381097 0 0.0097728488432190959 -0.011018184198402316 0 0.012557189969024012 -0.010200864619002123 0 0.019667938378943078 -0.00056304738672237993 0 0.019226976128249643 -0.0012698277392659387 0 0.020113959200122909 -0.001718014282205887 0 0.018318457549974944 -0.00081392751298022057 0 0.019667938378943078 -0.00056304738672237993 0 0.019226976128249643 -0.0012698277392659387 0 0.013994930659945818 -0.012090746940762185 0 0.016336472271311155 -0.0093693382233800068 0 0.018318457549974944 -0.00081392751298022057 0 0.019226976128249643 -0.0012698277392659387 0 0.018463316526554401 -0.0015948682947421681 0 0.011063951515358141 -0.019645267777359528 0 0.012064052065098302 -0.018721238664395599 0 0.011385631873743692 -0.018618565844322574 0 0.011975057960823888 -0.018718235122468271 0 0.012249972427864136 -0.018792167562546931 0 0.012064052065098302 -0.018721238664395599 0 0.013994930659945818 -0.012090746940762185 0 0.0104029527172586 -0.020583168310157846 0 0.011001692315479109 -0.018212650585542275 0 0.011573992730186673 -0.018258799593869179 0 0.011385631873743692 -0.018618565844322574 0 0.011573992730186673 -0.018258799593869179 0 0.011990787623502855 -0.018465175948603859 0 0.011385631873743692 -0.018618565844322574 0 0.011990787623502855 -0.018465175948603859 0 0.012064052065098302 -0.018721238664395599 0 0.011385631873743692 -0.018618565844322574 0 0.012249972427864136 -0.018792167562546931 0 0.012231948905607148 -0.01868081137274932 0 0.015148106712477577 -0.017741358264621469 0 0.011990787623502855 -0.018465175948603859 0 0.012064052065098302 -0.018721238664395599 0 0.012254384000739358 -0.018655824198891998 0 0.012231948905607148 -0.01868081137274932 0 0.012254384000739358 -0.018655824198891998 0 0.012445568421102941 -0.018625857334547278 0 0.012249972427864136 -0.018792167562546931 0 0.012064052065098302 -0.018721238664395599 0 0.012231948905607148 -0.01868081137274932 0 0.012064052065098302 -0.018721238664395599 0 0.012231948905607148 -0.01868081137274932 0 0.012254384000739358 -0.018655824198891998 0 0.012445673050164868 -0.018592829687126649 0 0.012254384000739358 -0.018655824198891998 0 0.012732435965370789 -0.018705149678632363 0 0.012233542789811962 -0.018648896414915746 0 0.014063485113565411 -0.017521785372193992 0 0.012231948905607148 -0.01868081137274932 0 0.015148106712477577 -0.017741358264621469 0 0.015243267574412135 -0.016700633040897861 0 0.011659406023120197 -0.018920940086673575 0 0.014063485113565411 -0.017521785372193992 0 0.016336472271311155 -0.0093693382233800068 0 0.017671916946166391 -0.0091848444692532345 0 0.017854278035684748 -0.016816384987143929 0 0.015148106712477577 -0.017741358264621469 0 0.015243267574412135 -0.016700633040897861 0 0.021013471120585769 -0.0080267179476056078 0 0.017671916946166391 -0.0091848444692532345 0 0.016734442090430391 -0.016075377352310197 0 0.014063485113565411 -0.017521785372193992 0 0.021990589229349659 -0.00022567617309806375 0 0.020882839067409238 -0.00037043084592672438 0 0.021120028803124333 -0.0011613370899755003 0 0.017811316617645297 -0.01621441288535308 0 0.017854278035684748 -0.016816384987143929 0 0.015243267574412135 -0.016700633040897861 0 0.021964296715147359 -0.0013442465658121303 0 0.021990589229349659 -0.00022567617309806375 0 0.021120028803124333 -0.0011613370899755003 0 0.019667938378943078 -0.00056304738672237993 0 0.020882839067409238 -0.00037043084592672438 0 0.021120028803124333 -0.0011613370899755003 0 0.019667938378943078 -0.00056304738672237993 0 0.021120028803124333 -0.0011613370899755003 0 0.020113959200122909 -0.001718014282205887 0 0.021120028803124333 -0.0011613370899755003 0 0.021199056623215324 -0.0019638656213816505 0 0.020113959200122909 -0.001718014282205887 0 0.021964296715147359 -0.0013442465658121303 0 0.021120028803124333 -0.0011613370899755003 0 0.021199056623215324 -0.0019638656213816505 0 0.021199056623215324 -0.0019638656213816505 0 0.02160796231271506 -0.0026326432046931496 0 0.020538360242266771 -0.0027535383417478846 0 0.022153336062518261 -0.0021616102186400223 0 0.021199056623215324 -0.0019638656213816505 0 0.02160796231271506 -0.0026326432046931496 0 0.021199056623215324 -0.0019638656213816505 0 0.020113959200122909 -0.001718014282205887 0 0.020538360242266771 -0.0027535383417478846 0 0.019356952165641927 -0.0027149058732182088 0 0.020113959200122909 -0.001718014282205887 0 0.020538360242266771 -0.0027535383417478846 0 0.019356952165641927 -0.0027149058732182088 0 0.020113959200122909 -0.001718014282205887 0 0.019164046371705708 -0.0019068788354179324 0 0.018779605541558352 -0.0028505636894832426 0 0.020431670797028977 -0.0023029743094805056 0 0.019226976128249643 -0.0012698277392659387 0 0.020113959200122909 -0.001718014282205887 0 0.019164046371705708 -0.0019068788354179324 0 0.019226976128249643 -0.0012698277392659387 0 0.018463316526554401 -0.0015948682947421681 0 0.019164046371705708 -0.0019068788354179324 0 0.018463316526554401 -0.0015948682947421681 0 0.019164046371705708 -0.0019068788354179324 0 0.018547621351296929 -0.0022846918471909217 0 0.019356952165641927 -0.0027149058732182088 0 0.019164046371705708 -0.0019068788354179324 0 0.018547621351296929 -0.0022846918471909217 0 0.011700648459827351 -0.0033474313505385146 0 0.016017646089358867 -0.0040982767044567964 0 0.012811440617517185 -0.0018753311107033042 0 0.0071943483833337429 -0.0012368356259345984 0 0.018779605541558352 -0.0028505636894832426 0 0.018779605541558352 -0.0028505636894832426 0 0.015983707265234823 -0.0023498281145715705 0 0.0071943483833337429 -0.0012368356259345984 0 0.0088377235992359617 -0.0023776986534214508 0 0.016931024632839412 -0.0010274886722946434 0 0.01865033455751474 -0.0013793076145799338 0 0.018285781558565972 -0.0030506594689167356 0 -0.0017201488764176335 6.7747771045062768e-07 0 -0.0022021350326114964 -0.001514868606898061 0 -0.00066838126531393901 -0.0020148292003747165 0 0.019322057211395485 -0.0024175698801668739 0 0.018285781558565972 -0.0030506594689167356 0 0.019925645409443832 -0.0032693149534491132 0 0.01865033455751474 -0.0013793076145799338 0 0.019322057211395485 -0.0024175698801668739 0 0.020334635905435022 -0.00196333086430984 0 0.01865033455751474 -0.0013793076145799338 0 0.019322057211395485 -0.0024175698801668739 0 0.018285781558565972 -0.0030506594689167356 0 0.0088377235992359617 -0.0023776986534214508 0 0.0099321718707747458 -0.0041639334571782847 0 0.018285781558565972 -0.0030506594689167356 0 0.019925645409443832 -0.0032693149534491132 0 0.01955297202279838 -0.0045227599548964999 0 -0.002165859143166601 -0.0027262933922772661 0 -0.00066838126531393901 -0.0020148292003747165 0 -0.0013611057687311422 -0.0039433088504873034 0 0.021467742684373351 -0.0025990796383296741 0 0.020431670797028977 -0.0023029743094805056 0 0.02160796231271506 -0.0026326432046931496 0 0.020334635905435022 -0.00196333086430984 0 0.02109460761610155 -0.0030995093938385549 0 0.022169650352122032 -0.0035823369696452441 0 0.02160796231271506 -0.0026326432046931496 0 0.02109460761610155 -0.0030995093938385549 0 0.019322057211395485 -0.0024175698801668739 0 0.020334635905435022 -0.00196333086430984 0 0.019925645409443832 -0.0032693149534491132 0 0.020334635905435022 -0.00196333086430984 0 0.019925645409443832 -0.0032693149534491132 0 0.02109460761610155 -0.0030995093938385549 0 0.019925645409443832 -0.0032693149534491132 0 0.021115893069811563 -0.0039045599141915672 0 0.01955297202279838 -0.0045227599548964999 0 0.019925645409443832 -0.0032693149534491132 0 0.02109460761610155 -0.0030995093938385549 0 0.021115893069811563 -0.0039045599141915672 0 0.022169650352122032 -0.0035823369696452441 0 0.02109460761610155 -0.0030995093938385549 0 0.021115893069811563 -0.0039045599141915672 0 0.022321854863533285 -0.0046671904765417018 0 0.021115893069811563 -0.0039045599141915672 0 0.021433070636334841 -0.005003030653575445 0 0.021115893069811563 -0.0039045599141915672 0 0.021433070636334841 -0.005003030653575445 0 0.01955297202279838 -0.0045227599548964999 0 0.021433070636334841 -0.005003030653575445 0 0.01955297202279838 -0.0045227599548964999 0 0.020643619076705765 -0.0056371801104640558 0 0.0099321718707747458 -0.0041639334571782847 0 0.011011207149188788 -0.0055903946346000074 0 0.021433070636334841 -0.005003030653575445 0 0.020643619076705765 -0.0056371801104640558 0 0.021996273392575941 -0.0056647226684870787 0 -0.00066838126531393901 -0.0020148292003747165 0 -0.0013611057687311422 -0.0039433088504873034 0 0.00033103412047277695 -0.0038101089441444241 0 0.00033103412047277695 -0.0038101089441444241 0 -0.00034410736784799714 -0.0054333791223622595 0 0.0013717129404896805 -0.0055021935577755695 0 -0.0013611057687311422 -0.0039433088504873034 0 -0.00034410736784799714 -0.0054333791223622595 0 -0.0021413426788808548 -0.0055840365788226787 0 -0.0013611057687311422 -0.0039433088504873034 0 0.00033103412047277695 -0.0038101089441444241 0 -0.00034410736784799714 -0.0054333791223622595 0 -0.00034410736784799714 -0.0054333791223622595 0 -0.0010526421740895524 -0.0068652484394361394 0 -0.0021413426788808548 -0.0055840365788226787 0 -0.00034410736784799714 -0.0054333791223622595 0 0.00058895335151796775 -0.0069905273103314349 0 -0.0010526421740895524 -0.0068652484394361394 0 -0.00034410736784799714 -0.0054333791223622595 0 0.00058895335151796775 -0.0069905273103314349 0 0.0013717129404896805 -0.0055021935577755695 0 0.00058895335151796775 -0.0069905273103314349 0 -0.0010526421740895524 -0.0068652484394361394 0 -0.00036352655394400403 -0.0084051005982575117 0 0.020643619076705765 -0.0056371801104640558 0 0.02153961191046912 -0.0062983129891685244 0 0.021996273392575941 -0.0056647226684870787 0 0.011011207149188788 -0.0055903946346000074 0 0.012035414449000765 -0.0065459303396249837 0 0.00058895335151796775 -0.0069905273103314349 0 0.0025375472977252965 -0.0072459348589568187 0 0.0011272713371679173 -0.0083381501950657785 0 0.00058895335151796775 -0.0069905273103314349 0 0.0013717129404896805 -0.0055021935577755695 0 0.0025375472977252965 -0.0072459348589568187 0 0.0025375472977252965 -0.0072459348589568187 0 0.0022377403525473492 -0.0089373274123681155 0 0.003786937475085119 -0.0090864732045745321 0 0.012035414449000765 -0.0065459303396249837 0 0.012567540318933744 -0.0092339517079671109 0 0.0025375472977252965 -0.0072459348589568187 0 0.0011272713371679173 -0.0083381501950657785 0 0.0022377403525473492 -0.0089373274123681155 0 0.0011272713371679173 -0.0083381501950657785 0 0.0022377403525473492 -0.0089373274123681155 0 0.0010639094285229906 -0.010332701830924208 0 0.0022377403525473492 -0.0089373274123681155 0 0.0027642282342125817 -0.0097569108179438886 0 0.0010639094285229906 -0.010332701830924208 0 0.0027642282342125817 -0.0097569108179438886 0 0.0033700921808361185 -0.010428600015970456 0 0.003786937475085119 -0.0090864732045745321 0 0.0022377403525473492 -0.0089373274123681155 0 0.0027642282342125817 -0.0097569108179438886 0 0.003786937475085119 -0.0090864732045745321 0 -0.00036352655394400403 -0.0084051005982575117 0 -0.0011842941307309933 -0.0096671312565190359 0 -0.0019146019374259526 -0.0081205755341435936 0 -0.0010526421740895524 -0.0068652484394361394 0 -0.00036352655394400403 -0.0084051005982575117 0 -0.0019146019374259526 -0.0081205755341435936 0 0.00058895335151796775 -0.0069905273103314349 0 0.0011272713371679173 -0.0083381501950657785 0 -0.00036352655394400403 -0.0084051005982575117 0 -0.00036352655394400403 -0.0084051005982575117 0 -0.0011842941307309933 -0.0096671312565190359 0 0.00066600217901917683 -0.0099148526367395778 0 0.0011272713371679173 -0.0083381501950657785 0 -0.00036352655394400403 -0.0084051005982575117 0 0.0010639094285229906 -0.010332701830924208 0 9.3504100779561919e-05 -0.011754187392131465 0 0.0016665147069927996 -0.0014327738771836456 0 -0.00067496336469125245 0.012920375539303515 0 0.00041681177359515148 0.011266452428954944 0 -0.0022179017217810694 0.011881636600752523 0 -0.0024200493309802121 0.016850473594518984 0 -0.0047751441278089954 0.016861643640376126 0 -0.0058227084425628954 0.017050964379278961 0 -0.0011048389719872124 0.01420138239993585 0 -0.0039367974264872809 0.014445177831841705 0 -0.0049176203080781031 0.015209600308830236 0 -0.0053038283538824702 0.015664236469118794 0 -0.0047751441278089954 0.016861643640376126 0 -0.0037532565084237631 0.014776483607888944 0 -0.0047810273005478889 0.016803436840559967 0 -0.0024200493309802121 0.016850473594518984 0 -0.0025361179313725677 0.01416466745668031 0 -0.0047751441278089954 0.016861643640376126 0 -0.0012317139378620102 0.015899474832537286 0 -0.0024200493309802121 0.016850473594518984 0 0.0020494038447073683 0.01653261881979632 0 -0.0011048389719872124 0.01420138239993585 0 0.0031056296619713635 0.012556014211300594 0 -0.0012317139378620102 0.015899474832537286 0 -0.0024200493309802121 0.016850473594518984 0 -0.0025361179313725677 0.01416466745668031 0 -0.00067496336469125245 0.012920375539303515 0 0.00041681177359515148 0.011266452428954944 0 0.0020220351559390986 0.012258678590626968 0 -0.0010688347606476393 0.0019788334281877155 0 0.0016665147069927996 -0.0014327738771836456 0 0.00041681177359515148 0.011266452428954944 0 0.0020220351559390986 0.012258678590626968 0 0.0030396647425478349 0.010743562750974047 0 0.0016665147069927996 -0.0014327738771836456 0 0.0038178368470550166 -0.0026134171346741076 0 0.0027642282342125817 -0.0097569108179438886 0 0.0010639094285229906 -0.010332701830924208 0 0.0026271737127676847 -0.010629831444326781 0 0.0032538751958614337 0.005729942390012204 0 0.0051607735626469538 0.0053954209772519718 0 0.0043336446979644113 0.0041824781644534507 0 0.0016665147069927996 -0.0014327738771836456 0 0.0031056296619713635 0.012556014211300594 0 0.0051607735626469538 0.0053954209772519718 0 0.0066364906473956016 0.003783012785887563 0 0.0071423460735064752 0.0050409173941735538 0 0.0038178368470550166 -0.0026134171346741076 0 0.0067950417665679679 -0.0029491476078062923 0 0.0033700921808361185 -0.010428600015970456 0 0.0026271737127676847 -0.010629831444326781 0 0.0042176783775033453 -0.010857710383540598 0 0.0027642282342125817 -0.0097569108179438886 0 0.0033700921808361185 -0.010428600015970456 0 0.0026271737127676847 -0.010629831444326781 0 0.0031056296619713635 0.012556014211300594 0 0.0059398599236744126 0.0092897899685083236 0 0.0051607735626469538 0.0053954209772519718 0 0.0043336446979644113 0.0041824781644534507 0 0.0066364906473956016 0.003783012785887563 0 0.0042942253207357709 0.01401210698221316 0 0.0062308705515396979 0.013866896591725901 0 0.0056831916438665527 0.015281819152365978 0 0.0031620604691234393 0.015691986091951379 0 0.0042942253207357709 0.01401210698221316 0 0.0056831916438665527 0.015281819152365978 0 0.0031056296619713635 0.012556014211300594 0 0.003740620554946989 0.014566996609883025 0 -0.0012317139378620102 0.015899474832537286 0 0.0020494038447073683 0.01653261881979632 0 0.001677744970023755 0.014850390124212307 0 -0.0012317139378620102 0.015899474832537286 0 0.001677744970023755 0.014850390124212307 0 0.0020738864391215625 0.012743422872032737 0 0.0020494038447073683 0.01653261881979632 0 0.001677744970023755 0.014850390124212307 0 0.0037573797310361439 0.014262954136892792 0 -0.0012317139378620102 0.015899474832537286 0 -8.4548790112085273e-05 0.013661974639076304 0 -0.0011775735637898151 0.014236949549090413 0 -0.0011411765598459858 0.015806416676730439 0 0.00093793704901952869 0.013277079559485504 0 0.001677744970023755 0.014850390124212307 0 0.0020738864391215625 0.012743422872032737 0 0.0037573797310361439 0.014262954136892792 0 -8.4548790112085273e-05 0.013661974639076304 0 -0.0009344424555501968 0.013405203262157916 0 -0.0011775735637898151 0.014236949549090413 0 0.0020738864391215625 0.012743422872032737 0 0.0037573797310361439 0.014262954136892792 0 0.005379098374833035 0.012262517875376225 0 0.0042942253207357709 0.01401210698221316 0 0.005379098374833035 0.012262517875376225 0 0.0062308705515396979 0.013866896591725901 0 0.003740620554946989 0.014566996609883025 0 0.0053245248814891288 0.012291805169427813 0 0.00093793704901952869 0.013277079559485504 0 0.0028356738865316423 0.011226406028456776 0 -8.4548790112085273e-05 0.013661974639076304 0 -0.00023866364165907005 0.012679615989728867 0 0.00071007014783883962 0.012265851455222052 0 0.0020738864391215625 0.012743422872032737 0 0.005379098374833035 0.012262517875376225 0 0.0049833615826232712 0.010028258622176312 0 -8.4548790112085273e-05 0.013661974639076304 0 -0.00023866364165907005 0.012679615989728867 0 -0.0009344424555501968 0.013405203262157916 0 -0.00023866364165907005 0.012679615989728867 0 -0.00099414615256435373 0.012405471406432039 0 -0.0009344424555501968 0.013405203262157916 0 -0.00099414615256435373 0.012405471406432039 0 -0.0009344424555501968 0.013405203262157916 0 -0.0025361179313725677 0.01416466745668031 0 -0.0050396233203712911 0.014562492960280848 0 -0.0052161942539976141 0.014787306024604584 0 -0.0049176203080781031 0.015209600308830236 0 -0.0030704636346564531 0.01353850317688365 0 -0.0037532565084237631 0.014776483607888944 0 -0.0052161942539976141 0.014787306024604584 0 -0.0053864100987755298 0.014414718575573119 0 -0.0056856400585680866 0.014806815671862322 0 -0.0050396233203712911 0.014562492960280848 0 -0.0052161942539976141 0.014787306024604584 0 -0.0053864100987755298 0.014414718575573119 0 -0.0052161942539976141 0.014787306024604584 0 -0.0053415714187972103 0.015128125242316413 0 -0.0056856400585680866 0.014806815671862322 0 -0.0052161942539976141 0.014787306024604584 0 -0.0053415714187972103 0.015128125242316413 0 -0.0049176203080781031 0.015209600308830236 0 -0.0053415714187972103 0.015128125242316413 0 -0.0049176203080781031 0.015209600308830236 0 -0.0053038283538824702 0.015664236469118794 0 -0.0009344424555501968 0.013405203262157916 0 -0.0025361179313725677 0.01416466745668031 0 -0.0011775735637898151 0.014236949549090413 0 -0.0012317139378620102 0.015899474832537286 0 -0.0025361179313725677 0.01416466745668031 0 -0.0011775735637898151 0.014236949549090413 0 0.020775221309837829 0.012168268289734436 0 0.020195864957879561 0.011411034791021284 0 0.021222632727239007 0.011057323830318527 0 0.020775221309837829 0.012168268289734436 0 0.020195864957879561 0.011411034791021284 0 0.019489604867925985 0.012528801936349292 0 0.020775221309837829 0.012168268289734436 0 0.021222632727239007 0.011057323830318527 0 0.022335517929734369 0.011286798670818849 0 0.025112252540730389 0.011825153345102705 0 0.028902353939787146 0.011333448769177794 0 0.028454282949525653 0.01021422238756417 0 0.029835567315491023 0.010181588459251116 0 0.030850750546495154 0.0090461690928098464 0 0.021222632727239007 0.011057323830318527 0 0.02088187271272134 0.010250824167114023 0 0.02192334503655502 0.010182180351984161 0 0.021222632727239007 0.011057323830318527 0 0.022335517929734369 0.011286798670818849 0 0.02192334503655502 0.010182180351984161 0 0.0097373348122866098 0.012421154900139073 0 0.009410096180086272 0.010544185767572418 0 0.011118069403547105 0.0099098322001717459 0 0.015136898970728813 0.012327784028311547 0 0.015795884792827581 0.0098970674244622716 0 0.020195864957879561 0.011411034791021284 0 0.021222632727239007 0.011057323830318527 0 0.02088187271272134 0.010250824167114023 0 0.0097373348122866098 0.012421154900139073 0 0.0076770124236615229 0.010698656278286077 0 0.0075321876686631978 0.012890360406472057 0 0.0097373348122866098 0.012421154900139073 0 0.009410096180086272 0.010544185767572418 0 0.0076770124236615229 0.010698656278286077 0 0.0076770124236615229 0.010698656278286077 0 0.005379098374833035 0.012262517875376225 0 0.0049833615826232712 0.010028258622176312 0 0.0076770124236615229 0.010698656278286077 0 0.005379098374833035 0.012262517875376225 0 0.0075321876686631978 0.012890360406472057 0 0.005379098374833035 0.012262517875376225 0 0.0062308705515396979 0.013866896591725901 0 0.0075321876686631978 0.012890360406472057 0 0.0062308705515396979 0.013866896591725901 0 0.0075321876686631978 0.012890360406472057 0 0.0083323810430245508 0.014849009917037465 0 0.015136898970728813 0.012327784028311547 0 0.010983117149702354 0.010553918588631696 0 0.0097373348122866098 0.012421154900139073 0 0.0075321876686631978 0.012890360406472057 0 0.0083323810430245508 0.014849009917037465 0 0.020775221309837829 0.012168268289734436 0 0.019489604867925985 0.012528801936349292 0 0.019193590822284782 0.012981317551654166 0 0.025662781777484409 0.011522616730756609 0 0.025309098283130226 0.012071695678836959 0 0.028411021443385507 0.011666114453764932 0 0.025112252540730389 0.011825153345102705 0 0.016632851972343342 0.0063642193023769099 0 0.010983117149702354 0.010553918588631696 0 0.016632851972343342 0.0063642193023769099 0 0.0090104426255666319 0.0034104023930841098 0 0.0084991263509170169 0.0042856325791724411 0 0.0078216427955255241 0.004131452290848295 0 0.010983117149702354 0.010553918588631696 0 0.0059398599236744126 0.0092897899685083236 0 0.0062308705515396979 0.013866896591725901 0 0.0083323810430245508 0.014849009917037465 0 0.0056831916438665527 0.015281819152365978 0 0.0090104426255666319 0.0034104023930841098 0 0.0078216427955255241 0.004131452290848295 0 0.0066364906473956016 0.003783012785887563 0 0.0084991263509170169 0.0042856325791724411 0 0.0078216427955255241 0.004131452290848295 0 0.0071423460735064752 0.0050409173941735538 0 0.0078216427955255241 0.004131452290848295 0 0.0066364906473956016 0.003783012785887563 0 0.0071423460735064752 0.0050409173941735538 0 0.0042729095962579511 -0.010898640686443875 0 0.00511456416988327 -0.011021989624856204 0 0.003786937475085119 -0.0090864732045745321 0 0.018451159781005172 -0.0027096625712444218 0 0.012567540318933744 -0.0092339517079671109 0 0.0033700921808361185 -0.010428600015970456 0 0.0042729095962579511 -0.010898640686443875 0 0.003786937475085119 -0.0090864732045745321 0 0.0067950417665679679 -0.0029491476078062923 0 0.018451159781005172 -0.0027096625712444218 0 0.015293597060187498 -0.00096213190154648088 0 0.011619068658756287 0.0011797144281015836 0 0.014353492962379073 0.00066785777267837278 0 0.016632851972343342 0.0063642193023769099 0 0.0067950417665679679 -0.0029491476078062923 0 0.0051901599407170396 -0.0084889302893502907 0 0.0067950417665679679 -0.0029491476078062923 0 0.018451159781005172 -0.0027096625712444218 0 0.027549003034854407 0.0022436530945392653 0 0.022801837905818141 -0.0080346295696939705 0 0.024345401834560774 -0.0082520620241687704 0 0.023006858927306431 -0.007197522410815998 0 0.016632851972343342 0.0063642193023769099 0 0.018451159781005172 -0.0027096625712444218 0 0.024345401834560774 -0.0082520620241687704 0 0.024935557991576551 -0.0071828702335571797 0 0.023971852504512503 -0.0067263461079256938 0 0.028454282949525653 0.01021422238756417 0 0.025662781777484409 0.011522616730756609 0 0.028411021443385507 0.011666114453764932 0 0.029835567315491023 0.010181588459251116 0 0.028411021443385507 0.011666114453764932 0 0.030563411339233855 0.010581685005016175 0 0.027549003034854407 0.0022436530945392653 0 0.028308569879318426 0.0012294074813093163 0 0.028454282949525653 0.01021422238756417 0 0.029835567315491023 0.010181588459251116 0 0.028411021443385507 0.011666114453764932 0 0.028411021443385507 0.011666114453764932 0 0.031169578359474245 0.01096038399304073 0 0.030563411339233855 0.010581685005016175 0 0.024345401834560774 -0.0082520620241687704 0 0.024935557991576551 -0.0071828702335571797 0 0.026043257098998879 -0.0074020455201018699 0 0.024345401834560774 -0.0082520620241687704 0 0.02608497930420467 -0.008402436940470822 0 0.026043257098998879 -0.0074020455201018699 0 0.024345401834560774 -0.0082520620241687704 0 0.023971852504512503 -0.0067263461079256938 0 0.023006858927306431 -0.007197522410815998 0 0.024935557991576551 -0.0071828702335571797 0 0.023971852504512503 -0.0067263461079256938 0 0.025370815404267017 -0.0064526236096862661 0 0.023971852504512503 -0.0067263461079256938 0 0.024329753313259067 -0.0059502876361570136 0 0.023528631687944931 -0.0055693646456618385 0 0.025083971364350602 -0.0047384602053270478 0 0.025678838987099304 -0.0064373476432852701 0 0.023971852504512503 -0.0067263461079256938 0 0.024329753313259067 -0.0059502876361570136 0 0.025370815404267017 -0.0064526236096862661 0 0.024329753313259067 -0.0059502876361570136 0 0.024926072994361389 -0.0054025358309568051 0 0.025370815404267017 -0.0064526236096862661 0 0.022801837905818141 -0.0080346295696939705 0 0.022127243321795949 -0.006967709720103017 0 0.023006858927306431 -0.007197522410815998 0 0.023971852504512503 -0.0067263461079256938 0 0.022630669953887673 -0.0062185971768785493 0 0.023528631687944931 -0.0055693646456618385 0 0.023971852504512503 -0.0067263461079256938 0 0.023006858927306431 -0.007197522410815998 0 0.022630669953887673 -0.0062185971768785493 0 0.022127243321795949 -0.006967709720103017 0 0.023006858927306431 -0.007197522410815998 0 0.022630669953887673 -0.0062185971768785493 0 0.02153961191046912 -0.0062983129891685244 0 0.022127243321795949 -0.006967709720103017 0 0.022630669953887673 -0.0062185971768785493 0 0.02153961191046912 -0.0062983129891685244 0 0.022532414366215919 -0.0059218741295023322 0 0.021996273392575941 -0.0056647226684870787 0 0.02153961191046912 -0.0062983129891685244 0 0.022630669953887673 -0.0062185971768785493 0 0.022532414366215919 -0.0059218741295023322 0 0.022521537448202195 -0.0060507624639954015 0 0.023721652604897787 -0.0055195352787323314 0 0.022630669953887673 -0.0062185971768785493 0 0.023005098707981869 -0.0057446527554008949 0 0.022532414366215919 -0.0059218741295023322 0 0.022630669953887673 -0.0062185971768785493 0 0.023528631687944931 -0.0055693646456618385 0 0.023356936504400742 -0.0045656356390986197 0 0.023528631687944931 -0.0055693646456618385 0 0.023356936504400742 -0.0045656356390986197 0 0.023836553784995985 -0.0047212339769967847 0 0.023502818527303987 -0.0042733711470344885 0 0.023356936504400742 -0.0045656356390986197 0 0.023836553784995985 -0.0047212339769967847 0 0.024468213384604916 -0.0070447721409658652 0 0.023721652604897787 -0.0055195352787323314 0 0.022567497783763431 -0.0054325293646801612 0 0.023005098707981869 -0.0057446527554008949 0 0.022545855040052742 -0.0056925160985691727 0 0.023005098707981869 -0.0057446527554008949 0 0.022532414366215919 -0.0059218741295023322 0 0.022545855040052742 -0.0056925160985691727 0 0.022532414366215919 -0.0059218741295023322 0 0.022545855040052742 -0.0056925160985691727 0 0.021996273392575941 -0.0056647226684870787 0 0.022567497783763431 -0.0054325293646801612 0 0.022545855040052742 -0.0056925160985691727 0 0.021996273392575941 -0.0056647226684870787 0 0.024329753313259067 -0.0059502876361570136 0 0.024926072994361389 -0.0054025358309568051 0 0.02418693292825037 -0.0050454953075440637 0 0.024329753313259067 -0.0059502876361570136 0 0.023528631687944931 -0.0055693646456618385 0 0.02418693292825037 -0.0050454953075440637 0 0.024566156724072301 -0.0042139488389959607 0 0.023502818527303987 -0.0042733711470344885 0 0.023836553784995985 -0.0047212339769967847 0 0.024566156724072301 -0.0042139488389959607 0 0.02418693292825037 -0.0050454953075440637 0 0.023836553784995985 -0.0047212339769967847 0 0.023528631687944931 -0.0055693646456618385 0 0.02418693292825037 -0.0050454953075440637 0 0.023836553784995985 -0.0047212339769967847 0 0.024566156724072301 -0.0042139488389959607 0 0.024926072994361389 -0.0054025358309568051 0 0.02418693292825037 -0.0050454953075440637 0 0.026380056012402127 -0.003875161143694648 0 0.025331970089418693 -0.0039935649142546995 0 0.025980621626576848 -0.0044969792456462168 0 0.026048155187440407 -0.0062547359573709802 0 0.025083971364350602 -0.0047384602053270478 0 0.025331970089418693 -0.0039935649142546995 0 0.02562511679379411 -0.005033538102383571 0 0.025980621626576848 -0.0044969792456462168 0 0.026380056012402127 -0.003875161143694648 0 0.025980621626576848 -0.0044969792456462168 0 0.026595939445212081 -0.0050931896599418344 0 0.02562511679379411 -0.005033538102383571 0 0.025980621626576848 -0.0044969792456462168 0 0.026595939445212081 -0.0050931896599418344 0 0.02562511679379411 -0.005033538102383571 0 0.026595939445212081 -0.0050931896599418344 0 0.025871234749475759 -0.0061343294500473518 0 0.026595939445212081 -0.0050931896599418344 0 0.027373776207968166 -0.005070869107645027 0 0.027521248594744346 -0.0044455492512105498 0 0.026595939445212081 -0.0050931896599418344 0 0.027373776207968166 -0.005070869107645027 0 0.02735736374351495 -0.0055910362697442284 0 0.030100268816513693 -0.0070045910991540575 0 0.03035299861657656 -0.0052993067805156228 0 0.026380056012402127 -0.003875161143694648 0 0.026595939445212081 -0.0050931896599418344 0 0.027521248594744346 -0.0044455492512105498 0 0.033426957984591874 -0.0067295461690377104 0 0.03339463623272397 -0.0067249993238987869 0 0.033438503632176715 -0.0067047981299635543 0 0.03339463623272397 -0.0067249993238987869 0 0.033438503632176715 -0.0067047981299635543 0 0.033327246230893802 -0.0064198964857819264 0 0.03035299861657656 -0.0052993067805156228 0 0.03107491763576925 -0.0057807348329075321 0 0.03339463623272397 -0.0067249993238987869 0 0.033349675699526737 -0.0067278422435283584 0 0.033327246230893802 -0.0064198964857819264 0 0.028731613255228026 -0.0050449038149450133 0 0.027959602805775963 -0.0053385378395433272 0 0.028681917592556557 -0.0060605342665892284 0 0.027373776207968166 -0.005070869107645027 0 0.027521248594744346 -0.0044455492512105498 0 0.027959602805775963 -0.0053385378395433272 0 0.027521248594744346 -0.0044455492512105498 0 0.028731613255228026 -0.0050449038149450133 0 0.027959602805775963 -0.0053385378395433272 0 0.027373776207968166 -0.005070869107645027 0 0.027959602805775963 -0.0053385378395433272 0 0.02735736374351495 -0.0055910362697442284 0 0.027959602805775963 -0.0053385378395433272 0 0.027832789513798313 -0.0062670230653031527 0 0.028681917592556557 -0.0060605342665892284 0 0.027959602805775963 -0.0053385378395433272 0 0.027832789513798313 -0.0062670230653031527 0 0.02735736374351495 -0.0055910362697442284 0 0.028681917592556557 -0.0060605342665892284 0 0.02915218473221742 -0.0068017677727419861 0 0.028292558049770412 -0.0072381853341781897 0 0.027832789513798313 -0.0062670230653031527 0 0.028681917592556557 -0.0060605342665892284 0 0.028292558049770412 -0.0072381853341781897 0 0.027832789513798313 -0.0062670230653031527 0 0.027590093171508397 -0.0069499797267942448 0 0.026836125429823606 -0.0063397031647720809 0 0.027832789513798313 -0.0062670230653031527 0 0.027590093171508397 -0.0069499797267942448 0 0.028292558049770412 -0.0072381853341781897 0 0.026836125429823606 -0.0063397031647720809 0 0.026043257098998879 -0.0074020455201018699 0 0.026935078752039987 -0.0071414108334420471 0 0.027590093171508397 -0.0069499797267942448 0 0.026836125429823606 -0.0063397031647720809 0 0.026935078752039987 -0.0071414108334420471 0 0.024935557991576551 -0.0071828702335571797 0 0.025370815404267017 -0.0064526236096862661 0 0.026043257098998879 -0.0074020455201018699 0 0.025678838987099304 -0.0064373476432852701 0 0.02600023488347137 -0.0073190765522214681 0 0.026836125429823606 -0.0063397031647720809 0 0.025871234749475759 -0.0061343294500473518 0 0.026043257098998879 -0.0074020455201018699 0 0.026595939445212081 -0.0050931896599418344 0 0.026836125429823606 -0.0063397031647720809 0 0.025871234749475759 -0.0061343294500473518 0 0.027832789513798313 -0.0062670230653031527 0 0.026836125429823606 -0.0063397031647720809 0 0.02735736374351495 -0.0055910362697442284 0 0.026595939445212081 -0.0050931896599418344 0 0.026836125429823606 -0.0063397031647720809 0 0.02735736374351495 -0.0055910362697442284 0 0.034227092872597502 -0.006634310711515384 0 0.034507543818814261 -0.0063881808778447659 0 0.034544396820529545 -0.0064128310755546588 0 0.033787262591653058 -0.0063458907867555859 0 0.034151991783669046 -0.0061515476042050743 0 0.033340296637569856 -0.0060646512591192598 0 0.033605444321080417 -0.00601704453225675 0 0.033763635135924286 -0.0058660262379691781 0 0.034480741895178219 -0.006339819688447915 0 0.034293343950865023 -0.006455860169391035 0 0.034507543818814261 -0.0063881808778447659 0 0.034293343950865023 -0.006455860169391035 0 0.034227092872597502 -0.006634310711515384 0 0.034507543818814261 -0.0063881808778447659 0 0.034036369949191785 -0.0065466418011838421 0 0.034293343950865023 -0.006455860169391035 0 0.034227092872597502 -0.006634310711515384 0 0.034036369949191785 -0.0065466418011838421 0 0.034227092872597502 -0.006634310711515384 0 0.033808132841659448 -0.0067641306804438698 0 0.033340296637569856 -0.0060646512591192598 0 0.033217862395735188 -0.0062078440392981278 0 0.033411020860575402 -0.0060955932408798853 0 0.033787262591653058 -0.0063458907867555859 0 0.033514660758159134 -0.0065560874682684435 0 0.033340296637569856 -0.0060646512591192598 0 0.03320928154730652 -0.0063454198289681542 0 0.033217862395735188 -0.0062078440392981278 0 0.033374918720118184 -0.0066985057537370845 0 0.033514660758159134 -0.0065560874682684435 0 0.033485579474701099 -0.0066762928331709111 0 0.033349675699526737 -0.0067278422435283584 0 0.033808132841659448 -0.0067641306804438698 0 0.033349675699526737 -0.0067278422435283584 0 0.033327246230893802 -0.0064198964857819264 0 0.03320928154730652 -0.0063454198289681542 0 0.03107491763576925 -0.0057807348329075321 0 0.031500527542955181 -0.0059428752197351522 0 0.033327246230893802 -0.0064198964857819264 0 0.03320928154730652 -0.0063454198289681542 0 0.033217862395735188 -0.0062078440392981278 0 0.028731613255228026 -0.0050449038149450133 0 0.028681917592556557 -0.0060605342665892284 0 0.029967484205592337 -0.0056770716514351789 0 0.028681917592556557 -0.0060605342665892284 0 0.02915218473221742 -0.0068017677727419861 0 0.029967484205592337 -0.0056770716514351789 0 0.02915218473221742 -0.0068017677727419861 0 0.030026217321682137 -0.0070414084691817654 0 0.029967484205592337 -0.0056770716514351789 0 0.030026217321682137 -0.0070414084691817654 0 0.029967484205592337 -0.0056770716514351789 0 0.031243113911346206 -0.0063503334465234247 0 0.031500527542955181 -0.0059428752197351522 0 0.032752067678178058 -0.0061316578034245218 0 0.033217862395735188 -0.0062078440392981278 0 0.033376667432800447 -0.0062195677327639698 0 0.033411020860575402 -0.0060955932408798853 0 0.030980563193193974 -0.0064702012898205418 0 0.032752067678178058 -0.0061316578034245218 0 0.03219782000344993 -0.0058432948925592467 0 0.033192632856860207 -0.0057753990064266254 0 0.033070709669576495 -0.0061744629085502441 0 0.033192632856860207 -0.0057753990064266254 0 0.033454827608468012 -0.0060497528990933582 0 0.033070709669576495 -0.0061744629085502441 0 0.033454827608468012 -0.0060497528990933582 0 0.033605444321080417 -0.00601704453225675 0 0.033695910105861523 -0.0061926769403816461 0 0.033454827608468012 -0.0060497528990933582 0 0.033384658327345024 -0.0064332332641769295 0 0.033695910105861523 -0.0061926769403816461 0 0.032752067678178058 -0.0061316578034245218 0 0.033322235510141275 -0.00617043285051722 0 0.033376667432800447 -0.0062195677327639698 0 0.033411020860575402 -0.0060955932408798853 0 0.033605444321080417 -0.00601704453225675 0 0.033398266786663591 -0.0060201792064537192 0 0.033454827608468012 -0.0060497528990933582 0 0.033605444321080417 -0.00601704453225675 0 0.033340296637569856 -0.0060646512591192598 0 0.033411020860575402 -0.0060955932408798853 0 0.033605444321080417 -0.00601704453225675 0 0.032752067678178058 -0.0061316578034245218 0 0.033763133984918085 -0.0059491343415077518 0 0.033384658327345024 -0.0064332332641769295 0 0.033217385292622116 -0.0070295834580411162 0 0.033747857099127622 -0.0066096716381660011 0 0.033454827608468012 -0.0060497528990933582 0 0.033384658327345024 -0.0064332332641769295 0 0.033070709669576495 -0.0061744629085502441 0 0.033384658327345024 -0.0064332332641769295 0 0.033070709669576495 -0.0061744629085502441 0 0.033006363981913006 -0.0066267790023682811 0 0.033070709669576495 -0.0061744629085502441 0 0.033006363981913006 -0.0066267790023682811 0 0.032673542261248058 -0.0065173666499084345 0 0.032740960736444863 -0.0068929576742059444 0 0.033006363981913006 -0.0066267790023682811 0 0.033217385292622116 -0.0070295834580411162 0 0.033384658327345024 -0.0064332332641769295 0 0.033006363981913006 -0.0066267790023682811 0 0.033217385292622116 -0.0070295834580411162 0 0.032740960736444863 -0.0068929576742059444 0 0.032471359509160747 -0.0071255475859486432 0 0.033217385292622116 -0.0070295834580411162 0 0.032740960736444863 -0.0068929576742059444 0 0.033006363981913006 -0.0066267790023682811 0 0.032673542261248058 -0.0065173666499084345 0 0.032740960736444863 -0.0068929576742059444 0 0.032471359509160747 -0.0071255475859486432 0 0.032226940852561364 -0.0070277169341445055 0 0.033037673455727168 -0.0057982632159339544 0 0.032140881760943665 -0.0069204391949487772 0 0.032553207454617816 -0.0078265373766697975 0 0.032226940852561364 -0.0070277169341445055 0 0.031641458309934131 -0.0075184513854901682 0 0.033037673455727168 -0.0057982632159339544 0 0.032825219187200071 -0.0069965434063789305 0 0.032740960736444863 -0.0068929576742059444 0 0.032226940852561364 -0.0070277169341445055 0 0.032673542261248058 -0.0065173666499084345 0 0.03219782000344993 -0.0058432948925592467 0 0.033070709669576495 -0.0061744629085502441 0 0.032673542261248058 -0.0065173666499084345 0 0.03219782000344993 -0.0058432948925592467 0 0.032226940852561364 -0.0070277169341445055 0 0.032673542261248058 -0.0065173666499084345 0 0.02915218473221742 -0.0068017677727419861 0 0.030026217321682137 -0.0070414084691817654 0 0.028804650354157371 -0.0076823437738503262 0 0.03219782000344993 -0.0058432948925592467 0 0.032226940852561364 -0.0070277169341445055 0 0.030257998819500278 -0.0065202167000461683 0 0.030980563193193974 -0.0064702012898205418 0 0.029536885207126714 -0.0071302757723918078 0 0.031641458309934131 -0.0075184513854901682 0 0.030543249031607923 -0.0085261743540478562 0 0.030257998819500278 -0.0065202167000461683 0 0.032226940852561364 -0.0070277169341445055 0 0.031641458309934131 -0.0075184513854901682 0 0.030257998819500278 -0.0065202167000461683 0 0.032468374186840489 -0.0077842382422141608 0 0.031641458309934131 -0.0075184513854901682 0 0.030543249031607923 -0.0085261743540478562 0 0.029075251726834145 0.011031965656484878 0 0.028495586312463697 0.012154625081032037 0 0.029656964482182933 0.01170690763253023 0 0.029749494049525226 0.00087529636486620335 0 0.030577062220929801 0.0041065505439245751 0 0.029075251726834145 0.011031965656484878 0 0.028495586312463697 0.012154625081032037 0 0.027665122746740812 0.011330466282306715 0 0.028495586312463697 0.012154625081032037 0 0.027665122746740812 0.011330466282306715 0 0.027298729047309414 0.01230480280056773 0 0.028495586312463697 0.012154625081032037 0 0.027298729047309414 0.01230480280056773 0 0.027880393524528368 0.012867486249985651 0 0.032468374186840489 -0.0077842382422141608 0 0.030543249031607923 -0.0085261743540478562 0 0.03284421160673482 -0.0086893060494338537 0 0.033037673455727168 -0.0057982632159339544 0 0.030577062220929801 0.0041065505439245751 0 0.030577062220929801 0.0041065505439245751 0 0.03161598477771612 0.0061007773497888827 0 0.032890724421851925 1.104797378159441e-05 0 0.032689722951088296 0.00055764209042394189 0 0.032021185179739238 0.00041483654676470136 0 0.033037673455727168 -0.0057982632159339544 0 0.032349498966076702 -0.0029934619757084305 0 0.032689722951088296 0.00055764209042394189 0 0.032021185179739238 0.00041483654676470136 0 0.031902109740146352 0.00075052810301966103 0 0.031350205705032989 0.012173166612016733 0 0.030310624089406921 0.012214123012112395 0 0.030618013318388725 0.011397649688706287 0 0.030577062220929801 0.0041065505439245751 0 0.028877165294998317 0.01345865146936768 0 0.031766444443711683 0.011085064207624585 0 0.031350205705032989 0.012173166612016733 0 0.030618013318388725 0.011397649688706287 0 0.030310624089406921 0.012214123012112395 0 0.030618013318388725 0.011397649688706287 0 0.02958745602730023 0.011776200584963989 0 0.03161598477771612 0.0061007773497888827 0 0.029935778230435132 0.006641079756264533 0 0.032021185179739238 0.00041483654676470136 0 0.031902109740146352 0.00075052810301966103 0 0.031262788352902297 0.00080045755944946719 0 0.032349498966076702 -0.0029934619757084305 0 0.032894472878497019 -0.0036507636875532427 0 0.031902109740146352 0.00075052810301966103 0 0.031210761169642543 0.00095406422913256895 0 0.031262788352902297 0.00080045755944946719 0 0.033217385292622116 -0.0070295834580411162 0 0.033747857099127622 -0.0066096716381660011 0 0.0337307251475433 -0.0069073000281224921 0 0.027316633609820975 -0.0079878725217215132 0 0.02608497930420467 -0.008402436940470822 0 0.026867661356635788 -0.0076881932631037335 0 0.031169578359474245 0.01096038399304073 0 0.03053044889462049 0.010764643092548456 0 0.031235546273511015 0.010805864730275063 0 0.027316633609820975 -0.0079878725217215132 0 0.02608497930420467 -0.008402436940470822 0 0.027732130774751323 -0.0083977199405148497 0 0.028308569879318426 0.0012294074813093163 0 0.029175435726069582 0.0012566924733569708 0 0.031169578359474245 0.01096038399304073 0 0.030563411339233855 0.010581685005016175 0 0.031235546273511015 0.010805864730275063 0 0.02608497930420467 -0.008402436940470822 0 0.026043257098998879 -0.0074020455201018699 0 0.026867661356635788 -0.0076881932631037335 0 0.026043257098998879 -0.0074020455201018699 0 0.026935078752039987 -0.0071414108334420471 0 0.026867661356635788 -0.0076881932631037335 0 0.027316633609820975 -0.0079878725217215132 0 0.026867661356635788 -0.0076881932631037335 0 0.02749882689900927 -0.0074775373031230833 0 0.026935078752039987 -0.0071414108334420471 0 0.026867661356635788 -0.0076881932631037335 0 0.02749882689900927 -0.0074775373031230833 0 0.027590093171508397 -0.0069499797267942448 0 0.026935078752039987 -0.0071414108334420471 0 0.02749882689900927 -0.0074775373031230833 0 0.027958681551962829 -0.0077084109154788895 0 0.02749882689900927 -0.0074775373031230833 0 0.028292558049770412 -0.0072381853341781897 0 0.027590093171508397 -0.0069499797267942448 0 0.02749882689900927 -0.0074775373031230833 0 0.028292558049770412 -0.0072381853341781897 0 0.027316633609820975 -0.0079878725217215132 0 0.027958681551962829 -0.0077084109154788895 0 0.02749882689900927 -0.0074775373031230833 0 0.027958681551962829 -0.0077084109154788895 0 0.028804650354157371 -0.0076823437738503262 0 0.028292558049770412 -0.0072381853341781897 0 0.02915218473221742 -0.0068017677727419861 0 0.028804650354157371 -0.0076823437738503262 0 0.028292558049770412 -0.0072381853341781897 0 0.030257998819500278 -0.0065202167000461683 0 0.029073736936475175 -0.0079065578378311012 0 0.027787931154518962 -0.008143563459138253 0 0.030543249031607923 -0.0085261743540478562 0 0.029073736936475175 -0.0079065578378311012 0 0.027732130774751323 -0.0083977199405148497 0 0.029536885207126714 -0.0071302757723918078 0 0.027890035280746031 -0.0080728223492016627 0 0.030543249031607923 -0.0085261743540478562 0 0.030257998819500278 -0.0065202167000461683 0 0.029073736936475175 -0.0079065578378311012 0 0.027958681551962829 -0.0077084109154788895 0 0.028804650354157371 -0.0076823437738503262 0 0.027787931154518962 -0.008143563459138253 0 0.027316633609820975 -0.0079878725217215132 0 0.027958681551962829 -0.0077084109154788895 0 0.027787931154518962 -0.008143563459138253 0 0.029073736936475175 -0.0079065578378311012 0 0.027787931154518962 -0.008143563459138253 0 0.027732130774751323 -0.0083977199405148497 0 0.027316633609820975 -0.0079878725217215132 0 0.027787931154518962 -0.008143563459138253 0 0.027732130774751323 -0.0083977199405148497 0 0.03053044889462049 0.010764643092548456 0 0.029656964482182933 0.01170690763253023 0 0.030344746907024159 0.012075171051987526 0 0.03053044889462049 0.010764643092548456 0 0.030344746907024159 0.012075171051987526 0 0.030919478932487393 0.011304042839754894 0 0.029749494049525226 0.00087529636486620335 0 0.029175435726069582 0.0012566924733569708 0 0.029075251726834145 0.011031965656484878 0 0.03053044889462049 0.010764643092548456 0 0.029656964482182933 0.01170690763253023 0 0.028495586312463697 0.012154625081032037 0 0.029656964482182933 0.01170690763253023 0 0.029359538926643527 0.012534247329806472 0 0.029656964482182933 0.01170690763253023 0 0.030344746907024159 0.012075171051987526 0 0.029359538926643527 0.012534247329806472 0 0.030344746907024159 0.012075171051987526 0 0.030199096056656726 0.012840548108621452 0 0.029359538926643527 0.012534247329806472 0 0.030344746907024159 0.012075171051987526 0 0.030912456906736992 0.012199594866052673 0 0.030744518119760752 0.012868089395319499 0 0.030344746907024159 0.012075171051987526 0 0.030912456906736992 0.012199594866052673 0 0.030919478932487393 0.011304042839754894 0 0.030912456906736992 0.012199594866052673 0 0.030919478932487393 0.011304042839754894 0 0.031404667992724143 0.012067423323532781 0 0.030912456906736992 0.012199594866052673 0 0.031404667992724143 0.012067423323532781 0 0.031432701550066347 0.012825070040773223 0 0.03053044889462049 0.010764643092548456 0 0.030919478932487393 0.011304042839754894 0 0.031235546273511015 0.010805864730275063 0 0.030919478932487393 0.011304042839754894 0 0.031325658382792422 0.011341117459480608 0 0.031404667992724143 0.012067423323532781 0 0.030919478932487393 0.011304042839754894 0 0.031235546273511015 0.010805864730275063 0 0.031325658382792422 0.011341117459480608 0 0.030563411339233855 0.010581685005016175 0 0.031235546273511015 0.010805864730275063 0 0.030850750546495154 0.0090461690928098464 0 0.031235546273511015 0.010805864730275063 0 0.031325658382792422 0.011341117459480608 0 0.031814027656936653 0.011713129446018827 0 0.029835567315491023 0.010181588459251116 0 0.030563411339233855 0.010581685005016175 0 0.030850750546495154 0.0090461690928098464 0 0.031358008774457241 0.010679137868859203 0 0.028902353939787146 0.011333448769177794 0 0.031960432339889801 0.011716820155628029 0 0.031404667992724143 0.012067423323532781 0 0.032322021584812476 0.012860340049750531 0 0.028902353939787146 0.011333448769177794 0 0.027517963095515227 0.012000167684266439 0 0.028902353939787146 0.011333448769177794 0 0.031508259900497382 0.011285039547431363 0 0.031325658382792422 0.011341117459480608 0 0.031814027656936653 0.011713129446018827 0 0.031404667992724143 0.012067423323532781 0 0.03186941851719069 0.013457824917742063 0 0.032322021584812476 0.012860340049750531 0 0.032565608006405442 0.013907045985013364 0 0.031404667992724143 0.012067423323532781 0 0.031432701550066347 0.012825070040773223 0 0.032322021584812476 0.012860340049750531 0 0.03186941851719069 0.013457824917742063 0 0.031432701550066347 0.012825070040773223 0 0.032322021584812476 0.012860340049750531 0 0.03186941851719069 0.013457824917742063 0 0.031335982941789346 0.013432795081034277 0 0.031432701550066347 0.012825070040773223 0 0.03186941851719069 0.013457824917742063 0 0.031658023562848747 0.014199313644167797 0 0.032565608006405442 0.013907045985013364 0 0.03186941851719069 0.013457824917742063 0 0.031658023562848747 0.014199313644167797 0 0.031335982941789346 0.013432795081034277 0 0.031658023562848747 0.014199313644167797 0 0.030891548909815516 0.013882591875430715 0 0.031041880845457531 0.014573181015909544 0 0.031658023562848747 0.014199313644167797 0 0.030891548909815516 0.013882591875430715 0 0.031335982941789346 0.013432795081034277 0 0.030891548909815516 0.013882591875430715 0 0.030546711062928542 0.014443387306036412 0 0.031041880845457531 0.014573181015909544 0 0.030891548909815516 0.013882591875430715 0 0.031335982941789346 0.013432795081034277 0 0.030744518119760752 0.012868089395319499 0 0.031335982941789346 0.013432795081034277 0 0.031432701550066347 0.012825070040773223 0 0.030744518119760752 0.012868089395319499 0 0.030912456906736992 0.012199594866052673 0 0.031432701550066347 0.012825070040773223 0 0.030744518119760752 0.012868089395319499 0 0.030344746907024159 0.012075171051987526 0 0.030744518119760752 0.012868089395319499 0 0.030199096056656726 0.012840548108621452 0 0.030891548909815516 0.013882591875430715 0 0.030744518119760752 0.012868089395319499 0 0.03036197742081519 0.013512121726724908 0 0.030199096056656726 0.012840548108621452 0 0.029713674297607105 0.013120706380079712 0 0.03036197742081519 0.013512121726724908 0 0.030744518119760752 0.012868089395319499 0 0.030199096056656726 0.012840548108621452 0 0.03036197742081519 0.013512121726724908 0 0.030199096056656726 0.012840548108621452 0 0.029359538926643527 0.012534247329806472 0 0.029713674297607105 0.013120706380079712 0 0.029713674297607105 0.013120706380079712 0 0.029871473715008257 0.013816770011872623 0 0.02894919678588698 0.012990764824438946 0 0.029359538926643527 0.012534247329806472 0 0.029713674297607105 0.013120706380079712 0 0.02894919678588698 0.012990764824438946 0 0.030646155793521992 0.014251252214388173 0 0.03059803112786403 0.01424409882646384 0 0.030099281442829494 0.014210774650263382 0 0.030199944435726555 0.014327983882509243 0 0.030162114105956692 0.014697874817075679 0 0.030891548909815516 0.013882591875430715 0 0.03036197742081519 0.013512121726724908 0 0.030422816398986537 0.014041261247678573 0 0.029713674297607105 0.013120706380079712 0 0.029871473715008257 0.013816770011872623 0 0.03036197742081519 0.013512121726724908 0 0.030058853369491365 0.014181962310133018 0 0.03036197742081519 0.013512121726724908 0 0.03013229601302134 0.014178048627934691 0 0.030646155793521992 0.014251252214388173 0 0.030400320864244247 0.013792665474376303 0 0.03036197742081519 0.013512121726724908 0 0.030422816398986537 0.014041261247678573 0 0.03013229601302134 0.014178048627934691 0 0.030422816398986537 0.014041261247678573 0 0.030312738928423111 0.014270399248781169 0 0.030546711062928542 0.014443387306036412 0 0.030422816398986537 0.014041261247678573 0 0.030312738928423111 0.014270399248781169 0 0.03013229601302134 0.014178048627934691 0 0.030312738928423111 0.014270399248781169 0 0.03013229601302134 0.014178048627934691 0 0.030199944435726555 0.014327983882509243 0 0.030099281442829494 0.014210774650263382 0 0.03013229601302134 0.014178048627934691 0 0.030199944435726555 0.014327983882509243 0 0.030312738928423111 0.014270399248781169 0 0.030199944435726555 0.014327983882509243 0 0.030313004309112129 0.014494920341249671 0 0.030199944435726555 0.014327983882509243 0 0.030313004309112129 0.014494920341249671 0 0.030162114105956692 0.014697874817075679 0 0.030312738928423111 0.014270399248781169 0 0.030313004309112129 0.014494920341249671 0 0.030546711062928542 0.014443387306036412 0 0.030891548909815516 0.013882591875430715 0 0.030422816398986537 0.014041261247678573 0 0.030546711062928542 0.014443387306036412 0 0.030546711062928542 0.014443387306036412 0 0.030689182530875565 0.014947959789722806 0 0.031041880845457531 0.014573181015909544 0 0.030546711062928542 0.014443387306036412 0 0.03039492056837571 0.014766508259503052 0 0.030689182530875565 0.014947959789722806 0 0.030313004309112129 0.014494920341249671 0 0.030546711062928542 0.014443387306036412 0 0.03039492056837571 0.014766508259503052 0 0.03039492056837571 0.014766508259503052 0 0.030162114105956692 0.014697874817075679 0 0.030270050119402297 0.015149093863308691 0 0.030313004309112129 0.014494920341249671 0 0.03039492056837571 0.014766508259503052 0 0.030162114105956692 0.014697874817075679 0 0.03039492056837571 0.014766508259503052 0 0.030689182530875565 0.014947959789722806 0 0.030270050119402297 0.015149093863308691 0 0.030162114105956692 0.014697874817075679 0 0.030270050119402297 0.015149093863308691 0 0.029805593322252497 0.015272336572511362 0 0.030646155793521992 0.014251252214388173 0 0.030616365530691827 0.015109592366251867 0 0.030099281442829494 0.014210774650263382 0 0.030162114105956692 0.014697874817075679 0 0.029805593322252497 0.015272336572511362 0 0.030270050119402297 0.015149093863308691 0 0.030133748152811703 0.015726216033398282 0 0.029805593322252497 0.015272336572511362 0 0.030270050119402297 0.015149093863308691 0 0.030133748152811703 0.015726216033398282 0 0.030705590279225491 0.015528132151590707 0 0.030689182530875565 0.014947959789722806 0 0.030270050119402297 0.015149093863308691 0 0.030705590279225491 0.015528132151590707 0 0.030705590279225491 0.015528132151590707 0 0.031253133824609487 0.015152894810695384 0 0.031355550884319371 0.015929579632828803 0 0.030689182530875565 0.014947959789722806 0 0.030705590279225491 0.015528132151590707 0 0.031253133824609487 0.015152894810695384 0 0.031253133824609487 0.015152894810695384 0 0.031931261870653795 0.015013092013859876 0 0.031355550884319371 0.015929579632828803 0 0.022212962728176966 0.012429197646344483 0 0.021515336713882005 0.012971242826190152 0 0.011761989912799916 0.0096863411038526793 0 0.011695195366369754 0.0099602993521638507 0 0.011771751964667678 0.0098771357685147089 0 0.031658023562848747 0.014199313644167797 0 0.031253133824609487 0.015152894810695384 0 0.031931261870653795 0.015013092013859876 0 0.031658023562848747 0.014199313644167797 0 0.031931261870653795 0.015013092013859876 0 0.032565608006405442 0.013907045985013364 0 0.031658023562848747 0.014199313644167797 0 0.031253133824609487 0.015152894810695384 0 0.031041880845457531 0.014573181015909544 0 0.030689182530875565 0.014947959789722806 0 0.031253133824609487 0.015152894810695384 0 0.031041880845457531 0.014573181015909544 0 0.030041200661636236 0.013067629919953196 0 0.030998178642111237 0.013277197900719821 0 0.029745675175713922 0.014143615822142179 0 0.029751055833010236 0.013200711454766711 0 0.03042249503214501 0.015095762211485272 0 0.030998178642111237 0.013277197900719821 0 0.030123010431444629 0.01495392410850028 0 0.029745675175713922 0.014143615822142179 0 0.030530420229638148 0.013157774664440113 0 0.029751055833010236 0.013200711454766711 0 0.030310624089406921 0.012214123012112395 0 0.030041200661636236 0.013067629919953196 0 0.030955013058463834 0.013203226739154653 0 0.030310624089406921 0.012214123012112395 0 0.030041200661636236 0.013067629919953196 0 0.029534656190548791 0.012385188022517712 0 0.028877165294998317 0.01345865146936768 0 0.029751055833010236 0.013200711454766711 0 0.031350205705032989 0.012173166612016733 0 0.030310624089406921 0.012214123012112395 0 0.030955013058463834 0.013203226739154653 0 0.027298729047309414 0.01230480280056773 0 0.026958653081085818 0.013225667219706402 0 0.027880393524528368 0.012867486249985651 0 0.030401845538398989 0.014285798693859736 0 0.030706201406776566 0.01481150344254034 0 0.030123010431444629 0.01495392410850028 0 0.030401845538398989 0.014285798693859736 0 0.031106796044435801 0.014415101922941145 0 0.030706201406776566 0.01481150344254034 0 0.029751055833010236 0.013200711454766711 0 0.029569172317439281 0.014007234345582709 0 0.026958653081085818 0.013225667219706402 0 0.027880393524528368 0.012867486249985651 0 0.028401261884490148 0.013483043741943026 0 0.028495586312463697 0.012154625081032037 0 0.027880393524528368 0.012867486249985651 0 0.02894919678588698 0.012990764824438946 0 0.027880393524528368 0.012867486249985651 0 0.02894919678588698 0.012990764824438946 0 0.028401261884490148 0.013483043741943026 0 0.028495586312463697 0.012154625081032037 0 0.029359538926643527 0.012534247329806472 0 0.02894919678588698 0.012990764824438946 0 0.030646155793521992 0.014251252214388173 0 0.029569172317439281 0.014007234345582709 0 0.031772483285494695 0.014530955231209489 0 0.031106796044435801 0.014415101922941145 0 0.031271987355555406 0.014977888649003878 0 0.029871473715008257 0.013816770011872623 0 0.02894919678588698 0.012990764824438946 0 0.028401261884490148 0.013483043741943026 0 0.030133748152811703 0.015726216033398282 0 0.029805593322252497 0.015272336572511362 0 0.029964751316282685 0.015823746379250967 0 0.030616365530691827 0.015109592366251867 0 0.030267417704211007 0.015709857631385771 0 0.029805593322252497 0.015272336572511362 0 0.029825612275993091 0.01590326630237163 0 0.029964751316282685 0.015823746379250967 0 0.031106796044435801 0.014415101922941145 0 0.031271987355555406 0.014977888649003878 0 0.030706201406776566 0.01481150344254034 0 0.031271987355555406 0.014977888649003878 0 0.030738247786734851 0.015530134517058614 0 0.030706201406776566 0.01481150344254034 0 0.030738247786734851 0.015530134517058614 0 0.030123010431444629 0.01495392410850028 0 0.029647992696320999 0.015760184553859278 0 0.030738247786734851 0.015530134517058614 0 0.030706201406776566 0.01481150344254034 0 0.030123010431444629 0.01495392410850028 0 0.030738247786734851 0.015530134517058614 0 0.02984074398811291 0.016256896787352884 0 0.029647992696320999 0.015760184553859278 0 0.02984074398811291 0.016256896787352884 0 0.029866275972999234 0.016772664881684083 0 0.029491485674346105 0.016734705969889175 0 0.030267417704211007 0.015709857631385771 0 0.029868454070731399 0.016212184663122665 0 0.029825612275993091 0.01590326630237163 0 0.02984074398811291 0.016256896787352884 0 0.029975744966763269 0.016245634755114129 0 0.02984074398811291 0.016256896787352884 0 0.029975744966763269 0.016245634755114129 0 0.029866275972999234 0.016772664881684083 0 0.029975744966763269 0.016245634755114129 0 0.030180111802698795 0.016173304634625789 0 0.030198099589169608 0.016665290671833772 0 0.029825612275993091 0.01590326630237163 0 0.029975744966763269 0.016245634755114129 0 0.029964751316282685 0.015823746379250967 0 0.030133748152811703 0.015726216033398282 0 0.029964751316282685 0.015823746379250967 0 0.030180111802698795 0.016173304634625789 0 0.029975744966763269 0.016245634755114129 0 0.029964751316282685 0.015823746379250967 0 0.030180111802698795 0.016173304634625789 0 0.029882633742710385 0.016397138524173016 0 0.029788418232388713 0.017006131706939449 0 0.029562141773247255 0.016619491528533131 0 0.029609924954461894 0.017218578284498489 0 0.029383019890841723 0.017357203240629771 0 0.029609924954461894 0.017218578284498489 0 0.029541724573679855 0.017514375475487509 0 0.029651650457116419 0.017449406127616012 0 0.029609924954461894 0.017218578284498489 0 0.029541724573679855 0.017514375475487509 0 0.029383019890841723 0.017357203240629771 0 0.029541724573679855 0.017514375475487509 0 0.029479505594030116 0.017632023063646907 0 0.029550359961966109 0.017663011727943052 0 0.029775167019132708 0.017411531404693519 0 0.029788418232388713 0.017006131706939449 0 0.029541724573679855 0.017514375475487509 0 0.029479505594030116 0.017632023063646907 0 0.029383019890841723 0.017357203240629771 0 0.030084357905508029 0.017218106354338399 0 0.030198099589169608 0.016665290671833772 0 0.029866275972999234 0.016772664881684083 0 0.029975744966763269 0.016245634755114129 0 0.030198099589169608 0.016665290671833772 0 0.029866275972999234 0.016772664881684083 0 0.030084357905508029 0.017218106354338399 0 0.029866275972999234 0.016772664881684083 0 0.029764111191588123 0.017370849026436517 0 0.029866275972999234 0.016772664881684083 0 0.029589321104648358 0.017132148827123106 0 0.029764111191588123 0.017370849026436517 0 0.029589321104648358 0.017132148827123106 0 0.029568798192343052 0.017516866039907181 0 0.029764111191588123 0.017370849026436517 0 0.029866275972999234 0.016772664881684083 0 0.029589321104648358 0.017132148827123106 0 0.029491485674346105 0.016734705969889175 0 0.011664645881547284 0.010263532704170323 0 0.011751963012768799 0.010143631905034674 0 0.011795872222150299 0.01034492762282045 0 0.011751963012768799 0.010143631905034674 0 0.011795872222150299 0.01034492762282045 0 0.011845974071635354 0.010095099771529102 0 0.0098784025794634977 0.014553555747471435 0 0.0098468726282824257 0.011092533235318789 0 0.011751963012768799 0.010143631905034674 0 0.011845974071635354 0.010095099771529102 0 0.011771751964667678 0.0098771357685147089 0 0.011751963012768799 0.010143631905034674 0 0.011695195366369754 0.0099602993521638507 0 0.011771751964667678 0.0098771357685147089 0 0.011664645881547284 0.010263532704170323 0 0.011751963012768799 0.010143631905034674 0 0.011695195366369754 0.0099602993521638507 0 0.030705590279225491 0.015528132151590707 0 0.031355550884319371 0.015929579632828803 0 0.030563650850272531 0.016171022574108636 0 0.021016399138335605 0.013257376796323772 0 0.021515336713882005 0.012971242826190152 0 0.030896830676375251 0.016738858091379202 0 0.031355550884319371 0.015929579632828803 0 0.030563650850272531 0.016171022574108636 0 0.030133748152811703 0.015726216033398282 0 0.030705590279225491 0.015528132151590707 0 0.030563650850272531 0.016171022574108636 0 0.030133748152811703 0.015726216033398282 0 0.029562141773247255 0.016619491528533131 0 0.030129989834834912 0.01635284753105434 0 0.030121534497619857 0.015794174451095228 0 0.029882633742710385 0.016397138524173016 0 0.030133748152811703 0.015726216033398282 0 0.030563650850272531 0.016171022574108636 0 0.030129989834834912 0.01635284753105434 0 0.029562141773247255 0.016619491528533131 0 0.029609924954461894 0.017218578284498489 0 0.030226688420335972 0.016884549095831852 0 0.029562141773247255 0.016619491528533131 0 0.030129989834834912 0.01635284753105434 0 0.030226688420335972 0.016884549095831852 0 0.030896830676375251 0.016738858091379202 0 0.030563650850272531 0.016171022574108636 0 0.030226688420335972 0.016884549095831852 0 0.030563650850272531 0.016171022574108636 0 0.030129989834834912 0.01635284753105434 0 0.030226688420335972 0.016884549095831852 0 0.030896830676375251 0.016738858091379202 0 0.030226688420335972 0.016884549095831852 0 0.030453316117703341 0.017499377910432837 0 0.011664645881547284 0.010263532704170323 0 0.011651913312034391 0.010542653790830978 0 0.011693937530052679 0.01056399315891701 0 0.021016399138335605 0.013257376796323772 0 0.024014413928776637 0.016040717779506171 0 0.029609924954461894 0.017218578284498489 0 0.030226688420335972 0.016884549095831852 0 0.030453316117703341 0.017499377910432837 0 0.032180409006031009 0.017996330354534171 0 0.024014413928776637 0.016040717779506171 0 0.029609924954461894 0.017218578284498489 0 0.029745935908366369 0.017456469595600009 0 0.029651650457116419 0.017449406127616012 0 0.029541724573679855 0.017514375475487509 0 0.029680533268977103 0.017588239488230198 0 0.029550359961966109 0.017663011727943052 0 0.029541724573679855 0.017514375475487509 0 0.029651650457116419 0.017449406127616012 0 0.029680533268977103 0.017588239488230198 0 0.029745935908366369 0.017456469595600009 0 0.029651650457116419 0.017449406127616012 0 0.029680533268977103 0.017588239488230198 0 0.023264787770943748 0.025061403624685244 0 0.013293242927161199 0.019819440428931516 0 0.013894620429203298 0.029865319748744443 0 0.013440429362014075 0.029959870986787814 0 0.013528912861293275 0.029845042423071091 0 0.019925304391289776 0.021400629744339098 0 0.020265736688468722 0.020866094387241265 0 0.019534778760118287 0.021253492443776788 0 0.024014413928776637 0.016040717779506171 0 0.013293242927161199 0.019819440428931516 0 0.024014413928776637 0.016040717779506171 0 0.023264787770943748 0.025061403624685244 0 0.013894620429203298 0.029865319748744443 0 0.013684011279277441 0.029795226671077417 0 0.013528912861293275 0.029845042423071091 0 0.013528912861293275 0.029845042423071091 0 0.01332580885095767 0.029886369275014323 0 0.013485681192544945 0.029758066294335136 0 0.011252474244132844 0.024399344492411979 0 0.012973490301767122 0.030810681280380718 0 0.013440429362014075 0.029959870986787814 0 0.013528912861293275 0.029845042423071091 0 0.01332580885095767 0.029886369275014323 0 0.013293242927161199 0.019819440428931516 0 0.011252474244132844 0.024399344492411979 0 0.01045548873274269 0.019169287852879555 0 0.011088577597904357 0.01941920281422194 0 0.012083945671054031 0.018052615890271417 0 0.011664645881547284 0.010263532704170323 0 0.011693937530052679 0.01056399315891701 0 0.011795872222150299 0.01034492762282045 0 0.011252474244132844 0.024399344492411979 0 0.0098784025794634977 0.014553555747471435 0 0.013293242927161199 0.019819440428931516 0 0.0098784025794634977 0.014553555747471435 0 0.013225164094794994 0.030053724414034609 0 0.012667398786733999 0.029893622376407018 0 0.013173776464569095 0.029759556314871198 0 0.0082086644608705892 0.019769215642056321 0 0.0079500961891145437 0.020004020408643172 0 0.0077278567042264601 0.019602109031672491 0 0.011252474244132844 0.024399344492411979 0 0.011243197435397189 0.024958202587392626 0 0.0075635579038597391 0.019890896685654854 0 0.0072412616593365252 0.01975701487513673 0 0.0077278567042264601 0.019602109031672491 0 0.0075635579038597391 0.019890896685654854 0 0.0072123366970141831 0.020049285181746316 0 0.0072412616593365252 0.01975701487513673 0 0.0079500961891145437 0.020004020408643172 0 0.0075635579038597391 0.019890896685654854 0 0.0075468716286233245 0.020177454570630266 0 0.0079500961891145437 0.020004020408643172 0 0.0075635579038597391 0.019890896685654854 0 0.0077278567042264601 0.019602109031672491 0 0.0098784025794634977 0.014553555747471435 0 0.0071778687438429833 0.016865498871077148 0 0.0083378578787781914 0.012054939465441316 0 0.0066826909149158651 0.012997571371755378 0 0.0073480874128608121 0.013195879652513558 0 0.0075635579038597391 0.019890896685654854 0 0.0075468716286233245 0.020177454570630266 0 0.0072123366970141831 0.020049285181746316 0 0.0075468716286233245 0.020177454570630266 0 0.0071672955078057859 0.020335038550677434 0 0.0072123366970141831 0.020049285181746316 0 0.0066826909149158651 0.012997571371755378 0 0.0063553245528092306 0.014368183776374317 0 0.0056866104611710388 0.014287616997525452 0 0.0066826909149158651 0.012997571371755378 0 0.0056866104611710388 0.014287616997525452 0 0.0050228192907340726 0.013982830262465298 0 0.0071778687438429833 0.016865498871077148 0 0.0035457845093769336 0.016509120675106039 0 0.0098468726282824257 0.011092533235318789 0 0.0090600276962247098 0.012487451961799682 0 0.0066826909149158651 0.012997571371755378 0 0.0073480874128608121 0.013195879652513558 0 0.0063553245528092306 0.014368183776374317 0 0.011845974071635354 0.010095099771529102 0 0.011839515854288255 0.0098807412304168143 0 0.011771751964667678 0.0098771357685147089 0 -0.0062039687836171996 0.014067285608169382 0 -0.0068039562726010545 0.013915487762151436 0 -0.0065147550263427723 0.014831322709358262 0 -0.0062039687836171996 0.014067285608169382 0 -0.0065147550263427723 0.014831322709358262 0 -0.0057169589280019525 0.014260592240243376 0 -0.0058233330084772484 0.013833287945234729 0 -0.0062039687836171996 0.014067285608169382 0 -0.0057169589280019525 0.014260592240243376 0 -0.0058233330084772484 0.013833287945234729 0 -0.0062039687836171996 0.014067285608169382 0 -0.0061758475533131357 0.013563515173758397 0 -0.0062039687836171996 0.014067285608169382 0 -0.0068039562726010545 0.013915487762151436 0 -0.0061758475533131357 0.013563515173758397 0 -0.0054903773671632463 0.016472536192946953 0 -0.0055787977716737379 0.016531352306151648 0 -0.0054491426011550733 0.016834579740316189 0 -0.0012055989848120631 0.014281136451786882 0 -0.0063544339022041764 0.015717071094986657 0 0.0046649981729805709 0.014224611273030832 0 0.0049457028800800086 0.014059318933987047 0 0.004983720374286715 0.014539134756449391 0 0.0056866104611710388 0.014287616997525452 0 0.0050228192907340726 0.013982830262465298 0 0.004983720374286715 0.014539134756449391 0 0.0035457845093769336 0.016509120675106039 0 0.0042357926827167238 0.014479278395977945 0 -0.0012055989848120631 0.014281136451786882 0 0.0035457845093769336 0.016509120675106039 0 0.0035457845093769336 0.016509120675106039 0 0.00052338618387356636 0.019172394342792595 0 -0.0057018920941916988 0.016965019473957829 0 -0.0054491426011550733 0.016834579740316189 0 -0.0056078413553827151 0.017161472805394606 0 -0.0055787977716737379 0.016531352306151648 0 -0.0057018920941916988 0.016965019473957829 0 -0.0054491426011550733 0.016834579740316189 0 -0.0065147550263427723 0.014831322709358262 0 -0.0061439953200998088 0.015994602424532676 0 -0.0055387742768420742 0.015173939563678586 0 -0.0063544339022041764 0.015717071094986657 0 -0.0057015189720202248 0.016617296803532959 0 -0.0054491426011550733 0.016834579740316189 0 -0.0053999109509459383 0.017145000988510017 0 -0.0056078413553827151 0.017161472805394606 0 0.00052338618387356636 0.019172394342792595 0 0.00048485344505525067 0.017265154313249667 0 -0.0057018920941916988 0.016965019473957829 0 -0.0056078413553827151 0.017161472805394606 0 -0.0058017591036442825 0.017351250668288451 0 -0.0056078413553827151 0.017161472805394606 0 -0.0058017591036442825 0.017351250668288451 0 -0.0055634572822938896 0.017480218591439143 0 -0.0053999109509459383 0.017145000988510017 0 -0.0056078413553827151 0.017161472805394606 0 -0.0055634572822938896 0.017480218591439143 0 -0.0053999109509459383 0.017145000988510017 0 -0.0055634572822938896 0.017480218591439143 0 -0.0053439376032778305 0.017315011880038811 0 -0.0057015189720202248 0.016617296803532959 0 -0.0054082751940722588 0.017225547408554424 0 -0.0053439376032778305 0.017315011880038811 0 -0.0045555189533044837 0.016928758311980232 0 -0.00521501319697732 0.016341358193314361 0 -0.0061439953200998088 0.015994602424532676 0 -0.0053439376032778305 0.017315011880038811 0 -0.00521501319697732 0.016341358193314361 0 -0.0045555189533044837 0.016928758311980232 0 -0.0046104664419288144 0.015831312407254335 0 -0.00521501319697732 0.016341358193314361 0 -0.0045555189533044837 0.016928758311980232 0 -0.0046104664419288144 0.015831312407254335 0 -0.0039716693320286066 0.016423239039469295 0 -0.0046104664419288144 0.015831312407254335 0 -0.00521501319697732 0.016341358193314361 0 -0.0055387742768420742 0.015173939563678586 0 -0.0061439953200998088 0.015994602424532676 0 -0.00521501319697732 0.016341358193314361 0 -0.0055387742768420742 0.015173939563678586 0 -0.0031171889988483208 0.016324046940736067 0 -0.003030357363346978 0.017651211691085095 0 -0.0023065050787145444 0.017255663456566407 0 -0.0031171889988483208 0.016324046940736067 0 -0.0038251889567910697 0.017362869376198631 0 -0.003030357363346978 0.017651211691085095 0 -0.0039716693320286066 0.016423239039469295 0 -0.0031171889988483208 0.016324046940736067 0 -0.0038251889567910697 0.017362869376198631 0 -0.0045555189533044837 0.016928758311980232 0 -0.0039716693320286066 0.016423239039469295 0 -0.0038251889567910697 0.017362869376198631 0 -0.0039716693320286066 0.016423239039469295 0 -0.0031171889988483208 0.016324046940736067 0 -0.003828065745632543 0.015550220386048707 0 -0.0046104664419288144 0.015831312407254335 0 -0.0039716693320286066 0.016423239039469295 0 -0.003828065745632543 0.015550220386048707 0 -0.0031171889988483208 0.016324046940736067 0 -0.0034836400423842832 0.014628335726770386 0 -0.0024842941273050651 0.015011480643056468 0 -0.0031171889988483208 0.016324046940736067 0 -0.003828065745632543 0.015550220386048707 0 -0.0034836400423842832 0.014628335726770386 0 -0.003828065745632543 0.015550220386048707 0 -0.0034836400423842832 0.014628335726770386 0 -0.0049246310900819606 0.013940630531630905 0 -0.005555738142381147 0.012745389733021395 0 -0.0049246310900819606 0.013940630531630905 0 -0.0050977717943912005 0.013565826500444125 0 -0.005555738142381147 0.012745389733021395 0 -0.0050977717943912005 0.013565826500444125 0 -0.0054309614295100081 0.01339580512936756 0 -0.0046019646618837692 0.013697571267600281 0 -0.0049761617463927425 0.01386559027265135 0 -0.005555738142381147 0.012745389733021395 0 -0.0066289569552980526 0.012068257592586763 0 -0.0064508067457667347 0.012726430004234695 0 -0.005555738142381147 0.012745389733021395 0 -0.0060080174130269885 0.013207193553781854 0 -0.0054309614295100081 0.01339580512936756 0 -0.0046019646618837692 0.013697571267600281 0 -0.0045921483923937693 0.013553895902495519 0 -0.005555738142381147 0.012745389733021395 0 -0.0060080174130269885 0.013207193553781854 0 -0.0064508067457667347 0.012726430004234695 0 -0.0065147550263427723 0.014831322709358262 0 -0.0055387742768420742 0.015173939563678586 0 -0.0057169589280019525 0.014260592240243376 0 -0.0055387742768420742 0.015173939563678586 0 -0.0049246310900819606 0.013940630531630905 0 -0.0057169589280019525 0.014260592240243376 0 -0.0046104664419288144 0.015831312407254335 0 -0.003828065745632543 0.015550220386048707 0 -0.0049246310900819606 0.013940630531630905 0 -0.0046104664419288144 0.015831312407254335 0 -0.0055387742768420742 0.015173939563678586 0 -0.0049246310900819606 0.013940630531630905 0 -0.0049246310900819606 0.013940630531630905 0 -0.0051626447313493752 0.013572906584318574 0 -0.0050977717943912005 0.013565826500444125 0 -0.0049246310900819606 0.013940630531630905 0 -0.005410661397321239 0.013760514787411877 0 -0.0051626447313493752 0.013572906584318574 0 -0.0049246310900819606 0.013940630531630905 0 -0.005410661397321239 0.013760514787411877 0 -0.0057169589280019525 0.014260592240243376 0 -0.0058233330084772484 0.013833287945234729 0 -0.005410661397321239 0.013760514787411877 0 -0.0057169589280019525 0.014260592240243376 0 -0.005410661397321239 0.013760514787411877 0 -0.0056272433383020371 0.013473070479432086 0 -0.0053447655911635127 0.013555546514720235 0 -0.0058233330084772484 0.013833287945234729 0 -0.005410661397321239 0.013760514787411877 0 -0.0056272433383020371 0.013473070479432086 0 -0.0043732557671587978 0.013304848218031398 0 -0.0033941178432190461 0.012246908455865402 0 -0.0056272433383020371 0.013473070479432086 0 -0.0054579726262965209 0.013436188700048464 0 -0.0053447655911635127 0.013555546514720235 0 -0.0054579726262965209 0.013436188700048464 0 -0.0053447655911635127 0.013555546514720235 0 -0.0051034270138555094 0.013523739951060028 0 -0.0053447655911635127 0.013555546514720235 0 -0.0051626447313493752 0.013572906584318574 0 -0.0051034270138555094 0.013523739951060028 0 -0.005410661397321239 0.013760514787411877 0 -0.0053447655911635127 0.013555546514720235 0 -0.0051626447313493752 0.013572906584318574 0 -0.0051626447313493752 0.013572906584318574 0 -0.0051864460672696516 0.013559705408346622 0 -0.0051034270138555094 0.013523739951060028 0 -0.0051626447313493752 0.013572906584318574 0 -0.0050977717943912005 0.013565826500444125 0 -0.0051864460672696516 0.013559705408346622 0 -0.0051864460672696516 0.013559705408346622 0 -0.0051590876563638397 0.013719703865978474 0 -0.0051034270138555094 0.013523739951060028 0 -0.0051590876563638397 0.013719703865978474 0 -0.0051034270138555094 0.013523739951060028 0 -0.0050138149489917273 0.014046038666020319 0 -0.0051864460672696516 0.013559705408346622 0 -0.0051590876563638397 0.013719703865978474 0 -0.0052988856585566542 0.013868772468578969 0 -0.0049666289354702835 0.013360619766277417 0 -0.0051034270138555094 0.013523739951060028 0 -0.0050138149489917273 0.014046038666020319 0 -0.0033941178432190461 0.012246908455865402 0 -0.0023482997965628177 0.012538992453430693 0 0.0005819167655601458 0.010319372518818277 0 0.00057109388196958011 0.010955204050464204 0 0.00080695047921672551 0.01059031873514224 0 0.0005819167655601458 0.010319372518818277 0 0.00057109388196958011 0.010955204050464204 0 -6.7811822386274102e-05 0.011262235026542243 0 -0.0033941178432190461 0.012246908455865402 0 -0.0054044185708724208 0.01360225411277304 0 -0.0060080174130269885 0.013207193553781854 0 -0.0054309614295100081 0.01339580512936756 0 -0.0055923665472090156 0.013603789274163164 0 -0.0051864460672696516 0.013559705408346622 0 -0.0054309614295100081 0.01339580512936756 0 -0.0055923665472090156 0.013603789274163164 0 -0.0050977717943912005 0.013565826500444125 0 -0.0051864460672696516 0.013559705408346622 0 -0.0054309614295100081 0.01339580512936756 0 -0.0052988856585566542 0.013868772468578969 0 -0.0055923665472090156 0.013603789274163164 0 -0.0058065119827316949 0.014007413521516051 0 -0.0051864460672696516 0.013559705408346622 0 -0.0052988856585566542 0.013868772468578969 0 -0.0055923665472090156 0.013603789274163164 0 -0.0060080174130269885 0.013207193553781854 0 -0.0055923665472090156 0.013603789274163164 0 -0.0062856030280661291 0.01362586568327835 0 -0.0055923665472090156 0.013603789274163164 0 -0.0058065119827316949 0.014007413521516051 0 -0.0062856030280661291 0.01362586568327835 0 -0.0058065119827316949 0.014007413521516051 0 -0.0065915343345150758 0.014175605625780473 0 -0.0062856030280661291 0.01362586568327835 0 -0.0058065119827316949 0.014007413521516051 0 -0.0061518424740991742 0.014420957645158225 0 -0.0065915343345150758 0.014175605625780473 0 -0.0058065119827316949 0.014007413521516051 0 -0.0061518424740991742 0.014420957645158225 0 -0.0051810905494221763 0.01433684111679385 0 -0.0052988856585566542 0.013868772468578969 0 -0.0058065119827316949 0.014007413521516051 0 -0.0051810905494221763 0.01433684111679385 0 -0.0050396233203712911 0.014562492960280848 0 -0.0051810905494221763 0.01433684111679385 0 -0.0053864100987755298 0.014414718575573119 0 -0.0052183259879946663 0.014358807608802588 0 -0.0057842693311760465 0.014689535849970136 0 -0.0061518424740991742 0.014420957645158225 0 -0.0051810905494221763 0.01433684111679385 0 -0.0061969040415695538 0.014916026091635578 0 0.00052244472880192837 0.011520769373083245 0 -6.7811822386274102e-05 0.011262235026542243 0 1.02018133844835e-05 0.012011665471112187 0 0.00057109388196958011 0.010955204050464204 0 0.00052244472880192837 0.011520769373083245 0 -6.7811822386274102e-05 0.011262235026542243 0 -0.0052988856585566542 0.013868772468578969 0 -0.0051810905494221763 0.01433684111679385 0 -0.0050138149489917273 0.014046038666020319 0 -0.0051590876563638397 0.013719703865978474 0 -0.0052988856585566542 0.013868772468578969 0 -0.0050138149489917273 0.014046038666020319 0 -0.0050396233203712911 0.014562492960280848 0 -0.0051810905494221763 0.01433684111679385 0 -0.0050138149489917273 0.014046038666020319 0 -0.00099414615256435373 0.012405471406432039 0 -6.7811822386274102e-05 0.011262235026542243 0 1.02018133844835e-05 0.012011665471112187 0 -0.0030704636346564531 0.01353850317688365 0 -0.0023482997965628177 0.012538992453430693 0 -0.00023866364165907005 0.012679615989728867 0 -0.00099414615256435373 0.012405471406432039 0 1.02018133844835e-05 0.012011665471112187 0 0.00052244472880192837 0.011520769373083245 0 1.02018133844835e-05 0.012011665471112187 0 0.00071007014783883962 0.012265851455222052 0 -0.00023866364165907005 0.012679615989728867 0 1.02018133844835e-05 0.012011665471112187 0 0.00071007014783883962 0.012265851455222052 0 0.00052244472880192837 0.011520769373083245 0 0.00071007014783883962 0.012265851455222052 0 0.0013584855560188809 0.011277203098738418 0 0.0028356738865316423 0.011226406028456776 0 0.004144679409740829 0.0091349247285728088 0 0.0076770124236615229 0.010698656278286077 0 0.0049833615826232712 0.010028258622176312 0 0.007284720462023284 0.0076811959985689645 0 0.00057109388196958011 0.010955204050464204 0 0.00052244472880192837 0.011520769373083245 0 0.0013584855560188809 0.011277203098738418 0 0.007284720462023284 0.0076811959985689645 0 0.0091372124556096789 0.0092348986833368334 0 0.010198678317250126 0.007002553294060512 0 0.0076770124236615229 0.010698656278286077 0 0.007284720462023284 0.0076811959985689645 0 0.0091372124556096789 0.0092348986833368334 0 0.009410096180086272 0.010544185767572418 0 0.0076770124236615229 0.010698656278286077 0 0.0091372124556096789 0.0092348986833368334 0 0.0091372124556096789 0.0092348986833368334 0 0.011118069403547105 0.0099098322001717459 0 0.011167244780316688 0.0089713797172075484 0 0.009410096180086272 0.010544185767572418 0 0.0091372124556096789 0.0092348986833368334 0 0.011118069403547105 0.0099098322001717459 0 0.015795884792827581 0.0098970674244622716 0 0.018768854215774837 0.010476083773723579 0 0.027517963095515227 0.012000167684266439 0 0.018768854215774837 0.010476083773723579 0 0.02088187271272134 0.010250824167114023 0 0.02192334503655502 0.010182180351984161 0 0.021528436255697097 0.0091022688381491509 0 0.011118069403547105 0.0099098322001717459 0 0.01144623403297664 0.0087780257389495023 0 0.011167244780316688 0.0089713797172075484 0 0.01144623403297664 0.0087780257389495023 0 0.011167244780316688 0.0089713797172075484 0 0.011771541282488527 0.009124219013203724 0 0.0091372124556096789 0.0092348986833368334 0 0.011167244780316688 0.0089713797172075484 0 0.010198678317250126 0.007002553294060512 0 0.011228881641820999 0.0089099127005810436 0 0.010855386849440716 0.0080143834853209864 0 0.010855386849440716 0.0080143834853209864 0 0.0072544259176768305 0.010137285652258268 0 0.011771541282488527 0.009124219013203724 0 0.011701372227198697 0.0096113362234930364 0 0.012004326497720746 0.0095881793690124253 0 0.018768854215774837 0.010476083773723579 0 0.010263899680244012 0.0086242180430476031 0 0.022212962728176966 0.012429197646344483 0 0.018768854215774837 0.010476083773723579 0 0.011761989912799916 0.0096863411038526793 0 0.011805482112947645 0.0097145386594922421 0 0.011701372227198697 0.0096113362234930364 0 0.01144623403297664 0.0087780257389495023 0 0.011771541282488527 0.009124219013203724 0 0.011701372227198697 0.0096113362234930364 0 0.011761989912799916 0.0096863411038526793 0 0.011701372227198697 0.0096113362234930364 0 0.011771751964667678 0.0098771357685147089 0 0.011839515854288255 0.0098807412304168143 0 0.011701372227198697 0.0096113362234930364 0 0.011771751964667678 0.0098771357685147089 0 0.0063553245528092306 0.014368183776374317 0 0.0056866104611710388 0.014287616997525452 0 0.0053983899134435204 0.015504756865482099 0 0.011839515854288255 0.0098807412304168143 0 0.011701372227198697 0.0096113362234930364 0 0.012004326497720746 0.0095881793690124253 0 0.0090600276962247098 0.012487451961799682 0 0.0072544259176768305 0.010137285652258268 0 -0.0012055989848120631 0.014281136451786882 0 0.0072544259176768305 0.010137285652258268 0 0.0015804397094325831 0.0097467113624274716 0 0.0014583608261515336 0.010221417588751605 0 0.0019902090157421556 0.010446837886583975 0 0.0056866104611710388 0.014287616997525452 0 0.004983720374286715 0.014539134756449391 0 0.0053983899134435204 0.015504756865482099 0 0.0046649981729805709 0.014224611273030832 0 0.004983720374286715 0.014539134756449391 0 0.0053983899134435204 0.015504756865482099 0 0.0015804397094325831 0.0097467113624274716 0 0.0014583608261515336 0.010221417588751605 0 0.0010919417435244173 0.010030224993022334 0 -0.0012055989848120631 0.014281136451786882 0 -0.0023414189773099123 0.011813469708564905 0 -0.0058233330084772484 0.013833287945234729 0 -0.0056272433383020371 0.013473070479432086 0 -0.0061758475533131357 0.013563515173758397 0 -0.0033941178432190461 0.012246908455865402 0 -0.0023414189773099123 0.011813469708564905 0 0.0005819167655601458 0.010319372518818277 0 0.0010919417435244173 0.010030224993022334 0 0.00099695619180983799 0.010364340820229384 0 -0.0056272433383020371 0.013473070479432086 0 -0.005473655186901653 0.013263952836636953 0 -0.0061758475533131357 0.013563515173758397 0 0.0014583608261515336 0.010221417588751605 0 0.00099695619180983799 0.010364340820229384 0 0.0011701979982444875 0.010650158175550314 0 0.0014583608261515336 0.010221417588751605 0 0.0010919417435244173 0.010030224993022334 0 0.00099695619180983799 0.010364340820229384 0 0.00057109388196958011 0.010955204050464204 0 0.0013584855560188809 0.011277203098738418 0 0.0011701979982444875 0.010650158175550314 0 0.00099695619180983799 0.010364340820229384 0 0.0011701979982444875 0.010650158175550314 0 0.00080695047921672551 0.01059031873514224 0 0.0005819167655601458 0.010319372518818277 0 0.00099695619180983799 0.010364340820229384 0 0.00080695047921672551 0.01059031873514224 0 0.00057109388196958011 0.010955204050464204 0 0.0011701979982444875 0.010650158175550314 0 0.00080695047921672551 0.01059031873514224 0 0.007284720462023284 0.0076811959985689645 0 0.010198678317250126 0.007002553294060512 0 0.0093123721465526877 0.0053100686829754724 0 0.0014583608261515336 0.010221417588751605 0 0.0011701979982444875 0.010650158175550314 0 0.0019902090157421556 0.010446837886583975 0 0.004144679409740829 0.0091349247285728088 0 0.0072544259176768305 0.010137285652258268 0 0.0013584855560188809 0.011277203098738418 0 0.0011701979982444875 0.010650158175550314 0 0.0019902090157421556 0.010446837886583975 0 0.034049775372247369 0.0088101756771297203 0 0.034610752237869948 0.0087607057303961035 0 0.034535436809605663 0.0082370606193320067 0 0.036000385809488625 0.00744134379209699 0 0.034999995690588051 0.0068976090019846744 0 0.0349999860232365 0.008154169715700774 0 0.036000385809488625 0.00744134379209699 0 0.034999995690588051 0.0068976090019846744 0 0.035977090763704048 0.0056794447298658107 0 0.036000385809488625 0.00744134379209699 0 0.0349999860232365 0.008154169715700774 0 0.036009228875655407 0.0092585557775920115 0 0.035023007365517195 0.0082544825164100836 0 0.035138953584835576 0.0094164099997575603 0 0.034049775372247369 0.0088101756771297203 0 0.034358952863853577 0.0091835873845134766 0 0.034057134862604817 0.0095463136273986407 0 0.034049775372247369 0.0088101756771297203 0 0.034358952863853577 0.0091835873845134766 0 0.034610752237869948 0.0087607057303961035 0 0.034358952863853577 0.0091835873845134766 0 0.035041045639562458 0.0090353017636906046 0 0.034610752237869948 0.0087607057303961035 0 0.034358952863853577 0.0091835873845134766 0 0.035041045639562458 0.0090353017636906046 0 0.034757963308712538 0.0094571593415123719 0 0.035041045639562458 0.0090353017636906046 0 0.03553226707487938 0.0093882401069928147 0 0.034757963308712538 0.0094571593415123719 0 0.035041045639562458 0.0090353017636906046 0 0.03502888630916904 0.0085169192252030866 0 0.035580639702491736 0.0086515090168535463 0 0.035041045639562458 0.0090353017636906046 0 0.03502888630916904 0.0085169192252030866 0 0.034610752237869948 0.0087607057303961035 0 0.03502888630916904 0.0085169192252030866 0 0.034610752237869948 0.0087607057303961035 0 0.034535436809605663 0.0082370606193320067 0 0.03502888630916904 0.0085169192252030866 0 0.034535436809605663 0.0082370606193320067 0 0.034967357676423554 0.0080963446449161345 0 0.03502888630916904 0.0085169192252030866 0 0.035326666126873463 0.008220483104105742 0 0.035580639702491736 0.0086515090168535463 0 0.03502888630916904 0.0085169192252030866 0 0.034967357676423554 0.0080963446449161345 0 0.035326666126873463 0.008220483104105742 0 0.034967357676423554 0.0080963446449161345 0 0.035176507946428563 0.0077426038997821479 0 0.034758128435782951 0.007719208378413802 0 0.034967357676423554 0.0080963446449161345 0 0.035326666126873463 0.008220483104105742 0 0.035176507946428563 0.0077426038997821479 0 0.035196249377776191 -0.0020843650671013582 0 0.034765978997791179 0.0012139293124227854 0 0.034851265949249179 -0.0051134612650771344 0 0.034451379509008735 -0.0051280070079530136 0 0.034725579958701777 -0.0052857740820005774 0 0.034535436809605663 0.0082370606193320067 0 0.034758128435782951 0.007719208378413802 0 0.034320798342064265 0.0077111765086502358 0 0.034765978997791179 0.0012139293124227854 0 0.034518056938035259 0.00094503684362343371 0 0.035196249377776191 -0.0020843650671013582 0 0.034556326137212878 -0.0057261512910413712 0 0.035294885776947296 -0.0050569888236898265 0 0.034851265949249179 -0.0051134612650771344 0 0.034725579958701777 -0.0052857740820005774 0 0.034535436809605663 0.0082370606193320067 0 0.034967357676423554 0.0080963446449161345 0 0.034758128435782951 0.007719208378413802 0 0.034518056938035259 0.00094503684362343371 0 0.035198547846657192 0.0031190766883839767 0 0.034518056938035259 0.00094503684362343371 0 0.034921097703117139 0.0062498612620027309 0 0.035789306279144617 0.0027473908208437946 0 0.034290076098556693 0.0046417671803447042 0 0.034288928172049822 0.0028143201339130733 0 0.034535436809605663 0.0082370606193320067 0 0.034320798342064265 0.0077111765086502358 0 0.034047749622830997 0.0080580162138424883 0 0.034049775372247369 0.0088101756771297203 0 0.034535436809605663 0.0082370606193320067 0 0.034047749622830997 0.0080580162138424883 0 0.035001291506579088 0.0068961681733502736 0 0.034921097703117139 0.0062498612620027309 0 0.035023007365517195 0.0082544825164100836 0 0.034921097703117139 0.0062498612620027309 0 0.034999998069595806 0.0068975089911907997 0 0.035509148107830853 0.0054460861185433957 0 0.034999977509375994 0.0048448843834372835 0 0.034999998069595806 0.0068975089911907997 0 0.036010064635457736 0.0056173094458519396 0 0.035509148107830853 0.0054460861185433957 0 0.035509148107830853 0.0054460861185433957 0 0.03600740676607183 0.0048035973426999402 0 0.034999977509375994 0.0048448843834372835 0 0.034921097703117139 0.0062498612620027309 0 0.035198547846657192 0.0031190766883839767 0 0.036010064635457736 0.0056173094458519396 0 0.035509148107830853 0.0054460861185433957 0 0.03600740676607183 0.0048035973426999402 0 0.036012999925352028 0.0047876665045876021 0 0.034999991902806768 0.0048448365298316655 0 0.035478639897429082 0.0040810305084153595 0 0.035198547846657192 0.0031190766883839767 0 0.035000797273135306 0.0048445006626077307 0 0.035198547846657192 0.0031190766883839767 0 0.035400740312004977 0.0010817930369283715 0 0.036012999925352028 0.0047876665045876021 0 0.035478639897429082 0.0040810305084153595 0 0.036017856179558758 0.0031796832656248203 0 0.034999991902806768 0.0048448365298316655 0 0.035478639897429082 0.0040810305084153595 0 0.034999996387073927 0.003329270495563366 0 0.035478639897429082 0.0040810305084153595 0 0.034999996387073927 0.003329270495563366 0 0.036017856179558758 0.0031796832656248203 0 0.035230427400917426 0.00042063302008565971 0 0.034829009024995021 -0.00054594030156924318 0 0.035956042369740697 -0.00053162297792625878 0 0.035230427400917426 0.00042063302008565971 0 0.034821475246003403 0.00044699950620689087 0 0.034829009024995021 -0.00054594030156924318 0 0.034829009024995021 -0.00054594030156924318 0 0.034842502444979023 -0.0014999700561723658 0 0.03533800374115767 -0.0012337267487167903 0 0.034829009024995021 -0.00054594030156924318 0 0.035956042369740697 -0.00053162297792625878 0 0.035727606751074482 -0.0010896841029031678 0 0.034829009024995021 -0.00054594030156924318 0 0.03533800374115767 -0.0012337267487167903 0 0.035727606751074482 -0.0010896841029031678 0 0.034999996387073927 0.003329270495563366 0 0.035483132047331244 0.0025000561238411791 0 0.034999996515026111 0.0018136822028848967 0 0.035400740312004977 0.0010817930369283715 0 0.035920269016935652 0.00071018126354450062 0 0.036017856179558758 0.0031796832656248203 0 0.035483132047331244 0.0025000561238411791 0 0.036020699724770656 0.0015687903247969526 0 0.034999996387073927 0.003329270495563366 0 0.036017856179558758 0.0031796832656248203 0 0.035483132047331244 0.0025000561238411791 0 0.035483132047331244 0.0025000561238411791 0 0.034999996515026111 0.0018136822028848967 0 0.036020699724770656 0.0015687903247969526 0 0.035000236304863618 0.0018134834967281554 0 0.035920269016935652 0.00071018126354450062 0 0.034999975741127565 0.0018136174185031022 0 0.036012759784524853 0.0015531172657413923 0 0.036003346374366606 0.00077308864935505281 0 0.035920269016935652 0.00071018126354450062 0 0.035976641256105439 0.0010625245513291759 0 0.034842502444979023 -0.0014999700561723658 0 0.03533800374115767 -0.0012337267487167903 0 0.035662929324057097 -0.0017047094143692227 0 0.035920269016935652 0.00071018126354450062 0 0.035759421139806583 -0.0012990660385922561 0 0.036002822018316602 0.0014581918214973222 0 0.036003346374366606 0.00077308864935505281 0 0.037277484483001722 0.0011574164343415667 0 0.035858927220625295 -0.0017917372578233784 0 0.035759421139806583 -0.0012990660385922561 0 0.036185611099395942 -0.0002768817589718233 0 0.036003346374366606 0.00077308864935505281 0 0.037277484483001722 0.0011574164343415667 0 0.035244978611992349 -0.0035623082410470189 0 0.035488987312309539 -0.0033209843567969604 0 0.035328544739310977 -0.0038266134839372171 0 0.034999992735899529 -1.8976197914915931e-06 0 0.036185611099395942 -0.0002768817589718233 0 0.036003346374366606 0.00077308864935505281 0 0.034999992735899529 -1.8976197914915931e-06 0 0.034999975741127565 0.0018136174185031022 0 0.036003346374366606 0.00077308864935505281 0 0.036405709933954741 -0.0019004776732361333 0 0.03656488208690864 -0.0016478315375457911 0 0.037121124089818144 -0.00208319574769176 0 0.035191104239015704 -0.0039458455739790153 0 0.035244978611992349 -0.0035623082410470189 0 0.035197187696246218 -0.0038862340600153951 0 0.035821041705267717 -0.0029500864216996697 0 0.035971322959745942 -0.0031241277950830632 0 0.035244978611992349 -0.0035623082410470189 0 0.035197187696246218 -0.0038862340600153951 0 0.035328544739310977 -0.0038266134839372171 0 0.035821041705267717 -0.0029500864216996697 0 0.035759421139806583 -0.0012990660385922561 0 0.036405709933954741 -0.0019004776732361333 0 0.03614395994397708 -0.0015306142118899134 0 0.035661530718797796 -0.0017156782126105375 0 0.03614395994397708 -0.0015306142118899134 0 0.035661530718797796 -0.0017156782126105375 0 0.035866055417061525 -0.001455857240806871 0 0.035759421139806583 -0.0012990660385922561 0 0.035726396589676239 -0.0014724836165645636 0 0.03533800374115767 -0.0012337267487167903 0 0.035662929324057097 -0.0017047094143692227 0 0.035866055417061525 -0.001455857240806871 0 0.03533800374115767 -0.0012337267487167903 0 0.035866055417061525 -0.001455857240806871 0 0.035727606751074482 -0.0010896841029031678 0 0.03614395994397708 -0.0015306142118899134 0 0.036209162291282661 -0.0012288965688385333 0 0.035727606751074482 -0.0010896841029031678 0 0.03614395994397708 -0.0015306142118899134 0 0.035866055417061525 -0.001455857240806871 0 0.035727606751074482 -0.0010896841029031678 0 0.03614395994397708 -0.0015306142118899134 0 0.036209162291282661 -0.0012288965688385333 0 0.03656488208690864 -0.0016478315375457911 0 0.036405709933954741 -0.0019004776732361333 0 0.03614395994397708 -0.0015306142118899134 0 0.03656488208690864 -0.0016478315375457911 0 0.03656488208690864 -0.0016478315375457911 0 0.036643254785795228 -0.0014503678652527687 0 0.037121124089818144 -0.00208319574769176 0 0.036209162291282661 -0.0012288965688385333 0 0.03656488208690864 -0.0016478315375457911 0 0.036643254785795228 -0.0014503678652527687 0 0.035071831560189747 -0.0058021372923220795 0 0.035076083427022856 -0.0056371993686824846 0 0.034861288559094608 -0.0056292559344334348 0 0.03556931656112617 -0.0037349450333342233 0 0.035639183185481114 -0.0036759420673361165 0 0.036209162291282661 -0.0012288965688385333 0 0.036643254785795228 -0.0014503678652527687 0 0.035956042369740697 -0.00053162297792625878 0 0.036209162291282661 -0.0012288965688385333 0 0.035956042369740697 -0.00053162297792625878 0 0.035727606751074482 -0.0010896841029031678 0 0.034861288559094608 -0.0056292559344334348 0 0.034725579958701777 -0.0052857740820005774 0 0.034982327789811578 -0.0055058872780942934 0 0.034518056938035259 0.00094503684362343371 0 0.035639183185481114 -0.0036759420673361165 0 0.034451379509008735 -0.0051280070079530136 0 0.034861288559094608 -0.0056292559344334348 0 0.034725579958701777 -0.0052857740820005774 0 0.035047837827945183 -0.0054021980831507272 0 0.034725579958701777 -0.0052857740820005774 0 0.034982327789811578 -0.0055058872780942934 0 0.035076083427022856 -0.0056371993686824846 0 0.034861288559094608 -0.0056292559344334348 0 0.034982327789811578 -0.0055058872780942934 0 0.035076083427022856 -0.0056371993686824846 0 0.034982327789811578 -0.0055058872780942934 0 0.035097662790911067 -0.0055343578444862675 0 0.035047837827945183 -0.0054021980831507272 0 0.034982327789811578 -0.0055058872780942934 0 0.035097662790911067 -0.0055343578444862675 0 0.035097662790911067 -0.0055343578444862675 0 0.035176447609466213 -0.0056151559381938491 0 0.035158818019720345 -0.0055076757890513304 0 0.035176447609466213 -0.0056151559381938491 0 0.035227584435476259 -0.0056259558464498895 0 0.035158818019720345 -0.0055076757890513304 0 0.035076083427022856 -0.0056371993686824846 0 0.035097662790911067 -0.0055343578444862675 0 0.035176447609466213 -0.0056151559381938491 0 0.035227584435476259 -0.0056259558464498895 0 0.035235712323834628 -0.0056891958114105344 0 0.03526698354299429 -0.0056916010194760381 0 0.035176447609466213 -0.0056151559381938491 0 0.035227584435476259 -0.0056259558464498895 0 0.035235712323834628 -0.0056891958114105344 0 0.035176447609466213 -0.0056151559381938491 0 0.035235712323834628 -0.0056891958114105344 0 0.035193565722853454 -0.0057137817250190563 0 0.035235712323834628 -0.0056891958114105344 0 0.035193565722853454 -0.0057137817250190563 0 0.035264169213364553 -0.0057566887837101743 0 0.035193565722853454 -0.0057137817250190563 0 0.035240614413638731 -0.0057834084626182392 0 0.035264169213364553 -0.0057566887837101743 0 0.035071831560189747 -0.0058021372923220795 0 0.035076083427022856 -0.0056371993686824846 0 0.035193565722853454 -0.0057137817250190563 0 0.035076083427022856 -0.0056371993686824846 0 0.035176447609466213 -0.0056151559381938491 0 0.035193565722853454 -0.0057137817250190563 0 0.035071831560189747 -0.0058021372923220795 0 0.035193565722853454 -0.0057137817250190563 0 0.035240614413638731 -0.0057834084626182392 0 0.03556931656112617 -0.0037349450333342233 0 0.035062548451843416 -0.005338025071692184 0 0.035383210044440491 -0.0044489019643630719 0 0.035039862824033999 -0.0044936575102442981 0 0.035214281469887976 -0.0042454986527972003 0 0.03556931656112617 -0.0037349450333342233 0 0.035971322959745942 -0.0031241277950830632 0 0.035077937316768379 -0.0043592884482788283 0 0.035054994194908123 -0.0043270290737457513 0 0.035024038939488016 -0.004548008337384439 0 0.035039862824033999 -0.0044936575102442981 0 0.035077937316768379 -0.0043592884482788283 0 0.035174232316167668 -0.0042319186872846739 0 0.035077937316768379 -0.0043592884482788283 0 0.035054994194908123 -0.0043270290737457513 0 0.035171809960417529 -0.0041650209327930635 0 0.035039862824033999 -0.0044936575102442981 0 0.035077937316768379 -0.0043592884482788283 0 0.035024038939488016 -0.004548008337384439 0 0.035039862824033999 -0.0044936575102442981 0 0.035174232316167668 -0.0042319186872846739 0 0.035214281469887976 -0.0042454986527972003 0 0.035191104239015704 -0.0039458455739790153 0 0.035054994194908123 -0.0043270290737457513 0 0.035171809960417529 -0.0041650209327930635 0 0.035191104239015704 -0.0039458455739790153 0 0.035197187696246218 -0.0038862340600153951 0 0.035166373633549859 -0.0041198943229646288 0 0.035191104239015704 -0.0039458455739790153 0 0.035171809960417529 -0.0041650209327930635 0 0.035166373633549859 -0.0041198943229646288 0 0.035077937316768379 -0.0043592884482788283 0 0.035171809960417529 -0.0041650209327930635 0 0.035174232316167668 -0.0042319186872846739 0 0.035844746314682964 -0.0031744488025128382 0 0.035971322959745942 -0.0031241277950830632 0 0.035171809960417529 -0.0041650209327930635 0 0.035174232316167668 -0.0042319186872846739 0 0.035251637051981533 -0.004245703244722827 0 0.0359500479850118 -0.0032451392235097521 0 0.035971322959745942 -0.0031241277950830632 0 0.0350135703123979 -0.004706363846772599 0 0.035024038939488016 -0.004548008337384439 0 0.035022994170585076 -0.0047316854507336503 0 0.0350135703123979 -0.004706363846772599 0 0.035022994170585076 -0.0047316854507336503 0 0.035126825601492911 -0.0051015769604527469 0 0.035054994194908123 -0.0043270290737457513 0 0.0350135703123979 -0.004706363846772599 0 0.035024038939488016 -0.004548008337384439 0 0.035314399612895904 -0.0045145796167290805 0 0.035296850885120926 -0.0049120065022468873 0 0.035039862824033999 -0.0044936575102442981 0 0.035024038939488016 -0.004548008337384439 0 0.035022994170585076 -0.0047316854507336503 0 0.035240614413638731 -0.0057834084626182392 0 0.035271034318207987 -0.0057749010868237624 0 0.035264169213364553 -0.0057566887837101743 0 0.035062548451843416 -0.005338025071692184 0 0.035148209347568689 -0.0052333565055068835 0 0.035271034318207987 -0.0057749010868237624 0 0.035267271521303385 -0.0057835897506272275 0 0.03523296596737014 -0.0058090257051355192 0 0.035267271521303385 -0.0057835897506272275 0 0.035275846881862104 -0.0057545470948117535 0 0.035250906593400383 -0.0058212860067163984 0 0.035271034318207987 -0.0057749010868237624 0 0.035267271521303385 -0.0057835897506272275 0 0.035264169213364553 -0.0057566887837101743 0 0.035235712323834628 -0.0056891958114105344 0 0.035264169213364553 -0.0057566887837101743 0 0.035275846881862104 -0.0057545470948117535 0 0.035267271521303385 -0.0057835897506272275 0 0.035264169213364553 -0.0057566887837101743 0 0.035275846881862104 -0.0057545470948117535 0 0.035235712323834628 -0.0056891958114105344 0 0.035275846881862104 -0.0057545470948117535 0 0.03526698354299429 -0.0056916010194760381 0 0.035275846881862104 -0.0057545470948117535 0 0.03526698354299429 -0.0056916010194760381 0 0.035278448837036895 -0.0057857111997000549 0 0.035275846881862104 -0.0057545470948117535 0 0.035278448837036895 -0.0057857111997000549 0 0.035250906593400383 -0.0058212860067163984 0 0.035278448837036895 -0.0057857111997000549 0 0.035289800890580141 -0.0057369976861699982 0 0.035261266287060791 -0.005926112008014392 0 0.03619139924193096 0.0082053467301592565 0 0.036238224450126595 0.0086448951285039675 0 0.036519776856576695 0.008302820998982172 0 0.035696143484402067 0.0011227205986074154 0 0.035907680124228437 0.0015643040620969611 0 0.03619139924193096 0.0082053467301592565 0 0.035769677141138816 0.0079999139787308386 0 0.035953165730394719 0.008499524282010236 0 0.03619139924193096 0.0082053467301592565 0 0.036238224450126595 0.0086448951285039675 0 0.035953165730394719 0.008499524282010236 0 0.035696143484402067 0.0011227205986074154 0 0.03553962258846205 0.0016397672544545844 0 0.03526698354299429 -0.0056916010194760381 0 0.035289800890580141 -0.0057369976861699982 0 0.035229436037197574 -0.0055694682450486022 0 0.03526698354299429 -0.0056916010194760381 0 0.035278448837036895 -0.0057857111997000549 0 0.035289800890580141 -0.0057369976861699982 0 0.035227584435476259 -0.0056259558464498895 0 0.03526698354299429 -0.0056916010194760381 0 0.035229436037197574 -0.0055694682450486022 0 0.035227584435476259 -0.0056259558464498895 0 0.035229436037197574 -0.0055694682450486022 0 0.035158818019720345 -0.0055076757890513304 0 0.035326666126873463 0.008220483104105742 0 0.035176507946428563 0.0077426038997821479 0 0.035769677141138816 0.0079999139787308386 0 0.035196249377776191 -0.0020843650671013582 0 0.03553962258846205 0.0016397672544545844 0 0.035100171280492212 -0.0054291228819947452 0 0.035229436037197574 -0.0055694682450486022 0 0.035158818019720345 -0.0055076757890513304 0 0.035047837827945183 -0.0054021980831507272 0 0.035097662790911067 -0.0055343578444862675 0 0.035158818019720345 -0.0055076757890513304 0 0.035196249377776191 -0.0020843650671013582 0 0.035173695865027638 -0.0047055856158331414 0 0.035326666126873463 0.008220483104105742 0 0.035769677141138816 0.0079999139787308386 0 0.035580639702491736 0.0086515090168535463 0 0.035769677141138816 0.0079999139787308386 0 0.035580639702491736 0.0086515090168535463 0 0.035953165730394719 0.008499524282010236 0 0.035580639702491736 0.0086515090168535463 0 0.035897812903336046 0.0090013622228899241 0 0.035953165730394719 0.008499524282010236 0 0.035580639702491736 0.0086515090168535463 0 0.03553226707487938 0.0093882401069928147 0 0.035897812903336046 0.0090013622228899241 0 0.035041045639562458 0.0090353017636906046 0 0.035580639702491736 0.0086515090168535463 0 0.03553226707487938 0.0093882401069928147 0 0.035897812903336046 0.0090013622228899241 0 0.036238224450126595 0.0086448951285039675 0 0.036089266909856393 0.0091186158711559495 0 0.036238224450126595 0.0086448951285039675 0 0.036316118410561933 0.0090495760685736261 0 0.036089266909856393 0.0091186158711559495 0 0.036238224450126595 0.0086448951285039675 0 0.036428830671086397 0.0087227133357573126 0 0.036316118410561933 0.0090495760685736261 0 0.035897812903336046 0.0090013622228899241 0 0.036238224450126595 0.0086448951285039675 0 0.035953165730394719 0.008499524282010236 0 0.036621282032857305 0.0086714190302937463 0 0.036826676835582182 0.008328407761236287 0 0.036519776856576695 0.008302820998982172 0 0.036428830671086397 0.0087227133357573126 0 0.036621282032857305 0.0086714190302937463 0 0.036519776856576695 0.008302820998982172 0 0.036238224450126595 0.0086448951285039675 0 0.036428830671086397 0.0087227133357573126 0 0.036519776856576695 0.008302820998982172 0 0.036486460648989465 0.008861692401192502 0 0.036428830671086397 0.0087227133357573126 0 0.036621282032857305 0.0086714190302937463 0 0.036486460648989465 0.008861692401192502 0 0.036621282032857305 0.0086714190302937463 0 0.036552033192581809 0.0090031904105370743 0 0.036486460648989465 0.008861692401192502 0 0.036428830671086397 0.0087227133357573126 0 0.036316118410561933 0.0090495760685736261 0 0.036621282032857305 0.0086714190302937463 0 0.03674040612652979 0.0087431552121373223 0 0.036552033192581809 0.0090031904105370743 0 0.03674040612652979 0.0087431552121373223 0 0.036902856290680346 0.008812493867419658 0 0.036730902286564754 0.0089012079270590853 0 0.03674040612652979 0.0087431552121373223 0 0.036873885026244606 0.0085860377841521542 0 0.036902856290680346 0.008812493867419658 0 0.035796435074179567 0.0012112199881120346 0 0.032561836376489642 0.0039761187561577387 0 0.036621282032857305 0.0086714190302937463 0 0.03674040612652979 0.0087431552121373223 0 0.036873885026244606 0.0085860377841521542 0 0.034432831211004322 -0.0064670769805730286 0 0.034344194042247159 -0.0065729922871854548 0 0.034473598382370713 -0.0064498775632427976 0 0.034432831211004322 -0.0064670769805730286 0 0.034531374696440048 -0.0063963299173029646 0 0.034473598382370713 -0.0064498775632427976 0 0.03352980345397074 -0.002283264346335898 0 0.032561836376489642 0.0039761187561577387 0 0.034401637227991819 -0.0063927538147593235 0 0.034531374696440048 -0.0063963299173029646 0 0.034591736699691643 -0.0062449008900322114 0 0.034432831211004322 -0.0064670769805730286 0 0.034401637227991819 -0.0063927538147593235 0 0.034531374696440048 -0.0063963299173029646 0 0.035796435074179567 0.0012112199881120346 0 0.036157699616884614 -0.0018074196592839798 0 0.036621282032857305 0.0086714190302937463 0 0.036873885026244606 0.0085860377841521542 0 0.036826676835582182 0.008328407761236287 0 0.035140089309344147 -0.0061473018021634069 0 0.035135006779490947 -0.0062075357862560075 0 0.035085524619335111 -0.0061233853376028973 0 0.035771940210185517 -0.0032718269061067016 0 0.036157699616884614 -0.0018074196592839798 0 0.035085524619335111 -0.0061233853376028973 0 0.034958167415444795 -0.0061891510640118795 0 0.035052567259395317 -0.0060554372588854117 0 0.035135006779490947 -0.0062075357862560075 0 0.035085524619335111 -0.0061233853376028973 0 0.034958167415444795 -0.0061891510640118795 0 0.035140089309344147 -0.0061473018021634069 0 0.035085524619335111 -0.0061233853376028973 0 0.035131174296248381 -0.0060506940236497303 0 0.035140089309344147 -0.0061473018021634069 0 0.035131174296248381 -0.0060506940236497303 0 0.035194225250887605 -0.0059885348251476483 0 0.034786806586637423 -0.0064718076590363788 0 0.035135006779490947 -0.0062075357862560075 0 0.034958167415444795 -0.0061891510640118795 0 0.034786806586637423 -0.0064718076590363788 0 0.034958167415444795 -0.0061891510640118795 0 0.034709930216521592 -0.006231344635111595 0 0.03419013010141575 -0.006967770639692502 0 0.036157699616884614 -0.0018074196592839798 0 0.034958167415444795 -0.0061891510640118795 0 0.034886809730018391 -0.0060806359386543921 0 0.034709930216521592 -0.006231344635111595 0 0.034958167415444795 -0.0061891510640118795 0 0.034886809730018391 -0.0060806359386543921 0 0.035052567259395317 -0.0060554372588854117 0 0.034886809730018391 -0.0060806359386543921 0 0.035052567259395317 -0.0060554372588854117 0 0.035024393160950199 -0.0059712702688942037 0 0.034886809730018391 -0.0060806359386543921 0 0.035024393160950199 -0.0059712702688942037 0 0.034848961411115341 -0.0059736598400821298 0 0.035052567259395317 -0.0060554372588854117 0 0.035151372439360389 -0.0059561775281687821 0 0.035024393160950199 -0.0059712702688942037 0 0.035131174296248381 -0.0060506940236497303 0 0.035052567259395317 -0.0060554372588854117 0 0.035151372439360389 -0.0059561775281687821 0 0.035085524619335111 -0.0061233853376028973 0 0.035131174296248381 -0.0060506940236497303 0 0.035052567259395317 -0.0060554372588854117 0 0.035194225250887605 -0.0059885348251476483 0 0.035261266287060791 -0.005926112008014392 0 0.035235541022620595 -0.0058888113478092162 0 0.035151372439360389 -0.0059561775281687821 0 0.035194225250887605 -0.0059885348251476483 0 0.035235541022620595 -0.0058888113478092162 0 0.035131174296248381 -0.0060506940236497303 0 0.035151372439360389 -0.0059561775281687821 0 0.035194225250887605 -0.0059885348251476483 0 0.035140089309344147 -0.0061473018021634069 0 0.035137613342213582 -0.0061659160452166278 0 0.035261266287060791 -0.005926112008014392 0 0.035140089309344147 -0.0061473018021634069 0 0.035194225250887605 -0.0059885348251476483 0 0.035261266287060791 -0.005926112008014392 0 0.036157699616884614 -0.0018074196592839798 0 0.035907680124228437 0.0015643040620969611 0 0.035278448837036895 -0.0057857111997000549 0 0.035261266287060791 -0.005926112008014392 0 0.035235541022620595 -0.0058888113478092162 0 0.035235541022620595 -0.0058888113478092162 0 0.035250906593400383 -0.0058212860067163984 0 0.03519880288367401 -0.0058815064211118779 0 0.035278448837036895 -0.0057857111997000549 0 0.035235541022620595 -0.0058888113478092162 0 0.035250906593400383 -0.0058212860067163984 0 0.035250906593400383 -0.0058212860067163984 0 0.03519880288367401 -0.0058815064211118779 0 0.035185477676108946 -0.0058525543855998527 0 0.035151372439360389 -0.0059561775281687821 0 0.035235541022620595 -0.0058888113478092162 0 0.03519880288367401 -0.0058815064211118779 0 0.035151372439360389 -0.0059561775281687821 0 0.03519880288367401 -0.0058815064211118779 0 0.035117389639078754 -0.0059013049741112643 0 0.035185477676108946 -0.0058525543855998527 0 0.03523296596737014 -0.0058090257051355192 0 0.035184197468953807 -0.005834017097329813 0 0.03519880288367401 -0.0058815064211118779 0 0.035185477676108946 -0.0058525543855998527 0 0.035117389639078754 -0.0059013049741112643 0 0.035185477676108946 -0.0058525543855998527 0 0.035184197468953807 -0.005834017097329813 0 0.035157667680910339 -0.0058543881313696637 0 0.035250906593400383 -0.0058212860067163984 0 0.035185477676108946 -0.0058525543855998527 0 0.03523296596737014 -0.0058090257051355192 0 0.035267271521303385 -0.0057835897506272275 0 0.035250906593400383 -0.0058212860067163984 0 0.03523296596737014 -0.0058090257051355192 0 0.035271034318207987 -0.0057749010868237624 0 0.03523296596737014 -0.0058090257051355192 0 0.035192648398539042 -0.0058052881287718331 0 0.035022994170585076 -0.0047316854507336503 0 0.035158438219319944 -0.0052101694793268332 0 0.035126825601492911 -0.0051015769604527469 0 0.035148209347568689 -0.0052333565055068835 0 0.035147348687357777 -0.0055241727461833121 0 0.03523296596737014 -0.0058090257051355192 0 0.035184197468953807 -0.005834017097329813 0 0.035192648398539042 -0.0058052881287718331 0 0.035184197468953807 -0.005834017097329813 0 0.035192648398539042 -0.0058052881287718331 0 0.035157667680910339 -0.0058543881313696637 0 0.035327967505838061 -0.0053067549297007924 0 0.035236957502458539 -0.0056027641842105562 0 0.035158438219319944 -0.0052101694793268332 0 0.035126825601492911 -0.0051015769604527469 0 0.035208586133558352 -0.0056734837652264421 0 0.035380166521610253 -0.0055754196642237679 0 0.035517809797667811 -0.0055083850821839074 0 0.035208586133558352 -0.0056734837652264421 0 0.03549570866022763 -0.0054466874074199116 0 0.035380166521610253 -0.0055754196642237679 0 0.035517809797667811 -0.0055083850821839074 0 0.035296850885120926 -0.0049120065022468873 0 0.035327967505838061 -0.0053067549297007924 0 0.035545991881053118 -0.0053401491553049137 0 0.035579410725832768 -0.0051164628001838181 0 0.035517809797667811 -0.0055083850821839074 0 0.035545991881053118 -0.0053401491553049137 0 0.03549570866022763 -0.0054466874074199116 0 0.035517809797667811 -0.0055083850821839074 0 0.035188473278023324 -0.0058086206333854001 0 0.035208586133558352 -0.0056734837652264421 0 0.035155919108035373 -0.0058562051178615796 0 0.035188473278023324 -0.0058086206333854001 0 0.035155919108035373 -0.0058562051178615796 0 0.035033429591386452 -0.0059427892509225722 0 0.035114976378609754 -0.0059025608805792296 0 0.035188473278023324 -0.0058086206333854001 0 0.035033429591386452 -0.0059427892509225722 0 0.035279663575541409 -0.005758212516263606 0 0.035114976378609754 -0.0059025608805792296 0 0.035188473278023324 -0.0058086206333854001 0 0.035279663575541409 -0.005758212516263606 0 0.035188473278023324 -0.0058086206333854001 0 0.035294747736781797 -0.0056773037895534043 0 0.035380166521610253 -0.0055754196642237679 0 0.035294747736781797 -0.0056773037895534043 0 0.035208586133558352 -0.0056734837652264421 0 0.035188473278023324 -0.0058086206333854001 0 0.035294747736781797 -0.0056773037895534043 0 0.035208586133558352 -0.0056734837652264421 0 0.035192648398539042 -0.0058052881287718331 0 0.035157667680910339 -0.0058543881313696637 0 0.035155919108035373 -0.0058562051178615796 0 0.035147348687357777 -0.0055241727461833121 0 0.035134342921792849 -0.0057977171298850948 0 0.035158438219319944 -0.0052101694793268332 0 0.035208586133558352 -0.0056734837652264421 0 0.035155919108035373 -0.0058562051178615796 0 0.035157667680910339 -0.0058543881313696637 0 0.035107477474062357 -0.0059017860571067872 0 0.035155919108035373 -0.0058562051178615796 0 0.035107477474062357 -0.0059017860571067872 0 0.035155919108035373 -0.0058562051178615796 0 0.035005733659547761 -0.0059722748063560415 0 0.035155919108035373 -0.0058562051178615796 0 0.035005733659547761 -0.0059722748063560415 0 0.035033429591386452 -0.0059427892509225722 0 0.035107477474062357 -0.0059017860571067872 0 0.035005733659547761 -0.0059722748063560415 0 0.03504308878940196 -0.0059379659193672689 0 0.035157667680910339 -0.0058543881313696637 0 0.035107477474062357 -0.0059017860571067872 0 0.035117389639078754 -0.0059013049741112643 0 0.035185477676108946 -0.0058525543855998527 0 0.035157667680910339 -0.0058543881313696637 0 0.035117389639078754 -0.0059013049741112643 0 0.035107477474062357 -0.0059017860571067872 0 0.03504308878940196 -0.0059379659193672689 0 0.035117389639078754 -0.0059013049741112643 0 0.03504308878940196 -0.0059379659193672689 0 0.035117389639078754 -0.0059013049741112643 0 0.035024393160950199 -0.0059712702688942037 0 0.035151372439360389 -0.0059561775281687821 0 0.035117389639078754 -0.0059013049741112643 0 0.035024393160950199 -0.0059712702688942037 0 0.03504308878940196 -0.0059379659193672689 0 0.035024393160950199 -0.0059712702688942037 0 0.034848961411115341 -0.0059736598400821298 0 0.034848961411115341 -0.0059736598400821298 0 0.034550565853988253 -0.0058434100798849514 0 0.034666042767080241 -0.0060656684826388184 0 0.03504308878940196 -0.0059379659193672689 0 0.034848961411115341 -0.0059736598400821298 0 0.034550565853988253 -0.0058434100798849514 0 0.035003131730071461 -0.0059523881018678521 0 0.034658035159851136 -0.0060719171280353519 0 0.034786733945629526 -0.0062971486094916696 0 0.034561726264960325 -0.0061276426347594377 0 0.034844565060456738 -0.0060825810729920838 0 0.034561726264960325 -0.0061276426347594377 0 0.034844565060456738 -0.0060825810729920838 0 0.034691306014215849 -0.006162872933327331 0 0.035005733659547761 -0.0059722748063560415 0 0.03504308878940196 -0.0059379659193672689 0 0.034844565060456738 -0.0060825810729920838 0 0.03504308878940196 -0.0059379659193672689 0 0.034786733945629526 -0.0062971486094916696 0 0.034844565060456738 -0.0060825810729920838 0 0.035005733659547761 -0.0059722748063560415 0 0.034871188861762839 -0.0060591247265282654 0 0.035033429591386452 -0.0059427892509225722 0 0.035005733659547761 -0.0059722748063560415 0 0.034844565060456738 -0.0060825810729920838 0 0.034871188861762839 -0.0060591247265282654 0 0.034844565060456738 -0.0060825810729920838 0 0.034871188861762839 -0.0060591247265282654 0 0.034691306014215849 -0.006162872933327331 0 0.034871188861762839 -0.0060591247265282654 0 0.034691306014215849 -0.006162872933327331 0 0.034764262699743288 -0.0061482115069202278 0 0.034806938753355395 -0.0061245591938765649 0 0.034764262699743288 -0.0061482115069202278 0 0.034931113179629873 -0.0060328298129159238 0 0.034871188861762839 -0.0060591247265282654 0 0.034764262699743288 -0.0061482115069202278 0 0.034931113179629873 -0.0060328298129159238 0 0.035114976378609754 -0.0059025608805792296 0 0.034931113179629873 -0.0060328298129159238 0 0.035033429591386452 -0.0059427892509225722 0 0.034871188861762839 -0.0060591247265282654 0 0.034931113179629873 -0.0060328298129159238 0 0.035033429591386452 -0.0059427892509225722 0 0.034480741895178219 -0.006339819688447915 0 0.034507543818814261 -0.0063881808778447659 0 0.034641907049759127 -0.0062463323296164828 0 0.034507543818814261 -0.0063881808778447659 0 0.034641907049759127 -0.0062463323296164828 0 0.034631866913165305 -0.0062642731483374837 0 0.034806938753355395 -0.0061245591938765649 0 0.034764262699743288 -0.0061482115069202278 0 0.034641907049759127 -0.0062463323296164828 0 0.034764262699743288 -0.0061482115069202278 0 0.034641907049759127 -0.0062463323296164828 0 0.034631866913165305 -0.0062642731483374837 0 0.034631866913165305 -0.0062642731483374837 0 0.034593305013215829 -0.0062714462140416464 0 0.034569628978848417 -0.0063417456262847968 0 0.034691306014215849 -0.006162872933327331 0 0.034764262699743288 -0.0061482115069202278 0 0.034631866913165305 -0.0062642731483374837 0 0.034691306014215849 -0.006162872933327331 0 0.034631866913165305 -0.0062642731483374837 0 0.034593305013215829 -0.0062714462140416464 0 0.034507543818814261 -0.0063881808778447659 0 0.034569628978848417 -0.0063417456262847968 0 0.034544396820529545 -0.0064128310755546588 0 0.034593305013215829 -0.0062714462140416464 0 0.034569628978848417 -0.0063417456262847968 0 0.034544396820529545 -0.0064128310755546588 0 0.034507543818814261 -0.0063881808778447659 0 0.034631866913165305 -0.0062642731483374837 0 0.034569628978848417 -0.0063417456262847968 0 0.033605444321080417 -0.00601704453225675 0 0.033954113434008164 -0.006159432076965286 0 0.033695910105861523 -0.0061926769403816461 0 0.033605444321080417 -0.00601704453225675 0 0.033763635135924286 -0.0058660262379691781 0 0.033954113434008164 -0.006159432076965286 0 0.034561726264960325 -0.0061276426347594377 0 0.033763635135924286 -0.0058660262379691781 0 0.033954113434008164 -0.006159432076965286 0 0.034561726264960325 -0.0061276426347594377 0 0.034593305013215829 -0.0062714462140416464 0 0.034544396820529545 -0.0064128310755546588 0 0.034521488832993552 -0.0061372971996630013 0 0.034151991783669046 -0.0061515476042050743 0 0.034561726264960325 -0.0061276426347594377 0 0.034691306014215849 -0.006162872933327331 0 0.034593305013215829 -0.0062714462140416464 0 0.034561726264960325 -0.0061276426347594377 0 0.033954113434008164 -0.006159432076965286 0 0.034089221947484226 -0.006468447277180182 0 0.034658035159851136 -0.0060719171280353519 0 0.034038139735793498 -0.0062565296555795197 0 0.034786733945629526 -0.0062971486094916696 0 0.034561726264960325 -0.0061276426347594377 0 0.034089221947484226 -0.006468447277180182 0 0.033954113434008164 -0.006159432076965286 0 0.033695910105861523 -0.0061926769403816461 0 0.034089221947484226 -0.006468447277180182 0 0.033384658327345024 -0.0064332332641769295 0 0.033747857099127622 -0.0066096716381660011 0 0.033976792344063429 -0.0060546460278096959 0 0.03343557968655169 -0.0064255695088131001 0 0.034038139735793498 -0.0062565296555795197 0 0.033384658327345024 -0.0064332332641769295 0 0.033695910105861523 -0.0061926769403816461 0 0.034089221947484226 -0.006468447277180182 0 0.033747857099127622 -0.0066096716381660011 0 0.034144211610301213 -0.0064557247806880493 0 0.033976792344063429 -0.0060546460278096959 0 0.033747857099127622 -0.0066096716381660011 0 0.034144211610301213 -0.0064557247806880493 0 0.03402459540507409 -0.0066788712270109303 0 0.034144211610301213 -0.0064557247806880493 0 0.033976792344063429 -0.0060546460278096959 0 0.034419701780922816 -0.0061949940331064504 0 0.034550565853988253 -0.0058434100798849514 0 0.034419701780922816 -0.0061949940331064504 0 0.034666042767080241 -0.0060656684826388184 0 0.034550565853988253 -0.0058434100798849514 0 0.033976792344063429 -0.0060546460278096959 0 0.034419701780922816 -0.0061949940331064504 0 0.034419701780922816 -0.0061949940331064504 0 0.034666042767080241 -0.0060656684826388184 0 0.034709930216521592 -0.006231344635111595 0 0.034886809730018391 -0.0060806359386543921 0 0.034848961411115341 -0.0059736598400821298 0 0.034666042767080241 -0.0060656684826388184 0 0.034886809730018391 -0.0060806359386543921 0 0.034666042767080241 -0.0060656684826388184 0 0.034709930216521592 -0.006231344635111595 0 0.034786806586637423 -0.0064718076590363788 0 0.034709930216521592 -0.006231344635111595 0 0.034460424692614372 -0.0063878580037767816 0 0.034419701780922816 -0.0061949940331064504 0 0.034709930216521592 -0.006231344635111595 0 0.034460424692614372 -0.0063878580037767816 0 0.034144211610301213 -0.0064557247806880493 0 0.034460424692614372 -0.0063878580037767816 0 0.034287520885399221 -0.0066003646565995725 0 0.034144211610301213 -0.0064557247806880493 0 0.034419701780922816 -0.0061949940331064504 0 0.034460424692614372 -0.0063878580037767816 0 0.034401637227991819 -0.0063927538147593235 0 0.034287520885399221 -0.0066003646565995725 0 0.034344194042247159 -0.0065729922871854548 0 0.03419013010141575 -0.006967770639692502 0 0.034500232145834538 -0.0064393787013871471 0 0.034786806586637423 -0.0064718076590363788 0 0.034460424692614372 -0.0063878580037767816 0 0.034287520885399221 -0.0066003646565995725 0 0.031664412438246567 0.0042252458000747476 0 0.031697523105243514 0.0043599502541068046 0 0.030840813705837571 0.0044564781767221983 0 0.034432831211004322 -0.0064670769805730286 0 0.034401637227991819 -0.0063927538147593235 0 0.034344194042247159 -0.0065729922871854548 0 0.031664412438246567 0.0042252458000747476 0 0.032421578611082649 0.0039481432685835429 0 0.031697523105243514 0.0043599502541068046 0 0.034287520885399221 -0.0066003646565995725 0 0.034344194042247159 -0.0065729922871854548 0 0.034124698062246606 -0.0067630140307642934 0 0.03352980345397074 -0.002283264346335898 0 0.03161508931435212 0.0026305312867479932 0 0.03161508931435212 0.0026305312867479932 0 0.029889174602502983 0.0089124103636475729 0 0.03161508931435212 0.0026305312867479932 0 0.029935778230435132 0.006641079756264533 0 0.029178084552383597 0.012061024377320361 0 0.02958745602730023 0.011776200584963989 0 0.029307350569930529 0.012266835680845427 0 0.02958745602730023 0.011776200584963989 0 0.029534656190548791 0.012385188022517712 0 0.029307350569930529 0.012266835680845427 0 0.030600892160322433 0.0011894979722938226 0 0.031210761169642543 0.00095406422913256895 0 0.031262788352902297 0.00080045755944946719 0 0.03161508931435212 0.0026305312867479932 0 0.032894472878497019 -0.0036507636875532427 0 0.030310624089406921 0.012214123012112395 0 0.02958745602730023 0.011776200584963989 0 0.029534656190548791 0.012385188022517712 0 0.033747857099127622 -0.0066096716381660011 0 0.0337307251475433 -0.0069073000281224921 0 0.03402459540507409 -0.0066788712270109303 0 0.034124698062246606 -0.0067630140307642934 0 0.0337307251475433 -0.0069073000281224921 0 0.03402459540507409 -0.0066788712270109303 0 0.034144211610301213 -0.0064557247806880493 0 0.034287520885399221 -0.0066003646565995725 0 0.03402459540507409 -0.0066788712270109303 0 0.034287520885399221 -0.0066003646565995725 0 0.034124698062246606 -0.0067630140307642934 0 0.03402459540507409 -0.0066788712270109303 0 0.029149838961504762 0.012598680360782226 0 0.029308732421055389 0.012684678357774174 0 0.029236396793143327 0.012432055276136986 0 0.029149838961504762 0.012598680360782226 0 0.029308732421055389 0.012684678357774174 0 0.029254798119312479 0.012817020121536959 0 0.030041200661636236 0.013067629919953196 0 0.028866844708661101 0.01423637578772481 0 0.029745675175713922 0.014143615822142179 0 0.030041200661636236 0.013067629919953196 0 0.028866844708661101 0.01423637578772481 0 0.029534656190548791 0.012385188022517712 0 0.029198014959949663 0.013451668719250909 0 0.029488234763635154 0.012426992590892217 0 0.029178084552383597 0.012061024377320361 0 0.029236396793143327 0.012432055276136986 0 0.029023749718390213 0.012419472701237206 0 0.029178084552383597 0.012061024377320361 0 0.029307350569930529 0.012266835680845427 0 0.029236396793143327 0.012432055276136986 0 0.029534656190548791 0.012385188022517712 0 0.029307350569930529 0.012266835680845427 0 0.029236396793143327 0.012432055276136986 0 0.029308732421055389 0.012684678357774174 0 0.029534656190548791 0.012385188022517712 0 0.029236396793143327 0.012432055276136986 0 0.029149838961504762 0.012598680360782226 0 0.029236396793143327 0.012432055276136986 0 0.029023749718390213 0.012419472701237206 0 0.029178084552383597 0.012061024377320361 0 0.029023749718390213 0.012419472701237206 0 0.028877575686168017 0.012235452810618509 0 0.029023749718390213 0.012419472701237206 0 0.028801033309935515 0.012452250120604467 0 0.028877575686168017 0.012235452810618509 0 0.028801033309935515 0.012452250120604467 0 0.028877575686168017 0.012235452810618509 0 0.028563482731598495 0.012358910358670499 0 0.028649740184919247 0.013726356399330088 0 0.029094768082054304 0.01311829425741582 0 0.029023749718390213 0.012419472701237206 0 0.028801033309935515 0.012452250120604467 0 0.028917979295436626 0.012671502847569061 0 0.028801033309935515 0.012452250120604467 0 0.028917979295436626 0.012671502847569061 0 0.028600666151697665 0.012524349249710721 0 0.029149838961504762 0.012598680360782226 0 0.028917979295436626 0.012671502847569061 0 0.029254798119312479 0.012817020121536959 0 0.029149838961504762 0.012598680360782226 0 0.029023749718390213 0.012419472701237206 0 0.028917979295436626 0.012671502847569061 0 0.028683071881613873 0.014838536400027828 0 0.028976250778556027 0.015261294523483753 0 0.029395922533806813 0.015097552602699658 0 0.028649740184919247 0.013726356399330088 0 0.029280157422821088 0.014418541791135699 0 0.028683071881613873 0.014838536400027828 0 0.028976250778556027 0.015261294523483753 0 0.028673228835449188 0.015468683727533539 0 0.028683071881613873 0.014838536400027828 0 0.02815314648054032 0.015244888319900101 0 0.027976669255724496 0.014570634340845257 0 0.028683071881613873 0.014838536400027828 0 0.028673228835449188 0.015468683727533539 0 0.02815314648054032 0.015244888319900101 0 0.028673228835449188 0.015468683727533539 0 0.028688027352662782 0.01598839715413071 0 0.028355273163555128 0.015903337745823264 0 0.028673228835449188 0.015468683727533539 0 0.028355273163555128 0.015903337745823264 0 0.02815314648054032 0.015244888319900101 0 0.028382059424850236 0.015532358469824236 0 0.028075856861671619 0.015335480069787966 0 0.028673228835449188 0.015468683727533539 0 0.029159437259449673 0.015640526744413095 0 0.028688027352662782 0.01598839715413071 0 0.028976250778556027 0.015261294523483753 0 0.028673228835449188 0.015468683727533539 0 0.029159437259449673 0.015640526744413095 0 0.028910931428602894 0.015676953436391364 0 0.029280157422821088 0.014418541791135699 0 0.028722360354802568 0.01557866530961006 0 0.028780025092805018 0.014740519862153498 0 0.029260777430413911 0.015232069730749385 0 0.028722360354802568 0.01557866530961006 0 0.029260777430413911 0.015232069730749385 0 0.02901439169055962 0.015983389760254419 0 0.028976250778556027 0.015261294523483753 0 0.029159437259449673 0.015640526744413095 0 0.029395922533806813 0.015097552602699658 0 0.028866844708661101 0.01423637578772481 0 0.028780025092805018 0.014740519862153498 0 0.029260777430413911 0.015232069730749385 0 0.029198014959949663 0.013451668719250909 0 0.029280157422821088 0.014418541791135699 0 0.030123010431444629 0.01495392410850028 0 0.029745675175713922 0.014143615822142179 0 0.029260777430413911 0.015232069730749385 0 0.028866844708661101 0.01423637578772481 0 0.029745675175713922 0.014143615822142179 0 0.029260777430413911 0.015232069730749385 0 0.029260777430413911 0.015232069730749385 0 0.029647992696320999 0.015760184553859278 0 0.02901439169055962 0.015983389760254419 0 0.030123010431444629 0.01495392410850028 0 0.029260777430413911 0.015232069730749385 0 0.029647992696320999 0.015760184553859278 0 0.029647992696320999 0.015760184553859278 0 0.02901439169055962 0.015983389760254419 0 0.02927001481965387 0.016306727565701257 0 0.02984074398811291 0.016256896787352884 0 0.029647992696320999 0.015760184553859278 0 0.02927001481965387 0.016306727565701257 0 0.02901439169055962 0.015983389760254419 0 0.028992751083020754 0.016379014956751925 0 0.02927001481965387 0.016306727565701257 0 0.028992751083020754 0.016379014956751925 0 0.02927001481965387 0.016306727565701257 0 0.029083345261553494 0.016760880042457248 0 0.02927001481965387 0.016306727565701257 0 0.029491485674346105 0.016734705969889175 0 0.029083345261553494 0.016760880042457248 0 0.02984074398811291 0.016256896787352884 0 0.02927001481965387 0.016306727565701257 0 0.029491485674346105 0.016734705969889175 0 0.029589321104648358 0.017132148827123106 0 0.029491485674346105 0.016734705969889175 0 0.029320894925719813 0.017336022910439921 0 0.029083345261553494 0.016760880042457248 0 0.029320894925719813 0.017336022910439921 0 0.028868350667609226 0.017303144265875793 0 0.029491485674346105 0.016734705969889175 0 0.029083345261553494 0.016760880042457248 0 0.029320894925719813 0.017336022910439921 0 0.029320894925719813 0.017336022910439921 0 0.028868350667609226 0.017303144265875793 0 0.029090459907165727 0.017784562868620641 0 0.029589321104648358 0.017132148827123106 0 0.029320894925719813 0.017336022910439921 0 0.029568798192343052 0.017516866039907181 0 0.028371747283411779 0.017744279681425484 0 0.028868350667609226 0.017303144265875793 0 0.029090459907165727 0.017784562868620641 0 0.028371747283411779 0.017744279681425484 0 0.028868350667609226 0.017303144265875793 0 0.028679232512800461 0.016951133813818822 0 0.029083345261553494 0.016760880042457248 0 0.028679232512800461 0.016951133813818822 0 0.028761830349491029 0.01639179803862309 0 0.029083345261553494 0.016760880042457248 0 0.028868350667609226 0.017303144265875793 0 0.028679232512800461 0.016951133813818822 0 0.028371747283411779 0.017744279681425484 0 0.028679232512800461 0.016951133813818822 0 0.028082417946490246 0.017330551243710284 0 0.028679232512800461 0.016951133813818822 0 0.028607152899035218 0.016429547034327158 0 0.028082417946490246 0.017330551243710284 0 0.028607152899035218 0.016429547034327158 0 0.028761830349491029 0.01639179803862309 0 0.028688027352662782 0.01598839715413071 0 0.028607152899035218 0.016429547034327158 0 0.028439388304626244 0.015232110868737488 0 0.027995348966001251 0.015779977801825048 0 0.028679232512800461 0.016951133813818822 0 0.028607152899035218 0.016429547034327158 0 0.028761830349491029 0.01639179803862309 0 0.02901439169055962 0.015983389760254419 0 0.028992751083020754 0.016379014956751925 0 0.028761830349491029 0.01639179803862309 0 0.028992751083020754 0.016379014956751925 0 0.029083345261553494 0.016760880042457248 0 0.028761830349491029 0.01639179803862309 0 0.029159437259449673 0.015640526744413095 0 0.028761830349491029 0.01639179803862309 0 0.028688027352662782 0.01598839715413071 0 0.028910931428602894 0.015676953436391364 0 0.028778535008005392 0.016301751477248445 0 0.028722360354802568 0.01557866530961006 0 0.02901439169055962 0.015983389760254419 0 0.028761830349491029 0.01639179803862309 0 0.02859737891759629 0.016368573109469917 0 0.028382059424850236 0.015532358469824236 0 0.028607152899035218 0.016429547034327158 0 0.028688027352662782 0.01598839715413071 0 0.028355273163555128 0.015903337745823264 0 0.028439388304626244 0.015232110868737488 0 0.027995348966001251 0.015779977801825048 0 0.027916793385463021 0.014936443747527832 0 0.027995348966001251 0.015779977801825048 0 0.027619238057201335 0.014978068865619594 0 0.027916793385463021 0.014936443747527832 0 0.027995348966001251 0.015779977801825048 0 0.027571202445393697 0.016345245368788001 0 0.027619238057201335 0.014978068865619594 0 0.028607152899035218 0.016429547034327158 0 0.027995348966001251 0.015779977801825048 0 0.028082417946490246 0.017330551243710284 0 0.027995348966001251 0.015779977801825048 0 0.028082417946490246 0.017330551243710284 0 0.027571202445393697 0.016345245368788001 0 0.028152521116346276 0.017391664672670389 0 0.027929829323627912 0.017426932376689887 0 0.028082417946490246 0.017330551243710284 0 0.028108291509642905 0.018486003107693997 0 0.028094272934949763 0.018263715219891508 0 0.028094272934949763 0.018263715219891508 0 0.027998597375584345 0.01816339503015519 0 0.027941054133770238 0.017976276668125481 0 0.028082417946490246 0.017330551243710284 0 0.028094272934949763 0.018263715219891508 0 0.027941054133770238 0.017976276668125481 0 0.028094272934949763 0.018263715219891508 0 0.027998597375584345 0.01816339503015519 0 0.028210268278694203 0.018228565700944107 0 0.028371747283411779 0.017744279681425484 0 0.028082417946490246 0.017330551243710284 0 0.027941054133770238 0.017976276668125481 0 0.02891121897902646 0.018449847571050018 0 0.028502792209003099 0.018357610353910037 0 0.028561770610589992 0.018543964081228881 0 0.02891121897902646 0.018449847571050018 0 0.028561770610589992 0.018543964081228881 0 0.029029508101399447 0.018700351978817437 0 0.029148248300988173 0.018572277876225583 0 0.02891121897902646 0.018449847571050018 0 0.029029508101399447 0.018700351978817437 0 0.029148248300988173 0.018572277876225583 0 0.029029508101399447 0.018700351978817437 0 0.029399444829944395 0.018672691210418476 0 0.02891121897902646 0.018449847571050018 0 0.029295060277804912 0.018469854932767264 0 0.029143381836586262 0.018299983138695766 0 0.029148248300988173 0.018572277876225583 0 0.02891121897902646 0.018449847571050018 0 0.029295060277804912 0.018469854932767264 0 0.02891121897902646 0.018449847571050018 0 0.028502792209003099 0.018357610353910037 0 0.028711479825697425 0.018218731934977618 0 0.028094272934949763 0.018263715219891508 0 0.028502792209003099 0.018357610353910037 0 0.028210268278694203 0.018228565700944107 0 0.028094272934949763 0.018263715219891508 0 0.028502792209003099 0.018357610353910037 0 0.028561770610589992 0.018543964081228881 0 0.028108291509642905 0.018486003107693997 0 0.028094272934949763 0.018263715219891508 0 0.028561770610589992 0.018543964081228881 0 0.028108291509642905 0.018486003107693997 0 0.028561770610589992 0.018543964081228881 0 0.028725285381610389 0.018825504695678133 0 0.028108291509642905 0.018486003107693997 0 0.028725285381610389 0.018825504695678133 0 0.028795986677451889 0.01925705059114164 0 0.028725285381610389 0.018825504695678133 0 0.0291312896346143 0.018991847320538262 0 0.028795986677451889 0.01925705059114164 0 0.0291312896346143 0.018991847320538262 0 0.028795986677451889 0.01925705059114164 0 0.029443456613720321 0.019206875844942524 0 0.028561770610589992 0.018543964081228881 0 0.028725285381610389 0.018825504695678133 0 0.029029508101399447 0.018700351978817437 0 0.028725285381610389 0.018825504695678133 0 0.029029508101399447 0.018700351978817437 0 0.0291312896346143 0.018991847320538262 0 0.026726017709975791 0.015835842660639199 0 0.027619238057201335 0.014978068865619594 0 0.026586687462447457 0.015251482395766765 0 0.026726017709975791 0.015835842660639199 0 0.026586687462447457 0.015251482395766765 0 0.025737750968113485 0.01544739592835317 0 0.027929829323627912 0.017426932376689887 0 0.027679493729476926 0.017665395912014412 0 0.027571202445393697 0.016345245368788001 0 0.026726017709975791 0.015835842660639199 0 0.027619238057201335 0.014978068865619594 0 0.027619238057201335 0.014978068865619594 0 0.028126799052130485 0.014470312051345769 0 0.027962162791848457 0.014673278519127683 0 0.027619238057201335 0.014978068865619594 0 0.027962162791848457 0.014673278519127683 0 0.027916793385463021 0.014936443747527832 0 0.027619238057201335 0.014978068865619594 0 0.028126799052130485 0.014470312051345769 0 0.028385499262441018 0.013927967682597797 0 0.027713091068484914 0.014849624321821572 0 0.027367903701729448 0.014582452827336331 0 0.028126799052130485 0.014470312051345769 0 0.028385499262441018 0.013927967682597797 0 0.028761580877462768 0.013958626197075748 0 0.028126799052130485 0.014470312051345769 0 0.028440984520311418 0.014356450124076926 0 0.028761580877462768 0.013958626197075748 0 0.028126799052130485 0.014470312051345769 0 0.028440984520311418 0.014356450124076926 0 0.027962162791848457 0.014673278519127683 0 0.028440984520311418 0.014356450124076926 0 0.028323956781199651 0.014670467553853393 0 0.028824412833299354 0.014207779763602615 0 0.028440984520311418 0.014356450124076926 0 0.028323956781199651 0.014670467553853393 0 0.027962162791848457 0.014673278519127683 0 0.028323956781199651 0.014670467553853393 0 0.02855881903389058 0.015005939575400766 0 0.028154353357520288 0.014966209267504442 0 0.028323956781199651 0.014670467553853393 0 0.02855881903389058 0.015005939575400766 0 0.029013022305358908 0.014625744011374068 0 0.028323956781199651 0.014670467553853393 0 0.027973670641181274 0.014800566629260166 0 0.028154353357520288 0.014966209267504442 0 0.028323956781199651 0.014670467553853393 0 0.027962162791848457 0.014673278519127683 0 0.027973670641181274 0.014800566629260166 0 0.027962162791848457 0.014673278519127683 0 0.027916793385463021 0.014936443747527832 0 0.027973670641181274 0.014800566629260166 0 0.027916793385463021 0.014936443747527832 0 0.028092666814927243 0.014806096771358773 0 0.027973670641181274 0.014800566629260166 0 0.028439388304626244 0.015232110868737488 0 0.027916793385463021 0.014936443747527832 0 0.028092666814927243 0.014806096771358773 0 0.028075856861671619 0.015335480069787966 0 0.029094768082054304 0.01311829425741582 0 0.027973670641181274 0.014800566629260166 0 0.027991866972806576 0.014896307276445211 0 0.028154353357520288 0.014966209267504442 0 0.028092666814927243 0.014806096771358773 0 0.027973670641181274 0.014800566629260166 0 0.027991866972806576 0.014896307276445211 0 0.029094768082054304 0.01311829425741582 0 0.029493567369764984 0.012517254242813053 0 0.030971072427812454 0.0098030260928665316 0 0.031639251556449435 0.01000498252468252 0 0.031281469000060763 0.010085385718424288 0 0.027991866972806576 0.014896307276445211 0 0.027960276244378246 0.01491851227273764 0 0.028028916938136032 0.01510262025599499 0 0.027991866972806576 0.014896307276445211 0 0.028028916938136032 0.01510262025599499 0 0.028154353357520288 0.014966209267504442 0 0.028092666814927243 0.014806096771358773 0 0.027991866972806576 0.014896307276445211 0 0.027960276244378246 0.01491851227273764 0 0.028801033309935515 0.012452250120604467 0 0.028600666151697665 0.012524349249710721 0 0.028563482731598495 0.012358910358670499 0 0.031697523105243514 0.0043599502541068046 0 0.030908400848138281 0.0047329441960202957 0 0.030840813705837571 0.0044564781767221983 0 0.029889174602502983 0.0089124103636475729 0 0.030165071733178464 0.0093880173271246158 0 0.029094768082054304 0.01311829425741582 0 0.030165071733178464 0.0093880173271246158 0 0.030971072427812454 0.0098030260928665316 0 0.031097358378090547 0.010184806566743755 0 0.031281469000060763 0.010085385718424288 0 0.031097358378090547 0.010184806566743755 0 0.031281469000060763 0.010085385718424288 0 0.031229498389465527 0.010183302745831463 0 0.031097358378090547 0.010184806566743755 0 0.031229498389465527 0.010183302745831463 0 0.031221014747519368 0.010247243570357776 0 0.031097358378090547 0.010184806566743755 0 0.03117706108079428 0.010446795092879831 0 0.031221014747519368 0.010247243570357776 0 0.030165071733178464 0.0093880173271246158 0 0.032561836376489642 0.0039761187561577387 0 0.032561836376489642 0.0039761187561577387 0 0.034481764587224455 0.0094537774836706313 0 0.03117706108079428 0.010446795092879831 0 0.031405024246613102 0.010273573185135717 0 0.031750558397080478 0.010367653680584435 0 0.031639251556449435 0.01000498252468252 0 0.031448656652186296 0.01014282516308994 0 0.031750558397080478 0.010367653680584435 0 0.031639251556449435 0.01000498252468252 0 0.031281469000060763 0.010085385718424288 0 0.031448656652186296 0.01014282516308994 0 0.03131968669673587 0.010195082229387607 0 0.031405024246613102 0.010273573185135717 0 0.031221014747519368 0.010247243570357776 0 0.031281469000060763 0.010085385718424288 0 0.03131968669673587 0.010195082229387607 0 0.031229498389465527 0.010183302745831463 0 0.03131968669673587 0.010195082229387607 0 0.031229498389465527 0.010183302745831463 0 0.031221014747519368 0.010247243570357776 0 0.031281469000060763 0.010085385718424288 0 0.03131968669673587 0.010195082229387607 0 0.031448656652186296 0.01014282516308994 0 0.03131968669673587 0.010195082229387607 0 0.031448656652186296 0.01014282516308994 0 0.031405024246613102 0.010273573185135717 0 0.03117706108079428 0.010446795092879831 0 0.031405024246613102 0.010273573185135717 0 0.031221014747519368 0.010247243570357776 0 0.031448656652186296 0.01014282516308994 0 0.031405024246613102 0.010273573185135717 0 0.031750558397080478 0.010367653680584435 0 0.031639251556449435 0.01000498252468252 0 0.031750558397080478 0.010367653680584435 0 0.032363780640168836 0.010256525768815044 0 0.034481764587224455 0.0094537774836706313 0 0.03320395145776648 0.010856270391010139 0 0.029493567369764984 0.012517254242813053 0 0.03320395145776648 0.010856270391010139 0 0.03674040612652979 0.0087431552121373223 0 0.036730902286564754 0.0089012079270590853 0 0.036552033192581809 0.0090031904105370743 0 0.036565993292109751 0.0091694029624943552 0 0.036316118410561933 0.0090495760685736261 0 0.036190253924302022 0.0093126198825310407 0 0.03320395145776648 0.010856270391010139 0 0.032503183664525856 0.012616817428129331 0 0.03320395145776648 0.010856270391010139 0 0.037370172271656378 0.0090487370068733398 0 0.036486460648989465 0.008861692401192502 0 0.036552033192581809 0.0090031904105370743 0 0.036316118410561933 0.0090495760685736261 0 0.028319947705892943 0.015388557451544072 0 0.02855881903389058 0.015005939575400766 0 0.028154353357520288 0.014966209267504442 0 0.028319947705892943 0.015388557451544072 0 0.02855881903389058 0.015005939575400766 0 0.029185137500576146 0.015495903845401147 0 0.028028916938136032 0.01510262025599499 0 0.028319947705892943 0.015388557451544072 0 0.028154353357520288 0.014966209267504442 0 0.032503183664525856 0.012616817428129331 0 0.033287280022912639 0.0123850811951789 0 0.029185137500576146 0.015495903845401147 0 0.030709045881866025 0.015278222766880255 0 0.030044310584676149 0.014414354181962569 0 0.029185137500576146 0.015495903845401147 0 0.030044310584676149 0.014414354181962569 0 0.029013022305358908 0.014625744011374068 0 0.02855881903389058 0.015005939575400766 0 0.029185137500576146 0.015495903845401147 0 0.029013022305358908 0.014625744011374068 0 0.036316118410561933 0.0090495760685736261 0 0.036190253924302022 0.0093126198825310407 0 0.036089266909856393 0.0091186158711559495 0 0.036190253924302022 0.0093126198825310407 0 0.036089266909856393 0.0091186158711559495 0 0.035792142784245681 0.0095830064868119499 0 0.03553226707487938 0.0093882401069928147 0 0.035897812903336046 0.0090013622228899241 0 0.035792142784245681 0.0095830064868119499 0 0.035897812903336046 0.0090013622228899241 0 0.036089266909856393 0.0091186158711559495 0 0.035792142784245681 0.0095830064868119499 0 0.03553226707487938 0.0093882401069928147 0 0.035792142784245681 0.0095830064868119499 0 0.035613133168164467 0.0098305627168943678 0 0.030709045881866025 0.015278222766880255 0 0.0312426271795169 0.014140255670893352 0 0.032523812352853718 0.014603306672655605 0 0.033287280022912639 0.0123850811951789 0 0.034031671902168062 0.012224686793220715 0 0.0312426271795169 0.014140255670893352 0 0.03092829895639895 0.013437481837893455 0 0.030044310584676149 0.014414354181962569 0 0.030709045881866025 0.015278222766880255 0 0.0312426271795169 0.014140255670893352 0 0.030044310584676149 0.014414354181962569 0 0.0312426271795169 0.014140255670893352 0 0.032112026140215244 0.013391902643839992 0 0.032523812352853718 0.014603306672655605 0 0.032112026140215244 0.013391902643839992 0 0.03092829895639895 0.013437481837893455 0 0.031560858998201109 0.012579978630122663 0 0.0312426271795169 0.014140255670893352 0 0.032112026140215244 0.013391902643839992 0 0.03092829895639895 0.013437481837893455 0 0.03092829895639895 0.013437481837893455 0 0.030037979909798177 0.01367187276990941 0 0.030044310584676149 0.014414354181962569 0 0.03092829895639895 0.013437481837893455 0 0.03034028481567759 0.013012899826556637 0 0.031560858998201109 0.012579978630122663 0 0.03092829895639895 0.013437481837893455 0 0.030037979909798177 0.01367187276990941 0 0.03034028481567759 0.013012899826556637 0 0.030037979909798177 0.01367187276990941 0 0.029684067739097531 0.013492021194077721 0 0.03034028481567759 0.013012899826556637 0 0.030037979909798177 0.01367187276990941 0 0.029381202431657975 0.014032349170915046 0 0.030044310584676149 0.014414354181962569 0 0.029684067739097531 0.013492021194077721 0 0.029381202431657975 0.014032349170915046 0 0.029066210846358024 0.013756671996734365 0 0.030037979909798177 0.01367187276990941 0 0.029684067739097531 0.013492021194077721 0 0.029381202431657975 0.014032349170915046 0 0.029381202431657975 0.014032349170915046 0 0.030044310584676149 0.014414354181962569 0 0.029013022305358908 0.014625744011374068 0 0.028323956781199651 0.014670467553853393 0 0.029013022305358908 0.014625744011374068 0 0.028824412833299354 0.014207779763602615 0 0.028440984520311418 0.014356450124076926 0 0.028824412833299354 0.014207779763602615 0 0.028761580877462768 0.013958626197075748 0 0.028824412833299354 0.014207779763602615 0 0.029066210846358024 0.013756671996734365 0 0.028761580877462768 0.013958626197075748 0 0.029381202431657975 0.014032349170915046 0 0.029013022305358908 0.014625744011374068 0 0.028824412833299354 0.014207779763602615 0 0.029381202431657975 0.014032349170915046 0 0.028824412833299354 0.014207779763602615 0 0.029066210846358024 0.013756671996734365 0 0.028385499262441018 0.013927967682597797 0 0.028761580877462768 0.013958626197075748 0 0.028959634817900565 0.013701372145831673 0 0.029066210846358024 0.013756671996734365 0 0.028761580877462768 0.013958626197075748 0 0.028980846887186645 0.013816863578577554 0 0.028980846887186645 0.013816863578577554 0 0.028998537333499112 0.013805246442279989 0 0.028959634817900565 0.013701372145831673 0 0.028761580877462768 0.013958626197075748 0 0.028980846887186645 0.013816863578577554 0 0.028959634817900565 0.013701372145831673 0 0.029066210846358024 0.013756671996734365 0 0.029566913058518132 0.012717680615372779 0 0.029739365029993803 0.012127439576413853 0 0.029066210846358024 0.013756671996734365 0 0.028980846887186645 0.013816863578577554 0 0.028998537333499112 0.013805246442279989 0 0.029098562284162747 0.013379747052783945 0 0.03122778055825921 0.01473457510948104 0 0.029684067739097531 0.013492021194077721 0 0.029566913058518132 0.012717680615372779 0 0.03034028481567759 0.013012899826556637 0 0.029684067739097531 0.013492021194077721 0 0.029066210846358024 0.013756671996734365 0 0.029566913058518132 0.012717680615372779 0 0.030114437586899759 0.013829422890059452 0 0.033947856298181631 0.013928247271367485 0 0.029566913058518132 0.012717680615372779 0 0.030116399409251354 0.012427418671566149 0 0.03034028481567759 0.013012899826556637 0 0.029566913058518132 0.012717680615372779 0 0.029739365029993803 0.012127439576413853 0 0.030393607465441043 0.01234804761657872 0 0.03122778055825921 0.01473457510948104 0 0.033947856298181631 0.013928247271367485 0 0.033804789589041311 0.015945711041313666 0 0.034611436944607027 0.016215031901393305 0 0.034195957386726018 0.015192486865021738 0 0.03122778055825921 0.01473457510948104 0 0.033247465969374071 0.016825136237751354 0 0.031561407086057966 0.016962940767330625 0 0.032259369944163778 0.015600985887322489 0 0.029301587322210498 0.016204329429358674 0 0.030096569535639061 0.01953843564534009 0 0.029806944781398885 0.019362636739043794 0 0.029640247480695721 0.019640685067930343 0 0.03122778055825921 0.01473457510948104 0 0.028413037788865583 0.01618007863166308 0 0.033247465969374071 0.016825136237751354 0 0.028413037788865583 0.01618007863166308 0 0.030096569535639061 0.01953843564534009 0 0.029806944781398885 0.019362636739043794 0 0.029980429996075777 0.01916539011247274 0 0.033247465969374071 0.016825136237751354 0 0.034109229201967468 0.017759368009368275 0 0.030096569535639061 0.01953843564534009 0 0.029980429996075777 0.01916539011247274 0 0.030332343226318888 0.019125615285047422 0 0.028795986677451889 0.01925705059114164 0 0.029640247480695721 0.019640685067930343 0 0.029443456613720321 0.019206875844942524 0 0.027367903701729448 0.014582452827336331 0 0.028413037788865583 0.01618007863166308 0 0.027679493729476926 0.017665395912014412 0 0.028413037788865583 0.01618007863166308 0 0.029806944781398885 0.019362636739043794 0 0.029640247480695721 0.019640685067930343 0 0.029443456613720321 0.019206875844942524 0 0.0291312896346143 0.018991847320538262 0 0.029443456613720321 0.019206875844942524 0 0.029521872802028334 0.018905844642034604 0 0.029029508101399447 0.018700351978817437 0 0.0291312896346143 0.018991847320538262 0 0.029521872802028334 0.018905844642034604 0 0.029521872802028334 0.018905844642034604 0 0.029742457852224714 0.019123339918954575 0 0.029825339942188368 0.018962645818662045 0 0.029521872802028334 0.018905844642034604 0 0.029825339942188368 0.018962645818662045 0 0.029786122744089073 0.018773683335312947 0 0.029806944781398885 0.019362636739043794 0 0.029443456613720321 0.019206875844942524 0 0.029742457852224714 0.019123339918954575 0 0.029443456613720321 0.019206875844942524 0 0.029521872802028334 0.018905844642034604 0 0.029742457852224714 0.019123339918954575 0 0.029806944781398885 0.019362636739043794 0 0.029742457852224714 0.019123339918954575 0 0.029980429996075777 0.01916539011247274 0 0.029742457852224714 0.019123339918954575 0 0.029980429996075777 0.01916539011247274 0 0.029825339942188368 0.018962645818662045 0 0.029980429996075777 0.01916539011247274 0 0.030051813147330145 0.018937170968106713 0 0.030332343226318888 0.019125615285047422 0 0.030051813147330145 0.018937170968106713 0 0.030222893559274523 0.018880006507394305 0 0.030332343226318888 0.019125615285047422 0 0.030051813147330145 0.018937170968106713 0 0.029825339942188368 0.018962645818662045 0 0.029786122744089073 0.018773683335312947 0 0.029980429996075777 0.01916539011247274 0 0.030051813147330145 0.018937170968106713 0 0.029825339942188368 0.018962645818662045 0 0.030051813147330145 0.018937170968106713 0 0.029786122744089073 0.018773683335312947 0 0.030056144305288676 0.018776861549804492 0 0.029786122744089073 0.018773683335312947 0 0.030056144305288676 0.018776861549804492 0 0.029985789476580087 0.01861769032138838 0 0.030051813147330145 0.018937170968106713 0 0.030056144305288676 0.018776861549804492 0 0.030222893559274523 0.018880006507394305 0 0.030056144305288676 0.018776861549804492 0 0.030222893559274523 0.018880006507394305 0 0.030247520964455762 0.018722164006041462 0 0.030222893559274523 0.018880006507394305 0 0.030247520964455762 0.018722164006041462 0 0.030420571425387434 0.018841261822739635 0 0.030262131217882952 0.018582458142821855 0 0.029985789476580087 0.01861769032138838 0 0.03009654651884185 0.018430252160387916 0 0.030247520964455762 0.018722164006041462 0 0.030262131217882952 0.018582458142821855 0 0.029985789476580087 0.01861769032138838 0 0.030056144305288676 0.018776861549804492 0 0.030247520964455762 0.018722164006041462 0 0.029985789476580087 0.01861769032138838 0 0.030247520964455762 0.018722164006041462 0 0.030262131217882952 0.018582458142821855 0 0.030509338406692683 0.018662053525354327 0 0.029985789476580087 0.01861769032138838 0 0.029646911479031555 0.018558293220259606 0 0.029832967783178222 0.018457768770052476 0 0.029786122744089073 0.018773683335312947 0 0.029985789476580087 0.01861769032138838 0 0.029646911479031555 0.018558293220259606 0 0.029148248300988173 0.018572277876225583 0 0.029295060277804912 0.018469854932767264 0 0.029399444829944395 0.018672691210418476 0 0.029646911479031555 0.018558293220259606 0 0.029295060277804912 0.018469854932767264 0 0.029544191745931016 0.018347017263654265 0 0.029646911479031555 0.018558293220259606 0 0.029295060277804912 0.018469854932767264 0 0.029399444829944395 0.018672691210418476 0 0.029029508101399447 0.018700351978817437 0 0.029521872802028334 0.018905844642034604 0 0.029399444829944395 0.018672691210418476 0 0.029521872802028334 0.018905844642034604 0 0.029786122744089073 0.018773683335312947 0 0.029399444829944395 0.018672691210418476 0 0.029786122744089073 0.018773683335312947 0 0.029646911479031555 0.018558293220259606 0 0.029399444829944395 0.018672691210418476 0 0.033492650933496487 0.018538163189529326 0 0.035968849898446717 0.018533289523208766 0 0.037805016125306602 0.01662806200094534 0 0.037882521248015971 0.016578804097043376 0 0.037841814823842974 0.016559840472817486 0 0.032406035010848551 0.020545737331356208 0 0.033485411626055027 0.02028255769022214 0 0.032786523948216496 0.019768088764268121 0 0.037805016125306602 0.01662806200094534 0 0.037882521248015971 0.016578804097043376 0 0.037760528937288582 0.016842162415369445 0 0.030509338406692683 0.018662053525354327 0 0.030610347738178199 0.018836888683944494 0 0.03107179029498074 0.018494416651620247 0 0.033492650933496487 0.018538163189529326 0 0.031694888628863521 0.019429495532719099 0 0.030247520964455762 0.018722164006041462 0 0.030509338406692683 0.018662053525354327 0 0.030420571425387434 0.018841261822739635 0 0.030509338406692683 0.018662053525354327 0 0.030420571425387434 0.018841261822739635 0 0.030610347738178199 0.018836888683944494 0 0.031327984970795121 0.018985263051759273 0 0.033492650933496487 0.018538163189529326 0 0.037882521248015971 0.016578804097043376 0 0.037855582126822419 0.016511344321476287 0 0.037851509690389078 0.016489528289649225 0 0.037882521248015971 0.016578804097043376 0 0.037855582126822419 0.016511344321476287 0 0.037841814823842974 0.016559840472817486 0 0.030420571425387434 0.018841261822739635 0 0.030572269746621198 0.018805178550641809 0 0.030332343226318888 0.019125615285047422 0 0.030222893559274523 0.018880006507394305 0 0.030420571425387434 0.018841261822739635 0 0.030332343226318888 0.019125615285047422 0 0.033492650933496487 0.018538163189529326 0 0.034109229201967468 0.017759368009368275 0 0.037855582126822419 0.016511344321476287 0 0.037851509690389078 0.016489528289649225 0 0.037850137650666096 0.016441285694430825 0 0.037811088881278272 0.016485798780203509 0 0.037850137650666096 0.016441285694430825 0 0.037705989016838332 0.016314397614220381 0 0.037855582126822419 0.016511344321476287 0 0.037811088881278272 0.016485798780203509 0 0.037850137650666096 0.016441285694430825 0 0.037805016125306602 0.01662806200094534 0 0.037841814823842974 0.016559840472817486 0 0.037811088881278272 0.016485798780203509 0 0.037855582126822419 0.016511344321476287 0 0.037841814823842974 0.016559840472817486 0 0.037811088881278272 0.016485798780203509 0 0.037805016125306602 0.01662806200094534 0 0.037811088881278272 0.016485798780203509 0 0.037712734847604498 0.016495324613556801 0 0.0393016955847122 0.014551529718224146 0 0.038560417131301011 0.014241498321343875 0 0.038478707622303147 0.015118410474886469 0 0.03699202922948272 0.015185161304062944 0 0.03679034050504567 0.014684374512317943 0 0.039249734156812197 0.014219050791662255 0 0.03877659956335585 0.014753208976808381 0 0.0382652154920846 0.015259360363199864 0 0.037888395050763891 0.015414957430144625 0 0.0382652154920846 0.015259360363199864 0 0.034611436944607027 0.016215031901393305 0 0.034195957386726018 0.015192486865021738 0 0.03679034050504567 0.014684374512317943 0 0.034611436944607027 0.016215031901393305 0 0.03699202922948272 0.015185161304062944 0 0.03679034050504567 0.014684374512317943 0 0.033247465969374071 0.016825136237751354 0 0.037888395050763891 0.015414957430144625 0 0.033947856298181631 0.013928247271367485 0 0.03877659956335585 0.014753208976808381 0 0.037806397513578893 0.016488605808515144 0 0.037851509690389078 0.016489528289649225 0 0.037850137650666096 0.016441285694430825 0 0.033947856298181631 0.013928247271367485 0 0.0355573781494158 0.013160595163235112 0 0.039943892351798155 0.014208572174079203 0 0.0393016955847122 0.014551529718224146 0 0.039117495106595485 0.013836680128386061 0 0.030116399409251354 0.012427418671566149 0 0.03034028481567759 0.013012899826556637 0 0.031560858998201109 0.012579978630122663 0 0.0393016955847122 0.014551529718224146 0 0.039117495106595485 0.013836680128386061 0 0.038560417131301011 0.014241498321343875 0 0.038560417131301011 0.014241498321343875 0 0.037736304966824494 0.014390247832142086 0 0.037977506683907904 0.013225546351391174 0 0.0355573781494158 0.013160595163235112 0 0.03546689181046029 0.012905444458270731 0 0.039117495106595485 0.013836680128386061 0 0.038560417131301011 0.014241498321343875 0 0.037977506683907904 0.013225546351391174 0 0.037013888628942164 0.01348244572631881 0 0.037736304966824494 0.014390247832142086 0 0.037977506683907904 0.013225546351391174 0 0.037013888628942164 0.01348244572631881 0 0.037736304966824494 0.014390247832142086 0 0.036256166315984169 0.01426451144488855 0 0.037736304966824494 0.014390247832142086 0 0.036974886977398314 0.015126577831578851 0 0.037766654344051416 0.015426653832408601 0 0.037736304966824494 0.014390247832142086 0 0.036974886977398314 0.015126577831578851 0 0.036256166315984169 0.01426451144488855 0 0.038560417131301011 0.014241498321343875 0 0.037736304966824494 0.014390247832142086 0 0.038478707622303147 0.015118410474886469 0 0.037736304966824494 0.014390247832142086 0 0.038478707622303147 0.015118410474886469 0 0.037766654344051416 0.015426653832408601 0 0.037811088881278272 0.016485798780203509 0 0.037705989016838332 0.016314397614220381 0 0.037712734847604498 0.016495324613556801 0 0.037705989016838332 0.016314397614220381 0 0.037712734847604498 0.016495324613556801 0 0.037511802613156252 0.016501387369335031 0 0.0382652154920846 0.015259360363199864 0 0.037980681486889427 0.015330938523164136 0 0.038708045280666632 0.015098936793923445 0 0.037766654344051416 0.015426653832408601 0 0.037025903798823166 0.016159687512324508 0 0.0382652154920846 0.015259360363199864 0 0.036990734370586406 0.016289356283603569 0 0.037705989016838332 0.016314397614220381 0 0.037511802613156252 0.016501387369335031 0 0.037025903798823166 0.016159687512324508 0 0.037511802613156252 0.016501387369335031 0 0.037025903798823166 0.016159687512324508 0 0.037105738486722009 0.016783563564619852 0 0.036974886977398314 0.015126577831578851 0 0.037766654344051416 0.015426653832408601 0 0.037025903798823166 0.016159687512324508 0 0.037105738486722009 0.016783563564619852 0 0.037760528937288582 0.016842162415369445 0 0.037032705850122839 0.017485677111000599 0 0.037511802613156252 0.016501387369335031 0 0.037105738486722009 0.016783563564619852 0 0.037760528937288582 0.016842162415369445 0 0.037712734847604498 0.016495324613556801 0 0.037511802613156252 0.016501387369335031 0 0.037760528937288582 0.016842162415369445 0 0.037805016125306602 0.01662806200094534 0 0.037712734847604498 0.016495324613556801 0 0.037760528937288582 0.016842162415369445 0 0.034999877094646421 0.016938071666608677 0 0.036085615701426002 0.017205414290205945 0 0.036289633463113702 0.016485612723740641 0 0.034999877094646421 0.016938071666608677 0 0.036085615701426002 0.017205414290205945 0 0.03539148658558465 0.018492303729780193 0 0.037105738486722009 0.016783563564619852 0 0.036085615701426002 0.017205414290205945 0 0.036289633463113702 0.016485612723740641 0 0.037105738486722009 0.016783563564619852 0 0.036085615701426002 0.017205414290205945 0 0.037032705850122839 0.017485677111000599 0 0.037025903798823166 0.016159687512324508 0 0.037105738486722009 0.016783563564619852 0 0.036289633463113702 0.016485612723740641 0 0.037025903798823166 0.016159687512324508 0 0.036289633463113702 0.016485612723740641 0 0.036077375503278226 0.015498081272526193 0 0.036974886977398314 0.015126577831578851 0 0.037025903798823166 0.016159687512324508 0 0.036077375503278226 0.015498081272526193 0 0.034999877094646421 0.016938071666608677 0 0.036077375503278226 0.015498081272526193 0 0.034999921046969404 0.015221977306975873 0 0.034999877094646421 0.016938071666608677 0 0.036289633463113702 0.016485612723740641 0 0.036077375503278226 0.015498081272526193 0 0.036077375503278226 0.015498081272526193 0 0.034999921046969404 0.015221977306975873 0 0.036256166315984169 0.01426451144488855 0 0.034999921046969404 0.015221977306975873 0 0.036256166315984169 0.01426451144488855 0 0.034999940704711616 0.013505372626203526 0 0.036974886977398314 0.015126577831578851 0 0.036077375503278226 0.015498081272526193 0 0.036256166315984169 0.01426451144488855 0 0.037013888628942164 0.01348244572631881 0 0.036256166315984169 0.01426451144488855 0 0.035601580772990575 0.012704844813777524 0 0.036256166315984169 0.01426451144488855 0 0.034999940704711616 0.013505372626203526 0 0.035601580772990575 0.012704844813777524 0 0.035601580772990575 0.012704844813777524 0 0.034999974133192745 0.01178899076661679 0 0.036547183349755485 0.012517266472963593 0 0.035000180711195206 0.011789066134095439 0 0.035508401279334932 0.012513881039585678 0 0.034999940704711616 0.013505372626203526 0 0.035601580772990575 0.012704844813777524 0 0.034999974133192745 0.01178899076661679 0 0.03500144925225232 0.011381331077595954 0 0.034998326413636156 0.011784432157567816 0 0.034408592805990235 0.012532625724280424 0 0.034999838930581138 0.011373490676306166 0 0.035378373335333738 0.010790123381294635 0 0.035676446696289034 0.010367057362825907 0 0.03499958660791249 0.011375931787929401 0 0.034799884009207471 0.011884610160490826 0 0.03500144925225232 0.011381331077595954 0 0.034194260773862471 0.01339666337305296 0 0.034408592805990235 0.012532625724280424 0 0.037013888628942164 0.01348244572631881 0 0.035601580772990575 0.012704844813777524 0 0.036547183349755485 0.012517266472963593 0 0.037013888628942164 0.01348244572631881 0 0.036547183349755485 0.012517266472963593 0 0.037977506683907904 0.013225546351391174 0 0.034408592805990235 0.012532625724280424 0 0.033026679389090985 0.012579797159448796 0 0.033403144764439369 0.013184285544197268 0 0.035508401279334932 0.012513881039585678 0 0.03546689181046029 0.012905444458270731 0 0.032112026140215244 0.013391902643839992 0 0.031560858998201109 0.012579978630122663 0 0.033026679389090985 0.012579797159448796 0 0.032112026140215244 0.013391902643839992 0 0.033026679389090985 0.012579797159448796 0 0.033403144764439369 0.013184285544197268 0 0.032112026140215244 0.013391902643839992 0 0.033403144764439369 0.013184285544197268 0 0.032523812352853718 0.014603306672655605 0 0.034194260773862471 0.01339666337305296 0 0.033403144764439369 0.013184285544197268 0 0.032523812352853718 0.014603306672655605 0 0.034194260773862471 0.01339666337305296 0 0.034408592805990235 0.012532625724280424 0 0.033403144764439369 0.013184285544197268 0 0.034799884009207471 0.011884610160490826 0 0.034031671902168062 0.012224686793220715 0 0.035676446696289034 0.010367057362825907 0 0.035613133168164467 0.0098305627168943678 0 0.035595848189568007 0.010020478443537234 0 0.035590807015969714 0.0094123070225822295 0 0.035089417608915534 0.0096351132549228422 0 0.03553226707487938 0.0093882401069928147 0 0.035613133168164467 0.0098305627168943678 0 0.035627143096273815 0.0097764403516602642 0 0.035613133168164467 0.0098305627168943678 0 0.035627143096273815 0.0097764403516602642 0 0.035595848189568007 0.010020478443537234 0 0.034358952863853577 0.0091835873845134766 0 0.034757963308712538 0.0094571593415123719 0 0.034057134862604817 0.0095463136273986407 0 0.035627143096273815 0.0097764403516602642 0 0.035595848189568007 0.010020478443537234 0 0.035285206407311184 0.0098447672318678903 0 0.035089417608915534 0.0096351132549228422 0 0.035138953584835576 0.0094164099997575603 0 0.0349999860232365 0.008154169715700774 0 0.036009228875655407 0.0092585557775920115 0 0.034999993085462928 0.0094108603732525956 0 0.035138953584835576 0.0094164099997575603 0 0.035000713454168789 0.0094107726431285985 0 0.034999838930581138 0.011373490676306166 0 0.035378373335333738 0.010790123381294635 0 0.034999680574340788 0.0094124616417774667 0 0.035378373335333738 0.010790123381294635 0 0.035643884059452492 0.0093534033945302311 0 0.034999680574340788 0.0094124616417774667 0 0.035467177601290145 0.010778667067264778 0 0.035138953584835576 0.0094164099997575603 0 0.035378373335333738 0.010790123381294635 0 0.035676446696289034 0.010367057362825907 0 0.035595848189568007 0.010020478443537234 0 0.035378373335333738 0.010790123381294635 0 0.035595848189568007 0.010020478443537234 0 0.035285206407311184 0.0098447672318678903 0 0.036363089832159183 0.025603922146221602 0 0.036030249329604053 0.024085429099064394 0 0.036867231234506997 0.023965825589710259 0 0.034999883847799271 0.024764319490545642 0 0.036363089832159183 0.025603922146221602 0 0.036030249329604053 0.024085429099064394 0 0.034999883847799271 0.024764319490545642 0 0.036363089832159183 0.025603922146221602 0 0.034999986807708862 0.026650563741596276 0 0.036589978512933483 0.025770406177128995 0 0.034999952840221428 0.02665076808452432 0 0.036589978512933483 0.025770406177128995 0 0.036169668974610401 0.024344861219132513 0 0.033317012478101364 0.025197318639868682 0 0.036757277694065019 0.028272933259910329 0 0.035679117341777068 0.029224692178740928 0 0.035804321103185641 0.029412672873069 0 0.035630974765386694 0.029398645238271515 0 0.036375154923717373 0.025888831117325931 0 0.037793530206687388 0.025362170595276227 0 0.03696737322947833 0.026636430010822824 0 0.033317012478101364 0.025197318639868682 0 0.030349476253137508 0.025535992889860228 0 0.025617962515554562 0.023185676890865908 0 0.025778711504968459 0.023188946474577584 0 0.025491059889246763 0.023110449837167223 0 0.035635332519025849 0.022898036447315688 0 0.035610852498629636 0.023132448941842867 0 0.035399391470282988 0.023019198545907792 0 0.025617962515554562 0.023185676890865908 0 0.025778711504968459 0.023188946474577584 0 0.025674013160735476 0.02329530714612911 0 0.033182365581237244 0.023514142029774886 0 0.033589051491714948 0.023892912250408647 0 0.03233074653349928 0.024680852813703639 0 0.036169668974610401 0.024344861219132513 0 0.030720054883437809 0.023352822368458811 0 0.033317012478101364 0.025197318639868682 0 0.030720054883437809 0.023352822368458811 0 0.036375154923717373 0.025888831117325931 0 0.037793530206687388 0.025362170595276227 0 0.037543687104415115 0.025127108880881207 0 0.036363089832159183 0.025603922146221602 0 0.03764921125671445 0.024701827280110816 0 0.036867231234506997 0.023965825589710259 0 0.033317012478101364 0.025197318639868682 0 0.036169668974610401 0.024344861219132513 0 0.036169668974610401 0.024344861219132513 0 0.036320508804048399 0.023532081328216711 0 0.035635332519025849 0.022898036447315688 0 0.035610852498629636 0.023132448941842867 0 0.035822374885836041 0.023087579139070093 0 0.035610852498629636 0.023132448941842867 0 0.03581093524461073 0.023270917182715005 0 0.035822374885836041 0.023087579139070093 0 0.035610852498629636 0.023132448941842867 0 0.035663122057527329 0.023334171874100695 0 0.035280190597737161 0.023162638859502743 0 0.035610852498629636 0.023132448941842867 0 0.035399391470282988 0.023019198545907792 0 0.035280190597737161 0.023162638859502743 0 0.030720054883437809 0.023352822368458811 0 0.030804910186298291 0.021268145086665517 0 0.035204578819304298 0.019610301653227021 0 0.030804910186298291 0.021268145086665517 0 0.033839470164487767 0.016150964420699687 0 0.032264818563136191 0.016126254700227462 0 0.032225831698254569 0.01518459893302734 0 0.033839470164487767 0.016150964420699687 0 0.032651729696699792 0.016855878691712425 0 0.032264818563136191 0.016126254700227462 0 0.035204578819304298 0.019610301653227021 0 0.035513359966712899 0.020413531737201833 0 0.035663122057527329 0.023334171874100695 0 0.03581093524461073 0.023270917182715005 0 0.035916835563564981 0.023321637261097074 0 0.035610852498629636 0.023132448941842867 0 0.035663122057527329 0.023334171874100695 0 0.03581093524461073 0.023270917182715005 0 0.035942994560703871 0.023308574818597196 0 0.035786992904919927 0.023324556685590123 0 0.035916835563564981 0.023321637261097074 0 0.035818816285197473 0.023591547236180583 0 0.035513359966712899 0.020413531737201833 0 0.03581093524461073 0.023270917182715005 0 0.035942994560703871 0.023308574818597196 0 0.035916835563564981 0.023321637261097074 0 0.03581093524461073 0.023270917182715005 0 0.035942994560703871 0.023308574818597196 0 0.035822374885836041 0.023087579139070093 0 0.036014788454586229 0.023322442695077925 0 0.036320508804048399 0.023532081328216711 0 0.035942994560703871 0.023308574818597196 0 0.036030249329604053 0.024085429099064394 0 0.035786992904919927 0.023324556685590123 0 0.035942994560703871 0.023308574818597196 0 0.036030249329604053 0.024085429099064394 0 0.036867231234506997 0.023965825589710259 0 0.035000294351908469 0.024763372123025561 0 0.035818816285197473 0.023591547236180583 0 0.0350000009340386 0.024764148367295329 0 0.034999995003377297 0.023299904671205948 0 0.035813662842618395 0.023104046103847947 0 0.034999883847799271 0.024764319490545642 0 0.036030249329604053 0.024085429099064394 0 0.035786992904919927 0.023324556685590123 0 0.034999995003377297 0.023299904671205948 0 0.035813662842618395 0.023104046103847947 0 0.034999993962729806 0.021835653563350703 0 0.035813662842618395 0.023104046103847947 0 0.034999993962729806 0.021835653563350703 0 0.036620863879826937 0.021442363879171519 0 0.034999993962729806 0.021835653563350703 0 0.036620863879826937 0.021442363879171519 0 0.034999993252171624 0.020371429406608368 0 0.035513359966712899 0.020413531737201833 0 0.035000339991097917 0.02037108726780255 0 0.035513359966712899 0.020413531737201833 0 0.035472861864231819 0.018283874769083747 0 0.035162126560249363 0.01892233503288502 0 0.03502122455101591 0.01871243590576201 0 0.035233541467214011 0.019262235073020051 0 0.03502122455101591 0.01871243590576201 0 0.035233541467214011 0.019262235073020051 0 0.034759094334012745 0.018986764092355467 0 0.035162126560249363 0.01892233503288502 0 0.035233541467214011 0.019262235073020051 0 0.035000044343614298 0.020367375846356749 0 0.035233541467214011 0.019262235073020051 0 0.035000044343614298 0.020367375846356749 0 0.035311409565111314 0.019113507509070437 0 0.035000044343614298 0.020367375846356749 0 0.034999642780582312 0.018656517172674289 0 0.035311409565111314 0.019113507509070437 0 0.034999642780582312 0.018656517172674289 0 0.035311409565111314 0.019113507509070437 0 0.03539148658558465 0.018492303729780193 0 0.035311409565111314 0.019113507509070437 0 0.035135745240480333 0.019138551492431214 0 0.03539148658558465 0.018492303729780193 0 0.035233541467214011 0.019262235073020051 0 0.035311409565111314 0.019113507509070437 0 0.035106601147341578 0.019141535555706215 0 0.035233541467214011 0.019262235073020051 0 0.035106601147341578 0.019141535555706215 0 0.034759094334012745 0.018986764092355467 0 0.035106601147341578 0.019141535555706215 0 0.034632639304884479 0.01924796921862135 0 0.034759094334012745 0.018986764092355467 0 0.035106601147341578 0.019141535555706215 0 0.035135745240480333 0.019138551492431214 0 0.034632639304884479 0.01924796921862135 0 0.035311409565111314 0.019113507509070437 0 0.035106601147341578 0.019141535555706215 0 0.035135745240480333 0.019138551492431214 0 0.035135745240480333 0.019138551492431214 0 0.03539148658558465 0.018492303729780193 0 0.034772194487092269 0.019827580395187134 0 0.036085615701426002 0.017205414290205945 0 0.03539148658558465 0.018492303729780193 0 0.037032705850122839 0.017485677111000599 0 0.035135745240480333 0.019138551492431214 0 0.034772194487092269 0.019827580395187134 0 0.034632639304884479 0.01924796921862135 0 0.035389424710703186 0.01856067362264871 0 0.035735749880836803 0.018645325099713533 0 0.034999877094646421 0.016938071666608677 0 0.034999642780582312 0.018656517172674289 0 0.03539148658558465 0.018492303729780193 0 0.033485411626055027 0.02028255769022214 0 0.033743383301754651 0.01953066387783255 0 0.034772194487092269 0.019827580395187134 0 0.033485411626055027 0.02028255769022214 0 0.033743383301754651 0.01953066387783255 0 0.032786523948216496 0.019768088764268121 0 0.035968849898446717 0.018533289523208766 0 0.035735749880836803 0.018645325099713533 0 0.033743383301754651 0.01953066387783255 0 0.034772194487092269 0.019827580395187134 0 0.034632639304884479 0.01924796921862135 0 0.033743383301754651 0.01953066387783255 0 0.034632639304884479 0.01924796921862135 0 0.033905755877872451 0.018942429453948289 0 0.034632639304884479 0.01924796921862135 0 0.033905755877872451 0.018942429453948289 0 0.034759094334012745 0.018986764092355467 0 0.033743383301754651 0.01953066387783255 0 0.033905755877872451 0.018942429453948289 0 0.033078033859310414 0.018989497738201005 0 0.032967281422858673 0.017832321720113762 0 0.032504142056811597 0.018459129373600908 0 0.033905755877872451 0.018942429453948289 0 0.034133278337788668 0.018406490057728712 0 0.033013373475141612 0.017838630355518637 0 0.033905755877872451 0.018942429453948289 0 0.033013373475141612 0.017838630355518637 0 0.033078033859310414 0.018989497738201005 0 0.033905755877872451 0.018942429453948289 0 0.034759094334012745 0.018986764092355467 0 0.034133278337788668 0.018406490057728712 0 0.03502122455101591 0.01871243590576201 0 0.034133278337788668 0.018406490057728712 0 0.034004354787607764 0.017547747074890076 0 0.03502122455101591 0.01871243590576201 0 0.034759094334012745 0.018986764092355467 0 0.034133278337788668 0.018406490057728712 0 0.035644908241214156 0.017401974122635212 0 0.03502122455101591 0.01871243590576201 0 0.034004354787607764 0.017547747074890076 0 0.033839470164487767 0.016150964420699687 0 0.035644908241214156 0.017401974122635212 0 0.034004354787607764 0.017547747074890076 0 0.034133278337788668 0.018406490057728712 0 0.034004354787607764 0.017547747074890076 0 0.033013373475141612 0.017838630355518637 0 0.034004354787607764 0.017547747074890076 0 0.033013373475141612 0.017838630355518637 0 0.032651729696699792 0.016855878691712425 0 0.033839470164487767 0.016150964420699687 0 0.034004354787607764 0.017547747074890076 0 0.032651729696699792 0.016855878691712425 0 0.033013373475141612 0.017838630355518637 0 0.032651729696699792 0.016855878691712425 0 0.031895451430472205 0.017577290193744332 0 0.032651729696699792 0.016855878691712425 0 0.031906003843413147 0.01678957475539921 0 0.031895451430472205 0.017577290193744332 0 0.031906003843413147 0.01678957475539921 0 0.031431916684432168 0.017080246115879494 0 0.031414883690789777 0.016338469202967602 0 0.031431916684432168 0.017080246115879494 0 0.031895451430472205 0.017577290193744332 0 0.031196713396266364 0.017405564571018071 0 0.031906003843413147 0.01678957475539921 0 0.031431916684432168 0.017080246115879494 0 0.031895451430472205 0.017577290193744332 0 0.031431916684432168 0.017080246115879494 0 0.030647615091137736 0.017382532249371911 0 0.031414883690789777 0.016338469202967602 0 0.025141959941862673 0.020609494739394892 0 0.025835795027292219 0.021207705752864642 0 0.024494332953595804 0.021536976640581792 0 0.028655009262391975 0.018687016041314421 0 0.027812308994730497 0.018840942098475137 0 0.031431916684432168 0.017080246115879494 0 0.031196713396266364 0.017405564571018071 0 0.030846268801523462 0.017250940275898033 0 0.0311400894133303 0.01746463091650434 0 0.030035022515774681 0.017728441090668838 0 0.031810426728231506 0.017050694619117249 0 0.028655009262391975 0.018687016041314421 0 0.031196713396266364 0.017405564571018071 0 0.030846268801523462 0.017250940275898033 0 0.030688975729625676 0.017469487551543351 0 0.029305025313947269 0.018124095573549586 0 0.029033913944193964 0.018504163336314494 0 0.028037967289010188 0.018605944532742925 0 0.028655009262391975 0.018687016041314421 0 0.030035022515774681 0.017728441090668838 0 0.031196713396266364 0.017405564571018071 0 0.030674518856451786 0.017295770679672248 0 0.030825645796035764 0.017603532411835255 0 0.030528467871111312 0.017406882753264141 0 0.030825645796035764 0.017603532411835255 0 0.030516677511813046 0.0175873603647877 0 0.030528467871111312 0.017406882753264141 0 0.030674518856451786 0.017295770679672248 0 0.030825645796035764 0.017603532411835255 0 0.030284520937693349 0.01746044839264535 0 0.030035022515774681 0.017728441090668838 0 0.031196713396266364 0.017405564571018071 0 0.030825645796035764 0.017603532411835255 0 0.031306017922702552 0.017722349221933779 0 0.030825645796035764 0.017603532411835255 0 0.031306017922702552 0.017722349221933779 0 0.031043237636177261 0.017953398852545596 0 0.030825645796035764 0.017603532411835255 0 0.030553779658905714 0.017784329521477845 0 0.031043237636177261 0.017953398852545596 0 0.030825645796035764 0.017603532411835255 0 0.030553779658905714 0.017784329521477845 0 0.030516677511813046 0.0175873603647877 0 0.033013373475141612 0.017838630355518637 0 0.031895451430472205 0.017577290193744332 0 0.031767970437105331 0.018227102693182364 0 0.031306017922702552 0.017722349221933779 0 0.031767970437105331 0.018227102693182364 0 0.031043237636177261 0.017953398852545596 0 0.031895451430472205 0.017577290193744332 0 0.031306017922702552 0.017722349221933779 0 0.031767970437105331 0.018227102693182364 0 0.031895451430472205 0.017577290193744332 0 0.031196713396266364 0.017405564571018071 0 0.031306017922702552 0.017722349221933779 0 0.033743383301754651 0.01953066387783255 0 0.033078033859310414 0.018989497738201005 0 0.032786523948216496 0.019768088764268121 0 0.031767970437105331 0.018227102693182364 0 0.031043237636177261 0.017953398852545596 0 0.031049392613121552 0.018237782706720405 0 0.032504142056811597 0.018459129373600908 0 0.031694888628863521 0.019429495532719099 0 0.031767970437105331 0.018227102693182364 0 0.031049392613121552 0.018237782706720405 0 0.03107179029498074 0.018494416651620247 0 0.031043237636177261 0.017953398852545596 0 0.030610348474936537 0.018084590779647112 0 0.031049392613121552 0.018237782706720405 0 0.030553779658905714 0.017784329521477845 0 0.030610348474936537 0.018084590779647112 0 0.030384810836474239 0.017919967480007057 0 0.030553779658905714 0.017784329521477845 0 0.031043237636177261 0.017953398852545596 0 0.030610348474936537 0.018084590779647112 0 0.030610348474936537 0.018084590779647112 0 0.030719423245057522 0.018326028837163291 0 0.030347873491853129 0.018271065211869966 0 0.030610348474936537 0.018084590779647112 0 0.031049392613121552 0.018237782706720405 0 0.030719423245057522 0.018326028837163291 0 0.030719423245057522 0.018326028837163291 0 0.030470460756272653 0.018492741691225827 0 0.03107179029498074 0.018494416651620247 0 0.031049392613121552 0.018237782706720405 0 0.030719423245057522 0.018326028837163291 0 0.03107179029498074 0.018494416651620247 0 0.030509338406692683 0.018662053525354327 0 0.030470460756272653 0.018492741691225827 0 0.03107179029498074 0.018494416651620247 0 0.030719423245057522 0.018326028837163291 0 0.030470460756272653 0.018492741691225827 0 0.030347873491853129 0.018271065211869966 0 0.030262131217882952 0.018582458142821855 0 0.030509338406692683 0.018662053525354327 0 0.030470460756272653 0.018492741691225827 0 0.029575748762213239 0.018136142686537043 0 0.029544191745931016 0.018347017263654265 0 0.029821797435046753 0.018287561804921422 0 0.029575748762213239 0.018136142686537043 0 0.029821797435046753 0.018287561804921422 0 0.029805535556931839 0.018077293717215514 0 0.029575748762213239 0.018136142686537043 0 0.02934182317139547 0.018179256801881805 0 0.029544191745931016 0.018347017263654265 0 0.029575748762213239 0.018136142686537043 0 0.02934182317139547 0.018179256801881805 0 0.029268777952178752 0.017979216853298712 0 0.02934182317139547 0.018179256801881805 0 0.029268777952178752 0.017979216853298712 0 0.029067234993134707 0.018118095815404595 0 0.029295060277804912 0.018469854932767264 0 0.029544191745931016 0.018347017263654265 0 0.029143381836586262 0.018299983138695766 0 0.02934182317139547 0.018179256801881805 0 0.029544191745931016 0.018347017263654265 0 0.029143381836586262 0.018299983138695766 0 0.029646911479031555 0.018558293220259606 0 0.029544191745931016 0.018347017263654265 0 0.029832967783178222 0.018457768770052476 0 0.029544191745931016 0.018347017263654265 0 0.029832967783178222 0.018457768770052476 0 0.029821797435046753 0.018287561804921422 0 0.029985789476580087 0.01861769032138838 0 0.029832967783178222 0.018457768770052476 0 0.03009654651884185 0.018430252160387916 0 0.029832967783178222 0.018457768770052476 0 0.03009654651884185 0.018430252160387916 0 0.029821797435046753 0.018287561804921422 0 0.030470460756272653 0.018492741691225827 0 0.03009654651884185 0.018430252160387916 0 0.030347873491853129 0.018271065211869966 0 0.030262131217882952 0.018582458142821855 0 0.030470460756272653 0.018492741691225827 0 0.03009654651884185 0.018430252160387916 0 0.03009654651884185 0.018430252160387916 0 0.030347873491853129 0.018271065211869966 0 0.03001628346373875 0.018182859722785126 0 0.03009654651884185 0.018430252160387916 0 0.03001628346373875 0.018182859722785126 0 0.029821797435046753 0.018287561804921422 0 0.03001628346373875 0.018182859722785126 0 0.029821797435046753 0.018287561804921422 0 0.029805535556931839 0.018077293717215514 0 0.03001628346373875 0.018182859722785126 0 0.029920563193421092 0.017945001322610812 0 0.029805535556931839 0.018077293717215514 0 0.03001628346373875 0.018182859722785126 0 0.029920563193421092 0.017945001322610812 0 0.030247038632669469 0.018040078801893251 0 0.030610348474936537 0.018084590779647112 0 0.030247038632669469 0.018040078801893251 0 0.030384810836474239 0.017919967480007057 0 0.030610348474936537 0.018084590779647112 0 0.030347873491853129 0.018271065211869966 0 0.030247038632669469 0.018040078801893251 0 0.030347873491853129 0.018271065211869966 0 0.03001628346373875 0.018182859722785126 0 0.030247038632669469 0.018040078801893251 0 0.030247038632669469 0.018040078801893251 0 0.030384810836474239 0.017919967480007057 0 0.030125217090725492 0.017766436875648568 0 0.030553779658905714 0.017784329521477845 0 0.030384810836474239 0.017919967480007057 0 0.030125217090725492 0.017766436875648568 0 0.029920563193421092 0.017945001322610812 0 0.030247038632669469 0.018040078801893251 0 0.030125217090725492 0.017766436875648568 0 0.029920563193421092 0.017945001322610812 0 0.030125217090725492 0.017766436875648568 0 0.02977421247738371 0.017721243266028665 0 0.02977421247738371 0.017721243266028665 0 0.029597350621518533 0.017888750399716425 0 0.029458369102372272 0.017632596576248775 0 0.029920563193421092 0.017945001322610812 0 0.02977421247738371 0.017721243266028665 0 0.029597350621518533 0.017888750399716425 0 0.029920563193421092 0.017945001322610812 0 0.029805535556931839 0.018077293717215514 0 0.029597350621518533 0.017888750399716425 0 0.029575748762213239 0.018136142686537043 0 0.029805535556931839 0.018077293717215514 0 0.029597350621518533 0.017888750399716425 0 0.029597350621518533 0.017888750399716425 0 0.029268777952178752 0.017979216853298712 0 0.02931076805226434 0.017784998746499459 0 0.029575748762213239 0.018136142686537043 0 0.029597350621518533 0.017888750399716425 0 0.029268777952178752 0.017979216853298712 0 0.029597350621518533 0.017888750399716425 0 0.02931076805226434 0.017784998746499459 0 0.029458369102372272 0.017632596576248775 0 0.02931076805226434 0.017784998746499459 0 0.029458369102372272 0.017632596576248775 0 0.029169818603428259 0.017678569180776395 0 0.027707275880047896 0.018738726548190438 0 0.028417825276598491 0.017950096437838209 0 0.029458369102372272 0.017632596576248775 0 0.02970482235816764 0.017502583837541726 0 0.029218337926916377 0.017395462730970115 0 0.026890687997674297 0.020249157758627012 0 0.025931039707662609 0.020327965610857788 0 0.026854658785485406 0.020635190043810939 0 0.026984974824701354 0.019521010264436638 0 0.027707275880047896 0.018738726548190438 0 0.027185213314553404 0.018748690502179741 0 0.027245857167373738 0.018756562141084135 0 0.027180341264195326 0.018751638019178261 0 0.02970482235816764 0.017502583837541726 0 0.030123077105287509 0.017230050389638915 0 0.029218337926916377 0.017395462730970115 0 0.029458369102372272 0.017632596576248775 0 0.029218337926916377 0.017395462730970115 0 0.029169818603428259 0.017678569180776395 0 0.02977421247738371 0.017721243266028665 0 0.029458369102372272 0.017632596576248775 0 0.02970482235816764 0.017502583837541726 0 0.02977421247738371 0.017721243266028665 0 0.02970482235816764 0.017502583837541726 0 0.029992240770422032 0.017555708145508508 0 0.030553779658905714 0.017784329521477845 0 0.030125217090725492 0.017766436875648568 0 0.030235907989307535 0.017533071046279113 0 0.030553779658905714 0.017784329521477845 0 0.030516677511813046 0.0175873603647877 0 0.030235907989307535 0.017533071046279113 0 0.030125217090725492 0.017766436875648568 0 0.02977421247738371 0.017721243266028665 0 0.029992240770422032 0.017555708145508508 0 0.02970482235816764 0.017502583837541726 0 0.029992240770422032 0.017555708145508508 0 0.030123077105287509 0.017230050389638915 0 0.030125217090725492 0.017766436875648568 0 0.030235907989307535 0.017533071046279113 0 0.029992240770422032 0.017555708145508508 0 0.030235907989307535 0.017533071046279113 0 0.029992240770422032 0.017555708145508508 0 0.030123077105287509 0.017230050389638915 0 0.030035022515774681 0.017728441090668838 0 0.027707275880047896 0.018738726548190438 0 0.030528467871111312 0.017406882753264141 0 0.030657859582114477 0.017228008717879453 0 0.030123077105287509 0.017230050389638915 0 0.030528467871111312 0.017406882753264141 0 0.030235907989307535 0.017533071046279113 0 0.030123077105287509 0.017230050389638915 0 0.030528467871111312 0.017406882753264141 0 0.030516677511813046 0.0175873603647877 0 0.030235907989307535 0.017533071046279113 0 0.025931039707662609 0.020327965610857788 0 0.025835795027292219 0.021207705752864642 0 0.026854658785485406 0.020635190043810939 0 0.025141959941862673 0.020609494739394892 0 0.025931039707662609 0.020327965610857788 0 0.025835795027292219 0.021207705752864642 0 0.028655009262391975 0.018687016041314421 0 0.027707275880047896 0.018738726548190438 0 0.025098144243906557 0.021593356933832488 0 0.025541770646627174 0.021186925776798191 0 0.025480676073868055 0.021756122802708094 0 0.025445892529457649 0.021394602461796839 0 0.02624420514873153 0.020943256876605865 0 0.025541770646627174 0.021186925776798191 0 0.025480676073868055 0.021756122802708094 0 0.025737693390132481 0.021470581977136863 0 0.025480676073868055 0.021756122802708094 0 0.025432327529836984 0.022458604661694897 0 0.025701333258072355 0.022222864568197619 0 0.025480676073868055 0.021756122802708094 0 0.025432327529836984 0.022458604661694897 0 0.025151259111004791 0.022061454422821307 0 0.025432327529836984 0.022458604661694897 0 0.025104572597095035 0.02242502691076859 0 0.025151259111004791 0.022061454422821307 0 0.025151259111004791 0.022061454422821307 0 0.024915638328523088 0.021898824772612641 0 0.0248854257648497 0.022152200038929544 0 0.025104572597095035 0.02242502691076859 0 0.025151259111004791 0.022061454422821307 0 0.0248854257648497 0.022152200038929544 0 0.025098144243906557 0.021593356933832488 0 0.025480676073868055 0.021756122802708094 0 0.025151259111004791 0.022061454422821307 0 0.025098144243906557 0.021593356933832488 0 0.025151259111004791 0.022061454422821307 0 0.024915638328523088 0.021898824772612641 0 0.025445892529457649 0.021394602461796839 0 0.024701544575839701 0.021799315806833041 0 0.025835795027292219 0.021207705752864642 0 0.024645350805645949 0.021826987524462427 0 0.024494332953595804 0.021536976640581792 0 0.025098144243906557 0.021593356933832488 0 0.024645350805645949 0.021826987524462427 0 0.024915638328523088 0.021898824772612641 0 0.024645350805645949 0.021826987524462427 0 0.0247733592616734 0.021973211816202046 0 0.024915638328523088 0.021898824772612641 0 0.024645350805645949 0.021826987524462427 0 0.0247733592616734 0.021973211816202046 0 0.02464290159494549 0.022015318642946875 0 0.032264818563136191 0.016126254700227462 0 0.031414883690789777 0.016338469202967602 0 0.032225831698254569 0.01518459893302734 0 0.024645350805645949 0.021826987524462427 0 0.024494332953595804 0.021536976640581792 0 0.024145456769087314 0.022191706307316438 0 0.027812308994730497 0.018840942098475137 0 0.030804910186298291 0.021268145086665517 0 0.031906003843413147 0.01678957475539921 0 0.032264818563136191 0.016126254700227462 0 0.031414883690789777 0.016338469202967602 0 0.032651729696699792 0.016855878691712425 0 0.031906003843413147 0.01678957475539921 0 0.032264818563136191 0.016126254700227462 0 0.026182372771428836 0.022092019935730425 0 0.024955330267870373 0.022850843195795979 0 0.024310389113666772 0.022234570703984765 0 0.02464290159494549 0.022015318642946875 0 0.024721480764224334 0.022554821360273251 0 0.030804910186298291 0.021268145086665517 0 0.026182372771428836 0.022092019935730425 0 0.024645350805645949 0.021826987524462427 0 0.024145456769087314 0.022191706307316438 0 0.02464290159494549 0.022015318642946875 0 0.024145456769087314 0.022191706307316438 0 0.024281826484407177 0.022277833994179545 0 0.02464290159494549 0.022015318642946875 0 0.026182372771428836 0.022092019935730425 0 0.024324880063466541 0.022414299194233718 0 0.029783283441084499 0.022406339058780166 0 0.029703633317715809 0.02249380103188937 0 0.029657490376198747 0.022466098978697901 0 0.030720054883437809 0.023352822368458811 0 0.026182372771428836 0.022092019935730425 0 0.0248854257648497 0.022152200038929544 0 0.02464290159494549 0.022015318642946875 0 0.024721480764224334 0.022554821360273251 0 0.0247733592616734 0.021973211816202046 0 0.024915638328523088 0.021898824772612641 0 0.0248854257648497 0.022152200038929544 0 0.0247733592616734 0.021973211816202046 0 0.0248854257648497 0.022152200038929544 0 0.02464290159494549 0.022015318642946875 0 0.025104572597095035 0.02242502691076859 0 0.0248854257648497 0.022152200038929544 0 0.024721480764224334 0.022554821360273251 0 0.025401674998920529 0.02322482165700725 0 0.025395917420261163 0.023102479128577536 0 0.025276884260957592 0.022965214255932943 0 0.024955330267870373 0.022850843195795979 0 0.025298127090865149 0.022996920784413583 0 0.025401674998920529 0.02322482165700725 0 0.02553161426173001 0.023190973399874491 0 0.025395917420261163 0.023102479128577536 0 0.025559595590696021 0.023348085665406741 0 0.025401674998920529 0.02322482165700725 0 0.02553161426173001 0.023190973399874491 0 0.025674013160735476 0.02329530714612911 0 0.025559595590696021 0.023348085665406741 0 0.02553161426173001 0.023190973399874491 0 0.025617962515554562 0.023185676890865908 0 0.025674013160735476 0.02329530714612911 0 0.02553161426173001 0.023190973399874491 0 0.025617962515554562 0.023185676890865908 0 0.02553161426173001 0.023190973399874491 0 0.025491059889246763 0.023110449837167223 0 0.02553161426173001 0.023190973399874491 0 0.025395917420261163 0.023102479128577536 0 0.025491059889246763 0.023110449837167223 0 0.025395917420261163 0.023102479128577536 0 0.025375723276992869 0.023154201886254586 0 0.025491059889246763 0.023110449837167223 0 0.025375723276992869 0.023154201886254586 0 0.025276884260957592 0.022965214255932943 0 0.025520147773883822 0.023284887550758571 0 0.025395917420261163 0.023102479128577536 0 0.025375723276992869 0.023154201886254586 0 0.025276884260957592 0.022965214255932943 0 0.025636613938442406 0.022840451147404798 0 0.025276884260957592 0.022965214255932943 0 0.025520147773883822 0.023284887550758571 0 0.025432327529836984 0.022458604661694897 0 0.025636613938442406 0.022840451147404798 0 0.025701333258072355 0.022222864568197619 0 0.025432327529836984 0.022458604661694897 0 0.025636613938442406 0.022840451147404798 0 0.025276884260957592 0.022965214255932943 0 0.025432327529836984 0.022458604661694897 0 0.025104572597095035 0.02242502691076859 0 0.025276884260957592 0.022965214255932943 0 0.025104572597095035 0.02242502691076859 0 0.024721480764224334 0.022554821360273251 0 0.025276884260957592 0.022965214255932943 0 0.025986494965821109 0.029544575500174686 0 0.025659488833262915 0.02927860869014761 0 0.025730037618931938 0.036034766397461074 0 0.02477633323604855 0.035868961639016657 0 0.02448720110655473 0.03585424776763621 0 0.02604129934571589 0.023086758664832049 0 0.02676664927684971 0.02274170225045466 0 0.026094660202963554 0.022473563557457561 0 0.025636613938442406 0.022840451147404798 0 0.02604129934571589 0.023086758664832049 0 0.026094660202963554 0.022473563557457561 0 0.025636613938442406 0.022840451147404798 0 0.026094660202963554 0.022473563557457561 0 0.025701333258072355 0.022222864568197619 0 0.025986494965821109 0.029544575500174686 0 0.025446374665606689 0.029385446990922898 0 0.025636613938442406 0.022840451147404798 0 0.02604129934571589 0.023086758664832049 0 0.025520147773883822 0.023284887550758571 0 0.025730037618931938 0.036034766397461074 0 0.025316876938710309 0.035895704224891731 0 0.025516608041412994 0.035842278320099216 0 0.025730037618931938 0.036034766397461074 0 0.025316876938710309 0.035895704224891731 0 0.02477633323604855 0.035868961639016657 0 0.025316876938710309 0.035895704224891731 0 0.025264016711000217 0.035863492466576198 0 0.025516608041412994 0.035842278320099216 0 0.025264016711000217 0.035863492466576198 0 0.02477633323604855 0.035868961639016657 0 0.025394094562675589 0.035837584382920729 0 0.024251161510250203 0.035696804183196845 0 0.024282677390256812 0.035706947415349778 0 0.02477633323604855 0.035868961639016657 0 0.024251161510250203 0.035696804183196845 0 0.02477633323604855 0.035868961639016657 0 0.024102856216293326 0.035648893374467687 0 0.02477633323604855 0.035868961639016657 0 0.025427423158680185 0.03584094252945591 0 0.025394094562675589 0.035837584382920729 0 0.025316876938710309 0.035895704224891731 0 0.025264016711000217 0.035863492466576198 0 0.02477633323604855 0.035868961639016657 0 0.024793708581385469 0.03591407307233016 0 0.024745521531209343 0.035815754180963846 0 0.024251161510250203 0.035696804183196845 0 0.024282677390256812 0.035706947415349778 0 0.024195987488749647 0.035686410244898846 0 0.024282677390256812 0.035706947415349778 0 0.024167187850175954 0.035683967521506696 0 0.024195987488749647 0.035686410244898846 0 0.024282677390256812 0.035706947415349778 0 0.024167187850175954 0.035683967521506696 0 0.02420529148344271 0.035690960960568868 0 0.024282677390256812 0.035706947415349778 0 0.02432782666284963 0.035726923695137629 0 0.02420529148344271 0.035690960960568868 0 0.024282677390256812 0.035706947415349778 0 0.02432782666284963 0.035726923695137629 0 0.02477633323604855 0.035868961639016657 0 0.024087224690351253 0.035689823158530802 0 0.0241571908375375 0.035681300965772572 0 0.02415787935248043 0.035660701978416233 0 0.024087224690351253 0.035689823158530802 0 0.0241571908375375 0.035681300965772572 0 0.024126663605265986 0.035686114763436347 0 0.0241571908375375 0.035681300965772572 0 0.024126663605265986 0.035686114763436347 0 0.02420529148344271 0.035690960960568868 0 0.024126663605265986 0.035686114763436347 0 0.024167187850175954 0.035683967521506696 0 0.02420529148344271 0.035690960960568868 0 0.02432782666284963 0.035726923695137629 0 0.02420529148344271 0.035690960960568868 0 0.024237777420584257 0.035690578827022756 0 0.02432782666284963 0.035726923695137629 0 0.024237777420584257 0.035690578827022756 0 0.024375251582869243 0.035762754374150968 0 0.0241571908375375 0.035681300965772572 0 0.02420529148344271 0.035690960960568868 0 0.024237777420584257 0.035690578827022756 0 0.0241571908375375 0.035681300965772572 0 0.024189229681150878 0.035669015602666908 0 0.02415787935248043 0.035660701978416233 0 0.0241571908375375 0.035681300965772572 0 0.024237777420584257 0.035690578827022756 0 0.024189229681150878 0.035669015602666908 0 0.024237777420584257 0.035690578827022756 0 0.024189229681150878 0.035669015602666908 0 0.024214339243775227 0.035638120679440208 0 0.024189229681150878 0.035669015602666908 0 0.02415787935248043 0.035660701978416233 0 0.024214339243775227 0.035638120679440208 0 0.024295471997713973 0.035649683779120901 0 0.024259580073387039 0.03518201743108975 0 0.024257877959609452 0.035527528349262219 0 0.024295471997713973 0.035649683779120901 0 0.02448720110655473 0.03585424776763621 0 0.024259580073387039 0.03518201743108975 0 0.024237777420584257 0.035690578827022756 0 0.024214339243775227 0.035638120679440208 0 0.024295471997713973 0.035649683779120901 0 0.024214339243775227 0.035638120679440208 0 0.024295471997713973 0.035649683779120901 0 0.024257877959609452 0.035527528349262219 0 0.024237777420584257 0.035690578827022756 0 0.024295471997713973 0.035649683779120901 0 0.024375251582869243 0.035762754374150968 0 0.024295471997713973 0.035649683779120901 0 0.024375251582869243 0.035762754374150968 0 0.02448720110655473 0.03585424776763621 0 0.02432782666284963 0.035726923695137629 0 0.02477633323604855 0.035868961639016657 0 0.024375251582869243 0.035762754374150968 0 0.02477633323604855 0.035868961639016657 0 0.024375251582869243 0.035762754374150968 0 0.02448720110655473 0.03585424776763621 0 0.02676664927684971 0.02274170225045466 0 0.027033029183132044 0.021881548485425915 0 0.026441251387338303 0.021822655555758005 0 0.027033029183132044 0.021881548485425915 0 0.027752041599324543 0.02075708005331189 0 0.027619512605033703 0.022402776966268925 0 0.02676664927684971 0.02274170225045466 0 0.027033029183132044 0.021881548485425915 0 0.027619512605033703 0.022402776966268925 0 0.025659488833262915 0.02927860869014761 0 0.025973135158394296 0.028776763456358212 0 0.027033029183132044 0.021881548485425915 0 0.026441251387338303 0.021822655555758005 0 0.026826673555561238 0.021143527955764133 0 0.026441251387338303 0.021822655555758005 0 0.025965256410118921 0.021881919600668848 0 0.026041106289390305 0.02132945983721888 0 0.02676664927684971 0.02274170225045466 0 0.026441251387338303 0.021822655555758005 0 0.026094660202963554 0.022473563557457561 0 0.026441251387338303 0.021822655555758005 0 0.026094660202963554 0.022473563557457561 0 0.025965256410118921 0.021881919600668848 0 0.026094660202963554 0.022473563557457561 0 0.025701333258072355 0.022222864568197619 0 0.025965256410118921 0.021881919600668848 0 0.025480676073868055 0.021756122802708094 0 0.025701333258072355 0.022222864568197619 0 0.025965256410118921 0.021881919600668848 0 0.025480676073868055 0.021756122802708094 0 0.025965256410118921 0.021881919600668848 0 0.025737693390132481 0.021470581977136863 0 0.025965256410118921 0.021881919600668848 0 0.025737693390132481 0.021470581977136863 0 0.026041106289390305 0.02132945983721888 0 0.025541770646627174 0.021186925776798191 0 0.025845716380268405 0.021158904484972669 0 0.026075321295012388 0.020632159408700012 0 0.025845716380268405 0.021158904484972669 0 0.026041106289390305 0.02132945983721888 0 0.026075321295012388 0.020632159408700012 0 0.025541770646627174 0.021186925776798191 0 0.025737693390132481 0.021470581977136863 0 0.025845716380268405 0.021158904484972669 0 0.025737693390132481 0.021470581977136863 0 0.025845716380268405 0.021158904484972669 0 0.026041106289390305 0.02132945983721888 0 0.026041106289390305 0.02132945983721888 0 0.026367310926974356 0.020990423862088287 0 0.026075321295012388 0.020632159408700012 0 0.026441251387338303 0.021822655555758005 0 0.026041106289390305 0.02132945983721888 0 0.026367310926974356 0.020990423862088287 0 0.026608621255391512 0.019919120638415343 0 0.026709529142499334 0.019109434293822457 0 0.026367310926974356 0.020990423862088287 0 0.026075321295012388 0.020632159408700012 0 0.026557119675025127 0.020359771046643192 0 0.026608621255391512 0.019919120638415343 0 0.026173937622945533 0.020163775634842965 0 0.027209821017059259 0.018764669988790367 0 0.027232404569832992 0.018673480661195532 0 0.027382561561013558 0.018741625651748316 0 0.024924210377673724 0.020101048677380783 0 0.026069412520639913 0.01947971984962011 0 0.02603774590672071 0.019975236814323394 0 0.027209821017059259 0.018764669988790367 0 0.027180341264195326 0.018751638019178261 0 0.027232404569832992 0.018673480661195532 0 0.02624420514873153 0.020943256876605865 0 0.026608621255391512 0.019919120638415343 0 0.026890687997674297 0.020249157758627012 0 0.026854658785485406 0.020635190043810939 0 0.027740456752987426 0.020144279128555435 0 0.028417825276598491 0.017950096437838209 0 0.027754315979868598 0.018202871290891848 0 0.027185213314553404 0.018748690502179741 0 0.027209821017059259 0.018764669988790367 0 0.027180341264195326 0.018751638019178261 0 0.026984974824701354 0.019521010264436638 0 0.026608621255391512 0.019919120638415343 0 0.029169818603428259 0.017678569180776395 0 0.029073697915757066 0.017815651353563885 0 0.028790931506858696 0.017764270398122874 0 0.029218337926916377 0.017395462730970115 0 0.028790931506858696 0.017764270398122874 0 0.028331362915989328 0.017638969339872041 0 0.029218337926916377 0.017395462730970115 0 0.029169818603428259 0.017678569180776395 0 0.028790931506858696 0.017764270398122874 0 0.02931076805226434 0.017784998746499459 0 0.029169818603428259 0.017678569180776395 0 0.029073697915757066 0.017815651353563885 0 0.029268777952178752 0.017979216853298712 0 0.028895298030126988 0.017944690009559186 0 0.029067234993134707 0.018118095815404595 0 0.029268777952178752 0.017979216853298712 0 0.029073697915757066 0.017815651353563885 0 0.028895298030126988 0.017944690009559186 0 0.029268777952178752 0.017979216853298712 0 0.02931076805226434 0.017784998746499459 0 0.029073697915757066 0.017815651353563885 0 0.028895298030126988 0.017944690009559186 0 0.028790931506858696 0.017764270398122874 0 0.028566701001568957 0.018014654018127806 0 0.029073697915757066 0.017815651353563885 0 0.028895298030126988 0.017944690009559186 0 0.028790931506858696 0.017764270398122874 0 0.028331362915989328 0.017638969339872041 0 0.028343619469236997 0.017944246904567668 0 0.028036519013022052 0.018127206968648345 0 0.028790931506858696 0.017764270398122874 0 0.028343619469236997 0.017944246904567668 0 0.028566701001568957 0.018014654018127806 0 0.028790931506858696 0.017764270398122874 0 0.028331362915989328 0.017638969339872041 0 0.028343619469236997 0.017944246904567668 0 0.028566701001568957 0.018014654018127806 0 0.028267735438005433 0.018132792871025573 0 0.028711479825697425 0.018218731934977618 0 0.028343619469236997 0.017944246904567668 0 0.028566701001568957 0.018014654018127806 0 0.028267735438005433 0.018132792871025573 0 0.028343619469236997 0.017944246904567668 0 0.028267735438005433 0.018132792871025573 0 0.028036519013022052 0.018127206968648345 0 0.028267735438005433 0.018132792871025573 0 0.028210268278694203 0.018228565700944107 0 0.027892848595741374 0.018203897171822917 0 0.028267735438005433 0.018132792871025573 0 0.028210268278694203 0.018228565700944107 0 0.028711479825697425 0.018218731934977618 0 0.028502792209003099 0.018357610353910037 0 0.028210268278694203 0.018228565700944107 0 0.028711479825697425 0.018218731934977618 0 0.02891121897902646 0.018449847571050018 0 0.028711479825697425 0.018218731934977618 0 0.029143381836586262 0.018299983138695766 0 0.028711479825697425 0.018218731934977618 0 0.029143381836586262 0.018299983138695766 0 0.029067234993134707 0.018118095815404595 0 0.02934182317139547 0.018179256801881805 0 0.029143381836586262 0.018299983138695766 0 0.029067234993134707 0.018118095815404595 0 0.028895298030126988 0.017944690009559186 0 0.028566701001568957 0.018014654018127806 0 0.028711479825697425 0.018218731934977618 0 0.028895298030126988 0.017944690009559186 0 0.028711479825697425 0.018218731934977618 0 0.029067234993134707 0.018118095815404595 0 0.028371747283411779 0.017744279681425484 0 0.027941054133770238 0.017976276668125481 0 0.027896791795967563 0.01818965754891794 0 0.027896791795967563 0.01818965754891794 0 0.027840129023659354 0.018683586091598724 0 0.02816437082426099 0.018360924413511347 0 0.027941054133770238 0.017976276668125481 0 0.027896791795967563 0.01818965754891794 0 0.027892848595741374 0.018203897171822917 0 0.027998597375584345 0.01816339503015519 0 0.027941054133770238 0.017976276668125481 0 0.027892848595741374 0.018203897171822917 0 0.027998597375584345 0.01816339503015519 0 0.028210268278694203 0.018228565700944107 0 0.027892848595741374 0.018203897171822917 0 0.028267735438005433 0.018132792871025573 0 0.027892848595741374 0.018203897171822917 0 0.028036519013022052 0.018127206968648345 0 0.027892848595741374 0.018203897171822917 0 0.028036519013022052 0.018127206968648345 0 0.027619784894158294 0.018417394556116018 0 0.027896791795967563 0.01818965754891794 0 0.027892848595741374 0.018203897171822917 0 0.027619784894158294 0.018417394556116018 0 0.027577969598605385 0.018721013350820704 0 0.027619784894158294 0.018417394556116018 0 0.027382561561013558 0.018741625651748316 0 0.027499317982324658 0.018748622170852706 0 0.026709529142499334 0.019109434293822457 0 0.027232404569832992 0.018673480661195532 0 0.027619784894158294 0.018417394556116018 0 0.027382561561013558 0.018741625651748316 0 0.028331362915989328 0.017638969339872041 0 0.028036519013022052 0.018127206968648345 0 0.027619784894158294 0.018417394556116018 0 0.027754315979868598 0.018202871290891848 0 0.02767137630250326 0.018351120569821081 0 0.027577969598605385 0.018721013350820704 0 0.027797606629129473 0.019423953509160173 0 0.027299128571987727 0.019895033266488536 0 0.027577969598605385 0.018721013350820704 0 0.027619784894158294 0.018417394556116018 0 0.027840129023659354 0.018683586091598724 0 0.027896791795967563 0.01818965754891794 0 0.027619784894158294 0.018417394556116018 0 0.027840129023659354 0.018683586091598724 0 0.027577969598605385 0.018721013350820704 0 0.027840129023659354 0.018683586091598724 0 0.027797606629129473 0.019423953509160173 0 0.027840129023659354 0.018683586091598724 0 0.027797606629129473 0.019423953509160173 0 0.028230855499606484 0.019447437427039159 0 0.027797606629129473 0.019423953509160173 0 0.027299128571987727 0.019895033266488536 0 0.027752041599324543 0.02075708005331189 0 0.027299128571987727 0.019895033266488536 0 0.026957956736769078 0.020541183939036024 0 0.027752041599324543 0.02075708005331189 0 0.027256672938802972 0.01995963098815929 0 0.026173937622945533 0.020163775634842965 0 0.027299128571987727 0.019895033266488536 0 0.026557119675025127 0.020359771046643192 0 0.026957956736769078 0.020541183939036024 0 0.027577969598605385 0.018721013350820704 0 0.027299128571987727 0.019895033266488536 0 0.026069412520639913 0.01947971984962011 0 0.027299128571987727 0.019895033266488536 0 0.026069412520639913 0.01947971984962011 0 0.02603774590672071 0.019975236814323394 0 0.026557119675025127 0.020359771046643192 0 0.026957956736769078 0.020541183939036024 0 0.026669637208148023 0.02075408829839432 0 0.026367310926974356 0.020990423862088287 0 0.026557119675025127 0.020359771046643192 0 0.026669637208148023 0.02075408829839432 0 0.026441251387338303 0.021822655555758005 0 0.026367310926974356 0.020990423862088287 0 0.026826673555561238 0.021143527955764133 0 0.026367310926974356 0.020990423862088287 0 0.026669637208148023 0.02075408829839432 0 0.026826673555561238 0.021143527955764133 0 0.026957956736769078 0.020541183939036024 0 0.026669637208148023 0.02075408829839432 0 0.026826673555561238 0.021143527955764133 0 0.027033029183132044 0.021881548485425915 0 0.026826673555561238 0.021143527955764133 0 0.027752041599324543 0.02075708005331189 0 0.026957956736769078 0.020541183939036024 0 0.026826673555561238 0.021143527955764133 0 0.027752041599324543 0.02075708005331189 0 0.027752041599324543 0.02075708005331189 0 0.029280670416060361 0.01989460243673552 0 0.028936076949980096 0.021659782919219505 0 0.027752041599324543 0.02075708005331189 0 0.029280670416060361 0.01989460243673552 0 0.028230855499606484 0.019447437427039159 0 0.027797606629129473 0.019423953509160173 0 0.027752041599324543 0.02075708005331189 0 0.028230855499606484 0.019447437427039159 0 0.028230855499606484 0.019447437427039159 0 0.028720674055813827 0.018433598543005809 0 0.02816437082426099 0.018360924413511347 0 0.027840129023659354 0.018683586091598724 0 0.028230855499606484 0.019447437427039159 0 0.02816437082426099 0.018360924413511347 0 0.029280670416060361 0.01989460243673552 0 0.028230855499606484 0.019447437427039159 0 0.028720674055813827 0.018433598543005809 0 0.028371747283411779 0.017744279681425484 0 0.028720674055813827 0.018433598543005809 0 0.029090459907165727 0.017784562868620641 0 0.028371747283411779 0.017744279681425484 0 0.027896791795967563 0.01818965754891794 0 0.02816437082426099 0.018360924413511347 0 0.028371747283411779 0.017744279681425484 0 0.028720674055813827 0.018433598543005809 0 0.02816437082426099 0.018360924413511347 0 0.029320894925719813 0.017336022910439921 0 0.029568798192343052 0.017516866039907181 0 0.029367933996890951 0.017899747132274137 0 0.029568798192343052 0.017516866039907181 0 0.029367933996890951 0.017899747132274137 0 0.029754711139438967 0.017656642349886325 0 0.029320894925719813 0.017336022910439921 0 0.029090459907165727 0.017784562868620641 0 0.029367933996890951 0.017899747132274137 0 0.028720674055813827 0.018433598543005809 0 0.029090459907165727 0.017784562868620641 0 0.029367933996890951 0.017899747132274137 0 0.028745748093293621 0.018386651982945638 0 0.029648135880926123 0.018484994841252014 0 0.029280670416060361 0.01989460243673552 0 0.030101252861259205 0.018851718970890507 0 0.030628692266917942 0.019688124149991857 0 0.029280670416060361 0.01989460243673552 0 0.028720674055813827 0.018433598543005809 0 0.030101252861259205 0.018851718970890507 0 0.029648135880926123 0.018484994841252014 0 0.030682858692198972 0.017662388715484739 0 0.030101252861259205 0.018851718970890507 0 0.030628692266917942 0.019688124149991857 0 0.031290408166311172 0.01916509397148107 0 0.029280670416060361 0.01989460243673552 0 0.030628692266917942 0.019688124149991857 0 0.03039741213861832 0.020646809792890148 0 0.029280670416060361 0.01989460243673552 0 0.03039741213861832 0.020646809792890148 0 0.028936076949980096 0.021659782919219505 0 0.026489533382684526 0.032148395342295535 0 0.026446881175767371 0.033038182664606952 0 0.024827653880191286 0.034294673459790335 0 0.028431690833456515 0.026411430816324598 0 0.026855644277492263 0.027921384991108519 0 0.026489533382684526 0.032148395342295535 0 0.026446881175767371 0.033038182664606952 0 0.027873906265179261 0.032185035069270382 0 0.026252458143597349 0.034716739894351437 0 0.026194604897399103 0.035726672790446445 0 0.027021013637726122 0.034513114952585348 0 0.025972464862096853 0.034135074822414242 0 0.026252458143597349 0.034716739894351437 0 0.026555900177250975 0.034336241186219321 0 0.025972464862096853 0.034135074822414242 0 0.026252458143597349 0.034716739894351437 0 0.025559721352944841 0.034814972704365073 0 0.026252458143597349 0.034716739894351437 0 0.026194604897399103 0.035726672790446445 0 0.025559721352944841 0.034814972704365073 0 0.026194604897399103 0.035726672790446445 0 0.025190559052451621 0.035360746196172271 0 0.024823627984560358 0.036200371052816573 0 0.025190559052451621 0.035360746196172271 0 0.024577757942225841 0.03502582887614937 0 0.024823627984560358 0.036200371052816573 0 0.026194604897399103 0.035726672790446445 0 0.025190559052451621 0.035360746196172271 0 0.025559721352944841 0.034814972704365073 0 0.025190559052451621 0.035360746196172271 0 0.02503043876152863 0.034880979037953841 0 0.025559721352944841 0.034814972704365073 0 0.025190559052451621 0.035360746196172271 0 0.02503043876152863 0.034880979037953841 0 0.024577757942225841 0.03502582887614937 0 0.02503043876152863 0.034880979037953841 0 0.025559721352944841 0.034814972704365073 0 0.024827653880191286 0.034294673459790335 0 0.025972464862096853 0.034135074822414242 0 0.025559721352944841 0.034814972704365073 0 0.024827653880191286 0.034294673459790335 0 0.026007761365441518 0.033678105521900953 0 0.024922833575674229 0.034197709262965656 0 0.026489533382684526 0.032148395342295535 0 0.02469533895296986 0.034276552295920984 0 0.024827653880191286 0.034294673459790335 0 0.02469533895296986 0.034276552295920984 0 0.024259580073387039 0.03518201743108975 0 0.024577757942225841 0.03502582887614937 0 0.027752041599324543 0.02075708005331189 0 0.028936076949980096 0.021659782919219505 0 0.027619512605033703 0.022402776966268925 0 0.02503043876152863 0.034880979037953841 0 0.024827653880191286 0.034294673459790335 0 0.024577757942225841 0.03502582887614937 0 0.02469533895296986 0.034276552295920984 0 0.024827653880191286 0.034294673459790335 0 0.024577757942225841 0.03502582887614937 0 0.026855644277492263 0.027921384991108519 0 0.025973135158394296 0.028776763456358212 0 0.024259580073387039 0.03518201743108975 0 0.024399311552044892 0.035328051884627211 0 0.02429409790807233 0.035450016444385127 0 0.024259580073387039 0.03518201743108975 0 0.024577757942225841 0.03502582887614937 0 0.024399311552044892 0.035328051884627211 0 0.024577757942225841 0.03502582887614937 0 0.024399311552044892 0.035328051884627211 0 0.024402053113341191 0.035594360296939 0 0.024577757942225841 0.03502582887614937 0 0.024093795000608348 0.037334474916049076 0 0.024823627984560358 0.036200371052816573 0 0.024523008369123394 0.035135349473781698 0 0.024264883711325062 0.036403303952955116 0 0.024399311552044892 0.035328051884627211 0 0.024298967466965051 0.035538458883138592 0 0.024402053113341191 0.035594360296939 0 0.024298967466965051 0.035538458883138592 0 0.024402053113341191 0.035594360296939 0 0.024276486322342389 0.035612946985088573 0 0.024259580073387039 0.03518201743108975 0 0.024257877959609452 0.035527528349262219 0 0.02429409790807233 0.035450016444385127 0 0.024399311552044892 0.035328051884627211 0 0.024298967466965051 0.035538458883138592 0 0.02429409790807233 0.035450016444385127 0 0.024298967466965051 0.035538458883138592 0 0.02429409790807233 0.035450016444385127 0 0.024217347284836717 0.035598314032366379 0 0.024214339243775227 0.035638120679440208 0 0.024257877959609452 0.035527528349262219 0 0.024217347284836717 0.035598314032366379 0 0.024257877959609452 0.035527528349262219 0 0.02429409790807233 0.035450016444385127 0 0.024217347284836717 0.035598314032366379 0 0.02415787935248043 0.035660701978416233 0 0.024217347284836717 0.035598314032366379 0 0.024129205838023346 0.035670508340460816 0 0.02415787935248043 0.035660701978416233 0 0.024214339243775227 0.035638120679440208 0 0.024217347284836717 0.035598314032366379 0 0.024298967466965051 0.035538458883138592 0 0.024217347284836717 0.035598314032366379 0 0.024223711921915875 0.035621938093469488 0 0.024217347284836717 0.035598314032366379 0 0.024223711921915875 0.035621938093469488 0 0.024129205838023346 0.035670508340460816 0 0.024223711921915875 0.035621938093469488 0 0.024129205838023346 0.035670508340460816 0 0.024175019208690796 0.035671097053649341 0 0.024087224690351253 0.035689823158530802 0 0.02415787935248043 0.035660701978416233 0 0.024129205838023346 0.035670508340460816 0 0.024264883711325062 0.036403303952955116 0 0.024031569753582175 0.036282974914331828 0 0.024093795000608348 0.037334474916049076 0 0.023890946635440741 0.037128487445087982 0 0.023998622685551314 0.036813089747763143 0 0.024402053113341191 0.035594360296939 0 0.024175019208690796 0.035671097053649341 0 0.024091154501320204 0.035735484277159474 0 0.024223711921915875 0.035621938093469488 0 0.024276486322342389 0.035612946985088573 0 0.024175019208690796 0.035671097053649341 0 0.024298967466965051 0.035538458883138592 0 0.024223711921915875 0.035621938093469488 0 0.024276486322342389 0.035612946985088573 0 0.024402053113341191 0.035594360296939 0 0.024276486322342389 0.035612946985088573 0 0.024175019208690796 0.035671097053649341 0 0.024224451910223148 0.037405288278762661 0 0.02364822420849181 0.037306377937689247 0 0.023118591674868492 0.037740083394454851 0 0.023890946635440741 0.037128487445087982 0 0.024224451910223148 0.037405288278762661 0 0.02364822420849181 0.037306377937689247 0 0.024093795000608348 0.037334474916049076 0 0.023890946635440741 0.037128487445087982 0 0.024224451910223148 0.037405288278762661 0 0.023890946635440741 0.037128487445087982 0 0.02364822420849181 0.037306377937689247 0 0.023308821944217135 0.036989383709629252 0 0.02364822420849181 0.037306377937689247 0 0.023118591674868492 0.037740083394454851 0 0.023308821944217135 0.036989383709629252 0 0.023118591674868492 0.037740083394454851 0 0.023308821944217135 0.036989383709629252 0 0.022550120950164034 0.037089777842707249 0 0.023014906305065037 0.03887515641009609 0 0.023118591674868492 0.037740083394454851 0 0.021960226820402655 0.038528057219412958 0 0.023014906305065037 0.03887515641009609 0 0.024224451910223148 0.037405288278762661 0 0.023118591674868492 0.037740083394454851 0 0.024648612974774432 0.037172085205854855 0 0.024231104216919482 0.037463135783582811 0 0.024093795000608348 0.037334474916049076 0 0.024224451910223148 0.037405288278762661 0 0.024823627984560358 0.036200371052816573 0 0.026194604897399103 0.035726672790446445 0 0.024224451910223148 0.037405288278762661 0 0.024823627984560358 0.036200371052816573 0 0.02357304738403488 0.03660457308932738 0 0.023776335308355403 0.036216661565723611 0 0.023342864724489987 0.036281704364182855 0 0.022957898697512091 0.036455195236769794 0 0.023342864724489987 0.036281704364182855 0 0.022790032743899249 0.036159164093428418 0 0.02357304738403488 0.03660457308932738 0 0.022957898697512091 0.036455195236769794 0 0.023342864724489987 0.036281704364182855 0 0.022957898697512091 0.036455195236769794 0 0.023308821944217135 0.036989383709629252 0 0.022550120950164034 0.037089777842707249 0 0.02357304738403488 0.03660457308932738 0 0.022957898697512091 0.036455195236769794 0 0.023308821944217135 0.036989383709629252 0 0.023890946635440741 0.037128487445087982 0 0.02357304738403488 0.03660457308932738 0 0.023308821944217135 0.036989383709629252 0 0.023890946635440741 0.037128487445087982 0 0.02357304738403488 0.03660457308932738 0 0.023998622685551314 0.036813089747763143 0 0.024091154501320204 0.035735484277159474 0 0.024019068750092128 0.035720239164493905 0 0.023847567063223215 0.035813895577330578 0 0.024175019208690796 0.035671097053649341 0 0.024091154501320204 0.035735484277159474 0 0.024019068750092128 0.035720239164493905 0 0.024087224690351253 0.035689823158530802 0 0.024129205838023346 0.035670508340460816 0 0.024019068750092128 0.035720239164493905 0 0.024087224690351253 0.035689823158530802 0 0.024019068750092128 0.035720239164493905 0 0.024000250953784642 0.035723976106644267 0 0.024129205838023346 0.035670508340460816 0 0.024175019208690796 0.035671097053649341 0 0.024019068750092128 0.035720239164493905 0 0.024019068750092128 0.035720239164493905 0 0.023871175147328613 0.035781691775328542 0 0.024000250953784642 0.035723976106644267 0 0.024019068750092128 0.035720239164493905 0 0.023847567063223215 0.035813895577330578 0 0.023871175147328613 0.035781691775328542 0 0.023847567063223215 0.035813895577330578 0 0.023616800303277955 0.035836094016241098 0 0.023776335308355403 0.036216661565723611 0 0.023847567063223215 0.035813895577330578 0 0.023616800303277955 0.035836094016241098 0 0.023871175147328613 0.035781691775328542 0 0.024031569753582175 0.036282974914331828 0 0.023823803252464425 0.036211992471428089 0 0.02357304738403488 0.03660457308932738 0 0.023998622685551314 0.036813089747763143 0 0.023776335308355403 0.036216661565723611 0 0.024091154501320204 0.035735484277159474 0 0.023847567063223215 0.035813895577330578 0 0.023776335308355403 0.036216661565723611 0 0.023616800303277955 0.035836094016241098 0 0.023464338113952092 0.036519129111552008 0 0.022730615097474281 0.036439180801158468 0 0.023616800303277955 0.035836094016241098 0 0.023776335308355403 0.036216661565723611 0 0.023464338113952092 0.036519129111552008 0 0.023464338113952092 0.036519129111552008 0 0.022569973522964453 0.037346326474135501 0 0.022730615097474281 0.036439180801158468 0 0.023464338113952092 0.036519129111552008 0 0.023625375065023154 0.036580728971860099 0 0.022569973522964453 0.037346326474135501 0 0.023464338113952092 0.036519129111552008 0 0.023634085241483443 0.036300351725091447 0 0.023625375065023154 0.036580728971860099 0 0.023776335308355403 0.036216661565723611 0 0.023464338113952092 0.036519129111552008 0 0.023634085241483443 0.036300351725091447 0 0.023634085241483443 0.036300351725091447 0 0.023342864724489987 0.036281704364182855 0 0.023295426421265107 0.036163992982596385 0 0.023634085241483443 0.036300351725091447 0 0.023295426421265107 0.036163992982596385 0 0.023447886298847542 0.036039151168017793 0 0.023776335308355403 0.036216661565723611 0 0.023634085241483443 0.036300351725091447 0 0.023342864724489987 0.036281704364182855 0 0.023342864724489987 0.036281704364182855 0 0.023295426421265107 0.036163992982596385 0 0.022790032743899249 0.036159164093428418 0 0.023295426421265107 0.036163992982596385 0 0.023220076629161049 0.036031301044443242 0 0.023024781807483099 0.036081158402324114 0 0.023295426421265107 0.036163992982596385 0 0.023220076629161049 0.036031301044443242 0 0.023447886298847542 0.036039151168017793 0 0.023220076629161049 0.036031301044443242 0 0.023447886298847542 0.036039151168017793 0 0.023087858894388691 0.035821708491538422 0 0.021171501251098946 0.037292215558521781 0 0.021723462109970431 0.033315215033079174 0 0.021171501251098946 0.037292215558521781 0 0.022235603196909898 0.037241863354166696 0 0.023634085241483443 0.036300351725091447 0 0.023447886298847542 0.036039151168017793 0 0.023625375065023154 0.036580728971860099 0 0.019239722338452094 0.037896275354562976 0 0.019589936795181374 0.037051117386842927 0 0.02098224483704916 0.038042009644376019 0 0.019239722338452094 0.037896275354562976 0 0.019589936795181374 0.037051117386842927 0 0.018786265726453793 0.037261438210431694 0 0.019589936795181374 0.037051117386842927 0 0.018786265726453793 0.037261438210431694 0 0.018548523814107914 0.036709776565047009 0 0.018786265726453793 0.037261438210431694 0 0.018308009136075876 0.037011143665422012 0 0.017819360980723512 0.037481352972284013 0 0.019239722338452094 0.037896275354562976 0 0.018786265726453793 0.037261438210431694 0 0.017819360980723512 0.037481352972284013 0 0.018786265726453793 0.037261438210431694 0 0.018308009136075876 0.037011143665422012 0 0.018548523814107914 0.036709776565047009 0 0.018308009136075876 0.037011143665422012 0 0.018548523814107914 0.036709776565047009 0 0.017981663648386187 0.036607263259925624 0 0.018548523814107914 0.036709776565047009 0 0.018437755644672493 0.035882604828749894 0 0.01780593632706777 0.036639135950096324 0 0.018375007970898912 0.036301607793785648 0 0.018509926247583075 0.035314806563368308 0 0.018548523814107914 0.036709776565047009 0 0.019299444385947859 0.036237155127332346 0 0.018437755644672493 0.035882604828749894 0 0.019589936795181374 0.037051117386842927 0 0.019299444385947859 0.036237155127332346 0 0.020503277870429305 0.036589892368018809 0 0.019589936795181374 0.037051117386842927 0 0.018548523814107914 0.036709776565047009 0 0.019299444385947859 0.036237155127332346 0 0.019299444385947859 0.036237155127332346 0 0.019567109805731075 0.034999837068498102 0 0.020503277870429305 0.036589892368018809 0 0.019299444385947859 0.036237155127332346 0 0.019567109805731075 0.034999837068498102 0 0.018437755644672493 0.035882604828749894 0 0.017692006370048533 0.034999843936294413 0 0.018437755644672493 0.035882604828749894 0 0.01780593632706777 0.036639135950096324 0 0.019567109805731075 0.034999837068498102 0 0.017692006370048533 0.034999843936294413 0 0.018437755644672493 0.035882604828749894 0 0.017690447267200489 0.035002844167921036 0 0.018509926247583075 0.035314806563368308 0 0.019567109805731075 0.034999837068498102 0 0.021442677563563065 0.034999908813126722 0 0.020503277870429305 0.036589892368018809 0 0.020503277870429305 0.036589892368018809 0 0.0219053528419513 0.036178440055627981 0 0.021569071651813286 0.036963007869022672 0 0.021442677563563065 0.034999908813126722 0 0.020503277870429305 0.036589892368018809 0 0.0219053528419513 0.036178440055627981 0 0.021569071651813286 0.036963007869022672 0 0.022032861959637332 0.037431852635108773 0 0.02237779569254697 0.037108730089684135 0 0.020503277870429305 0.036589892368018809 0 0.021569071651813286 0.036963007869022672 0 0.02098224483704916 0.038042009644376019 0 0.019589936795181374 0.037051117386842927 0 0.020503277870429305 0.036589892368018809 0 0.02098224483704916 0.038042009644376019 0 0.021569071651813286 0.036963007869022672 0 0.02098224483704916 0.038042009644376019 0 0.022032861959637332 0.037431852635108773 0 0.022235603196909898 0.037241863354166696 0 0.022435891788776516 0.037326426290811121 0 0.02098224483704916 0.038042009644376019 0 0.022032861959637332 0.037431852635108773 0 0.022569973522964453 0.037346326474135501 0 0.022331780674394695 0.037478989204592618 0 0.022314897921963093 0.037443079247422587 0 0.022569973522964453 0.037346326474135501 0 0.022032861959637332 0.037431852635108773 0 0.022314897921963093 0.037443079247422587 0 0.022569973522964453 0.037346326474135501 0 0.022331780674394695 0.037478989204592618 0 0.022569973522964453 0.037346326474135501 0 0.022222122320343863 0.03736469793364413 0 0.02331646947525922 0.037051791849713543 0 0.023611223515886428 0.03644410461818947 0 0.022331780674394695 0.037478989204592618 0 0.022362466182687116 0.037330336241804186 0 0.022314897921963093 0.037443079247422587 0 0.022032861959637332 0.037431852635108773 0 0.022362466182687116 0.037330336241804186 0 0.022314897921963093 0.037443079247422587 0 0.025352795607159313 0.036065858442001733 0 0.025335589607440655 0.03612314044192589 0 0.025379858886304521 0.036057680909142791 0 0.024011542496871607 0.036849266846048723 0 0.023611223515886428 0.03644410461818947 0 0.025352795607159313 0.036065858442001733 0 0.025335589607440655 0.03612314044192589 0 0.025331906406371719 0.036069340341244094 0 0.022331780674394695 0.037478989204592618 0 0.022362466182687116 0.037330336241804186 0 0.022700576581192806 0.037128081619076631 0 0.022331780674394695 0.037478989204592618 0 0.022700576581192806 0.037128081619076631 0 0.022340296363865381 0.037577416483178659 0 0.025352795607159313 0.036065858442001733 0 0.025331906406371719 0.036069340341244094 0 0.025345574953083368 0.036034013953329079 0 0.023697564483411326 0.037259538998380255 0 0.02237779569254697 0.037108730089684135 0 0.023066619972249101 0.036365578609102119 0 0.024011542496871607 0.036849266846048723 0 0.022174714270543697 0.037158146950434262 0 0.022362466182687116 0.037330336241804186 0 0.022700576581192806 0.037128081619076631 0 0.02237779569254697 0.037108730089684135 0 0.022032861959637332 0.037431852635108773 0 0.022362466182687116 0.037330336241804186 0 0.02237779569254697 0.037108730089684135 0 0.0219053528419513 0.036178440055627981 0 0.021569071651813286 0.036963007869022672 0 0.02237779569254697 0.037108730089684135 0 0.0219053528419513 0.036178440055627981 0 0.02237779569254697 0.037108730089684135 0 0.023066619972249101 0.036365578609102119 0 0.023697564483411326 0.037259538998380255 0 0.023066619972249101 0.036365578609102119 0 0.024247190506303903 0.03644218833024384 0 0.024011542496871607 0.036849266846048723 0 0.024090645499427448 0.03670249981472401 0 0.023066619972249101 0.036365578609102119 0 0.023318099636585123 0.034999899866494218 0 0.024247190506303903 0.03644218833024384 0 0.021442677563563065 0.034999908813126722 0 0.0219053528419513 0.036178440055627981 0 0.023318099636585123 0.034999899866494218 0 0.0219053528419513 0.036178440055627981 0 0.023066619972249101 0.036365578609102119 0 0.023318099636585123 0.034999899866494218 0 0.025193859058894222 0.034999927305247917 0 0.025399470713205148 0.03645593936733791 0 0.026504012817673461 0.036197289329212845 0 0.025193859058894222 0.034999927305247917 0 0.024247190506303903 0.03644218833024384 0 0.025399470713205148 0.03645593936733791 0 0.023318099636585123 0.034999899866494218 0 0.025193859058894222 0.034999927305247917 0 0.024247190506303903 0.03644218833024384 0 0.024247190506303903 0.03644218833024384 0 0.025399470713205148 0.03645593936733791 0 0.024868525382910369 0.037431901868577394 0 0.025399470713205148 0.03645593936733791 0 0.025976426557894328 0.03741792358446748 0 0.026504012817673461 0.036197289329212845 0 0.026213189839465592 0.035864591576436948 0 0.025076911507609732 0.03674781622554793 0 0.025399470713205148 0.03645593936733791 0 0.025976426557894328 0.03741792358446748 0 0.024868525382910369 0.037431901868577394 0 0.026213189839465592 0.035864591576436948 0 0.025674722697222582 0.035218250327321725 0 0.02528350919081962 0.036112388999499478 0 0.025308383733440659 0.036116600141301483 0 0.025293496482023569 0.036067478614147108 0 0.025335589607440655 0.03612314044192589 0 0.0253194617895619 0.036096185161516095 0 0.025331906406371719 0.036069340341244094 0 0.025335589607440655 0.03612314044192589 0 0.025308383733440659 0.036116600141301483 0 0.0253194617895619 0.036096185161516095 0 0.025308383733440659 0.036116600141301483 0 0.0253194617895619 0.036096185161516095 0 0.025293496482023569 0.036067478614147108 0 0.023726042587628643 0.037437421944746016 0 0.024247190506303903 0.03644218833024384 0 0.024868525382910369 0.037431901868577394 0 0.024011542496871607 0.036849266846048723 0 0.025076911507609732 0.03674781622554793 0 0.0253194617895619 0.036096185161516095 0 0.025331906406371719 0.036069340341244094 0 0.025293496482023569 0.036067478614147108 0 0.026450425558780303 0.033458431628393973 0 0.026002287557051019 0.034778261075554033 0 0.02677066348446518 0.034393471382326971 0 0.026002287557051019 0.034778261075554033 0 0.02623204771245374 0.035443208928886638 0 0.02677066348446518 0.034393471382326971 0 0.026002287557051019 0.034778261075554033 0 0.02623204771245374 0.035443208928886638 0 0.025873832087101624 0.035548460066661916 0 0.02623204771245374 0.035443208928886638 0 0.025873832087101624 0.035548460066661916 0 0.026146418807621186 0.035772533527028472 0 0.02623204771245374 0.035443208928886638 0 0.026146418807621186 0.035772533527028472 0 0.02677025254285758 0.035774447425133728 0 0.02557268181811451 0.035799554402311765 0 0.025505882347549462 0.035830022804082318 0 0.025873832087101624 0.035548460066661916 0 0.026146418807621186 0.035772533527028472 0 0.025680316504212111 0.035724674713613049 0 0.02531204445898088 0.036009405891847535 0 0.025353597575765094 0.035995089842798075 0 0.025348478702988557 0.035932375916627263 0 0.02531204445898088 0.036009405891847535 0 0.025345574953083368 0.036034013953329079 0 0.025353597575765094 0.035995089842798075 0 0.025674722697222582 0.035218250327321725 0 0.02557268181811451 0.035799554402311765 0 0.025331906406371719 0.036069340341244094 0 0.02531204445898088 0.036009405891847535 0 0.025345574953083368 0.036034013953329079 0 0.025331906406371719 0.036069340341244094 0 0.025293496482023569 0.036067478614147108 0 0.02531204445898088 0.036009405891847535 0 0.023611223515886428 0.03644410461818947 0 0.024804192006342027 0.035699393675757744 0 0.025364811211646045 0.036024326043263097 0 0.025379858886304521 0.036057680909142791 0 0.025396207462577029 0.035967108944882843 0 0.025352795607159313 0.036065858442001733 0 0.025345574953083368 0.036034013953329079 0 0.025364811211646045 0.036024326043263097 0 0.025352795607159313 0.036065858442001733 0 0.025364811211646045 0.036024326043263097 0 0.025379858886304521 0.036057680909142791 0 0.025345574953083368 0.036034013953329079 0 0.025364811211646045 0.036024326043263097 0 0.025353597575765094 0.035995089842798075 0 0.023899115046013275 0.035444230260375055 0 0.023814178858339918 0.035598097212562532 0 0.023944717918362109 0.03573312201279067 0 0.022569973522964453 0.037346326474135501 0 0.022222122320343863 0.03736469793364413 0 0.022730615097474281 0.036439180801158468 0 0.023611223515886428 0.03644410461818947 0 0.02326782777407755 0.036084664842432806 0 0.023616800303277955 0.035836094016241098 0 0.023814178858339918 0.035598097212562532 0 0.0238596763814958 0.035770550057242549 0 0.023814178858339918 0.035598097212562532 0 0.023944717918362109 0.03573312201279067 0 0.0238596763814958 0.035770550057242549 0 0.023525110977518894 0.035860757287720549 0 0.02326782777407755 0.036084664842432806 0 0.025364811211646045 0.036024326043263097 0 0.025353597575765094 0.035995089842798075 0 0.025396207462577029 0.035967108944882843 0 0.025353597575765094 0.035995089842798075 0 0.025396207462577029 0.035967108944882843 0 0.025348478702988557 0.035932375916627263 0 0.025396207462577029 0.035967108944882843 0 0.025427423158680185 0.03584094252945591 0 0.025348478702988557 0.035932375916627263 0 0.023944717918362109 0.03573312201279067 0 0.024025938046883803 0.035705285668726112 0 0.024102856216293326 0.035648893374467687 0 0.024804192006342027 0.035699393675757744 0 0.024745521531209343 0.035815754180963846 0 0.023944717918362109 0.03573312201279067 0 0.023947357883309445 0.03574307059188004 0 0.024025938046883803 0.035705285668726112 0 0.023616800303277955 0.035836094016241098 0 0.0238596763814958 0.035770550057242549 0 0.023871175147328613 0.035781691775328542 0 0.023944717918362109 0.03573312201279067 0 0.0238596763814958 0.035770550057242549 0 0.023947357883309445 0.03574307059188004 0 0.023947357883309445 0.03574307059188004 0 0.024000190134931258 0.035726755212850993 0 0.024025938046883803 0.035705285668726112 0 0.0238596763814958 0.035770550057242549 0 0.023947357883309445 0.03574307059188004 0 0.023871175147328613 0.035781691775328542 0 0.023947357883309445 0.03574307059188004 0 0.023871175147328613 0.035781691775328542 0 0.024000190134931258 0.035726755212850993 0 0.023871175147328613 0.035781691775328542 0 0.024000250953784642 0.035723976106644267 0 0.024000190134931258 0.035726755212850993 0 0.024000250953784642 0.035723976106644267 0 0.024000190134931258 0.035726755212850993 0 0.02406600742842081 0.035700034007622346 0 0.024000190134931258 0.035726755212850993 0 0.024074684558234759 0.035689671613057854 0 0.02406600742842081 0.035700034007622346 0 0.024000190134931258 0.035726755212850993 0 0.024025938046883803 0.035705285668726112 0 0.024074684558234759 0.035689671613057854 0 0.024074684558234759 0.035689671613057854 0 0.02411395089064686 0.035684538132289549 0 0.024135369910894256 0.035669339583380998 0 0.024074684558234759 0.035689671613057854 0 0.02411395089064686 0.035684538132289549 0 0.02406600742842081 0.035700034007622346 0 0.024126663605265986 0.035686114763436347 0 0.024167187850175954 0.035683967521506696 0 0.02411395089064686 0.035684538132289549 0 0.024126663605265986 0.035686114763436347 0 0.02411395089064686 0.035684538132289549 0 0.02406600742842081 0.035700034007622346 0 0.024087224690351253 0.035689823158530802 0 0.024126663605265986 0.035686114763436347 0 0.02406600742842081 0.035700034007622346 0 0.024087224690351253 0.035689823158530802 0 0.024000250953784642 0.035723976106644267 0 0.02406600742842081 0.035700034007622346 0 0.025427423158680185 0.03584094252945591 0 0.025394094562675589 0.035837584382920729 0 0.025348478702988557 0.035932375916627263 0 0.025394094562675589 0.035837584382920729 0 0.025516608041412994 0.035842278320099216 0 0.025680316504212111 0.035724674713613049 0 0.025412929942269558 0.035858265198262324 0 0.025505882347549462 0.035830022804082318 0 0.024025938046883803 0.035705285668726112 0 0.024102856216293326 0.035648893374467687 0 0.024094384242480026 0.035670649079564812 0 0.024025938046883803 0.035705285668726112 0 0.024074684558234759 0.035689671613057854 0 0.024094384242480026 0.035670649079564812 0 0.024251161510250203 0.035696804183196845 0 0.024102856216293326 0.035648893374467687 0 0.024123190844760767 0.035661082893172179 0 0.024102856216293326 0.035648893374467687 0 0.024123190844760767 0.035661082893172179 0 0.024094384242480026 0.035670649079564812 0 0.024074684558234759 0.035689671613057854 0 0.024094384242480026 0.035670649079564812 0 0.024135369910894256 0.035669339583380998 0 0.024123190844760767 0.035661082893172179 0 0.024094384242480026 0.035670649079564812 0 0.024135369910894256 0.035669339583380998 0 0.024167187850175954 0.035683967521506696 0 0.02411395089064686 0.035684538132289549 0 0.024135369910894256 0.035669339583380998 0 0.024251161510250203 0.035696804183196845 0 0.024135369910894256 0.035669339583380998 0 0.024195987488749647 0.035686410244898846 0 0.024167187850175954 0.035683967521506696 0 0.024135369910894256 0.035669339583380998 0 0.024195987488749647 0.035686410244898846 0 0.024251161510250203 0.035696804183196845 0 0.024123190844760767 0.035661082893172179 0 0.024135369910894256 0.035669339583380998 0 0.025264016711000217 0.035863492466576198 0 0.025394094562675589 0.035837584382920729 0 0.025516608041412994 0.035842278320099216 0 0.025730037618931938 0.036034766397461074 0 0.025516608041412994 0.035842278320099216 0 0.025874252355015268 0.035837008804515944 0 0.025516608041412994 0.035842278320099216 0 0.025874252355015268 0.035837008804515944 0 0.025680316504212111 0.035724674713613049 0 0.025730037618931938 0.036034766397461074 0 0.025874252355015268 0.035837008804515944 0 0.026349887276330135 0.035919367051694254 0 0.025874252355015268 0.035837008804515944 0 0.026146418807621186 0.035772533527028472 0 0.026349887276330135 0.035919367051694254 0 0.025874252355015268 0.035837008804515944 0 0.026146418807621186 0.035772533527028472 0 0.025680316504212111 0.035724674713613049 0 0.026349887276330135 0.035919367051694254 0 0.026640980664466921 0.035792869982433979 0 0.026530803827142773 0.035729137666447287 0 0.02880572891240606 0.031433459734167404 0 0.027612367533745109 0.036878553247455995 0 0.026146418807621186 0.035772533527028472 0 0.026349887276330135 0.035919367051694254 0 0.026478065188302893 0.035754445109443006 0 0.026349887276330135 0.035919367051694254 0 0.026530803827142773 0.035729137666447287 0 0.026478065188302893 0.035754445109443006 0 0.025375723276992869 0.023154201886254586 0 0.025520147773883822 0.023284887550758571 0 0.025407235856289893 0.023273696326389853 0 0.025446374665606689 0.029385446990922898 0 0.02880572891240606 0.031433459734167404 0 0.035804321103185641 0.029412672873069 0 0.035829941562764242 0.029561578418062881 0 0.035831706952059374 0.029656171079284657 0 0.025375723276992869 0.023154201886254586 0 0.025491059889246763 0.023110449837167223 0 0.025407235856289893 0.023273696326389853 0 0.030349476253137508 0.025535992889860228 0 0.02880572891240606 0.031433459734167404 0 0.02880572891240606 0.031433459734167404 0 0.033909438006155583 0.033536717198016652 0 0.029085543761436187 0.038062630104844591 0 0.029243036413814871 0.036486471041179094 0 0.030795812772112727 0.037018919779047581 0 0.029243036413814871 0.036486471041179094 0 0.030795812772112727 0.037018919779047581 0 0.030218147453120663 0.035741864292454975 0 0.030795812772112727 0.037018919779047581 0 0.030218147453120663 0.035741864292454975 0 0.032396938325270727 0.036047216475624054 0 0.029243036413814871 0.036486471041179094 0 0.030218147453120663 0.035741864292454975 0 0.029063538605386314 0.035233785900752462 0 0.029243036413814871 0.036486471041179094 0 0.029063538605386314 0.035233785900752462 0 0.028139862267414332 0.035841069973380518 0 0.029063538605386314 0.035233785900752462 0 0.028139862267414332 0.035841069973380518 0 0.02755915327764185 0.034867714193320139 0 0.029243036413814871 0.036486471041179094 0 0.028139862267414332 0.035841069973380518 0 0.027996544699146239 0.037111709496006513 0 0.029085543761436187 0.038062630104844591 0 0.029243036413814871 0.036486471041179094 0 0.027996544699146239 0.037111709496006513 0 0.028139862267414332 0.035841069973380518 0 0.027996544699146239 0.037111709496006513 0 0.02677025254285758 0.035774447425133728 0 0.026146418807621186 0.035772533527028472 0 0.026478065188302893 0.035754445109443006 0 0.02677025254285758 0.035774447425133728 0 0.026530803827142773 0.035729137666447287 0 0.026478065188302893 0.035754445109443006 0 0.02677025254285758 0.035774447425133728 0 0.027612367533745109 0.036878553247455995 0 0.026655714556277323 0.035714228866325741 0 0.02623204771245374 0.035443208928886638 0 0.02677025254285758 0.035774447425133728 0 0.02755915327764185 0.034867714193320139 0 0.028139862267414332 0.035841069973380518 0 0.02677025254285758 0.035774447425133728 0 0.02755915327764185 0.034867714193320139 0 0.02623204771245374 0.035443208928886638 0 0.02755915327764185 0.034867714193320139 0 0.02677066348446518 0.034393471382326971 0 0.027071800158993728 0.034998311687094184 0 0.028810196015440732 0.035377841044693742 0 0.03160215520677561 0.034999529754774571 0 0.02755915327764185 0.034867714193320139 0 0.02677066348446518 0.034393471382326971 0 0.028122239772278384 0.033376224759975787 0 0.02755915327764185 0.034867714193320139 0 0.028122239772278384 0.033376224759975787 0 0.028929838886343616 0.034319498562150191 0 0.029063538605386314 0.035233785900752462 0 0.02755915327764185 0.034867714193320139 0 0.028929838886343616 0.034319498562150191 0 0.026450425558780303 0.033458431628393973 0 0.02677066348446518 0.034393471382326971 0 0.028122239772278384 0.033376224759975787 0 0.026213189839465592 0.035864591576436948 0 0.028143823608891179 0.034924703156935938 0 0.026513286845141586 0.036728228874752612 0 0.028042963215982937 0.036631403084671089 0 0.026901981318430541 0.035747923014301242 0 0.026213189839465592 0.035864591576436948 0 0.026639800807508943 0.036161472424167437 0 0.028042963215982937 0.036631403084671089 0 0.026901981318430541 0.035747923014301242 0 0.028810196015440732 0.035377841044693742 0 0.026901981318430541 0.035747923014301242 0 0.027071800158993728 0.034998311687094184 0 0.028810196015440732 0.035377841044693742 0 0.025193859058894222 0.034999927305247917 0 0.026504012817673461 0.036197289329212845 0 0.027069460098369438 0.03499998161107782 0 0.026639800807508943 0.036161472424167437 0 0.027069566756876558 0.03500001110657059 0 0.028810196015440732 0.035377841044693742 0 0.030555617297222532 0.035255265305247599 0 0.03160215520677561 0.034999529754774571 0 0.028042963215982937 0.036631403084671089 0 0.028810196015440732 0.035377841044693742 0 0.029409158209921214 0.035737109442423608 0 0.028810196015440732 0.035377841044693742 0 0.029409158209921214 0.035737109442423608 0 0.030555617297222532 0.035255265305247599 0 0.029409158209921214 0.035737109442423608 0 0.030555617297222532 0.035255265305247599 0 0.029781312458737431 0.036263893097661391 0 0.030135865273990366 0.033518320137031717 0 0.031158995080163211 0.034447173531431181 0 0.030094900234535378 0.034675762350905949 0 0.02988372609222965 0.034844575190570624 0 0.031503024164001157 0.034444703037561746 0 0.030135865273990366 0.033518320137031717 0 0.031158995080163211 0.034447173531431181 0 0.031765621542600937 0.034327270760304784 0 0.030555617297222532 0.035255265305247599 0 0.029781312458737431 0.036263893097661391 0 0.031765621542600937 0.034327270760304784 0 0.028143823608891179 0.034924703156935938 0 0.02988372609222965 0.034844575190570624 0 0.030135865273990366 0.033518320137031717 0 0.028929838886343616 0.034319498562150191 0 0.030094900234535378 0.034675762350905949 0 0.028122239772278384 0.033376224759975787 0 0.030135865273990366 0.033518320137031717 0 0.028929838886343616 0.034319498562150191 0 0.028042963215982937 0.036631403084671089 0 0.029409158209921214 0.035737109442423608 0 0.029781312458737431 0.036263893097661391 0 0.030218147453120663 0.035741864292454975 0 0.029063538605386314 0.035233785900752462 0 0.030094900234535378 0.034675762350905949 0 0.029063538605386314 0.035233785900752462 0 0.028929838886343616 0.034319498562150191 0 0.030094900234535378 0.034675762350905949 0 0.030218147453120663 0.035741864292454975 0 0.030094900234535378 0.034675762350905949 0 0.03120305572949569 0.035053484759219905 0 0.031158995080163211 0.034447173531431181 0 0.030094900234535378 0.034675762350905949 0 0.03120305572949569 0.035053484759219905 0 0.031158995080163211 0.034447173531431181 0 0.03120305572949569 0.035053484759219905 0 0.03229614006574473 0.034639169032284402 0 0.03120305572949569 0.035053484759219905 0 0.03229614006574473 0.034639169032284402 0 0.032396938325270727 0.036047216475624054 0 0.03229614006574473 0.034639169032284402 0 0.033359515163670757 0.033699998777366076 0 0.034079982590969005 0.03465688467504887 0 0.03229614006574473 0.034639169032284402 0 0.034079982590969005 0.03465688467504887 0 0.032396938325270727 0.036047216475624054 0 0.03229614006574473 0.034639169032284402 0 0.033359515163670757 0.033699998777366076 0 0.031765621542600937 0.034327270760304784 0 0.031158995080163211 0.034447173531431181 0 0.03229614006574473 0.034639169032284402 0 0.031765621542600937 0.034327270760304784 0 0.030555617297222532 0.035255265305247599 0 0.031765621542600937 0.034327270760304784 0 0.03252310121909735 0.03316612000787713 0 0.030810634404427033 0.035083454462675683 0 0.032278653987633826 0.034522781685007227 0 0.032278653987633826 0.034522781685007227 0 0.033901070939144531 0.034236150101192353 0 0.033359515163670757 0.033699998777366076 0 0.031765621542600937 0.034327270760304784 0 0.03252310121909735 0.03316612000787713 0 0.033359515163670757 0.033699998777366076 0 0.03252310121909735 0.03316612000787713 0 0.034496648308895837 0.032897498265775815 0 0.031872193005051702 0.035755755347706857 0 0.03160215520677561 0.034999529754774571 0 0.033578674219529613 0.035527171413889329 0 0.030555617297222532 0.035255265305247599 0 0.031872193005051702 0.035755755347706857 0 0.03160215520677561 0.034999529754774571 0 0.03160215520677561 0.034999529754774571 0 0.035000720705043294 0.0349970864741527 0 0.033578674219529613 0.035527171413889329 0 0.034999355092343948 0.034168012950975622 0 0.033901070939144531 0.034236150101192353 0 0.035000720705043294 0.0349970864741527 0 0.034998075956784981 0.034173350117561833 0 0.033578674219529613 0.035527171413889329 0 0.033359515163670757 0.033699998777366076 0 0.034496648308895837 0.032897498265775815 0 0.034623557370358875 0.033043014803223039 0 0.034999257602683707 0.034165746275968301 0 0.034496648308895837 0.032897498265775815 0 0.03499964980961278 0.032971572183290727 0 0.034496648308895837 0.032897498265775815 0 0.03499964980961278 0.032971572183290727 0 0.034623557370358875 0.033043014803223039 0 0.03499964980961278 0.032971572183290727 0 0.034999862094516034 0.031781365116080214 0 0.034623557370358875 0.033043014803223039 0 0.033359515163670757 0.033699998777366076 0 0.034623557370358875 0.033043014803223039 0 0.034079982590969005 0.03465688467504887 0 0.034999609860431241 0.03177436568688681 0 0.035802944384315083 0.030476576254123058 0 0.035000011802380097 0.029749497025445399 0 0.034999862094516034 0.031781365116080214 0 0.034623557370358875 0.033043014803223039 0 0.034079982590969005 0.03465688467504887 0 0.034999654335493582 0.031776606350784428 0 0.03482314823405528 0.032572827339070416 0 0.035000011802380097 0.029749497025445399 0 0.035682617140753943 0.029816183757093603 0 0.035499310599224371 0.029538356677574141 0 0.035000035999713366 0.029747838256933744 0 0.034999923341346113 0.028199210755920093 0 0.03606704094601676 0.028127641321502042 0 0.035000174984174369 0.029747721326452092 0 0.035698571562925732 0.028814556154299013 0 0.035682617140753943 0.029816183757093603 0 0.0357589559301058 0.029584345059965135 0 0.035499310599224371 0.029538356677574141 0 0.035802944384315083 0.030476576254123058 0 0.035682617140753943 0.029816183757093603 0 0.035854911260633088 0.029861191590528996 0 0.035802944384315083 0.030476576254123058 0 0.035000011802380097 0.029749497025445399 0 0.035682617140753943 0.029816183757093603 0 0.03482314823405528 0.032572827339070416 0 0.034019803749183404 0.03296023917277225 0 0.030218147453120663 0.035741864292454975 0 0.03120305572949569 0.035053484759219905 0 0.032396938325270727 0.036047216475624054 0 0.033909438006155583 0.033536717198016652 0 0.034019803749183404 0.03296023917277225 0 0.035831706952059374 0.029656171079284657 0 0.035854911260633088 0.029861191590528996 0 0.0357589559301058 0.029584345059965135 0 0.035682617140753943 0.029816183757093603 0 0.035854911260633088 0.029861191590528996 0 0.0357589559301058 0.029584345059965135 0 0.035804321103185641 0.029412672873069 0 0.0357589559301058 0.029584345059965135 0 0.035630974765386694 0.029398645238271515 0 0.035804321103185641 0.029412672873069 0 0.035831706952059374 0.029656171079284657 0 0.0357589559301058 0.029584345059965135 0 0.036375154923717373 0.025888831117325931 0 0.03696737322947833 0.026636430010822824 0 0.035992780344295892 0.026956930290551948 0 0.03696737322947833 0.026636430010822824 0 0.035992780344295892 0.026956930290551948 0 0.03606704094601676 0.028127641321502042 0 0.036375154923717373 0.025888831117325931 0 0.03500004603065221 0.026651072124765116 0 0.035992780344295892 0.026956930290551948 0 0.03500004603065221 0.026651072124765116 0 0.035992780344295892 0.026956930290551948 0 0.035520416330485138 0.027482705638347642 0 0.035992780344295892 0.026956930290551948 0 0.035520416330485138 0.027482705638347642 0 0.03606704094601676 0.028127641321502042 0 0.034999923341346113 0.028199210755920093 0 0.035520416330485138 0.027482705638347642 0 0.03606704094601676 0.028127641321502042 0 0.03500004603065221 0.026651072124765116 0 0.034999923341346113 0.028199210755920093 0 0.035520416330485138 0.027482705638347642 0 0.036757277694065019 0.028272933259910329 0 0.035698571562925732 0.028814556154299013 0 0.0357589559301058 0.029584345059965135 0 0.035630974765386694 0.029398645238271515 0 0.035499310599224371 0.029538356677574141 0 0.00083695337808814628 0.029852503711417181 0 0.0025323344302089321 0.030740154104645288 0 0.0033226569633171572 0.030190372219993163 0 0.0046462203259811001 0.042612054568922433 0 0.008245036631252119 0.042175491995554225 0 0.0060286514045408395 0.041378528511103727 0 0.0028019504251703044 0.034197269256064901 0 0.0062212103699449276 0.035882515195254976 0 0.0020581641409620505 0.030541953239101274 0 0.0021664469793461205 0.03086561460995986 0 0.0025323344302089321 0.030740154104645288 0 0.0028019504251703044 0.034197269256064901 0 0.0014337494463857493 0.030701861689260569 0 0.0046462203259811001 0.042612054568922433 0 0.0060286514045408395 0.041378528511103727 0 0.0041625595163904934 0.041416720401449468 0 0.0046462203259811001 0.042612054568922433 0 0.0037698759808149529 0.041656742491079826 0 0.0041625595163904934 0.041416720401449468 0 0.0028019504251703044 0.034197269256064901 0 0.0021576597356810384 0.037843728307037958 0 -0.00022447427945316122 0.033334761313195183 0 -9.7678139929191819e-05 0.033107760506177267 0 8.2272808288786029e-05 0.033256471085334673 0 0.0021576597356810384 0.037843728307037958 0 0.0013111560877632801 0.033016453920997078 0 0.0020581641409620505 0.030541953239101274 0 0.0015592626704866706 0.030647739421800421 0 0.0018629882323599159 0.030847401835151687 0 0.0022674151961424027 0.034618382483682764 0 0.0019397731182921563 0.03444281684344442 0 0.0017760035814249268 0.034691852372597344 0 0.0028019504251703044 0.034197269256064901 0 0.0013111560877632801 0.033016453920997078 0 0.0015592626704866706 0.030647739421800421 0 0.0018629882323599159 0.030847401835151687 0 0.0016424693409047546 0.031132737770811391 0 0.0018629882323599159 0.030847401835151687 0 0.0016424693409047546 0.031132737770811391 0 0.0020988844102288332 0.031141804830491754 0 0.0020988844102288332 0.031141804830491754 0 0.0023661894369239461 0.03103743610053103 0 0.0024242438824017901 0.031458418077683327 0 0.0023661894369239461 0.03103743610053103 0 0.0025690014172696763 0.0311121239265666 0 0.0024242438824017901 0.031458418077683327 0 0.0020581641409620505 0.030541953239101274 0 0.0018629882323599159 0.030847401835151687 0 0.0021664469793461205 0.03086561460995986 0 0.0018629882323599159 0.030847401835151687 0 0.0020988844102288332 0.031141804830491754 0 0.0021664469793461205 0.03086561460995986 0 0.0020988844102288332 0.031141804830491754 0 0.0021664469793461205 0.03086561460995986 0 0.0023661894369239461 0.03103743610053103 0 0.0021664469793461205 0.03086561460995986 0 0.0025323344302089321 0.030740154104645288 0 0.0023661894369239461 0.03103743610053103 0 0.0025323344302089321 0.030740154104645288 0 0.0023661894369239461 0.03103743610053103 0 0.0027934336774736879 0.030988550480399925 0 0.0023661894369239461 0.03103743610053103 0 0.0025690014172696763 0.0311121239265666 0 0.0027934336774736879 0.030988550480399925 0 0.0027934336774736879 0.030988550480399925 0 0.0057890765508979633 0.030837414283611555 0 0.0033226569633171572 0.030190372219993163 0 0.0027471135514266763 0.032025217371421832 0 0.0027934336774736879 0.030988550480399925 0 0.0057890765508979633 0.030837414283611555 0 0.0063376730400096139 0.029863216026575514 0 0.0091769833020682434 0.029990722350001747 0 0.012002945605883809 0.029226782374136385 0 0.0123276951195162 0.02904624644038498 0 0.012181249287936657 0.029335564251793223 0 0.0025323344302089321 0.030740154104645288 0 0.0027934336774736879 0.030988550480399925 0 0.0033226569633171572 0.030190372219993163 0 0.0063376730400096139 0.029863216026575514 0 0.0050114740806899575 0.031019979772278668 0 0.012345113223897069 0.029372149234587721 0 0.012649987982627519 0.029403936157025894 0 0.012631578770704399 0.029131745801475744 0 0.0123276951195162 0.02904624644038498 0 0.012345113223897069 0.029372149234587721 0 0.012181249287936657 0.029335564251793223 0 0.0123276951195162 0.02904624644038498 0 0.012345113223897069 0.029372149234587721 0 0.012631578770704399 0.029131745801475744 0 0.0091769833020682434 0.029990722350001747 0 0.010915690153457303 0.028822102496207293 0 0.0057890765508979633 0.030837414283611555 0 0.0042540558274763857 0.029216514224600941 0 0.00805573367059703 0.028694350174167466 0 0.0062212103699449276 0.035882515195254976 0 0.009650377126905637 0.035231194244688978 0 0.00083695337808814628 0.029852503711417181 0 0.0033226569633171572 0.030190372219993163 0 0.0042540558274763857 0.029216514224600941 0 0.0057890765508979633 0.030837414283611555 0 0.0033226569633171572 0.030190372219993163 0 0.0042540558274763857 0.029216514224600941 0 0.008245036631252119 0.042175491995554225 0 0.007223397604340721 0.040314257257076838 0 0.009709225427494075 0.040087141424682254 0 0.007223397604340721 0.040314257257076838 0 0.009709225427494075 0.040087141424682254 0 0.0092122195532511122 0.038787177446536113 0 0.008245036631252119 0.042175491995554225 0 0.007223397604340721 0.040314257257076838 0 0.0060286514045408395 0.041378528511103727 0 0.009709225427494075 0.040087141424682254 0 0.011414935607523876 0.041517526735346713 0 0.011432316540436385 0.039399018810342114 0 0.008245036631252119 0.042175491995554225 0 0.009709225427494075 0.040087141424682254 0 0.011414935607523876 0.041517526735346713 0 0.009709225427494075 0.040087141424682254 0 0.010382174277902979 0.038361584468420099 0 0.011432316540436385 0.039399018810342114 0 0.009709225427494075 0.040087141424682254 0 0.0092122195532511122 0.038787177446536113 0 0.010382174277902979 0.038361584468420099 0 0.0092122195532511122 0.038787177446536113 0 0.009333104937430288 0.037738593471703968 0 0.010382174277902979 0.038361584468420099 0 0.007223397604340721 0.040314257257076838 0 0.0077918433469551102 0.038084745234159272 0 0.0064519352260047859 0.038578002716936434 0 0.007223397604340721 0.040314257257076838 0 0.0092122195532511122 0.038787177446536113 0 0.0080991278473381383 0.038424960793779009 0 0.009333104937430288 0.037738593471703968 0 0.0080991278473381383 0.038424960793779009 0 0.0088327214841021854 0.036642049112289285 0 0.0073019594991857086 0.040175896079089737 0 0.0079954247629390601 0.038050471978842482 0 0.0051137493129226894 0.039727351404077245 0 0.0073714877104831085 0.037722603099504246 0 0.0077918433469551102 0.038084745234159272 0 0.0064519352260047859 0.038578002716936434 0 0.0084282070694726308 0.036016502955899102 0 0.0092122195532511122 0.038787177446536113 0 0.009333104937430288 0.037738593471703968 0 0.0080991278473381383 0.038424960793779009 0 0.0038907624852915373 0.040313267025268364 0 0.0032105248229720314 0.040509049955499581 0 0.0032434060439023213 0.041139707538450122 0 0.0038907624852915373 0.040313267025268364 0 0.0040521095630219727 0.04061757400672384 0 0.0040467324933682993 0.040943532228415361 0 0.0038907624852915373 0.040313267025268364 0 0.0040521095630219727 0.04061757400672384 0 0.0041085139726472703 0.039974902444471896 0 0.0040143619952303184 0.04021325029810547 0 0.0034339864562924483 0.041477439919739748 0 0.0038907624852915373 0.040313267025268364 0 0.0032105248229720314 0.040509049955499581 0 0.0033526967970164941 0.039985098400754301 0 0.0064519352260047859 0.038578002716936434 0 0.0060286514045408395 0.041378528511103727 0 0.0041625595163904934 0.041416720401449468 0 0.0051137493129226894 0.039727351404077245 0 0.0042232393308341857 0.041275100830211027 0 0.007223397604340721 0.040314257257076838 0 0.0064519352260047859 0.038578002716936434 0 0.0060286514045408395 0.041378528511103727 0 0.0040521095630219727 0.04061757400672384 0 0.0040467324933682993 0.040943532228415361 0 0.0041625595163904934 0.041416720401449468 0 0.0021576597356810384 0.037843728307037958 0 0.0034339864562924483 0.041477439919739748 0 0.0027188382185047511 0.041871749895929476 0 0.0032434060439023213 0.041139707538450122 0 0.0025879174509095826 0.041262992058740657 0 0.0037698759808149529 0.041656742491079826 0 0.0040467324933682993 0.040943532228415361 0 0.0041625595163904934 0.041416720401449468 0 0.0027188382185047511 0.041871749895929476 0 0.0025879174509095826 0.041262992058740657 0 0.0019685578794063031 0.041463770109785039 0 0.0021576597356810384 0.037843728307037958 0 0.00093181955581709544 0.037434872235334947 0 0.0032434060439023213 0.041139707538450122 0 0.0025879174509095826 0.041262992058740657 0 0.0028312035020249286 0.040846186578974132 0 0.0025879174509095826 0.041262992058740657 0 0.0028312035020249286 0.040846186578974132 0 0.0022458335263645926 0.040810424472664149 0 0.0028312035020249286 0.040846186578974132 0 0.0027757589592009384 0.040255738751808746 0 0.0022458335263645926 0.040810424472664149 0 0.0027757589592009384 0.040255738751808746 0 0.0022458335263645926 0.040810424472664149 0 0.0021343319156143922 0.039970558108236673 0 0.0032105248229720314 0.040509049955499581 0 0.0032434060439023213 0.041139707538450122 0 0.0028312035020249286 0.040846186578974132 0 0.0032105248229720314 0.040509049955499581 0 0.0027757589592009384 0.040255738751808746 0 0.0033526967970164941 0.039985098400754301 0 0.0032105248229720314 0.040509049955499581 0 0.0028312035020249286 0.040846186578974132 0 0.0027757589592009384 0.040255738751808746 0 0.0022458335263645926 0.040810424472664149 0 0.0012275514883965883 0.041045301802744322 0 0.0021343319156143922 0.039970558108236673 0 0.00053805783402130979 0.03806659359096197 0 0.0020801061671353316 0.041070091280060304 0 0.0011960539467630717 0.040425813775789757 0 0.0011431139454650089 0.041068511341926017 0 0.0021343319156143922 0.039970558108236673 0 0.0011960539467630717 0.040425813775789757 0 0.00049123321288334148 0.040705006018053436 0 0.0010385330632041092 0.039955832478700305 0 -0.00015158950228895355 0.039444695798660792 0 0.00089824545667101317 0.039934842707061095 0 0.00053805783402130979 0.03806659359096197 0 -0.00015158950228895355 0.039444695798660792 0 0.0011960539467630717 0.040425813775789757 0 0.0011431139454650089 0.041068511341926017 0 0.00049123321288334148 0.040705006018053436 0 0.00056367603095084469 0.033785144296944541 0 0.00035984217009642894 0.033267938832757415 0 0.00062523658276257229 0.033274405113570014 0 0.00056367603095084469 0.033785144296944541 0 0.00015812693851345862 0.033549337810073354 0 0.00035984217009642894 0.033267938832757415 0 0.0022458335263645926 0.040810424472664149 0 0.0012275514883965883 0.041045301802744322 0 0.0019685578794063031 0.041463770109785039 0 0.0025879174509095826 0.041262992058740657 0 0.0022458335263645926 0.040810424472664149 0 0.0019685578794063031 0.041463770109785039 0 0.00053805783402130979 0.03806659359096197 0 0.00093181955581709544 0.037434872235334947 0 -0.0010000721672820212 0.039582105308743183 0 -0.00078383535299235418 0.039648144739392641 0 -0.00094768198834330945 0.039497793800157291 0 -0.0010000721672820212 0.039582105308743183 0 -0.00078383535299235418 0.039648144739392641 0 -0.0010941768698522292 0.039364035731003645 0 -0.00075283665413076203 0.039744204221478528 0 -0.00015158950228895355 0.039444695798660792 0 -0.00078383535299235418 0.039648144739392641 0 -0.00099244657435218725 0.039572106025486553 0 -0.00094768198834330945 0.039497793800157291 0 -0.00078383535299235418 0.039648144739392641 0 -2.4899121802877717e-05 0.039786762143817933 0 0.00017776301050224282 0.040397391250505114 0 -2.4899121802877717e-05 0.039786762143817933 0 0.00017776301050224282 0.040397391250505114 0 0.00079008938438342429 0.039724887991250631 0 -0.00015158950228895355 0.039444695798660792 0 -0.00023167581905418052 0.037162424795673811 0 0.00053805783402130979 0.03806659359096197 0 0.00044654304589141614 0.033192225865381488 0 -0.00099244657435218725 0.039572106025486553 0 -0.00094768198834330945 0.039497793800157291 0 -0.00098422379589408718 0.039371620790545292 0 -0.0016736052195111411 0.036427334805549813 0 -0.00055839906695882889 0.037051148582268018 0 0.00063061562707615257 0.035331162534875511 0 -0.0016736052195111411 0.036427334805549813 0 0.00063061562707615257 0.035331162534875511 0 -4.0621099689858103e-05 0.034416298071781135 0 -0.00094768198834330945 0.039497793800157291 0 -0.00098422379589408718 0.039371620790545292 0 -0.0011451425219327154 0.039248424849104201 0 -0.0010000721672820212 0.039582105308743183 0 -0.00094768198834330945 0.039497793800157291 0 -0.0010576047203880821 0.039645721625871259 0 -0.0011186188221726171 0.03951067455116896 0 -0.00077132445572367363 0.039449741881564568 0 0.00063061562707615257 0.035331162534875511 0 -4.0621099689858103e-05 0.034416298071781135 0 0.0017360854494674427 0.033644248287466642 0 -0.00023167581905418052 0.037162424795673811 0 0.00062035756378591008 0.036821460981443579 0 -0.00098422379589408718 0.039371620790545292 0 -0.0011451425219327154 0.039248424849104201 0 -0.0011046713941095237 0.039422709617447704 0 0.0010473531879260996 0.033088824499989275 0 0.00079195915552288695 0.033033512684911927 0 0.00062523658276257229 0.033274405113570014 0 0.0010473531879260996 0.033088824499989275 0 0.00079195915552288695 0.033033512684911927 0 0.001017689191632559 0.032770259521980573 0 0.001017689191632559 0.032770259521980573 0 0.00060864543192296712 0.032829187107759068 0 0.00091023960295767258 0.032431504561948384 0 0.00079195915552288695 0.033033512684911927 0 0.001017689191632559 0.032770259521980573 0 0.00060864543192296712 0.032829187107759068 0 0.001017689191632559 0.032770259521980573 0 0.0011724304294916707 0.032525271173809968 0 0.00091023960295767258 0.032431504561948384 0 0.001017689191632559 0.032770259521980573 0 0.001524572778462963 0.032568446127231414 0 0.0011724304294916707 0.032525271173809968 0 0.0010473531879260996 0.033088824499989275 0 0.001017689191632559 0.032770259521980573 0 0.001524572778462963 0.032568446127231414 0 -4.0621099689858103e-05 0.034416298071781135 0 0.001524572778462963 0.032568446127231414 0 0.0017360854494674427 0.033644248287466642 0 0.00044654304589141614 0.033192225865381488 0 0.0014605682396257589 0.032820189049679947 0 0.00022809386786764582 0.033019226017886823 0 8.2272808288786029e-05 0.033256471085334673 0 0.00035984217009642894 0.033267938832757415 0 -9.7678139929191819e-05 0.033107760506177267 0 0.00022809386786764582 0.033019226017886823 0 8.2272808288786029e-05 0.033256471085334673 0 0.0013111560877632801 0.033016453920997078 0 -0.00013891616927205126 0.033118472444060174 0 -0.00022447427945316122 0.033334761313195183 0 0.00015812693851345862 0.033549337810073354 0 8.2272808288786029e-05 0.033256471085334673 0 0.00015812693851345862 0.033549337810073354 0 8.2272808288786029e-05 0.033256471085334673 0 0.00035984217009642894 0.033267938832757415 0 0.00056367603095084469 0.033785144296944541 0 0.0010473531879260996 0.033088824499989275 0 0.00062523658276257229 0.033274405113570014 0 0.00079195915552288695 0.033033512684911927 0 0.00062523658276257229 0.033274405113570014 0 0.00060864543192296712 0.032829187107759068 0 0.00035984217009642894 0.033267938832757415 0 0.00062523658276257229 0.033274405113570014 0 0.00060864543192296712 0.032829187107759068 0 0.00022809386786764582 0.033019226017886823 0 0.00035984217009642894 0.033267938832757415 0 0.00060864543192296712 0.032829187107759068 0 0.00060864543192296712 0.032829187107759068 0 0.00024597115867652775 0.032450689939185311 0 0.00066705679510939777 0.032330226796613674 0 0.00060864543192296712 0.032829187107759068 0 0.00066705679510939777 0.032330226796613674 0 0.00091023960295767258 0.032431504561948384 0 0.0013111560877632801 0.033016453920997078 0 0.00068451070789128795 0.031677626968583186 0 0.00022809386786764582 0.033019226017886823 0 0.00060864543192296712 0.032829187107759068 0 0.00024597115867652775 0.032450689939185311 0 0.0015592626704866706 0.030647739421800421 0 0.0016424693409047546 0.031132737770811391 0 0.0011490467149010068 0.031267918847859337 0 -0.00013300444461501591 0.033077296291437491 0 0.00022809386786764582 0.033019226017886823 0 0.00024597115867652775 0.032450689939185311 0 0.0016424693409047546 0.031132737770811391 0 0.0011490467149010068 0.031267918847859337 0 0.0015577191025715833 0.031474490742520268 0 0.0011490467149010068 0.031267918847859337 0 0.0012420654923783045 0.031740356911834522 0 0.0015577191025715833 0.031474490742520268 0 0.0011490467149010068 0.031267918847859337 0 0.00077910815287691797 0.031899878338831518 0 0.0012420654923783045 0.031740356911834522 0 0.00068451070789128795 0.031677626968583186 0 0.00074556444005093633 0.031962636773887651 0 0.00066705679510939777 0.032330226796613674 0 0.00077910815287691797 0.031899878338831518 0 0.00080390228155163921 0.03212415284540171 0 0.00024597115867652775 0.032450689939185311 0 0.00066705679510939777 0.032330226796613674 0 0.00077910815287691797 0.031899878338831518 0 0.00077910815287691797 0.031899878338831518 0 0.00078240081490783277 0.031879476496231157 0 0.00094850482813493744 0.032041926163867959 0 -0.0016155871389674295 0.025434317168516185 0 -0.0017393653673214019 0.025409059690519296 0 0.00077910815287691797 0.031899878338831518 0 0.00080390228155163921 0.03212415284540171 0 0.00078240081490783277 0.031879476496231157 0 0.00077910815287691797 0.031899878338831518 0 0.0012420654923783045 0.031740356911834522 0 0.00094850482813493744 0.032041926163867959 0 0.0014157834162664021 0.031965624671263106 0 0.0012420654923783045 0.031740356911834522 0 0.00094850482813493744 0.032041926163867959 0 0.001341196698155312 0.032161335737293205 0 0.001524572778462963 0.032568446127231414 0 0.00139009752154714 0.031900596187808432 0 -0.0010194361085394388 0.029555603884521862 0 -0.0010156840598368232 0.026668385254138876 0 0.001341196698155312 0.032161335737293205 0 0.001524572778462963 0.032568446127231414 0 0.0012948887487882574 0.032385800774369394 0 0.001524572778462963 0.032568446127231414 0 0.0012948887487882574 0.032385800774369394 0 0.0011724304294916707 0.032525271173809968 0 0.0012948887487882574 0.032385800774369394 0 0.0011724304294916707 0.032525271173809968 0 0.0011688110779519317 0.032281477046624707 0 0.0011688110779519317 0.032281477046624707 0 0.00098870215543056658 0.032150282155926031 0 0.0013833693609536688 0.032030579020221439 0 0.001341196698155312 0.032161335737293205 0 0.0011688110779519317 0.032281477046624707 0 0.0013833693609536688 0.032030579020221439 0 0.001341196698155312 0.032161335737293205 0 0.0012948887487882574 0.032385800774369394 0 0.0011688110779519317 0.032281477046624707 0 0.0011688110779519317 0.032281477046624707 0 0.00098870215543056658 0.032150282155926031 0 0.00091023960295767258 0.032431504561948384 0 0.0011724304294916707 0.032525271173809968 0 0.0011688110779519317 0.032281477046624707 0 0.00091023960295767258 0.032431504561948384 0 0.00066705679510939777 0.032330226796613674 0 0.00091023960295767258 0.032431504561948384 0 0.00080390228155163921 0.03212415284540171 0 0.00098870215543056658 0.032150282155926031 0 0.00091023960295767258 0.032431504561948384 0 0.00080390228155163921 0.03212415284540171 0 -0.003990085698537575 0.019162846879909566 0 -0.0029468930695746125 0.019647800169268946 0 -0.003560702272978636 0.01830643115599288 0 -0.0016155871389674295 0.025434317168516185 0 -0.0010156840598368232 0.026668385254138876 0 0.00098870215543056658 0.032150282155926031 0 0.00078240081490783277 0.031879476496231157 0 0.0013833693609536688 0.032030579020221439 0 0.00098870215543056658 0.032150282155926031 0 0.00080390228155163921 0.03212415284540171 0 0.00078240081490783277 0.031879476496231157 0 -0.0010156840598368232 0.026668385254138876 0 -0.0039025407228917073 0.020502695527551101 0 -0.003560702272978636 0.01830643115599288 0 -0.003030357363346978 0.017651211691085095 0 -0.0026062670269282212 0.018429351274978797 0 -0.0029468930695746125 0.019647800169268946 0 -0.003560702272978636 0.01830643115599288 0 -0.0026062670269282212 0.018429351274978797 0 -0.003990085698537575 0.019162846879909566 0 -0.003560702272978636 0.01830643115599288 0 -0.0045677292651142105 0.017905745737834933 0 -0.003560702272978636 0.01830643115599288 0 -0.0038251889567910697 0.017362869376198631 0 -0.0045677292651142105 0.017905745737834933 0 -0.003560702272978636 0.01830643115599288 0 -0.0038251889567910697 0.017362869376198631 0 -0.003030357363346978 0.017651211691085095 0 -0.0049452135858397868 0.018636862838615726 0 -0.0052572809159704553 0.01787212356885301 0 -0.0055483322956500743 0.018108787050557937 0 -0.0017393653673214019 0.025409059690519296 0 -0.0030857470269699335 0.025004510362390608 0 -0.0049452135858397868 0.018636862838615726 0 -0.0045677292651142105 0.017905745737834933 0 -0.0052572809159704553 0.01787212356885301 0 0.0014157834162664021 0.031965624671263106 0 0.00094850482813493744 0.032041926163867959 0 0.0016574301615075589 0.032262229205937167 0 -0.003990085698537575 0.019162846879909566 0 -0.0049452135858397868 0.018636862838615726 0 -0.0045677292651142105 0.017905745737834933 0 -0.0045555189533044837 0.016928758311980232 0 -0.0038251889567910697 0.017362869376198631 0 -0.0045677292651142105 0.017905745737834933 0 -0.0053439376032778305 0.017315011880038811 0 -0.0045555189533044837 0.016928758311980232 0 -0.0045677292651142105 0.017905745737834933 0 -0.0053439376032778305 0.017315011880038811 0 -0.0045677292651142105 0.017905745737834933 0 -0.0052572809159704553 0.01787212356885301 0 -0.0055634572822938896 0.017480218591439143 0 -0.0053439376032778305 0.017315011880038811 0 -0.0052572809159704553 0.01787212356885301 0 -0.0055634572822938896 0.017480218591439143 0 -0.0052572809159704553 0.01787212356885301 0 -0.0055483322956500743 0.018108787050557937 0 0.00048485344505525067 0.017265154313249667 0 0.0041932476913814397 0.0245814515896308 0 -0.0058017591036442825 0.017351250668288451 0 -0.0055634572822938896 0.017480218591439143 0 -0.0058767605075686104 0.017853696580770306 0 -0.0055634572822938896 0.017480218591439143 0 -0.0058767605075686104 0.017853696580770306 0 -0.0055483322956500743 0.018108787050557937 0 0.0041932476913814397 0.0245814515896308 0 -0.0030857470269699335 0.025004510362390608 0 0.0041932476913814397 0.0245814515896308 0 0.0073415856665830391 0.032037529753276436 0 0.0022556493299395238 0.032413129213194232 0 0.0016574301615075589 0.032262229205937167 0 0.0023131620791540445 0.031953116025089927 0 0.0014157834162664021 0.031965624671263106 0 0.0016574301615075589 0.032262229205937167 0 0.0017315873740611479 0.031745539646234326 0 0.0014157834162664021 0.031965624671263106 0 0.0012420654923783045 0.031740356911834522 0 0.0017315873740611479 0.031745539646234326 0 0.0012420654923783045 0.031740356911834522 0 0.0017315873740611479 0.031745539646234326 0 0.0015577191025715833 0.031474490742520268 0 0.0023131620791540445 0.031953116025089927 0 0.0020248305772438816 0.031483979447833273 0 0.0024242438824017901 0.031458418077683327 0 0.0073415856665830391 0.032037529753276436 0 0.0071782131656632202 0.030177559032641479 0 0.0017315873740611479 0.031745539646234326 0 0.0023131620791540445 0.031953116025089927 0 0.0020248305772438816 0.031483979447833273 0 0.0016574301615075589 0.032262229205937167 0 0.0017315873740611479 0.031745539646234326 0 0.0023131620791540445 0.031953116025089927 0 0.0020988844102288332 0.031141804830491754 0 0.0020248305772438816 0.031483979447833273 0 0.0024242438824017901 0.031458418077683327 0 0.0016424693409047546 0.031132737770811391 0 0.0020248305772438816 0.031483979447833273 0 0.0015577191025715833 0.031474490742520268 0 0.0016424693409047546 0.031132737770811391 0 0.0020988844102288332 0.031141804830491754 0 0.0020248305772438816 0.031483979447833273 0 0.0017315873740611479 0.031745539646234326 0 0.0020248305772438816 0.031483979447833273 0 0.0015577191025715833 0.031474490742520268 0 0.012345113223897069 0.029372149234587721 0 0.012202008581692066 0.0295093274100038 0 0.012309472496132089 0.029625225321613703 0 0.012492061412319389 0.029474720510401339 0 0.012825395301991425 0.029250844471250113 0 0.012345113223897069 0.029372149234587721 0 0.012309472496132089 0.029625225321613703 0 0.012649987982627519 0.029403936157025894 0 0.012345113223897069 0.029372149234587721 0 0.012181249287936657 0.029335564251793223 0 0.012202008581692066 0.0295093274100038 0 0.0063376730400096139 0.029863216026575514 0 0.0071782131656632202 0.030177559032641479 0 0.012002945605883809 0.029226782374136385 0 0.012181249287936657 0.029335564251793223 0 0.012047450008814093 0.029436750621901625 0 0.012181249287936657 0.029335564251793223 0 0.012047450008814093 0.029436750621901625 0 0.012202008581692066 0.0295093274100038 0 0.012111377453578296 0.029604916215527612 0 0.012047450008814093 0.029436750621901625 0 0.012202008581692066 0.0295093274100038 0 0.012111377453578296 0.029604916215527612 0 0.012202008581692066 0.0295093274100038 0 0.012309472496132089 0.029625225321613703 0 0.012679212787722657 0.02930686669850531 0 0.012651848319135486 0.029603622850248916 0 0.012216964432699984 0.029689355706059167 0 0.012679212787722657 0.02930686669850531 0 0.012651848319135486 0.029603622850248916 0 0.013046610145278798 0.02955785610726587 0 0.012492061412319389 0.029474720510401339 0 0.012237015956179296 0.02968811024163405 0 0.012060541177054991 0.029714620819788418 0 0.012111377453578296 0.029604916215527612 0 0.012216964432699984 0.029689355706059167 0 0.012111377453578296 0.029604916215527612 0 0.012309472496132089 0.029625225321613703 0 0.012216964432699984 0.029689355706059167 0 0.0072412616593365252 0.01975701487513673 0 0.0072584658714145382 0.01946962347494214 0 0.0077278567042264601 0.019602109031672491 0 0.0041932476913814397 0.0245814515896308 0 0.011243197435397189 0.024958202587392626 0 0.012060541177054991 0.029714620819788418 0 0.012216964432699984 0.029689355706059167 0 0.012667398786733999 0.029893622376407018 0 0.012651848319135486 0.029603622850248916 0 0.012216964432699984 0.029689355706059167 0 0.012667398786733999 0.029893622376407018 0 0.012651848319135486 0.029603622850248916 0 0.012667398786733999 0.029893622376407018 0 0.013046610145278798 0.02955785610726587 0 0.012667398786733999 0.029893622376407018 0 0.013046610145278798 0.02955785610726587 0 0.013173776464569095 0.029759556314871198 0 0.013046610145278798 0.02955785610726587 0 0.013420848554210559 0.029397817829207619 0 0.013409745395709207 0.029601295799587792 0 0.013046610145278798 0.02955785610726587 0 0.013420848554210559 0.029397817829207619 0 0.013147652517475215 0.029291822067097902 0 0.013225164094794994 0.030053724414034609 0 0.013173776464569095 0.029759556314871198 0 0.013485681192544945 0.029758066294335136 0 0.013046610145278798 0.02955785610726587 0 0.013173776464569095 0.029759556314871198 0 0.013409745395709207 0.029601295799587792 0 0.013173776464569095 0.029759556314871198 0 0.013485681192544945 0.029758066294335136 0 0.013409745395709207 0.029601295799587792 0 0.013684011279277441 0.029795226671077417 0 0.013528912861293275 0.029845042423071091 0 0.013485681192544945 0.029758066294335136 0 0.013684011279277441 0.029795226671077417 0 0.013485681192544945 0.029758066294335136 0 0.013645234591470915 0.029663946671429256 0 0.013485681192544945 0.029758066294335136 0 0.013645234591470915 0.029663946671429256 0 0.013409745395709207 0.029601295799587792 0 0.023264787770943748 0.025061403624685244 0 0.030202392867617129 0.023335634385082703 0 0.013894620429203298 0.029865319748744443 0 0.013684011279277441 0.029795226671077417 0 0.014489288996908226 0.029072257367531634 0 0.023264787770943748 0.025061403624685244 0 0.019372143616132868 0.030236447253120167 0 0.028777409590230441 0.029973381257179299 0 0.028922852789836525 0.02995274775390723 0 0.028997621867885369 0.029973520423263074 0 0.012626625228761269 0.030270906355054781 0 0.019372143616132868 0.030236447253120167 0 0.013684011279277441 0.029795226671077417 0 0.013645234591470915 0.029663946671429256 0 0.013882248724472569 0.029665534345392767 0 0.013882248724472569 0.029665534345392767 0 0.013711091690682797 0.029497133368757773 0 0.01409809861173192 0.029406468271902832 0 0.013711091690682797 0.029497133368757773 0 0.013843644190901574 0.029211118253426011 0 0.01409809861173192 0.029406468271902832 0 0.019372143616132868 0.030236447253120167 0 0.017798000019530927 0.030038216337519762 0 0.013645234591470915 0.029663946671429256 0 0.013882248724472569 0.029665534345392767 0 0.013711091690682797 0.029497133368757773 0 0.013711091690682797 0.029497133368757773 0 0.013420848554210559 0.029397817829207619 0 0.013843644190901574 0.029211118253426011 0 0.013711091690682797 0.029497133368757773 0 0.013420848554210559 0.029397817829207619 0 0.013409745395709207 0.029601295799587792 0 0.013645234591470915 0.029663946671429256 0 0.013711091690682797 0.029497133368757773 0 0.013409745395709207 0.029601295799587792 0 0.013420848554210559 0.029397817829207619 0 0.013582348183285931 0.029421732215263473 0 0.013426787953175824 0.029291453907604556 0 0.013420848554210559 0.029397817829207619 0 0.013426787953175824 0.029291453907604556 0 0.013147652517475215 0.029291822067097902 0 0.013653382480677609 0.0293363012058405 0 0.013161535168043373 0.029397260652223939 0 0.013582348183285931 0.029421732215263473 0 0.013655385391055683 0.029284922652830458 0 0.013426787953175824 0.029291453907604556 0 0.013655385391055683 0.029284922652830458 0 0.013426787953175824 0.029291453907604556 0 0.01348585602427475 0.029133897157601323 0 0.013426787953175824 0.029291453907604556 0 0.013250247007910623 0.029162720154163723 0 0.01348585602427475 0.029133897157601323 0 0.013426787953175824 0.029291453907604556 0 0.013250247007910623 0.029162720154163723 0 0.013147652517475215 0.029291822067097902 0 0.013250247007910623 0.029162720154163723 0 0.012996538049374451 0.029119736360717522 0 0.013147652517475215 0.029291822067097902 0 0.012679212787722657 0.02930686669850531 0 0.012996538049374451 0.029119736360717522 0 0.013147652517475215 0.029291822067097902 0 0.012679212787722657 0.02930686669850531 0 0.013046610145278798 0.02955785610726587 0 0.013147652517475215 0.029291822067097902 0 0.030628692266917942 0.019688124149991857 0 0.031290408166311172 0.01916509397148107 0 0.031409372466356528 0.019835585260180116 0 0.029568798192343052 0.017516866039907181 0 0.029754711139438967 0.017656642349886325 0 0.029764111191588123 0.017370849026436517 0 0.029754711139438967 0.017656642349886325 0 0.029764111191588123 0.017370849026436517 0 0.029716060386966617 0.017657523379371674 0 0.029479505594030116 0.017632023063646907 0 0.029716060386966617 0.017657523379371674 0 0.029544846278880089 0.017657417789427799 0 0.030084357905508029 0.017218106354338399 0 0.029764111191588123 0.017370849026436517 0 0.029716060386966617 0.017657523379371674 0 0.029775167019132708 0.017411531404693519 0 0.029723072609190371 0.01762538118367054 0 0.031290408166311172 0.01916509397148107 0 0.032196143018967373 0.01933458039408973 0 0.031409372466356528 0.019835585260180116 0 0.029754711139438967 0.017656642349886325 0 0.029716060386966617 0.017657523379371674 0 0.029544846278880089 0.017657417789427799 0 0.029948319144555844 0.024144385126172316 0 0.029879741653645684 0.025430690035333586 0 0.030682858692198972 0.017662388715484739 0 0.029948319144555844 0.024144385126172316 0 0.029161788360456468 0.030198005812726976 0 0.02915442938146574 0.030075725296488793 0 0.029158160983354022 0.030038004839920966 0 0.029161788360456468 0.030198005812726976 0 0.029241643236845576 0.02999980316477981 0 0.028076064135342031 0.03089940719510029 0 0.029161788360456468 0.030198005812726976 0 0.02915442938146574 0.030075725296488793 0 0.029241643236845576 0.02999980316477981 0 0.029479505594030116 0.017632023063646907 0 0.029544846278880089 0.017657417789427799 0 0.029550359961966109 0.017663011727943052 0 0.029948319144555844 0.024144385126172316 0 0.030202392867617129 0.023335634385082703 0 0.028922852789836525 0.02995274775390723 0 0.028997621867885369 0.029973520423263074 0 0.029025919719720981 0.030005324923926029 0 0.02915442938146574 0.030075725296488793 0 0.029241643236845576 0.02999980316477981 0 0.029025919719720981 0.030005324923926029 0 0.02122057286154656 0.030998493883123524 0 0.021603823743168646 0.03068474229315394 0 0.021464357501621602 0.030653929659797251 0 0.029948319144555844 0.024144385126172316 0 0.028874029208007992 0.030124516163470422 0 0.019372143616132868 0.030236447253120167 0 0.025916121828934595 0.029864077624088634 0 0.029043194024057476 0.029934535622927198 0 0.028997621867885369 0.029973520423263074 0 0.029025919719720981 0.030005324923926029 0 0.028922852789836525 0.02995274775390723 0 0.029025919719720981 0.030005324923926029 0 0.029080417878016351 0.030036139985714798 0 0.02915442938146574 0.030075725296488793 0 0.029080417878016351 0.030036139985714798 0 0.029158160983354022 0.030038004839920966 0 0.02915442938146574 0.030075725296488793 0 0.029025919719720981 0.030005324923926029 0 0.029080417878016351 0.030036139985714798 0 0.013161535168043373 0.029397260652223939 0 0.017368842174388728 0.030442064245261382 0 0.013843644190901574 0.029211118253426011 0 0.01409809861173192 0.029406468271902832 0 0.014318243862041847 0.029075665611849124 0 0.013582348183285931 0.029421732215263473 0 0.013655385391055683 0.029284922652830458 0 0.01381618967358283 0.029414258328594369 0 0.021603823743168646 0.03068474229315394 0 0.021464357501621602 0.030653929659797251 0 0.021677434945985195 0.030319670007204997 0 0.017798000019530927 0.030038216337519762 0 0.017368842174388728 0.030442064245261382 0 0.021603823743168646 0.03068474229315394 0 0.021677434945985195 0.030319670007204997 0 0.021949729348593915 0.030380898639952574 0 0.025916121828934595 0.029864077624088634 0 0.026135386093800363 0.03146158757041085 0 0.017368842174388728 0.030442064245261382 0 0.022662247293387686 0.033614499914480116 0 0.013655385391055683 0.029284922652830458 0 0.013904520685845965 0.029304373693215487 0 0.013704360349550476 0.029149738198045307 0 0.013655385391055683 0.029284922652830458 0 0.01381618967358283 0.029414258328594369 0 0.013904520685845965 0.029304373693215487 0 0.017368842174388728 0.030442064245261382 0 0.019065505664547528 0.035488195074374375 0 0.019065505664547528 0.035488195074374375 0 0.022662247293387686 0.033614499914480116 0 0.021012126476030794 0.039841328846813386 0 0.021202717683600408 0.039997764399472613 0 0.021061645244827957 0.040005741267192182 0 0.019918608519032918 0.032216610337012057 0 0.018985399702437563 0.033938376682559245 0 0.018727907805681197 0.032590799820209557 0 0.021188951472836427 0.039768382715477051 0 0.021202717683600408 0.039997764399472613 0 0.021406925643812497 0.039618026289465626 0 0.021012126476030794 0.039841328846813386 0 0.021188951472836427 0.039768382715477051 0 0.021123538942487374 0.039564713882754628 0 0.021012126476030794 0.039841328846813386 0 0.021188951472836427 0.039768382715477051 0 0.021202717683600408 0.039997764399472613 0 0.029004112626491337 0.030207584999731727 0 0.026135386093800363 0.03146158757041085 0 0.029043795614329137 0.031588336796219439 0 0.029430197756904562 0.031143632975173804 0 0.028829232855431174 0.031062431260746457 0 0.025513603948611949 0.034621177135479721 0 0.022662247293387686 0.033614499914480116 0 0.029161788360456468 0.030198005812726976 0 0.029430197756904562 0.031143632975173804 0 0.028829232855431174 0.031062431260746457 0 0.025513603948611949 0.034621177135479721 0 0.026135386093800363 0.03146158757041085 0 0.022662247293387686 0.033614499914480116 0 0.026135386093800363 0.03146158757041085 0 0.021677434945985195 0.030319670007204997 0 0.021922686049380337 0.030258976843131804 0 0.021949729348593915 0.030380898639952574 0 0.02479925351115007 0.033947325865762615 0 0.025289286506689691 0.033789490415761757 0 0.025234081905362353 0.03349086050998451 0 0.029161788360456468 0.030198005812726976 0 0.028829232855431174 0.031062431260746457 0 0.028076064135342031 0.03089940719510029 0 0.028462268185189394 0.031428633810326026 0 0.027873906265179261 0.032185035069270382 0 0.028076064135342031 0.03089940719510029 0 0.028829232855431174 0.031062431260746457 0 0.028462268185189394 0.031428633810326026 0 0.028076064135342031 0.03089940719510029 0 0.029043795614329137 0.031588336796219439 0 0.028829232855431174 0.031062431260746457 0 0.028462268185189394 0.031428633810326026 0 0.021202717683600408 0.039997764399472613 0 0.021848860428600327 0.03965755525776981 0 0.021406925643812497 0.039618026289465626 0 0.027662399646222028 0.03375531606642132 0 0.026961795402640001 0.033972268283066084 0 0.027021013637726122 0.034513114952585348 0 0.029043795614329137 0.031588336796219439 0 0.028462268185189394 0.031428633810326026 0 0.027873906265179261 0.032185035069270382 0 0.025513603948611949 0.034621177135479721 0 0.024151025471934415 0.037562437692393452 0 0.025513603948611949 0.034621177135479721 0 0.028028753861033737 0.032798740296275365 0 0.026007761365441518 0.033678105521900953 0 0.028028753861033737 0.032798740296275365 0 0.025972464862096853 0.034135074822414242 0 0.026961795402640001 0.033972268283066084 0 0.026555900177250975 0.034336241186219321 0 0.026489533382684526 0.032148395342295535 0 0.027873906265179261 0.032185035069270382 0 0.028076064135342031 0.03089940719510029 0 0.028431690833456515 0.026411430816324598 0 0.029879741653645684 0.025430690035333586 0 0.030628692266917942 0.019688124149991857 0 0.03039741213861832 0.020646809792890148 0 0.031409372466356528 0.019835585260180116 0 0.023014906305065037 0.03887515641009609 0 0.021910031902748948 0.039093180925825186 0 0.021848860428600327 0.03965755525776981 0 0.024648612974774432 0.037172085205854855 0 0.024151025471934415 0.037562437692393452 0 0.023014906305065037 0.03887515641009609 0 0.021910031902748948 0.039093180925825186 0 0.021960226820402655 0.038528057219412958 0 0.026252458143597349 0.034716739894351437 0 0.026555900177250975 0.034336241186219321 0 0.027021013637726122 0.034513114952585348 0 0.026961795402640001 0.033972268283066084 0 0.026555900177250975 0.034336241186219321 0 0.027021013637726122 0.034513114952585348 0 0.021406925643812497 0.039618026289465626 0 0.021195288866805006 0.039087127085197876 0 0.021123538942487374 0.039564713882754628 0 0.021910031902748948 0.039093180925825186 0 0.021848860428600327 0.03965755525776981 0 0.021406925643812497 0.039618026289465626 0 0.021910031902748948 0.039093180925825186 0 0.021406925643812497 0.039618026289465626 0 0.021195288866805006 0.039087127085197876 0 0.021910031902748948 0.039093180925825186 0 0.021195288866805006 0.039087127085197876 0 0.021960226820402655 0.038528057219412958 0 0.021195288866805006 0.039087127085197876 0 0.02065743377144592 0.038784813146023688 0 0.020438939514660141 0.039190029865413055 0 0.019065505664547528 0.035488195074374375 0 0.016944886062136632 0.03363162141585313 0 0.021258785549101024 0.038984550264064714 0 0.020707324618047678 0.039888840762688657 0 0.020610960789278369 0.039815317697343845 0 0.020848965827225407 0.039457905221292895 0 0.020438939514660141 0.039190029865413055 0 0.021195288866805006 0.039087127085197876 0 0.020848965827225407 0.039457905221292895 0 0.020438939514660141 0.039190029865413055 0 0.021188951472836427 0.039768382715477051 0 0.021406925643812497 0.039618026289465626 0 0.021123538942487374 0.039564713882754628 0 0.019065505664547528 0.035488195074374375 0 0.020707324618047678 0.039888840762688657 0 0.013704360349550476 0.029149738198045307 0 0.013854706485093545 0.029059763743049617 0 0.013637289629886699 0.028985053283384261 0 0.013904520685845965 0.029304373693215487 0 0.013704360349550476 0.029149738198045307 0 0.013854706485093545 0.029059763743049617 0 0.02065743377144592 0.038784813146023688 0 0.020438939514660141 0.039190029865413055 0 0.020282854329572202 0.038486112271790572 0 0.016944886062136632 0.03363162141585313 0 0.016850711393089152 0.035006368537463993 0 0.013854706485093545 0.029059763743049617 0 0.013818356527606599 0.028815279961619041 0 0.013637289629886699 0.028985053283384261 0 0.01618988040498813 0.035007238920183065 0 0.016082458491223788 0.034447618225596992 0 0.01514413749247135 0.034861676813643841 0 0.016850711393089152 0.035006368537463993 0 0.017317349738469136 0.036775432638751236 0 0.018764184827681475 0.038376810112888279 0 0.01838998578475257 0.037927767207318989 0 0.017734357627268264 0.038053819475009958 0 0.018764184827681475 0.038376810112888279 0 0.01888941657352931 0.037996760603143311 0 0.018704988551309542 0.037924304019557403 0 0.018764184827681475 0.038376810112888279 0 0.01838998578475257 0.037927767207318989 0 0.018704988551309542 0.037924304019557403 0 0.01888941657352931 0.037996760603143311 0 0.018704988551309542 0.037924304019557403 0 0.018962437123860008 0.037820245242549039 0 0.01838998578475257 0.037927767207318989 0 0.018704988551309542 0.037924304019557403 0 0.018798425394336495 0.037492331189151615 0 0.018704988551309542 0.037924304019557403 0 0.018798425394336495 0.037492331189151615 0 0.018962437123860008 0.037820245242549039 0 0.01838998578475257 0.037927767207318989 0 0.018798425394336495 0.037492331189151615 0 0.018200935150959458 0.037291992538422553 0 0.01838998578475257 0.037927767207318989 0 0.017734357627268264 0.038053819475009958 0 0.018200935150959458 0.037291992538422553 0 0.019296759907549803 0.037645101089080799 0 0.019895494487446944 0.03742926621847209 0 0.019265855642638011 0.037087587633088108 0 0.018798425394336495 0.037492331189151615 0 0.019296759907549803 0.037645101089080799 0 0.019265855642638011 0.037087587633088108 0 0.018798425394336495 0.037492331189151615 0 0.019296759907549803 0.037645101089080799 0 0.018962437123860008 0.037820245242549039 0 0.019296759907549803 0.037645101089080799 0 0.018962437123860008 0.037820245242549039 0 0.019167364842486549 0.038013972797144156 0 0.01888941657352931 0.037996760603143311 0 0.018962437123860008 0.037820245242549039 0 0.019167364842486549 0.038013972797144156 0 0.019296759907549803 0.037645101089080799 0 0.019579223307348161 0.037901140578268634 0 0.019167364842486549 0.038013972797144156 0 0.019296759907549803 0.037645101089080799 0 0.019579223307348161 0.037901140578268634 0 0.019895494487446944 0.03742926621847209 0 0.019579223307348161 0.037901140578268634 0 0.019167364842486549 0.038013972797144156 0 0.019492115710995121 0.038347724301306049 0 0.019158687545464757 0.038926285539706507 0 0.018997369487144023 0.038047609602311468 0 0.019492115710995121 0.038347724301306049 0 0.018997369487144023 0.038047609602311468 0 0.019167364842486549 0.038013972797144156 0 0.019492115710995121 0.038347724301306049 0 0.017317349738469136 0.036775432638751236 0 0.017747439582411057 0.036825315859697602 0 0.018764184827681475 0.038376810112888279 0 0.01888941657352931 0.037996760603143311 0 0.019167364842486549 0.038013972797144156 0 0.020550098709800142 0.03768150879659124 0 0.020757654111143421 0.038440573701078659 0 0.021393634210496646 0.037417983844539857 0 0.019492115710995121 0.038347724301306049 0 0.020051121904242682 0.038017876150279843 0 0.020757654111143421 0.038440573701078659 0 0.019579223307348161 0.037901140578268634 0 0.019492115710995121 0.038347724301306049 0 0.020051121904242682 0.038017876150279843 0 0.020051121904242682 0.038017876150279843 0 0.019895494487446944 0.03742926621847209 0 0.020550098709800142 0.03768150879659124 0 0.019579223307348161 0.037901140578268634 0 0.020051121904242682 0.038017876150279843 0 0.019895494487446944 0.03742926621847209 0 0.019895494487446944 0.03742926621847209 0 0.020550098709800142 0.03768150879659124 0 0.020608889919381385 0.037021498770822329 0 0.020051121904242682 0.038017876150279843 0 0.020550098709800142 0.03768150879659124 0 0.020757654111143421 0.038440573701078659 0 0.02065743377144592 0.038784813146023688 0 0.020282854329572202 0.038486112271790572 0 0.020757654111143421 0.038440573701078659 0 0.016850711393089152 0.035006368537463993 0 0.02147080601395155 0.038590404204223092 0 0.021195288866805006 0.039087127085197876 0 0.02065743377144592 0.038784813146023688 0 0.020757654111143421 0.038440573701078659 0 0.019158687545464757 0.038926285539706507 0 0.019492115710995121 0.038347724301306049 0 0.020757654111143421 0.038440573701078659 0 0.020757654111143421 0.038440573701078659 0 0.021946069387393585 0.037752192720740943 0 0.021960226820402655 0.038528057219412958 0 0.021195288866805006 0.039087127085197876 0 0.020757654111143421 0.038440573701078659 0 0.021960226820402655 0.038528057219412958 0 0.020757654111143421 0.038440573701078659 0 0.021393634210496646 0.037417983844539857 0 0.021946069387393585 0.037752192720740943 0 0.020550098709800142 0.03768150879659124 0 0.021393634210496646 0.037417983844539857 0 0.020608889919381385 0.037021498770822329 0 0.023118591674868492 0.037740083394454851 0 0.021946069387393585 0.037752192720740943 0 0.022550120950164034 0.037089777842707249 0 0.021393634210496646 0.037417983844539857 0 0.021946069387393585 0.037752192720740943 0 0.022550120950164034 0.037089777842707249 0 0.023118591674868492 0.037740083394454851 0 0.021946069387393585 0.037752192720740943 0 0.021960226820402655 0.038528057219412958 0 0.013122764422179949 0.028981480564401026 0 0.013399432296992796 0.028957759388425489 0 0.013223961942630856 0.028757079063873803 0 0.009650377126905637 0.035231194244688978 0 0.013302258141455211 0.033261019366754262 0 0.010915690153457303 0.028822102496207293 0 0.013302258141455211 0.033261019366754262 0 0.013122764422179949 0.028981480564401026 0 0.012782659109076491 0.028839496851050479 0 0.013223961942630856 0.028757079063873803 0 0.00805573367059703 0.028694350174167466 0 0.008835861089172543 0.029538521528910757 0 0.01188824146837102 0.028237778098623625 0 0.0123276951195162 0.02904624644038498 0 0.012782659109076491 0.028839496851050479 0 0.012631578770704399 0.029131745801475744 0 0.013122764422179949 0.028981480564401026 0 0.012782659109076491 0.028839496851050479 0 0.012631578770704399 0.029131745801475744 0 0.0057890765508979633 0.030837414283611555 0 0.00805573367059703 0.028694350174167466 0 0.008835861089172543 0.029538521528910757 0 0.012825395301991425 0.029250844471250113 0 0.013103010785935757 0.028987360603385692 0 0.012649987982627519 0.029403936157025894 0 0.013122764422179949 0.028981480564401026 0 0.012631578770704399 0.029131745801475744 0 0.013250247007910623 0.029162720154163723 0 0.012996538049374451 0.029119736360717522 0 0.013122764422179949 0.028981480564401026 0 0.013250247007910623 0.029162720154163723 0 0.013122764422179949 0.028981480564401026 0 0.01331466185209312 0.029063174615690666 0 0.01331466185209312 0.029063174615690666 0 0.01348585602427475 0.029133897157601323 0 0.013399432296992796 0.028957759388425489 0 0.013250247007910623 0.029162720154163723 0 0.01331466185209312 0.029063174615690666 0 0.01348585602427475 0.029133897157601323 0 0.013704360349550476 0.029149738198045307 0 0.01348585602427475 0.029133897157601323 0 0.013637289629886699 0.028985053283384261 0 0.01348585602427475 0.029133897157601323 0 0.013637289629886699 0.028985053283384261 0 0.013399432296992796 0.028957759388425489 0 0.013655385391055683 0.029284922652830458 0 0.013704360349550476 0.029149738198045307 0 0.01348585602427475 0.029133897157601323 0 0.013637289629886699 0.028985053283384261 0 0.013399432296992796 0.028957759388425489 0 0.013540091960051539 0.028791337137893828 0 0.013122764422179949 0.028981480564401026 0 0.01331466185209312 0.029063174615690666 0 0.013399432296992796 0.028957759388425489 0 0.013399432296992796 0.028957759388425489 0 0.013540091960051539 0.028791337137893828 0 0.013223961942630856 0.028757079063873803 0 0.015804981561767698 0.037702197341386016 0 0.013302258141455211 0.033261019366754262 0 0.0151976916254647 0.035143490269378547 0 0.01514413749247135 0.034861676813643841 0 0.014182507151764709 0.03525682422381702 0 0.014165509759731021 0.031650081371575156 0 0.013302258141455211 0.033261019366754262 0 0.016544652560581932 0.039686418406339366 0 0.014522131581261864 0.038622225091224982 0 0.014236469745590462 0.040921893536189566 0 0.013818356527606599 0.028815279961619041 0 0.013637289629886699 0.028985053283384261 0 0.013540091960051539 0.028791337137893828 0 0.016850711393089152 0.035006368537463993 0 0.014165509759731021 0.031650081371575156 0 0.01618988040498813 0.035007238920183065 0 0.0151976916254647 0.035143490269378547 0 0.01514413749247135 0.034861676813643841 0 0.016544652560581932 0.039686418406339366 0 0.016878212143680404 0.037857086698464222 0 0.017734357627268264 0.038053819475009958 0 0.017317349738469136 0.036775432638751236 0 0.015804981561767698 0.037702197341386016 0 0.018764184827681475 0.038376810112888279 0 0.016544652560581932 0.039686418406339366 0 0.017734357627268264 0.038053819475009958 0 0.017734357627268264 0.038053819475009958 0 0.017459438169449247 0.037151228800593829 0 0.018200935150959458 0.037291992538422553 0 0.016878212143680404 0.037857086698464222 0 0.017734357627268264 0.038053819475009958 0 0.017459438169449247 0.037151228800593829 0 0.016544652560581932 0.039686418406339366 0 0.015681410053214818 0.037708329749932525 0 0.014522131581261864 0.038622225091224982 0 0.016544652560581932 0.039686418406339366 0 0.016878212143680404 0.037857086698464222 0 0.015681410053214818 0.037708329749932525 0 0.015681410053214818 0.037708329749932525 0 0.014522131581261864 0.038622225091224982 0 0.014102292095875303 0.037036543043580269 0 0.013191201236803967 0.039252022652799971 0 0.014522131581261864 0.038622225091224982 0 0.012399289217133147 0.037856119213867355 0 0.014522131581261864 0.038622225091224982 0 0.012399289217133147 0.037856119213867355 0 0.014102292095875303 0.037036543043580269 0 0.013191201236803967 0.039252022652799971 0 0.014522131581261864 0.038622225091224982 0 0.014236469745590462 0.040921893536189566 0 0.011414935607523876 0.041517526735346713 0 0.013191201236803967 0.039252022652799971 0 0.014236469745590462 0.040921893536189566 0 0.011414935607523876 0.041517526735346713 0 0.013191201236803967 0.039252022652799971 0 0.011432316540436385 0.039399018810342114 0 0.010382174277902979 0.038361584468420099 0 0.011432316540436385 0.039399018810342114 0 0.012399289217133147 0.037856119213867355 0 0.013191201236803967 0.039252022652799971 0 0.011432316540436385 0.039399018810342114 0 0.012399289217133147 0.037856119213867355 0 0.010382174277902979 0.038361584468420099 0 0.012399289217133147 0.037856119213867355 0 0.010542143462708794 0.036560951469283259 0 0.012399289217133147 0.037856119213867355 0 0.012376523491651721 0.036084310873028998 0 0.010542143462708794 0.036560951469283259 0 0.012376523491651721 0.036084310873028998 0 0.011492476598951291 0.035437559337047772 0 0.010542143462708794 0.036560951469283259 0 0.012376523491651721 0.036084310873028998 0 0.011492476598951291 0.035437559337047772 0 0.012755790242522918 0.034189820316770099 0 0.012992800598692266 0.034661047450411521 0 0.010513414856785792 0.035836922614462835 0 0.011492476598951291 0.035437559337047772 0 0.012755790242522918 0.034189820316770099 0 0.010275905039337828 0.034947232015863083 0 0.011815799328028627 0.035117635617771981 0 0.013179356959013344 0.035184007588920138 0 0.011132630571327995 0.03603729722221817 0 0.012376523491651721 0.036084310873028998 0 0.014001362395201271 0.035596566870907634 0 0.012755790242522918 0.034189820316770099 0 0.014001362395201271 0.035596566870907634 0 0.015133350254459641 0.033620088595251021 0 0.012755790242522918 0.034189820316770099 0 0.014001362395201271 0.035596566870907634 0 0.014102292095875303 0.037036543043580269 0 0.015456184744622226 0.036369480489554261 0 0.012399289217133147 0.037856119213867355 0 0.012376523491651721 0.036084310873028998 0 0.014102292095875303 0.037036543043580269 0 0.012376523491651721 0.036084310873028998 0 0.014001362395201271 0.035596566870907634 0 0.014102292095875303 0.037036543043580269 0 0.015681410053214818 0.037708329749932525 0 0.014102292095875303 0.037036543043580269 0 0.015456184744622226 0.036369480489554261 0 0.015681410053214818 0.037708329749932525 0 0.015456184744622226 0.036369480489554261 0 0.016568095813851349 0.036876527551214767 0 0.015456184744622226 0.036369480489554261 0 0.016568095813851349 0.036876527551214767 0 0.016399263319129078 0.035760711958318765 0 0.017459438169449247 0.037151228800593829 0 0.018200935150959458 0.037291992538422553 0 0.018117678983646923 0.03656540274007667 0 0.016878212143680404 0.037857086698464222 0 0.015681410053214818 0.037708329749932525 0 0.016568095813851349 0.036876527551214767 0 0.016878212143680404 0.037857086698464222 0 0.017459438169449247 0.037151228800593829 0 0.016568095813851349 0.036876527551214767 0 0.017459438169449247 0.037151228800593829 0 0.016568095813851349 0.036876527551214767 0 0.017342733980241984 0.036258792994233971 0 0.016568095813851349 0.036876527551214767 0 0.017342733980241984 0.036258792994233971 0 0.016399263319129078 0.035760711958318765 0 0.017342733980241984 0.036258792994233971 0 0.018117678983646923 0.03656540274007667 0 0.018094293632539268 0.035605394000862434 0 0.017459438169449247 0.037151228800593829 0 0.017342733980241984 0.036258792994233971 0 0.018117678983646923 0.03656540274007667 0 0.017342733980241984 0.036258792994233971 0 0.016815050934907545 0.034842694918436057 0 0.018094293632539268 0.035605394000862434 0 0.017342733980241984 0.036258792994233971 0 0.016399263319129078 0.035760711958318765 0 0.016815050934907545 0.034842694918436057 0 0.016815050934907545 0.034842694918436057 0 0.018094293632539268 0.035605394000862434 0 0.018033033477055913 0.03453441768901603 0 0.016815050934907545 0.034842694918436057 0 0.015543687300722826 0.035182994782452008 0 0.015133350254459641 0.033620088595251021 0 0.014001362395201271 0.035596566870907634 0 0.015543687300722826 0.035182994782452008 0 0.015133350254459641 0.033620088595251021 0 0.014001362395201271 0.035596566870907634 0 0.015456184744622226 0.036369480489554261 0 0.015543687300722826 0.035182994782452008 0 0.015456184744622226 0.036369480489554261 0 0.016399263319129078 0.035760711958318765 0 0.015543687300722826 0.035182994782452008 0 0.016399263319129078 0.035760711958318765 0 0.016815050934907545 0.034842694918436057 0 0.015543687300722826 0.035182994782452008 0 0.015141012374886336 0.033960694852397076 0 0.016956959733778695 0.033340689799689502 0 0.016815050934907545 0.034842694918436057 0 0.017145056328606557 0.033299630507707741 0 0.018033033477055913 0.03453441768901603 0 0.016815050934907545 0.034842694918436057 0 0.015133350254459641 0.033620088595251021 0 0.017145056328606557 0.033299630507707741 0 0.017145056328606557 0.033299630507707741 0 0.018344975029830648 0.032526397851085374 0 0.017256766406418073 0.031774616216912285 0 0.017145056328606557 0.033299630507707741 0 0.01547642602837254 0.032027691722347283 0 0.017256766406418073 0.031774616216912285 0 0.015181613713203649 0.034279217498355267 0 0.017145056328606557 0.033299630507707741 0 0.01547642602837254 0.032027691722347283 0 0.015181613713203649 0.034279217498355267 0 0.01382761513916839 0.032787444829784136 0 0.01547642602837254 0.032027691722347283 0 0.01382761513916839 0.032787444829784136 0 0.012603742525944962 0.033741470476774497 0 0.013701434600361257 0.033993058049951445 0 0.012603742525944962 0.033741470476774497 0 0.011906843392996944 0.031521501422894602 0 0.011106318709341756 0.033866199121583403 0 0.01382761513916839 0.032787444829784136 0 0.012603742525944962 0.033741470476774497 0 0.011906843392996944 0.031521501422894602 0 0.012603742525944962 0.033741470476774497 0 0.013179356959013344 0.035184007588920138 0 0.013701434600361257 0.033993058049951445 0 0.012603742525944962 0.033741470476774497 0 0.011815799328028627 0.035117635617771981 0 0.011106318709341756 0.033866199121583403 0 0.012603742525944962 0.033741470476774497 0 0.011815799328028627 0.035117635617771981 0 0.013179356959013344 0.035184007588920138 0 0.015181613713203649 0.034279217498355267 0 0.013179356959013344 0.035184007588920138 0 0.013701434600361257 0.033993058049951445 0 0.015141012374886336 0.033960694852397076 0 0.012992800598692266 0.034661047450411521 0 0.015181613713203649 0.034279217498355267 0 0.01382761513916839 0.032787444829784136 0 0.013701434600361257 0.033993058049951445 0 0.022235816623465899 0.036332223217827732 0 0.022530309642826363 0.035305351613768944 0 0.022957898697512091 0.036455195236769794 0 0.022173114266931179 0.036378695629295348 0 0.022790032743899249 0.036159164093428418 0 0.021393634210496646 0.037417983844539857 0 0.022550120950164034 0.037089777842707249 0 0.022173114266931179 0.036378695629295348 0 0.022957898697512091 0.036455195236769794 0 0.022550120950164034 0.037089777842707249 0 0.022173114266931179 0.036378695629295348 0 0.022173114266931179 0.036378695629295348 0 0.020534440173309479 0.036072452812429767 0 0.020608889919381385 0.037021498770822329 0 0.021393634210496646 0.037417983844539857 0 0.022173114266931179 0.036378695629295348 0 0.020608889919381385 0.037021498770822329 0 0.022173114266931179 0.036378695629295348 0 0.020692418818497347 0.034939235162904633 0 0.020534440173309479 0.036072452812429767 0 0.022173114266931179 0.036378695629295348 0 0.020692418818497347 0.034939235162904633 0 0.022351414292870145 0.034321744214098893 0 0.020692418818497347 0.034939235162904633 0 0.01935689979676845 0.035387674700732598 0 0.020534440173309479 0.036072452812429767 0 0.01935689979676845 0.035387674700732598 0 0.020534440173309479 0.036072452812429767 0 0.019798981301932868 0.036559748778126566 0 0.020534440173309479 0.036072452812429767 0 0.020608889919381385 0.037021498770822329 0 0.019798981301932868 0.036559748778126566 0 0.019895494487446944 0.03742926621847209 0 0.020608889919381385 0.037021498770822329 0 0.019798981301932868 0.036559748778126566 0 0.019895494487446944 0.03742926621847209 0 0.019798981301932868 0.036559748778126566 0 0.019265855642638011 0.037087587633088108 0 0.019798981301932868 0.036559748778126566 0 0.018884270296019117 0.03630034866214317 0 0.019265855642638011 0.037087587633088108 0 0.01935689979676845 0.035387674700732598 0 0.019798981301932868 0.036559748778126566 0 0.018884270296019117 0.03630034866214317 0 0.018884270296019117 0.03630034866214317 0 0.019265855642638011 0.037087587633088108 0 0.018653900792688631 0.036841989388827746 0 0.018798425394336495 0.037492331189151615 0 0.019265855642638011 0.037087587633088108 0 0.018653900792688631 0.036841989388827746 0 0.018200935150959458 0.037291992538422553 0 0.018653900792688631 0.036841989388827746 0 0.018117678983646923 0.03656540274007667 0 0.018798425394336495 0.037492331189151615 0 0.018200935150959458 0.037291992538422553 0 0.018653900792688631 0.036841989388827746 0 0.018884270296019117 0.03630034866214317 0 0.018117678983646923 0.03656540274007667 0 0.018094293632539268 0.035605394000862434 0 0.018884270296019117 0.03630034866214317 0 0.018653900792688631 0.036841989388827746 0 0.018117678983646923 0.03656540274007667 0 0.01935689979676845 0.035387674700732598 0 0.018884270296019117 0.03630034866214317 0 0.018094293632539268 0.035605394000862434 0 0.01935689979676845 0.035387674700732598 0 0.018094293632539268 0.035605394000862434 0 0.018033033477055913 0.03453441768901603 0 0.017145056328606557 0.033299630507707741 0 0.019075500829858823 0.033815192968133068 0 0.018033033477055913 0.03453441768901603 0 0.01935689979676845 0.035387674700732598 0 0.019075500829858823 0.033815192968133068 0 0.018033033477055913 0.03453441768901603 0 0.017145056328606557 0.033299630507707741 0 0.019075500829858823 0.033815192968133068 0 0.018344975029830648 0.032526397851085374 0 0.019075500829858823 0.033815192968133068 0 0.018344975029830648 0.032526397851085374 0 0.019698874606352376 0.032173304642518608 0 0.019075500829858823 0.033815192968133068 0 0.019698874606352376 0.032173304642518608 0 0.020782905489081523 0.0335204893553099 0 0.019698874606352376 0.032173304642518608 0 0.020782905489081523 0.0335204893553099 0 0.021105533539138667 0.032143126161926508 0 0.020692418818497347 0.034939235162904633 0 0.01935689979676845 0.035387674700732598 0 0.019075500829858823 0.033815192968133068 0 0.020692418818497347 0.034939235162904633 0 0.019075500829858823 0.033815192968133068 0 0.020782905489081523 0.0335204893553099 0 0.020692418818497347 0.034939235162904633 0 0.020782905489081523 0.0335204893553099 0 0.022351414292870145 0.034321744214098893 0 0.020782905489081523 0.0335204893553099 0 0.022512506181044341 0.032476881282914906 0 0.022351414292870145 0.034321744214098893 0 0.020782905489081523 0.0335204893553099 0 0.022512506181044341 0.032476881282914906 0 0.021105533539138667 0.032143126161926508 0 0.023295426421265107 0.036163992982596385 0 0.023024781807483099 0.036081158402324114 0 0.022790032743899249 0.036159164093428418 0 0.02285314206154114 0.034243952436313126 0 0.022530309642826363 0.035305351613768944 0 0.022018683563311426 0.029920427837575366 0 0.022569114416719282 0.030664537523173437 0 0.022775016442132937 0.029448347308185827 0 0.021723462109970431 0.033315215033079174 0 0.018509926247583075 0.035314806563368308 0 0.018308009136075876 0.037011143665422012 0 0.017819360980723512 0.037481352972284013 0 0.017981663648386187 0.036607263259925624 0 0.022018683563311426 0.029920427837575366 0 0.022569114416719282 0.030664537523173437 0 0.021613422159573459 0.030366015336625116 0 0.021723462109970431 0.033315215033079174 0 0.021696521275316107 0.030919969213997537 0 0.022731939071392593 0.030676504468392547 0 0.021748635808519552 0.031402967558714731 0 0.021613422159573459 0.030366015336625116 0 0.022512506181044341 0.032476881282914906 0 0.022731939071392593 0.030676504468392547 0 0.021748635808519552 0.031402967558714731 0 0.023220076629161049 0.036031301044443242 0 0.023024781807483099 0.036081158402324114 0 0.023087858894388691 0.035821708491538422 0 0.02285314206154114 0.034243952436313126 0 0.021723462109970431 0.033315215033079174 0 0.021748635808519552 0.031402967558714731 0 0.02076432434415908 0.031149535772827842 0 0.021613422159573459 0.030366015336625116 0 0.019698874606352376 0.032173304642518608 0 0.021105533539138667 0.032143126161926508 0 0.02076432434415908 0.031149535772827842 0 0.022512506181044341 0.032476881282914906 0 0.021748635808519552 0.031402967558714731 0 0.021105533539138667 0.032143126161926508 0 0.021748635808519552 0.031402967558714731 0 0.021105533539138667 0.032143126161926508 0 0.02076432434415908 0.031149535772827842 0 0.020677669672792977 0.030250374508626689 0 0.021613422159573459 0.030366015336625116 0 0.020716492283824883 0.029067075319624703 0 0.022018683563311426 0.029920427837575366 0 0.021613422159573459 0.030366015336625116 0 0.020716492283824883 0.029067075319624703 0 0.02076432434415908 0.031149535772827842 0 0.020677669672792977 0.030250374508626689 0 0.021613422159573459 0.030366015336625116 0 0.020677669672792977 0.030250374508626689 0 0.019602834343042698 0.030428448512103218 0 0.020716492283824883 0.029067075319624703 0 0.02076432434415908 0.031149535772827842 0 0.020677669672792977 0.030250374508626689 0 0.019602834343042698 0.030428448512103218 0 0.019698874606352376 0.032173304642518608 0 0.019602834343042698 0.030428448512103218 0 0.018570772122397432 0.031391479427026983 0 0.019698874606352376 0.032173304642518608 0 0.02076432434415908 0.031149535772827842 0 0.019602834343042698 0.030428448512103218 0 0.018344975029830648 0.032526397851085374 0 0.019698874606352376 0.032173304642518608 0 0.018570772122397432 0.031391479427026983 0 0.018344975029830648 0.032526397851085374 0 0.018570772122397432 0.031391479427026983 0 0.017256766406418073 0.031774616216912285 0 0.018570772122397432 0.031391479427026983 0 0.017833933189159847 0.030958656208284776 0 0.017256766406418073 0.031774616216912285 0 0.018570772122397432 0.031391479427026983 0 0.017833933189159847 0.030958656208284776 0 0.018569676926336643 0.030417385633134744 0 0.018569676926336643 0.030417385633134744 0 0.018475501390539904 0.028728285668583965 0 0.017626667686532489 0.030294883561433544 0 0.019602834343042698 0.030428448512103218 0 0.018569676926336643 0.030417385633134744 0 0.018475501390539904 0.028728285668583965 0 0.017833933189159847 0.030958656208284776 0 0.018569676926336643 0.030417385633134744 0 0.017626667686532489 0.030294883561433544 0 0.019602834343042698 0.030428448512103218 0 0.018570772122397432 0.031391479427026983 0 0.018569676926336643 0.030417385633134744 0 0.015197682610842176 0.034546056282347665 0 0.01546507068309068 0.03131432560840515 0 0.015197682610842176 0.034546056282347665 0 0.014270384345490255 0.035904094647454046 0 0.013667500399467144 0.036317603699453638 0 0.013581723513321469 0.035562734043015326 0 0.012987593371529235 0.035752667482934361 0 0.013581723513321469 0.035562734043015326 0 0.014024376131323908 0.034999920721522165 0 0.012794334383064678 0.035000039853081671 0 0.013581723513321469 0.035562734043015326 0 0.014024376131323908 0.034999920721522165 0 0.014444267319937889 0.03569800597283275 0 0.013667500399467144 0.036317603699453638 0 0.013581723513321469 0.035562734043015326 0 0.014444267319937889 0.03569800597283275 0 0.014024376131323908 0.034999920721522165 0 0.014444267319937889 0.03569800597283275 0 0.015255042167376352 0.035000016597778814 0 0.014588980214920425 0.035693010435439314 0 0.015255253726473446 0.035000004726192746 0 0.015858218940050486 0.035797292520712828 0 0.014270384345490255 0.035904094647454046 0 0.01525498044264496 0.035000047892001201 0 0.019602834343042698 0.030428448512103218 0 0.018475501390539904 0.028728285668583965 0 0.020716492283824883 0.029067075319624703 0 0.015197682610842176 0.034546056282347665 0 0.018627213110308769 0.032381043474603535 0 0.013893078281020287 0.036356827481728866 0 0.014588980214920425 0.035693010435439314 0 0.015580990100291601 0.036620919514928692 0 0.014588980214920425 0.035693010435439314 0 0.015580990100291601 0.036620919514928692 0 0.015858218940050486 0.035797292520712828 0 0.015580990100291601 0.036620919514928692 0 0.015858218940050486 0.035797292520712828 0 0.01735168565304207 0.03688470786683036 0 0.015255253726473446 0.035000004726192746 0 0.015858218940050486 0.035797292520712828 0 0.016473136520769559 0.03499996543179381 0 0.015858218940050486 0.035797292520712828 0 0.016473136520769559 0.03499996543179381 0 0.01735168565304207 0.03688470786683036 0 0.017691193665345665 0.034999973088360316 0 0.016473136520769559 0.03499996543179381 0 0.01735168565304207 0.03688470786683036 0 0.018627213110308769 0.032381043474603535 0 0.018509926247583075 0.035314806563368308 0 0.022018683563311426 0.029920427837575366 0 0.020716492283824883 0.029067075319624703 0 0.022775016442132937 0.029448347308185827 0 0.014040168253330229 0.030866581970361195 0 0.015082651048225553 0.029361202633161238 0 0.013652109231014764 0.029214681004674219 0 0.014657539259709862 0.02997879431379678 0 0.013909504151978872 0.03133400759033024 0 0.013284497841402128 0.030142087327856712 0 0.014040168253330229 0.030866581970361195 0 0.013652109231014764 0.029214681004674219 0 0.0086156855894776955 0.034037411001729204 0 0.0089266337461487849 0.033901630739003825 0 0.013284497841402128 0.030142087327856712 0 0.013652109231014764 0.029214681004674219 0 0.012634552695371171 0.029341411605529947 0 0.0052295662644760328 0.037062486089298102 0 0.0056284128337047599 0.035909101979328131 0 0.0050065648239730623 0.03643514219398522 0 0.013284497841402128 0.030142087327856712 0 0.011906843392996944 0.031521501422894602 0 0.012634552695371171 0.029341411605529947 0 0.01382761513916839 0.032787444829784136 0 0.011906843392996944 0.031521501422894602 0 0.014040168253330229 0.030866581970361195 0 0.013284497841402128 0.030142087327856712 0 0.011906843392996944 0.031521501422894602 0 0.014040168253330229 0.030866581970361195 0 0.01382761513916839 0.032787444829784136 0 0.014040168253330229 0.030866581970361195 0 0.01547642602837254 0.032027691722347283 0 0.014040168253330229 0.030866581970361195 0 0.01547642602837254 0.032027691722347283 0 0.01553172509660147 0.030436954641953045 0 0.01547642602837254 0.032027691722347283 0 0.01631933344969367 0.031133305031354998 0 0.01553172509660147 0.030436954641953045 0 0.01547642602837254 0.032027691722347283 0 0.01631933344969367 0.031133305031354998 0 0.017256766406418073 0.031774616216912285 0 0.01631933344969367 0.031133305031354998 0 0.017256766406418073 0.031774616216912285 0 0.017120268087752757 0.030931274353380118 0 0.01631933344969367 0.031133305031354998 0 0.017120268087752757 0.030931274353380118 0 0.016571884188374436 0.030308942831987512 0 0.017833933189159847 0.030958656208284776 0 0.017256766406418073 0.031774616216912285 0 0.017120268087752757 0.030931274353380118 0 0.018475501390539904 0.028728285668583965 0 0.017626667686532489 0.030294883561433544 0 0.017132274685558758 0.029955843068852388 0 0.017626667686532489 0.030294883561433544 0 0.016571884188374436 0.030308942831987512 0 0.017059799126218772 0.029869610327242148 0 0.017833933189159847 0.030958656208284776 0 0.017120268087752757 0.030931274353380118 0 0.017626667686532489 0.030294883561433544 0 0.017120268087752757 0.030931274353380118 0 0.017626667686532489 0.030294883561433544 0 0.016571884188374436 0.030308942831987512 0 0.016550834600199942 0.030296517212376913 0 0.01546507068309068 0.03131432560840515 0 0.016571884188374436 0.030308942831987512 0 0.017041278933340887 0.02985210236951789 0 0.016021773359041178 0.029901186602768828 0 0.016626661717358868 0.031125984335565422 0 0.01546507068309068 0.03131432560840515 0 0.014040168253330229 0.030866581970361195 0 0.01553172509660147 0.030436954641953045 0 0.015310865151869602 0.02921389533482225 0 0.016571884188374436 0.030308942831987512 0 0.01553172509660147 0.030436954641953045 0 0.016021773359041178 0.029901186602768828 0 0.01631933344969367 0.031133305031354998 0 0.016571884188374436 0.030308942831987512 0 0.01553172509660147 0.030436954641953045 0 0.017041278933340887 0.02985210236951789 0 0.016021773359041178 0.029901186602768828 0 0.015808116682745701 0.029274169066003077 0 0.01553172509660147 0.030436954641953045 0 0.016021773359041178 0.029901186602768828 0 0.015310865151869602 0.02921389533482225 0 0.016021773359041178 0.029901186602768828 0 0.015310865151869602 0.02921389533482225 0 0.015808116682745701 0.029274169066003077 0 0.011499278806462952 0.036767529255414697 0 0.011192915417987554 0.035886881879126364 0 0.010241010778970846 0.035889472511128992 0 0.011341827630608274 0.037002049877400287 0 0.011562740606646226 0.036697642030373873 0 0.010518548099358475 0.036853797308176582 0 0.013909504151978872 0.03133400759033024 0 0.014972928326354204 0.03087314511895339 0 0.013909504151978872 0.03133400759033024 0 0.012842269530430073 0.035028887746080394 0 0.015284887826272886 0.029241508793907592 0 0.015808116682745701 0.029274169066003077 0 0.015583533676234732 0.028841148056759816 0 0.017041278933340887 0.02985210236951789 0 0.015808116682745701 0.029274169066003077 0 0.015583533676234732 0.028841148056759816 0 0.012842269530430073 0.035028887746080394 0 0.012108471168011347 0.036030182846017604 0 0.012067121334035596 0.036272772269236829 0 0.012449543373702089 0.03600630243455178 0 0.01239732338253929 0.035759739732240087 0 0.011499278806462952 0.036767529255414697 0 0.012141759747694075 0.035888126958050735 0 0.011192915417987554 0.035886881879126364 0 0.013667500399467144 0.036317603699453638 0 0.012449543373702089 0.03600630243455178 0 0.012987593371529235 0.035752667482934361 0 0.012682322503105607 0.036675227209777374 0 0.012067121334035596 0.036272772269236829 0 0.012449543373702089 0.03600630243455178 0 0.015197682610842176 0.034546056282347665 0 0.011948165194663185 0.036198444519482127 0 0.013328085344082276 0.036075253918749557 0 0.012682322503105607 0.036675227209777374 0 0.012449543373702089 0.03600630243455178 0 0.01546507068309068 0.03131432560840515 0 0.012842269530430073 0.035028887746080394 0 0.012987593371529235 0.035752667482934361 0 0.01239732338253929 0.035759739732240087 0 0.012794334383064678 0.035000039853081671 0 0.012449543373702089 0.03600630243455178 0 0.012987593371529235 0.035752667482934361 0 0.01239732338253929 0.035759739732240087 0 0.012108471168011347 0.036030182846017604 0 0.012793959627205255 0.035000088200409347 0 0.013581723513321469 0.035562734043015326 0 0.012987593371529235 0.035752667482934361 0 0.012794334383064678 0.035000039853081671 0 0.012141759747694075 0.035888126958050735 0 0.012793960902820836 0.034999995899398555 0 0.010887638509193668 0.034999991715553069 0 0.012141759747694075 0.035888126958050735 0 0.011192915417987554 0.035886881879126364 0 0.010887638509193668 0.034999991715553069 0 0.010887638509193668 0.034999991715553069 0 0.010241010778970846 0.035889472511128992 0 0.0089812724599603305 0.034999999266704378 0 0.011192915417987554 0.035886881879126364 0 0.010887638509193668 0.034999991715553069 0 0.010241010778970846 0.035889472511128992 0 0.011562740606646226 0.036697642030373873 0 0.010254845866443986 0.035833725804815073 0 0.010518548099358475 0.036853797308176582 0 0.011341827630608274 0.037002049877400287 0 0.010127932149335566 0.036911224396271272 0 0.010518548099358475 0.036853797308176582 0 0.013909504151978872 0.03133400759033024 0 0.011360024860441837 0.034252395725345365 0 0.012842269530430073 0.035028887746080394 0 0.010148188440407154 0.035982443755087169 0 0.010254845866443986 0.035833725804815073 0 0.0099717846645361076 0.036471716435146122 0 0.010518548099358475 0.036853797308176582 0 0.010254845866443986 0.035833725804815073 0 0.0099717846645361076 0.036471716435146122 0 0.0095779775035390279 0.03619684813163801 0 0.0099717846645361076 0.036471716435146122 0 0.010121085162105572 0.036921357565981527 0 0.010518548099358475 0.036853797308176582 0 0.011360024860441837 0.034252395725345365 0 0.010560102536473931 0.034993651572361013 0 0.0071065659808690227 0.036346140308121472 0 0.0071663146926439726 0.036143027622025037 0 0.0053944104418870197 0.036621565774168724 0 0.011235234290714723 0.034355816233320166 0 0.0085295993810854797 0.034740670268924904 0 0.0087128378789691381 0.03412964644155473 0 0.011360024860441837 0.034252395725345365 0 0.0089266337461487849 0.033901630739003825 0 0.0099717846645361076 0.036471716435146122 0 0.010121085162105572 0.036921357565981527 0 0.0094307800272143347 0.036610067389851793 0 0.011360024860441837 0.034252395725345365 0 0.0087861394549364636 0.03542744479712108 0 0.010121085162105572 0.036921357565981527 0 0.0093542157658332917 0.036864469403340233 0 0.0094307800272143347 0.036610067389851793 0 0.0089266337461487849 0.033901630739003825 0 0.0087861394549364636 0.03542744479712108 0 0.0087861394549364636 0.03542744479712108 0 0.0087831868469553966 0.035882867479242353 0 0.0094307800272143347 0.036610067389851793 0 0.0095779775035390279 0.03619684813163801 0 0.0090074651825411776 0.036280065767251367 0 0.0099717846645361076 0.036471716435146122 0 0.0094307800272143347 0.036610067389851793 0 0.0095779775035390279 0.03619684813163801 0 0.009349249590191757 0.036869936243096479 0 0.0094307800272143347 0.036610067389851793 0 0.0090074651825411776 0.036280065767251367 0 0.0095779775035390279 0.03619684813163801 0 0.0090074651825411776 0.036280065767251367 0 0.0092264626409196693 0.035791423081852486 0 0.010254845866443986 0.035833725804815073 0 0.0092264626409196693 0.035791423081852486 0 0.0089812587435776307 0.034999940952954826 0 0.010148188440407154 0.035982443755087169 0 0.0089816078894497837 0.035000168693181566 0 0.0090074651825411776 0.036280065767251367 0 0.0092264626409196693 0.035791423081852486 0 0.008405899397172999 0.035756614323607869 0 0.010254845866443986 0.035833725804815073 0 0.0095779775035390279 0.03619684813163801 0 0.0092264626409196693 0.035791423081852486 0 0.0092264626409196693 0.035791423081852486 0 0.0089812587435776307 0.034999940952954826 0 0.008405899397172999 0.035756614323607869 0 0.008405899397172999 0.035756614323607869 0 0.0073997778612952059 0.034999968190543164 0 0.0074068165043597312 0.036721481894144418 0 0.0089812587435776307 0.034999940952954826 0 0.008405899397172999 0.035756614323607869 0 0.0073997778612952059 0.034999968190543164 0 0.0073997778612952059 0.034999968190543164 0 0.0074068165043597312 0.036721481894144418 0 0.0064339204856407135 0.035770544760483192 0 0.007399418550035607 0.035000278490494793 0 0.0065224728002926799 0.035719360687056487 0 0.009349249590191757 0.036869936243096479 0 0.0090074651825411776 0.036280065767251367 0 0.0074068165043597312 0.036721481894144418 0 0.0071663146926439726 0.036143027622025037 0 0.0050308380672059987 0.036034779684250832 0 0.0053944104418870197 0.036621565774168724 0 0.0087861394549364636 0.03542744479712108 0 0.0061069365115121446 0.036507212160913058 0 0.0090074651825411776 0.036280065767251367 0 0.008405899397172999 0.035756614323607869 0 0.0074068165043597312 0.036721481894144418 0 0.0053180300030862999 0.035000009658409693 0 0.0049423582421079578 0.035845854323431091 0 0.0040825016056358588 0.035699387169043244 0 0.0049423582421079578 0.035845854323431091 0 0.0041547705431499334 0.036504988336257468 0 0.0040825016056358588 0.035699387169043244 0 0.0049423582421079578 0.035845854323431091 0 0.0064435352662954035 0.035786652855344339 0 0.0054781588494568073 0.036590504088115365 0 0.0053180300030862999 0.035000009658409693 0 0.0049423582421079578 0.035845854323431091 0 0.0064435352662954035 0.035786652855344339 0 0.0073997147620606394 0.034999994158313341 0 0.0053180300030862999 0.035000009658409693 0 0.0064435352662954035 0.035786652855344339 0 0.0050308380672059987 0.036034779684250832 0 0.0033055655894118135 0.035989652793192155 0 0.0039042038350976852 0.036778478203099277 0 0.0033055655894118135 0.035989652793192155 0 0.0029388154044959923 0.036343878936750625 0 0.0039042038350976852 0.036778478203099277 0 0.0074068165043597312 0.036721481894144418 0 0.0064339204856407135 0.035770544760483192 0 0.0054610362123104364 0.036558338205268062 0 0.0061069365115121446 0.036507212160913058 0 0.0044599678637462555 0.036317571988250912 0 0.0065224728002926799 0.035719360687056487 0 0.0044599678637462555 0.036317571988250912 0 0.0031062061489364992 0.036202881432016755 0 0.0029388154044959923 0.036343878936750625 0 0.0026420102655192877 0.036271130335553334 0 0.0044599678637462555 0.036317571988250912 0 0.003362926282718164 0.036367943255240225 0 0.0049423582421079578 0.035845854323431091 0 0.0054781588494568073 0.036590504088115365 0 0.0041547705431499334 0.036504988336257468 0 0.0044599678637462555 0.036317571988250912 0 0.0033056586429897872 0.03662443925474828 0 0.0029388154044959923 0.036343878936750625 0 0.0026048302557861148 0.036577925970163704 0 0.0026420102655192877 0.036271130335553334 0 0.0029388154044959923 0.036343878936750625 0 0.002749995798361154 0.036728824109709346 0 0.0039042038350976852 0.036778478203099277 0 0.0028025649302975239 0.036718433681083885 0 0.0038684276216443196 0.036537684033490697 0 0.0029388154044959923 0.036343878936750625 0 0.002749995798361154 0.036728824109709346 0 0.0026048302557861148 0.036577925970163704 0 0.002749995798361154 0.036728824109709346 0 0.003564410879272516 0.036358225063647075 0 0.003143233708532056 0.036933750982391815 0 0.003564410879272516 0.036358225063647075 0 0.0036904816951530478 0.037118393870551214 0 0.003143233708532056 0.036933750982391815 0 0.0036904816951530478 0.037118393870551214 0 0.0031872306669787766 0.037376199400555192 0 0.0035235266364912268 0.037727193676823284 0 0.0036904816951530478 0.037118393870551214 0 0.0031872306669787766 0.037376199400555192 0 0.003143233708532056 0.036933750982391815 0 0.002749995798361154 0.036728824109709346 0 0.003143233708532056 0.036933750982391815 0 0.0026799078830523513 0.037196075968033336 0 0.002749995798361154 0.036728824109709346 0 0.0026799078830523513 0.037196075968033336 0 0.0023803184860721567 0.036965080963110582 0 0.0031872306669787766 0.037376199400555192 0 0.003143233708532056 0.036933750982391815 0 0.0026799078830523513 0.037196075968033336 0 0.0056284128337047599 0.035909101979328131 0 0.0050065648239730623 0.03643514219398522 0 0.004564444483974181 0.036095895201050165 0 0.0089266337461487849 0.033901630739003825 0 0.0044295945774540223 0.036576140819412711 0 0.0050065648239730623 0.03643514219398522 0 0.004564444483974181 0.036095895201050165 0 0.0046296020752658561 0.036782727157908042 0 0.0050308380672059987 0.036034779684250832 0 0.0039042038350976852 0.036778478203099277 0 0.0053944104418870197 0.036621565774168724 0 0.003564410879272516 0.036358225063647075 0 0.004564444483974181 0.036095895201050165 0 0.004128888017152962 0.036694858233353569 0 0.003564410879272516 0.036358225063647075 0 0.0036904816951530478 0.037118393870551214 0 0.004128888017152962 0.036694858233353569 0 0.0038684276216443196 0.036537684033490697 0 0.0044295945774540223 0.036576140819412711 0 0.004564444483974181 0.036095895201050165 0 0.004128888017152962 0.036694858233353569 0 0.0046296020752658561 0.036782727157908042 0 0.004128888017152962 0.036694858233353569 0 0.0042339230690589865 0.037090014682035821 0 0.0046296020752658561 0.036782727157908042 0 0.0036904816951530478 0.037118393870551214 0 0.0042339230690589865 0.037090014682035821 0 0.0041908480344468686 0.037773058624268815 0 0.0036904816951530478 0.037118393870551214 0 0.004128888017152962 0.036694858233353569 0 0.0042339230690589865 0.037090014682035821 0 0.0042339230690589865 0.037090014682035821 0 0.0046299546706336028 0.037366566491075927 0 0.0046296020752658561 0.036782727157908042 0 0.0052295662644760328 0.037062486089298102 0 0.0046299546706336028 0.037366566491075927 0 0.0046296020752658561 0.036782727157908042 0 0.0052295662644760328 0.037062486089298102 0 0.0050065648239730623 0.03643514219398522 0 0.0046296020752658561 0.036782727157908042 0 0.0052295662644760328 0.037062486089298102 0 0.0046299546706336028 0.037366566491075927 0 0.0048732565723638224 0.038102379117283994 0 0.0046299546706336028 0.037366566491075927 0 0.0048732565723638224 0.038102379117283994 0 0.0041908480344468686 0.037773058624268815 0 0.0086156855894776955 0.034037411001729204 0 0.0080665299686230926 0.035963839583187683 0 0.0080665299686230926 0.035963839583187683 0 0.0067584958089743933 0.038076218686215468 0 0.011815799328028627 0.035117635617771981 0 0.011106318709341756 0.033866199121583403 0 0.011092269242465419 0.036069520522103479 0 0.0048732565723638224 0.038102379117283994 0 0.004258708901327595 0.038481160735238974 0 0.0045681188758312265 0.039137047835110808 0 0.004258708901327595 0.038481160735238974 0 0.0041908480344468686 0.037773058624268815 0 0.0036264944510174587 0.038418551045474071 0 0.0048732565723638224 0.038102379117283994 0 0.004258708901327595 0.038481160735238974 0 0.0041908480344468686 0.037773058624268815 0 0.004258708901327595 0.038481160735238974 0 0.0036264944510174587 0.038418551045474071 0 0.0039449103159834185 0.03890739946089998 0 0.0042339230690589865 0.037090014682035821 0 0.0046299546706336028 0.037366566491075927 0 0.0041908480344468686 0.037773058624268815 0 0.0036904816951530478 0.037118393870551214 0 0.0041908480344468686 0.037773058624268815 0 0.0035235266364912268 0.037727193676823284 0 0.0041908480344468686 0.037773058624268815 0 0.0035235266364912268 0.037727193676823284 0 0.0036264944510174587 0.038418551045474071 0 0.0031872306669787766 0.037376199400555192 0 0.0035235266364912268 0.037727193676823284 0 0.0028189078228342767 0.037945934396139032 0 0.0031872306669787766 0.037376199400555192 0 0.0026799078830523513 0.037196075968033336 0 0.0028189078228342767 0.037945934396139032 0 0.0028189078228342767 0.037945934396139032 0 0.0028865260142574849 0.038779775134217695 0 0.0020552609337034069 0.0385375963513611 0 0.0028189078228342767 0.037945934396139032 0 0.0036264944510174587 0.038418551045474071 0 0.0028865260142574849 0.038779775134217695 0 0.0035235266364912268 0.037727193676823284 0 0.0028189078228342767 0.037945934396139032 0 0.0036264944510174587 0.038418551045474071 0 0.0036264944510174587 0.038418551045474071 0 0.0034520102594323243 0.039017476232499744 0 0.0028865260142574849 0.038779775134217695 0 0.0036264944510174587 0.038418551045474071 0 0.0034520102594323243 0.039017476232499744 0 0.0039449103159834185 0.03890739946089998 0 0.0034520102594323243 0.039017476232499744 0 0.002967918631530593 0.03953165383305661 0 0.0037946959782558325 0.039495798398161829 0 0.0034520102594323243 0.039017476232499744 0 0.0037946959782558325 0.039495798398161829 0 0.0039449103159834185 0.03890739946089998 0 0.0028865260142574849 0.038779775134217695 0 0.0023341477840899301 0.039262962531645511 0 0.002967918631530593 0.03953165383305661 0 0.0034520102594323243 0.039017476232499744 0 0.0028865260142574849 0.038779775134217695 0 0.002967918631530593 0.03953165383305661 0 0.0028865260142574849 0.038779775134217695 0 0.0023341477840899301 0.039262962531645511 0 0.0020552609337034069 0.0385375963513611 0 0.0027757589592009384 0.040255738751808746 0 0.002967918631530593 0.03953165383305661 0 0.0021343319156143922 0.039970558108236673 0 0.0023341477840899301 0.039262962531645511 0 0.002967918631530593 0.03953165383305661 0 0.0021343319156143922 0.039970558108236673 0 0.0027757589592009384 0.040255738751808746 0 0.002967918631530593 0.03953165383305661 0 0.0033526967970164941 0.039985098400754301 0 0.002967918631530593 0.03953165383305661 0 0.0037946959782558325 0.039495798398161829 0 0.0033526967970164941 0.039985098400754301 0 0.0037946959782558325 0.039495798398161829 0 0.0033526967970164941 0.039985098400754301 0 0.0037813692364005646 0.039935136464611477 0 0.0037946959782558325 0.039495798398161829 0 0.0037813692364005646 0.039935136464611477 0 0.0041085139726472703 0.039974902444471896 0 0.0038907624852915373 0.040313267025268364 0 0.0033526967970164941 0.039985098400754301 0 0.0037813692364005646 0.039935136464611477 0 0.0038907624852915373 0.040313267025268364 0 0.0037813692364005646 0.039935136464611477 0 0.0041085139726472703 0.039974902444471896 0 0.0040521095630219727 0.04061757400672384 0 0.0041085139726472703 0.039974902444471896 0 0.0046462573793896256 0.039730682863177977 0 0.0037946959782558325 0.039495798398161829 0 0.0046462573793896256 0.039730682863177977 0 0.0048583106474467466 0.039060411173627803 0 0.0079954247629390601 0.038050471978842482 0 0.0073714877104831085 0.037722603099504246 0 0.0037946959782558325 0.039495798398161829 0 0.0041085139726472703 0.039974902444471896 0 0.0046462573793896256 0.039730682863177977 0 0.0073714877104831085 0.037722603099504246 0 0.0067584958089743933 0.038076218686215468 0 0.009333104937430288 0.037738593471703968 0 0.0088327214841021854 0.036642049112289285 0 0.010542143462708794 0.036560951469283259 0 0.009333104937430288 0.037738593471703968 0 0.010382174277902979 0.038361584468420099 0 0.010542143462708794 0.036560951469283259 0 0.0088327214841021854 0.036642049112289285 0 0.010542143462708794 0.036560951469283259 0 0.010275905039337828 0.034947232015863083 0 0.011106318709341756 0.033866199121583403 0 0.010271302724942354 0.036393922382829999 0 0.011092269242465419 0.036069520522103479 0 0.0076604644610899393 0.038272784025697983 0 0.0081077408700168836 0.036816969240720893 0 0.009047028676355387 0.036446878215220073 0 0.0073714877104831085 0.037722603099504246 0 0.010513414856785792 0.035836922614462835 0 0.0067584958089743933 0.038076218686215468 0 0.010513414856785792 0.035836922614462835 0 0.011492476598951291 0.035437559337047772 0 0.010542143462708794 0.036560951469283259 0 0.010275905039337828 0.034947232015863083 0 0.011531132804368531 0.035189503765957808 0 0.010513414856785792 0.035836922614462835 0 0.0030582075856771702 0.039806847386687993 0 0.0067584958089743933 0.038076218686215468 0 0.004258708901327595 0.038481160735238974 0 0.0045681188758312265 0.039137047835110808 0 0.0039449103159834185 0.03890739946089998 0 0.0037946959782558325 0.039495798398161829 0 0.0045681188758312265 0.039137047835110808 0 0.0039449103159834185 0.03890739946089998 0 -0.0002164068815882708 0.038786758448777568 0 -0.00012137471433794781 0.039356753868165686 0 0.00056602966442544046 0.039129590168971849 0 -0.0002164068815882708 0.038786758448777568 0 0.00056602966442544046 0.039129590168971849 0 0.00089971963309577784 0.038573497177473375 0 -0.0002164068815882708 0.038786758448777568 0 -0.0009046848091266923 0.039052233023221201 0 -0.0013364660112760714 0.038517626888538492 0 -0.0002164068815882708 0.038786758448777568 0 -0.0009046848091266923 0.039052233023221201 0 -0.00012137471433794781 0.039356753868165686 0 -0.00078383535299235418 0.039648144739392641 0 -0.0009046848091266923 0.039052233023221201 0 -0.0010941768698522292 0.039364035731003645 0 -0.00078383535299235418 0.039648144739392641 0 -0.0009046848091266923 0.039052233023221201 0 -0.00012137471433794781 0.039356753868165686 0 -2.4899121802877717e-05 0.039786762143817933 0 -0.00012137471433794781 0.039356753868165686 0 0.00079008938438342429 0.039724887991250631 0 -0.00012137471433794781 0.039356753868165686 0 0.00079008938438342429 0.039724887991250631 0 0.00056602966442544046 0.039129590168971849 0 -0.00078383535299235418 0.039648144739392641 0 -2.4899121802877717e-05 0.039786762143817933 0 -0.00012137471433794781 0.039356753868165686 0 0.00079008938438342429 0.039724887991250631 0 0.0015564832394302295 0.039203045287934259 0 0.00056602966442544046 0.039129590168971849 0 0.0011960539467630717 0.040425813775789757 0 0.0010385330632041092 0.039955832478700305 0 0.0021343319156143922 0.039970558108236673 0 0.00089824545667101317 0.039934842707061095 0 0.001504415875647486 0.039196153255101653 0 0.0010385330632041092 0.039955832478700305 0 0.0021343319156143922 0.039970558108236673 0 0.0015564832394302295 0.039203045287934259 0 0.0023341477840899301 0.039262962531645511 0 0.0021343319156143922 0.039970558108236673 0 0.0015564832394302295 0.039203045287934259 0 0.0015564832394302295 0.039203045287934259 0 0.00089971963309577784 0.038573497177473375 0 0.0020552609337034069 0.0385375963513611 0 0.0023341477840899301 0.039262962531645511 0 0.0015564832394302295 0.039203045287934259 0 0.0020552609337034069 0.0385375963513611 0 0.0015564832394302295 0.039203045287934259 0 0.00056602966442544046 0.039129590168971849 0 0.00089971963309577784 0.038573497177473375 0 0.00089971963309577784 0.038573497177473375 0 0.0017757594144713624 0.037533856431093637 0 -0.00023703160899271315 0.038040206869530448 0 0.00089971963309577784 0.038573497177473375 0 0.0020552609337034069 0.0385375963513611 0 0.0017757594144713624 0.037533856431093637 0 0.0026799078830523513 0.037196075968033336 0 0.0028189078228342767 0.037945934396139032 0 0.0017757594144713624 0.037533856431093637 0 0.0028189078228342767 0.037945934396139032 0 0.0020552609337034069 0.0385375963513611 0 0.0017757594144713624 0.037533856431093637 0 0.0017757594144713624 0.037533856431093637 0 -0.00023703160899271315 0.038040206869530448 0 0.00015673258189532899 0.036949774305172135 0 -0.0002164068815882708 0.038786758448777568 0 0.00089971963309577784 0.038573497177473375 0 -0.00023703160899271315 0.038040206869530448 0 -0.0002164068815882708 0.038786758448777568 0 -0.00023703160899271315 0.038040206869530448 0 -0.0013364660112760714 0.038517626888538492 0 -0.00023703160899271315 0.038040206869530448 0 -0.0013364660112760714 0.038517626888538492 0 -0.0011212768922372598 0.037665372228916298 0 -0.00023703160899271315 0.038040206869530448 0 0.00015673258189532899 0.036949774305172135 0 -0.0011212768922372598 0.037665372228916298 0 0.00015673258189532899 0.036949774305172135 0 -0.0010984106039498547 0.036578723429071792 0 -0.0011212768922372598 0.037665372228916298 0 0.0014526633839058128 0.037451720708061693 0 0.0018980398280425161 0.036820969341797766 0 0.0012011268583295358 0.036540774532766329 0 0.0014526633839058128 0.037451720708061693 0 0.0012011268583295358 0.036540774532766329 0 5.1262214022895033e-05 0.037185399944407387 0 0.00080246775724722929 0.037214244107261429 0 -0.00052846559437952259 0.036866545224708433 0 0.0026799078830523513 0.037196075968033336 0 0.0017757594144713624 0.037533856431093637 0 0.0023803184860721567 0.036965080963110582 0 0.0017757594144713624 0.037533856431093637 0 0.0019481723618070127 0.03711917255992063 0 0.0023803184860721567 0.036965080963110582 0 0.0017331873788690114 0.037542211527031653 0 0.00080246775724722929 0.037214244107261429 0 0.0017757594144713624 0.037533856431093637 0 0.0014526633839058128 0.037451720708061693 0 0.0019481723618070127 0.03711917255992063 0 0.0014526633839058128 0.037451720708061693 0 0.0019481723618070127 0.03711917255992063 0 0.0018980398280425161 0.036820969341797766 0 0.0019481723618070127 0.03711917255992063 0 0.0018980398280425161 0.036820969341797766 0 0.0023794898350109487 0.036618657253731493 0 0.0019481723618070127 0.03711917255992063 0 0.0023794898350109487 0.036618657253731493 0 0.0023803184860721567 0.036965080963110582 0 0.0023794898350109487 0.036618657253731493 0 0.0026048302557861148 0.036577925970163704 0 0.0023803184860721567 0.036965080963110582 0 0.002749995798361154 0.036728824109709346 0 0.0026048302557861148 0.036577925970163704 0 0.0023803184860721567 0.036965080963110582 0 0.0041547705431499334 0.036504988336257468 0 0.0025476632415564996 0.036265056582647393 0 0.0040825016056358588 0.035699387169043244 0 0.003362926282718164 0.036367943255240225 0 0.0026545614210530416 0.036289758228604974 0 0.0023794898350109487 0.036618657253731493 0 0.0026420102655192877 0.036271130335553334 0 0.0025476632415564996 0.036265056582647393 0 0.0023794898350109487 0.036618657253731493 0 0.0026048302557861148 0.036577925970163704 0 0.0026420102655192877 0.036271130335553334 0 0.0018980398280425161 0.036820969341797766 0 0.0025476632415564996 0.036265056582647393 0 0.0012011268583295358 0.036540774532766329 0 0.0018980398280425161 0.036820969341797766 0 0.0023794898350109487 0.036618657253731493 0 0.0025476632415564996 0.036265056582647393 0 0.0025476632415564996 0.036265056582647393 0 0.0032354310012336243 0.034999840258434257 0 0.0011541665058349253 0.035000043430850995 0 0.0025476632415564996 0.036265056582647393 0 0.0032354310012336243 0.034999840258434257 0 0.0040825016056358588 0.035699387169043244 0 0.0053180300030862999 0.035000009658409693 0 0.0032354310012336243 0.034999840258434257 0 0.0040825016056358588 0.035699387169043244 0 0.0012011268583295358 0.036540774532766329 0 -3.0932767390845003e-05 0.03605412800064442 0 5.1262214022895033e-05 0.037185399944407387 0 0.0025476632415564996 0.036265056582647393 0 0.0012011268583295358 0.036540774532766329 0 0.0011541665058349253 0.035000043430850995 0 0.0012011268583295358 0.036540774532766329 0 0.0011541665058349253 0.035000043430850995 0 -3.0932767390845003e-05 0.03605412800064442 0 0.0011541665058349253 0.035000043430850995 0 -0.00092736542399037166 0.034999861121373183 0 -3.0932767390845003e-05 0.03605412800064442 0 -0.00092736542399037166 0.034999861121373183 0 -3.0932767390845003e-05 0.03605412800064442 0 -0.0017375828721688132 0.036507345486494633 0 -3.0932767390845003e-05 0.03605412800064442 0 -0.0017375828721688132 0.036507345486494633 0 5.1262214022895033e-05 0.037185399944407387 0 -0.0020661324530497332 0.036278970755103924 0 -0.00052846559437952259 0.036866545224708433 0 -0.00092736542399037166 0.034999861121373183 0 -0.0017375828721688132 0.036507345486494633 0 -0.0030095785178663641 0.034999806086168012 0 -0.0017375828721688132 0.036507345486494633 0 -0.0030095785178663641 0.034999806086168012 0 -0.003586935900998432 0.035543831334445095 0 -0.003586935900998432 0.035543831334445095 0 -0.0050913911053874087 0.034999883429944187 0 -0.0044051254790707711 0.035948316057184543 0 -0.0030095785178663641 0.034999806086168012 0 -0.003586935900998432 0.035543831334445095 0 -0.0050913911053874087 0.034999883429944187 0 -0.0035572108188945011 0.036387252198530548 0 -0.0044051254790707711 0.035948316057184543 0 -0.0045742898313531873 0.036567914883806424 0 -0.003586935900998432 0.035543831334445095 0 -0.0035572108188945011 0.036387252198530548 0 -0.0044051254790707711 0.035948316057184543 0 -0.0020661324530497332 0.036278970755103924 0 -0.0035024344323869314 0.03557181537353768 0 -0.0023669958510602685 0.036082895435970527 0 -0.0035572108188945011 0.036387252198530548 0 -0.0024744501130653605 0.036907388658958228 0 -0.0023669958510602685 0.036082895435970527 0 -0.003586935900998432 0.035543831334445095 0 -0.0035572108188945011 0.036387252198530548 0 -0.0035572108188945011 0.036387252198530548 0 -0.0032888854748613118 0.037248639057928072 0 -0.0024744501130653605 0.036907388658958228 0 -0.0035572108188945011 0.036387252198530548 0 -0.00434433896085321 0.037320235329723637 0 -0.0045742898313531873 0.036567914883806424 0 -0.0035572108188945011 0.036387252198530548 0 -0.0032888854748613118 0.037248639057928072 0 -0.00434433896085321 0.037320235329723637 0 -0.00434433896085321 0.037320235329723637 0 -0.0035521548292735674 0.037824852036946591 0 -0.0044804794602010672 0.038232263822672231 0 -0.0032888854748613118 0.037248639057928072 0 -0.00434433896085321 0.037320235329723637 0 -0.0035521548292735674 0.037824852036946591 0 -0.0032888854748613118 0.037248639057928072 0 -0.0027669507060288389 0.037741989294184645 0 -0.0024744501130653605 0.036907388658958228 0 -0.0032888854748613118 0.037248639057928072 0 -0.0035521548292735674 0.037824852036946591 0 -0.0027669507060288389 0.037741989294184645 0 -0.0035521548292735674 0.037824852036946591 0 -0.0027669507060288389 0.037741989294184645 0 -0.0030657978048666368 0.038491154267173457 0 -0.0027669507060288389 0.037741989294184645 0 -0.0019965976997864264 0.037511296838813858 0 -0.0024744501130653605 0.036907388658958228 0 -0.0027669507060288389 0.037741989294184645 0 -0.0019965976997864264 0.037511296838813858 0 -0.0021486038251564339 0.038209859349659085 0 -0.0019965976997864264 0.037511296838813858 0 -0.0010984106039498547 0.036578723429071792 0 -0.0011212768922372598 0.037665372228916298 0 -0.0023669958510602685 0.036082895435970527 0 -0.0010984106039498547 0.036578723429071792 0 -0.0024744501130653605 0.036907388658958228 0 -0.0019965976997864264 0.037511296838813858 0 -0.0010984106039498547 0.036578723429071792 0 -0.0024744501130653605 0.036907388658958228 0 -0.0075946850819285988 0.036180000736093954 0 -0.0076519082348117384 0.037358477482319727 0 -0.0085170110415670047 0.036277675540640174 0 -0.0075946850819285988 0.036180000736093954 0 -0.0084924418259013836 0.035359050534763681 0 -0.0085170110415670047 0.036277675540640174 0 -0.0071734447967732023 0.035000092888281951 0 -0.0086629112993382041 0.0355034635400319 0 -0.0075946850819285988 0.036180000736093954 0 -0.007172375152888876 0.034999511093873427 0 -0.0084924418259013836 0.035359050534763681 0 -0.0071731258367815545 0.034999994828384333 0 -0.0088346251699099286 0.035000003941266171 0 -0.0088136639604029805 0.035648120225738121 0 -0.0075946850819285988 0.036180000736093954 0 -0.007172375152888876 0.034999511093873427 0 -0.0064915532201402877 0.036486555357876468 0 -0.0075946850819285988 0.036180000736093954 0 -0.0064915532201402877 0.036486555357876468 0 -0.0076519082348117384 0.037358477482319727 0 -0.0064915532201402877 0.036486555357876468 0 -0.0053281681436085507 0.036119753022340287 0 -0.0054087164125520004 0.036874275900016351 0 -0.007172375152888876 0.034999511093873427 0 -0.0064915532201402877 0.036486555357876468 0 -0.0053281681436085507 0.036119753022340287 0 -0.007172375152888876 0.034999511093873427 0 -0.0050913911053874087 0.034999883429944187 0 -0.0053281681436085507 0.036119753022340287 0 -0.0050913911053874087 0.034999883429944187 0 -0.0044051254790707711 0.035948316057184543 0 -0.0053281681436085507 0.036119753022340287 0 -0.0044051254790707711 0.035948316057184543 0 -0.0053281681436085507 0.036119753022340287 0 -0.0045742898313531873 0.036567914883806424 0 -0.0053281681436085507 0.036119753022340287 0 -0.0045742898313531873 0.036567914883806424 0 -0.0054087164125520004 0.036874275900016351 0 -0.00434433896085321 0.037320235329723637 0 -0.0045742898313531873 0.036567914883806424 0 -0.0054087164125520004 0.036874275900016351 0 -0.00434433896085321 0.037320235329723637 0 -0.0060346463031567526 0.037886758427380457 0 -0.0054087164125520004 0.036874275900016351 0 -0.0045157137635669234 0.038271987284186931 0 -0.0060317654723234058 0.037861928231274378 0 -0.0054768699648956058 0.038812283214172461 0 -0.0044756380219039176 0.038245520472702577 0 -0.006059908981193185 0.037858905214439235 0 -0.00434433896085321 0.037320235329723637 0 -0.0044804794602010672 0.038232263822672231 0 -0.0060346463031567526 0.037886758427380457 0 -0.0060317654723234058 0.037861928231274378 0 -0.0067857824379276696 0.038790862868877618 0 -0.0054768699648956058 0.038812283214172461 0 -0.0064915532201402877 0.036486555357876468 0 -0.0060346463031567526 0.037886758427380457 0 -0.0054087164125520004 0.036874275900016351 0 -0.006059908981193185 0.037858905214439235 0 -0.0075475243476053645 0.037374664365923856 0 -0.0064915532201402877 0.036486555357876468 0 -0.0060346463031567526 0.037886758427380457 0 -0.0076519082348117384 0.037358477482319727 0 -0.0060317654723234058 0.037861928231274378 0 -0.0076519082348117384 0.037358477482319727 0 -0.0067857824379276696 0.038790862868877618 0 -0.0076519082348117384 0.037358477482319727 0 -0.0067857824379276696 0.038790862868877618 0 -0.0086294340700332796 0.03853392207516753 0 -0.0076519082348117384 0.037358477482319727 0 -0.0091299214092419572 0.036986156565859692 0 -0.0085170110415670047 0.036277675540640174 0 -0.0034346241682879932 0.037705773645553504 0 -0.0034942085854714269 0.037542108265276215 0 -0.0030755980026556345 0.037314694926911571 0 -0.007676827612149933 0.039767235897586413 0 -0.0067857824379276696 0.038790862868877618 0 -0.0086294340700332796 0.03853392207516753 0 -0.007676827612149933 0.039767235897586413 0 -0.0067857824379276696 0.038790862868877618 0 -0.0059190503388042758 0.039618481092795269 0 -0.0035474926175703149 0.037667330583948049 0 -0.0034941437256867367 0.037705793781528371 0 -0.0034942085854714269 0.037542108265276215 0 -0.005759298324081283 0.038669459211940628 0 -0.0046967268162880016 0.038652787577565774 0 -0.0034346241682879932 0.037705773645553504 0 -0.0035474926175703149 0.037667330583948049 0 -0.0034942085854714269 0.037542108265276215 0 -0.0033698323625244008 0.037817368932817765 0 -0.0033473778812900491 0.037924544911258962 0 -0.0034941437256867367 0.037705793781528371 0 -0.0035474926175703149 0.037667330583948049 0 -0.0033698323625244008 0.037817368932817765 0 -0.0034941437256867367 0.037705793781528371 0 -0.0067857824379276696 0.038790862868877618 0 -0.0059190503388042758 0.039618481092795269 0 -0.0054768699648956058 0.038812283214172461 0 -0.0045157137635669234 0.038271987284186931 0 -0.0054768699648956058 0.038812283214172461 0 -0.0042712530270612873 0.039389442616785973 0 -0.0059190503388042758 0.039618481092795269 0 -0.0054768699648956058 0.038812283214172461 0 -0.0042712530270612873 0.039389442616785973 0 -0.0046967268162880016 0.038652787577565774 0 -0.0036449902989892061 0.038590595807994094 0 -0.0035474926175703149 0.037667330583948049 0 -0.0033698323625244008 0.037817368932817765 0 -0.00294516158103927 0.037788313327891239 0 -0.0033698323625244008 0.037817368932817765 0 -0.0031917629597445862 0.037937757188439232 0 -0.00294516158103927 0.037788313327891239 0 -0.0033698323625244008 0.037817368932817765 0 -0.0031917629597445862 0.037937757188439232 0 -0.0033473778812900491 0.037924544911258962 0 -0.0031917629597445862 0.037937757188439232 0 -0.00294516158103927 0.037788313327891239 0 -0.0027532857989999355 0.038222294252372668 0 -0.003145428170240046 0.03760641905122801 0 -0.0028328811170389712 0.038258393128225265 0 -0.002883100703328716 0.038497776641380509 0 -0.0030583219970784547 0.038490322331303881 0 -0.0027532857989999355 0.038222294252372668 0 -0.0031917629597445862 0.037937757188439232 0 -0.00336315643782679 0.038022567233841613 0 -0.0027532857989999355 0.038222294252372668 0 -0.0031917629597445862 0.037937757188439232 0 -0.0033473778812900491 0.037924544911258962 0 -0.00336315643782679 0.038022567233841613 0 -0.0031829329431150451 0.037743027353061114 0 -0.003145428170240046 0.03760641905122801 0 -0.002883100703328716 0.038497776641380509 0 -0.0030583219970784547 0.038490322331303881 0 -0.0029090719055312902 0.038670427453393476 0 -0.0029090719055312902 0.038670427453393476 0 -0.0027969346782236613 0.038574868183360887 0 -0.002752850395092557 0.038787174307453667 0 -0.002883100703328716 0.038497776641380509 0 -0.0029090719055312902 0.038670427453393476 0 -0.0027969346782236613 0.038574868183360887 0 -0.0030583219970784547 0.038490322331303881 0 -0.0029090719055312902 0.038670427453393476 0 -0.002971402958811729 0.038959785251010383 0 -0.003145428170240046 0.03760641905122801 0 -0.0027836621097996222 0.037421003750223676 0 -0.002971402958811729 0.038959785251010383 0 -0.002752850395092557 0.038787174307453667 0 -0.0026785757013026565 0.03902994927083861 0 -0.0029090719055312902 0.038670427453393476 0 -0.002971402958811729 0.038959785251010383 0 -0.002752850395092557 0.038787174307453667 0 -0.0026982669704577128 0.036256126038462365 0 -0.0026643674410543891 0.03601490736214575 0 -0.0026038193581578986 0.036136238422673987 0 -0.0026643674410543891 0.03601490736214575 0 -0.0026038193581578986 0.036136238422673987 0 -0.0024319859530493411 0.035934409474347256 0 -0.0026038193581578986 0.036136238422673987 0 -0.002470252010999137 0.036158081862098033 0 -0.0024319859530493411 0.035934409474347256 0 -0.0026982669704577128 0.036256126038462365 0 -0.0026038193581578986 0.036136238422673987 0 -0.002470252010999137 0.036158081862098033 0 -0.0033743776335200416 0.037895688322909148 0 -0.0034941437256867367 0.037705793781528371 0 -0.0035438322347964659 0.037527596975647004 0 -0.003145428170240046 0.03760641905122801 0 -0.0029392363110355558 0.036779861892490787 0 -0.0033473778812900491 0.037924544911258962 0 -0.0033743776335200416 0.037895688322909148 0 -0.0034941437256867367 0.037705793781528371 0 -0.0034941437256867367 0.037705793781528371 0 -0.0035438322347964659 0.037527596975647004 0 -0.0034942085854714269 0.037542108265276215 0 -0.0035438322347964659 0.037527596975647004 0 -0.0034942085854714269 0.037542108265276215 0 -0.0033525891725197238 0.03710484635632972 0 -0.0029392363110355558 0.036779861892490787 0 -0.0028156035328417532 0.036581894972728991 0 -0.002470252010999137 0.036158081862098033 0 -0.0022835015572567692 0.036049044342735398 0 -0.0024319859530493411 0.035934409474347256 0 -0.0022835015572567692 0.036049044342735398 0 -0.0022428918209183653 0.035897542880777185 0 -0.0024319859530493411 0.035934409474347256 0 -0.0034942085854714269 0.037542108265276215 0 -0.0033525891725197238 0.03710484635632972 0 -0.0030755980026556345 0.037314694926911571 0 -0.0014429691666423762 0.03853784802928064 0 -0.0024109873908070515 0.038578176355008598 0 -0.0013364660112760714 0.038517626888538492 0 -0.0021486038251564339 0.038209859349659085 0 -0.0027046002776743832 0.039057587779903251 0 -0.0013364660112760714 0.038517626888538492 0 -0.002055703789581914 0.038121157806040591 0 -0.0018836115987263451 0.038548785157183983 0 -0.0019965976997864264 0.037511296838813858 0 -0.0011212768922372598 0.037665372228916298 0 -0.0021486038251564339 0.038209859349659085 0 -0.0013364660112760714 0.038517626888538492 0 -0.0011212768922372598 0.037665372228916298 0 -0.0021486038251564339 0.038209859349659085 0 -0.0027669507060288389 0.037741989294184645 0 -0.0021486038251564339 0.038209859349659085 0 -0.0030657978048666368 0.038491154267173457 0 -0.0021486038251564339 0.038209859349659085 0 -0.0030657978048666368 0.038491154267173457 0 -0.0027046002776743832 0.039057587779903251 0 -0.0035521548292735674 0.037824852036946591 0 -0.0044804794602010672 0.038232263822672231 0 -0.0030657978048666368 0.038491154267173457 0 -0.0044756380219039176 0.038245520472702577 0 -0.0031616926851269541 0.038519053774799701 0 -0.0045157137635669234 0.038271987284186931 0 -0.0030657978048666368 0.038491154267173457 0 -0.0042712530270612873 0.039389442616785973 0 -0.00294516158103927 0.037788313327891239 0 -0.002055703789581914 0.038121157806040591 0 -0.0024107568197142613 0.038315916565099334 0 -0.0036449902989892061 0.038590595807994094 0 -0.0024109873908070515 0.038578176355008598 0 -0.00294516158103927 0.037788313327891239 0 -0.0027532857989999355 0.038222294252372668 0 -0.0024107568197142613 0.038315916565099334 0 -0.002055703789581914 0.038121157806040591 0 -0.0024107568197142613 0.038315916565099334 0 -0.0018836115987263451 0.038548785157183983 0 -0.0030657978048666368 0.038491154267173457 0 -0.0042712530270612873 0.039389442616785973 0 -0.0027046002776743832 0.039057587779903251 0 -0.0024107568197142613 0.038315916565099334 0 -0.0022818976618187723 0.038599486964669256 0 -0.0018836115987263451 0.038548785157183983 0 -0.0024107568197142613 0.038315916565099334 0 -0.0022818976618187723 0.038599486964669256 0 -0.0025597873327972017 0.038594864574626131 0 -0.0022818976618187723 0.038599486964669256 0 -0.0025597873327972017 0.038594864574626131 0 -0.0024274627591572501 0.038857367779175575 0 -0.0022818976618187723 0.038599486964669256 0 -0.0020614331229791374 0.038798027749616854 0 -0.0024274627591572501 0.038857367779175575 0 -0.0022818976618187723 0.038599486964669256 0 -0.0020614331229791374 0.038798027749616854 0 -0.0018836115987263451 0.038548785157183983 0 -0.002883100703328716 0.038497776641380509 0 -0.0027532857989999355 0.038222294252372668 0 -0.0027969346782236613 0.038574868183360887 0 -0.0027532857989999355 0.038222294252372668 0 -0.0025597873327972017 0.038594864574626131 0 -0.0027969346782236613 0.038574868183360887 0 -0.0027532857989999355 0.038222294252372668 0 -0.0024107568197142613 0.038315916565099334 0 -0.0025597873327972017 0.038594864574626131 0 -0.0025597873327972017 0.038594864574626131 0 -0.0027969346782236613 0.038574868183360887 0 -0.002752850395092557 0.038787174307453667 0 -0.0025597873327972017 0.038594864574626131 0 -0.002752850395092557 0.038787174307453667 0 -0.0024274627591572501 0.038857367779175575 0 -0.0024274627591572501 0.038857367779175575 0 -0.0023924496002950967 0.039095097636669171 0 -0.0026785757013026565 0.03902994927083861 0 -0.002752850395092557 0.038787174307453667 0 -0.0024274627591572501 0.038857367779175575 0 -0.0026785757013026565 0.03902994927083861 0 -0.0020614331229791374 0.038798027749616854 0 -0.0024274627591572501 0.038857367779175575 0 -0.0021621939986446507 0.039003693780276988 0 -0.0024274627591572501 0.038857367779175575 0 -0.0021621939986446507 0.039003693780276988 0 -0.0023924496002950967 0.039095097636669171 0 -0.0021621939986446507 0.039003693780276988 0 -0.0017810455370226924 0.039071157331969274 0 -0.0020547144601676046 0.03920393495767744 0 -0.0017810455370226924 0.039071157331969274 0 -0.0017492570361087457 0.038800638273347177 0 -0.0013757030721444404 0.039073231241068589 0 -0.0020614331229791374 0.038798027749616854 0 -0.0017810455370226924 0.039071157331969274 0 -0.0017492570361087457 0.038800638273347177 0 -0.0020614331229791374 0.038798027749616854 0 -0.0021621939986446507 0.039003693780276988 0 -0.0017810455370226924 0.039071157331969274 0 -0.0013364660112760714 0.038517626888538492 0 -0.0018836115987263451 0.038548785157183983 0 -0.0014653397507449202 0.038793239670644832 0 -0.0020614331229791374 0.038798027749616854 0 -0.0017492570361087457 0.038800638273347177 0 -0.0018836115987263451 0.038548785157183983 0 -0.0017492570361087457 0.038800638273347177 0 -0.0018836115987263451 0.038548785157183983 0 -0.0014653397507449202 0.038793239670644832 0 -0.0009046848091266923 0.039052233023221201 0 -0.0013364660112760714 0.038517626888538492 0 -0.0014653397507449202 0.038793239670644832 0 -0.0009046848091266923 0.039052233023221201 0 -0.0014653397507449202 0.038793239670644832 0 -0.0013757030721444404 0.039073231241068589 0 -0.0017492570361087457 0.038800638273347177 0 -0.0014653397507449202 0.038793239670644832 0 -0.0013757030721444404 0.039073231241068589 0 -0.0009046848091266923 0.039052233023221201 0 -0.0013757030721444404 0.039073231241068589 0 -0.0010941768698522292 0.039364035731003645 0 -0.0017810455370226924 0.039071157331969274 0 -0.0013757030721444404 0.039073231241068589 0 -0.0013804685814140232 0.039325842823729654 0 -0.0013757030721444404 0.039073231241068589 0 -0.0010941768698522292 0.039364035731003645 0 -0.0013804685814140232 0.039325842823729654 0 -0.0010000721672820212 0.039582105308743183 0 -0.0015747182282991417 0.039445719199893661 0 -0.0017800148422245157 0.039608868152809396 0 -0.0010000721672820212 0.039582105308743183 0 -0.0010941768698522292 0.039364035731003645 0 -0.0013804685814140232 0.039325842823729654 0 -0.0013804685814140232 0.039325842823729654 0 -0.0015747182282991417 0.039445719199893661 0 -0.0017476481784366444 0.039298184295067241 0 -0.0010000721672820212 0.039582105308743183 0 -0.0013804685814140232 0.039325842823729654 0 -0.0015747182282991417 0.039445719199893661 0 -0.0017810455370226924 0.039071157331969274 0 -0.0020547144601676046 0.03920393495767744 0 -0.0017476481784366444 0.039298184295067241 0 -0.0017810455370226924 0.039071157331969274 0 -0.0013804685814140232 0.039325842823729654 0 -0.0017476481784366444 0.039298184295067241 0 -0.0015747182282991417 0.039445719199893661 0 -0.0017476481784366444 0.039298184295067241 0 -0.0018884066256096286 0.039376215736871133 0 -0.0020547144601676046 0.03920393495767744 0 -0.0018884066256096286 0.039376215736871133 0 -0.0022532360537678717 0.039320984191015582 0 -0.0020547144601676046 0.03920393495767744 0 -0.0017476481784366444 0.039298184295067241 0 -0.0018884066256096286 0.039376215736871133 0 -0.0017800148422245157 0.039608868152809396 0 -0.0023857068526529621 0.039498877433008686 0 -0.0022532360537678717 0.039320984191015582 0 -0.0018884066256096286 0.039376215736871133 0 -0.0017800148422245157 0.039608868152809396 0 -0.0022532360537678717 0.039320984191015582 0 -0.0011329312105248098 0.039609374997297907 0 -0.0010576047203880821 0.039645721625871259 0 -0.0013527589266232709 0.039747049075163486 0 -0.0012566507203227179 0.039575337243252469 0 -0.0030465233630901324 0.039166239298441936 0 -0.0015747182282991417 0.039445719199893661 0 -0.0018884066256096286 0.039376215736871133 0 -0.0017800148422245157 0.039608868152809396 0 -0.0010000721672820212 0.039582105308743183 0 -0.0011329312105248098 0.039609374997297907 0 -0.0010576047203880821 0.039645721625871259 0 -0.0010973726060309768 0.03956536498033604 0 -0.0012566507203227179 0.039575337243252469 0 -0.0011451425219327154 0.039248424849104201 0 -0.001299333972966123 0.03935337454960397 0 -0.0011046713941095237 0.039422709617447704 0 -0.001299333972966123 0.03935337454960397 0 -0.0013833561100498549 0.039497648031559189 0 -0.0015673219212823148 0.039230465838848858 0 -0.00077132445572367363 0.039449741881564568 0 -0.0030465233630901324 0.039166239298441936 0 -0.0011451425219327154 0.039248424849104201 0 -0.001299333972966123 0.03935337454960397 0 -0.0015673219212823148 0.039230465838848858 0 -0.0013833561100498549 0.039497648031559189 0 -0.0016188334097476317 0.039584716204281466 0 -0.0015673219212823148 0.039230465838848858 0 -0.001299333972966123 0.03935337454960397 0 -0.0013833561100498549 0.039497648031559189 0 -0.0011046713941095237 0.039422709617447704 0 0.00062035756378591008 0.036821460981443579 0 -0.0027043680562340842 0.033465609575275036 0 0.001524572778462963 0.032568446127231414 0 0.0017360854494674427 0.033644248287466642 0 0.0025128839267371836 0.032232300461697692 0 -0.0013833561100498549 0.039497648031559189 0 -0.0011046713941095237 0.039422709617447704 0 -0.001303105121259451 0.039649863323489451 0 -0.0059416087640551708 0.036328728532550987 0 -0.0079100126348486642 0.035449744005641028 0 -0.0062624101611088497 0.034785156483617921 0 -0.0059416087640551708 0.036328728532550987 0 -0.0047114488410012591 0.035486947858824787 0 -0.0062624101611088497 0.034785156483617921 0 -0.0057640720198865927 0.037141348319954096 0 -0.0056631850148968297 0.037787794769631643 0 -0.0046554241692892883 0.037386156546481371 0 -0.0048515995057283471 0.037775946273349917 0 -0.0051146785009039963 0.037387459427454799 0 -0.0048515995057283471 0.037775946273349917 0 -0.0049459422749276285 0.037789239392136041 0 -0.0019910064211846501 0.039451673086926514 0 -0.0016188334097476317 0.039584716204281466 0 -0.0015673219212823148 0.039230465838848858 0 -0.0030465233630901324 0.039166239298441936 0 -0.0046161787865408137 0.038342577233019676 0 -0.0048515995057283471 0.037775946273349917 0 -0.0030465233630901324 0.039166239298441936 0 -0.0023857068526529621 0.039498877433008686 0 -0.0030331182942339866 0.039009765859373324 0 -0.0028219899237340255 0.039134998002395671 0 -0.0057640720198865927 0.037141348319954096 0 -0.0072288502097014058 0.038417865103048336 0 -0.0056631850148968297 0.037787794769631643 0 -0.0030331182942339866 0.039009765859373324 0 -0.0028219899237340255 0.039134998002395671 0 -0.0029501155804945505 0.038901399825831531 0 -0.0028219899237340255 0.039134998002395671 0 -0.0025367667839077991 0.039258015153680714 0 -0.0026535628474946161 0.039168004311088495 0 -0.0028219899237340255 0.039134998002395671 0 -0.0026535628474946161 0.039168004311088495 0 -0.0028077931760016272 0.039133021161846825 0 -0.0023857068526529621 0.039498877433008686 0 -0.0025367667839077991 0.039258015153680714 0 -0.0022532360537678717 0.039320984191015582 0 -0.0023857068526529621 0.039498877433008686 0 -0.0028219899237340255 0.039134998002395671 0 -0.0025367667839077991 0.039258015153680714 0 -0.0025367667839077991 0.039258015153680714 0 -0.0022532360537678717 0.039320984191015582 0 -0.0026535628474946161 0.039168004311088495 0 -0.0022532360537678717 0.039320984191015582 0 -0.0023924496002950967 0.039095097636669171 0 -0.0026535628474946161 0.039168004311088495 0 -0.0020547144601676046 0.03920393495767744 0 -0.0022532360537678717 0.039320984191015582 0 -0.0023924496002950967 0.039095097636669171 0 -0.0021621939986446507 0.039003693780276988 0 -0.0020547144601676046 0.03920393495767744 0 -0.0023924496002950967 0.039095097636669171 0 -0.0026535628474946161 0.039168004311088495 0 -0.00280311911070743 0.039107422469144185 0 -0.0028077931760016272 0.039133021161846825 0 -0.0026535628474946161 0.039168004311088495 0 -0.0026785757013026565 0.03902994927083861 0 -0.00280311911070743 0.039107422469144185 0 -0.0023924496002950967 0.039095097636669171 0 -0.0026535628474946161 0.039168004311088495 0 -0.0026785757013026565 0.03902994927083861 0 -0.002971402958811729 0.038959785251010383 0 -0.00280311911070743 0.039107422469144185 0 -0.0027380641871947251 0.039172044411216279 0 -0.002971402958811729 0.038959785251010383 0 -0.0026785757013026565 0.03902994927083861 0 -0.00280311911070743 0.039107422469144185 0 -0.0026643674410543891 0.03601490736214575 0 -0.0026369759541743677 0.035795921725416284 0 -0.0024319859530493411 0.035934409474347256 0 -0.0027836621097996222 0.037421003750223676 0 -0.002684876564708318 0.037476763874345946 0 -0.0026369759541743677 0.035795921725416284 0 -0.0024504811138350803 0.035742778513336702 0 -0.0026492157423596758 0.035513346547774299 0 -0.0026369759541743677 0.035795921725416284 0 -0.0024319859530493411 0.035934409474347256 0 -0.0024504811138350803 0.035742778513336702 0 -0.00280311911070743 0.039107422469144185 0 -0.0027380641871947251 0.039172044411216279 0 -0.0028077931760016272 0.039133021161846825 0 -0.0027380641871947251 0.039172044411216279 0 -0.0028077931760016272 0.039133021161846825 0 -0.0028623167454327816 0.038963999141916388 0 -0.0028219899237340255 0.039134998002395671 0 -0.0028077931760016272 0.039133021161846825 0 -0.0028623167454327816 0.038963999141916388 0 -0.0022428918209183653 0.035897542880777185 0 -0.0024319859530493411 0.035934409474347256 0 -0.0023127132488643528 0.035787415640106957 0 -0.0024319859530493411 0.035934409474347256 0 -0.0024504811138350803 0.035742778513336702 0 -0.0023127132488643528 0.035787415640106957 0 -0.0024504811138350803 0.035742778513336702 0 -0.0023127132488643528 0.035787415640106957 0 -0.0022587004369592875 0.035661465189403198 0 -0.0022428918209183653 0.035897542880777185 0 -0.0023127132488643528 0.035787415640106957 0 -0.0022194623355921302 0.035699652526208672 0 -0.0023127132488643528 0.035787415640106957 0 -0.0022587004369592875 0.035661465189403198 0 -0.0022194623355921302 0.035699652526208672 0 -0.0022587004369592875 0.035661465189403198 0 -0.0021202971169649505 0.035558815647180032 0 -0.0021594245816487683 0.03547422000782964 0 -0.0021202971169649505 0.035558815647180032 0 -0.0018118783266328428 0.035305291610113608 0 -0.0021325537152549765 0.035551201473344819 0 -0.0022587004369592875 0.035661465189403198 0 -0.0022194623355921302 0.035699652526208672 0 -0.0021202971169649505 0.035558815647180032 0 -0.0022194623355921302 0.035699652526208672 0 -0.0021202971169649505 0.035558815647180032 0 -0.0021792904660872118 0.035563132941400039 0 -0.0022587004369592875 0.035661465189403198 0 -0.002419118426531675 0.035556471775224682 0 -0.0021594245816487683 0.03547422000782964 0 -0.0024504811138350803 0.035742778513336702 0 -0.0022587004369592875 0.035661465189403198 0 -0.002419118426531675 0.035556471775224682 0 -0.002419118426531675 0.035556471775224682 0 -0.0023940613147190098 0.035342969743708257 0 -0.0021594245816487683 0.03547422000782964 0 -0.002419118426531675 0.035556471775224682 0 -0.0023940613147190098 0.035342969743708257 0 -0.0025299521367546131 0.035434775289726425 0 -0.0023940613147190098 0.035342969743708257 0 -0.0026285355569273363 0.035294860396274302 0 -0.002475659139725269 0.034925792075172435 0 -0.0023940613147190098 0.035342969743708257 0 -0.0020857942607445004 0.035034629293851351 0 -0.002475659139725269 0.034925792075172435 0 -0.0023940613147190098 0.035342969743708257 0 -0.0020857942607445004 0.035034629293851351 0 -0.0021594245816487683 0.03547422000782964 0 -0.0021202971169649505 0.035558815647180032 0 -0.0021594245816487683 0.03547422000782964 0 -0.0018118783266328428 0.035305291610113608 0 -0.0020857942607445004 0.035034629293851351 0 -0.0021594245816487683 0.03547422000782964 0 -0.0018118783266328428 0.035305291610113608 0 -0.0027380641871947251 0.039172044411216279 0 -0.0028623167454327816 0.038963999141916388 0 -0.0024092205583074256 0.038549107935940956 0 -0.0028904315569124148 0.03854856266745401 0 -0.0028623167454327816 0.038963999141916388 0 -0.0024092205583074256 0.038549107935940956 0 -0.0030331182942339866 0.039009765859373324 0 -0.0028904315569124148 0.03854856266745401 0 -0.0029501155804945505 0.038901399825831531 0 -0.0028904315569124148 0.03854856266745401 0 -0.0029501155804945505 0.038901399825831531 0 -0.0028623167454327816 0.038963999141916388 0 -0.0028219899237340255 0.039134998002395671 0 -0.0029501155804945505 0.038901399825831531 0 -0.0028623167454327816 0.038963999141916388 0 -0.0024504811138350803 0.035742778513336702 0 -0.002419118426531675 0.035556471775224682 0 -0.0026492157423596758 0.035513346547774299 0 -0.002684876564708318 0.037476763874345946 0 -0.0025974796986065569 0.036952394319267466 0 -0.002419118426531675 0.035556471775224682 0 -0.0026492157423596758 0.035513346547774299 0 -0.0025299521367546131 0.035434775289726425 0 -0.0026492157423596758 0.035513346547774299 0 -0.0026285355569273363 0.035294860396274302 0 -0.0028187423093057164 0.035166547333106375 0 -0.0024092205583074256 0.038549107935940956 0 -0.0028216717486180386 0.037036767371302785 0 -0.0028187423093057164 0.035166547333106375 0 -0.0028904315569124148 0.03854856266745401 0 -0.0024092205583074256 0.038549107935940956 0 -0.0028216717486180386 0.037036767371302785 0 -0.0025974796986065569 0.036952394319267466 0 -0.002719032935049358 0.035370489751249172 0 -0.0023940613147190098 0.035342969743708257 0 -0.0025299521367546131 0.035434775289726425 0 -0.0026285355569273363 0.035294860396274302 0 -0.0026492157423596758 0.035513346547774299 0 -0.0025299521367546131 0.035434775289726425 0 -0.0026285355569273363 0.035294860396274302 0 -0.0028216717486180386 0.037036767371302785 0 -0.0035660997520913502 0.035949969069614653 0 -0.0028187423093057164 0.035166547333106375 0 -0.0035660997520913502 0.035949969069614653 0 -0.0046554241692892883 0.037386156546481371 0 -0.0044449806841233754 0.035808094105869118 0 -0.0028216717486180386 0.037036767371302785 0 -0.0035660997520913502 0.035949969069614653 0 -0.0046554241692892883 0.037386156546481371 0 -0.0056631850148968297 0.037787794769631643 0 -0.0028216717486180386 0.037036767371302785 0 -0.0046554241692892883 0.037386156546481371 0 -0.0030331182942339866 0.039009765859373324 0 -0.0028904315569124148 0.03854856266745401 0 -0.0028216717486180386 0.037036767371302785 0 -0.0046161787865408137 0.038342577233019676 0 -0.0026351529308920553 0.037159109659258283 0 -0.0058532862540635012 0.036916782778265773 0 -0.0046554241692892883 0.037386156546481371 0 -0.0044449806841233754 0.035808094105869118 0 -0.0048515995057283471 0.037775946273349917 0 -0.0045284345102894691 0.035662990814598443 0 -0.0047114488410012591 0.035486947858824787 0 -0.0051337912393167109 0.034048756940798938 0 -0.0062624101611088497 0.034785156483617921 0 -0.0047114488410012591 0.035486947858824787 0 -0.0051337912393167109 0.034048756940798938 0 -0.0040235503986612402 0.03410490000761153 0 -0.0047114488410012591 0.035486947858824787 0 -0.0040235503986612402 0.03410490000761153 0 -0.0033280700673095171 0.034593286838208219 0 -0.0045284345102894691 0.035662990814598443 0 -0.0034515770898634309 0.034740266354068357 0 -0.0035660997520913502 0.035949969069614653 0 -0.0044449806841233754 0.035808094105869118 0 -0.0033280700673095171 0.034593286838208219 0 -0.0035660997520913502 0.035949969069614653 0 -0.0028187423093057164 0.035166547333106375 0 -0.0033280700673095171 0.034593286838208219 0 -0.0028187423093057164 0.035166547333106375 0 -0.0027682824763384101 0.034618351345095999 0 -0.0033280700673095171 0.034593286838208219 0 -0.0026285355569273363 0.035294860396274302 0 -0.0028187423093057164 0.035166547333106375 0 -0.002475659139725269 0.034925792075172435 0 -0.0028187423093057164 0.035166547333106375 0 -0.0027682824763384101 0.034618351345095999 0 -0.002475659139725269 0.034925792075172435 0 -0.0027682824763384101 0.034618351345095999 0 -0.003045953609798866 0.034019204862095788 0 -0.0024881348997009972 0.034217237890779975 0 -0.0027682824763384101 0.034618351345095999 0 -0.002475659139725269 0.034925792075172435 0 -0.0024881348997009972 0.034217237890779975 0 -0.0040235503986612402 0.03410490000761153 0 -0.0033280700673095171 0.034593286838208219 0 -0.003045953609798866 0.034019204862095788 0 -0.0027682824763384101 0.034618351345095999 0 -0.0033280700673095171 0.034593286838208219 0 -0.003045953609798866 0.034019204862095788 0 -0.0040235503986612402 0.03410490000761153 0 -0.0035625122568754448 0.033571515667150158 0 -0.003045953609798866 0.034019204862095788 0 -0.0035625122568754448 0.033571515667150158 0 -0.003045953609798866 0.034019204862095788 0 -0.0031102515470091347 0.033365254710138625 0 -0.003045953609798866 0.034019204862095788 0 -0.0026918932356149901 0.033501320866996524 0 -0.0024881348997009972 0.034217237890779975 0 -0.003045953609798866 0.034019204862095788 0 -0.0031102515470091347 0.033365254710138625 0 -0.0026918932356149901 0.033501320866996524 0 -0.0026918932356149901 0.033501320866996524 0 -0.0029078695108063282 0.032883165582645396 0 -0.0024539094706654829 0.032851249610395525 0 -0.0031102515470091347 0.033365254710138625 0 -0.0026918932356149901 0.033501320866996524 0 -0.0029078695108063282 0.032883165582645396 0 -0.0029078695108063282 0.032883165582645396 0 -0.0024539094706654829 0.032851249610395525 0 -0.0026890546547039102 0.032442141595156196 0 -0.0035625122568754448 0.033571515667150158 0 -0.0031102515470091347 0.033365254710138625 0 -0.0033794951308589063 0.032844579880372586 0 -0.0033794951308589063 0.032844579880372586 0 -0.0043123961332121015 0.032722087292465486 0 -0.0037215419514985706 0.032030172990877813 0 -0.0035625122568754448 0.033571515667150158 0 -0.0033794951308589063 0.032844579880372586 0 -0.0043123961332121015 0.032722087292465486 0 -0.0031102515470091347 0.033365254710138625 0 -0.0029078695108063282 0.032883165582645396 0 -0.0033794951308589063 0.032844579880372586 0 -0.0029078695108063282 0.032883165582645396 0 -0.0033794951308589063 0.032844579880372586 0 -0.0030787042792576741 0.032332523485352337 0 -0.0035625122568754448 0.033571515667150158 0 -0.0043123961332121015 0.032722087292465486 0 -0.0045681816092490012 0.033466388787249494 0 -0.0043123961332121015 0.032722087292465486 0 -0.0045681816092490012 0.033466388787249494 0 -0.0058498297603081463 0.032884447092171504 0 -0.0051337912393167109 0.034048756940798938 0 -0.0045681816092490012 0.033466388787249494 0 -0.0058498297603081463 0.032884447092171504 0 -0.0051337912393167109 0.034048756940798938 0 -0.0040235503986612402 0.03410490000761153 0 -0.0045681816092490012 0.033466388787249494 0 -0.0040235503986612402 0.03410490000761153 0 -0.0035625122568754448 0.033571515667150158 0 -0.0045681816092490012 0.033466388787249494 0 -0.0015608693182908499 0.034433768841558632 0 -0.00086697395418618638 0.033652970320250483 0 -0.0010539402821922053 0.034662109152848099 0 -0.0018118783266328428 0.035305291610113608 0 -0.0015608693182908499 0.034433768841558632 0 -0.0010539402821922053 0.034662109152848099 0 -0.0020857942607445004 0.035034629293851351 0 -0.0018118783266328428 0.035305291610113608 0 -0.0015608693182908499 0.034433768841558632 0 -0.0015608693182908499 0.034433768841558632 0 -0.0020363303787154642 0.034328865179334457 0 -0.0016070929945342491 0.033507573104084615 0 -0.0020857942607445004 0.035034629293851351 0 -0.0020363303787154642 0.034328865179334457 0 -0.002475659139725269 0.034925792075172435 0 -0.0020857942607445004 0.035034629293851351 0 -0.0015608693182908499 0.034433768841558632 0 -0.0020363303787154642 0.034328865179334457 0 -0.0020363303787154642 0.034328865179334457 0 -0.002475659139725269 0.034925792075172435 0 -0.0024881348997009972 0.034217237890779975 0 -0.0020363303787154642 0.034328865179334457 0 -0.0024881348997009972 0.034217237890779975 0 -0.0021906340483490924 0.033509697212505289 0 -0.0026918932356149901 0.033501320866996524 0 -0.0024881348997009972 0.034217237890779975 0 -0.0021906340483490924 0.033509697212505289 0 -0.0021906340483490924 0.033509697212505289 0 -0.0024539094706654829 0.032851249610395525 0 -0.0020451745473470256 0.03260234662997475 0 -0.0026918932356149901 0.033501320866996524 0 -0.0021906340483490924 0.033509697212505289 0 -0.0024539094706654829 0.032851249610395525 0 -0.0021906340483490924 0.033509697212505289 0 -0.0016070929945342491 0.033507573104084615 0 -0.0020451745473470256 0.03260234662997475 0 -0.0020363303787154642 0.034328865179334457 0 -0.0021906340483490924 0.033509697212505289 0 -0.0016070929945342491 0.033507573104084615 0 -0.0016070929945342491 0.033507573104084615 0 -0.0013557495139281841 0.032456563340523312 0 -0.0020451745473470256 0.03260234662997475 0 -0.0016070929945342491 0.033507573104084615 0 -0.0013557495139281841 0.032456563340523312 0 -0.00086697395418618638 0.033652970320250483 0 -0.011240580452922663 0.032156510237582502 0 -0.012986510553321786 0.031735485585063838 0 -0.012636137171054985 0.030376710098012287 0 -0.0015608693182908499 0.034433768841558632 0 -0.0016070929945342491 0.033507573104084615 0 -0.00086697395418618638 0.033652970320250483 0 -0.0080681236931883001 0.029000253270302166 0 -0.0063517851318665511 0.032617465617133211 0 -0.0080681236931883001 0.029000253270302166 0 -0.013915422411412201 0.027031008813064861 0 -0.012644507425064549 0.022822327529878603 0 -0.013116635726086914 0.023514067494810803 0 -0.013413478346817942 0.022618525421789867 0 -0.0080681236931883001 0.029000253270302166 0 -0.0027192529602560441 0.029984882965699497 0 -0.0068681660317999648 0.027746012680747785 0 -0.0061125874356633076 0.028746353583365629 0 -0.0055040183713331043 0.02809382104176604 0 -0.0080681236931883001 0.029000253270302166 0 -0.0075354962762458153 0.025156211595158493 0 -0.0013557495139281841 0.032456563340523312 0 -0.0020451745473470256 0.03260234662997475 0 -0.0024971617407024151 0.031645513557987406 0 -0.0020451745473470256 0.03260234662997475 0 -0.0024192100527221489 0.032206038978541011 0 -0.0024971617407024151 0.031645513557987406 0 -0.0024539094706654829 0.032851249610395525 0 -0.0020451745473470256 0.03260234662997475 0 -0.0024192100527221489 0.032206038978541011 0 7.5843349231832701e-06 0.029237839063133715 0 -0.0016527552373946203 0.031225635911829114 0 -0.0018175035639637733 0.029836705877911786 0 -0.0075354962762458153 0.025156211595158493 0 -0.0027192529602560441 0.029984882965699497 0 7.5843349231832701e-06 0.029237839063133715 0 -0.0018175035639637733 0.029836705877911786 0 -0.0024162086776658275 0.028360124860039172 0 -0.012644507425064549 0.022822327529878603 0 -0.012056211462954816 0.023599644523252292 0 -0.013116635726086914 0.023514067494810803 0 -0.012056211462954816 0.023599644523252292 0 -0.013116635726086914 0.023514067494810803 0 -0.012825370264625876 0.024364150325528598 0 -0.0039267800759230746 0.030792514380543864 0 -0.005222298490993837 0.031666853401556852 0 -0.0056996604872354504 0.029694268255936466 0 -0.0039267800759230746 0.030792514380543864 0 -0.005222298490993837 0.031666853401556852 0 -0.0037215419514985706 0.032030172990877813 0 -0.0043123961332121015 0.032722087292465486 0 -0.005222298490993837 0.031666853401556852 0 -0.0058498297603081463 0.032884447092171504 0 -0.0043123961332121015 0.032722087292465486 0 -0.005222298490993837 0.031666853401556852 0 -0.0037215419514985706 0.032030172990877813 0 -0.0033794951308589063 0.032844579880372586 0 -0.0030787042792576741 0.032332523485352337 0 -0.0037215419514985706 0.032030172990877813 0 -0.0030787042792576741 0.032332523485352337 0 -0.0037215419514985706 0.032030172990877813 0 -0.0031002007638577848 0.031672308018838094 0 -0.0024539094706654829 0.032851249610395525 0 -0.0024192100527221489 0.032206038978541011 0 -0.0026890546547039102 0.032442141595156196 0 -0.0030787042792576741 0.032332523485352337 0 -0.0026890546547039102 0.032442141595156196 0 -0.0027413094100872636 0.032053638210315961 0 -0.0029078695108063282 0.032883165582645396 0 -0.0030787042792576741 0.032332523485352337 0 -0.0026890546547039102 0.032442141595156196 0 -0.0030787042792576741 0.032332523485352337 0 -0.0027413094100872636 0.032053638210315961 0 -0.0031002007638577848 0.031672308018838094 0 -0.0024192100527221489 0.032206038978541011 0 -0.0026890546547039102 0.032442141595156196 0 -0.0027413094100872636 0.032053638210315961 0 -0.0024192100527221489 0.032206038978541011 0 -0.0027413094100872636 0.032053638210315961 0 -0.0025423260146775809 0.031667759303300583 0 -0.0024192100527221489 0.032206038978541011 0 -0.0025423260146775809 0.031667759303300583 0 -0.0024971617407024151 0.031645513557987406 0 -0.0028509658885474635 0.030296779330730005 0 -0.0027192529602560441 0.029984882965699497 0 -0.0027413094100872636 0.032053638210315961 0 -0.0025423260146775809 0.031667759303300583 0 -0.0031002007638577848 0.031672308018838094 0 -0.0025423260146775809 0.031667759303300583 0 -0.0027629850824920019 0.030982601884072064 0 -0.0031002007638577848 0.031672308018838094 0 -0.0024874209610183697 0.03036115352805446 0 -0.0027192529602560441 0.029984882965699497 0 -0.0025423260146775809 0.031667759303300583 0 -0.0027629850824920019 0.030982601884072064 0 -0.0022984334426881404 0.031394080806585893 0 -0.0039267800759230746 0.030792514380543864 0 -0.0037215419514985706 0.032030172990877813 0 -0.0031002007638577848 0.031672308018838094 0 -0.0039267800759230746 0.030792514380543864 0 -0.0027629850824920019 0.030982601884072064 0 -0.0031002007638577848 0.031672308018838094 0 -0.0039267800759230746 0.030792514380543864 0 -0.0027629850824920019 0.030982601884072064 0 -0.0029520873303738181 0.029820332336816417 0 -0.0039267800759230746 0.030792514380543864 0 -0.0029520873303738181 0.029820332336816417 0 -0.0036367681815409679 0.029054446312697227 0 -0.0027629850824920019 0.030982601884072064 0 -0.0016527552373946203 0.031225635911829114 0 -0.0018175035639637733 0.029836705877911786 0 -0.0027629850824920019 0.030982601884072064 0 -0.0029520873303738181 0.029820332336816417 0 -0.0018175035639637733 0.029836705877911786 0 -0.0029520873303738181 0.029820332336816417 0 -0.0018175035639637733 0.029836705877911786 0 -0.0024162086776658275 0.028360124860039172 0 -0.0029520873303738181 0.029820332336816417 0 -0.0024162086776658275 0.028360124860039172 0 -0.0036367681815409679 0.029054446312697227 0 -0.0036367681815409679 0.029054446312697227 0 -0.0056996604872354504 0.029694268255936466 0 -0.0030402738077466426 0.026298835128619902 0 -0.0039267800759230746 0.030792514380543864 0 -0.0036367681815409679 0.029054446312697227 0 -0.0056996604872354504 0.029694268255936466 0 -0.0030581017444757598 0.025453956442625141 0 -0.0028131513081649183 0.025528275685515592 0 -0.0030447389615781183 0.025848174469119672 0 -0.0030581017444757598 0.025453956442625141 0 -0.0028131513081649183 0.025528275685515592 0 -0.0025886115231796543 0.025014100785350518 0 -0.005222298490993837 0.031666853401556852 0 -0.0056996604872354504 0.029694268255936466 0 -0.0073499686422079753 0.031909100359103895 0 -0.005222298490993837 0.031666853401556852 0 -0.0073499686422079753 0.031909100359103895 0 -0.0058498297603081463 0.032884447092171504 0 -0.0043006549100695285 0.02753405113486454 0 -0.0049736084389488686 0.028415353830257083 0 -0.0025886115231796543 0.025014100785350518 0 -0.00260291241492875 0.025063806273163347 0 -0.0025298825157450693 0.025341803089252511 0 -0.0028131513081649183 0.025528275685515592 0 -0.0025886115231796543 0.025014100785350518 0 -0.0025298825157450693 0.025341803089252511 0 -0.00044344017738604782 0.021161202283574151 0 -0.0030494662823934257 0.022502601013314721 0 -0.0026539373466452311 0.024838078890591146 0 -0.00044344017738604782 0.021161202283574151 0 -0.0030494662823934257 0.022502601013314721 0 -0.0037330910241937317 0.020111620801409033 0 -0.0039025407228917073 0.020502695527551101 0 -0.002964690927684979 0.018817278861087236 0 -0.0030494662823934257 0.022502601013314721 0 -0.0047045210407514028 0.023968977386973685 0 -0.0037330910241937317 0.020111620801409033 0 -0.003030357363346978 0.017651211691085095 0 -0.0026062670269282212 0.018429351274978797 0 -0.0023065050787145444 0.017255663456566407 0 -0.0047045210407514028 0.023968977386973685 0 -0.0026539373466452311 0.024838078890591146 0 -0.003904974693630651 0.025762414365790888 0 -0.0030494662823934257 0.022502601013314721 0 -0.0047045210407514028 0.023968977386973685 0 -0.0026539373466452311 0.024838078890591146 0 -0.00260291241492875 0.025063806273163347 0 -0.0025298825157450693 0.025341803089252511 0 -0.0026539373466452311 0.024838078890591146 0 -0.0015860390595094588 0.023179343967639154 0 -0.0025459546502916816 0.024797250608950241 0 -0.00260291241492875 0.025063806273163347 0 -0.0026539373466452311 0.024838078890591146 0 -0.002675055998004802 0.025455142524144301 0 -0.00260291241492875 0.025063806273163347 0 -0.002675055998004802 0.025455142524144301 0 -0.0025988727972130784 0.02585611598657913 0 -0.0026539373466452311 0.024838078890591146 0 -0.002675055998004802 0.025455142524144301 0 -0.0030613466844316237 0.025673930851330171 0 -0.002675055998004802 0.025455142524144301 0 -0.0030613466844316237 0.025673930851330171 0 -0.0025988727972130784 0.02585611598657913 0 -0.0030613466844316237 0.025673930851330171 0 -0.0031819014040149669 0.026153145642951871 0 -0.0025988727972130784 0.02585611598657913 0 -0.0090546174083210931 0.033684692816466258 0 -0.0085462592913975594 0.033936170680019494 0 -0.0080749571721302361 0.033499642440419038 0 -0.005183445579852443 0.026400758105968116 0 -0.0047045210407514028 0.023968977386973685 0 -0.003904974693630651 0.025762414365790888 0 -0.0026539373466452311 0.024838078890591146 0 -0.0030613466844316237 0.025673930851330171 0 -0.003904974693630651 0.025762414365790888 0 -0.0031819014040149669 0.026153145642951871 0 -0.003904974693630651 0.025762414365790888 0 -0.003260600907104453 0.02707462593667366 0 -0.0030613466844316237 0.025673930851330171 0 -0.0031819014040149669 0.026153145642951871 0 -0.003904974693630651 0.025762414365790888 0 0.001524572778462963 0.032568446127231414 0 0.00139009752154714 0.031900596187808432 0 0.0025128839267371836 0.032232300461697692 0 -0.005183445579852443 0.026400758105968116 0 -0.003904974693630651 0.025762414365790888 0 -0.003260600907104453 0.02707462593667366 0 -0.0010156840598368232 0.026668385254138876 0 -0.0027043680562340842 0.033465609575275036 0 -0.0079100126348486642 0.035449744005641028 0 -0.0096944070677145739 0.03460766530848703 0 -0.0089765018513695925 0.034193082226534027 0 -0.0013833561100498549 0.039497648031559189 0 -0.0016188334097476317 0.039584716204281466 0 -0.001303105121259451 0.039649863323489451 0 -0.0049459422749276285 0.037789239392136041 0 -0.0027043680562340842 0.033465609575275036 0 -0.0079100126348486642 0.035449744005641028 0 -0.0089765018513695925 0.034193082226534027 0 -0.0081943824097445855 0.034226319812970141 0 -0.0085462592913975594 0.033936170680019494 0 -0.0089765018513695925 0.034193082226534027 0 -0.0081943824097445855 0.034226319812970141 0 -0.0090546174083210931 0.033684692816466258 0 -0.0085462592913975594 0.033936170680019494 0 -0.0089765018513695925 0.034193082226534027 0 -0.0031819014040149669 0.026153145642951871 0 -0.0025988727972130784 0.02585611598657913 0 -0.003260600907104453 0.02707462593667366 0 -0.0057057290665913449 0.030201503486640288 0 -0.0027043680562340842 0.033465609575275036 0 -0.0090546174083210931 0.033684692816466258 0 -0.0096944070677145739 0.03460766530848703 0 -0.0089765018513695925 0.034193082226534027 0 -0.0079100126348486642 0.035449744005641028 0 -0.0062624101611088497 0.034785156483617921 0 -0.0072968978449718287 0.033723183359070603 0 -0.0079100126348486642 0.035449744005641028 0 -0.0081943824097445855 0.034226319812970141 0 -0.0072968978449718287 0.033723183359070603 0 -0.0051337912393167109 0.034048756940798938 0 -0.0062624101611088497 0.034785156483617921 0 -0.0061442684885690008 0.033858867000090907 0 -0.0062624101611088497 0.034785156483617921 0 -0.0061442684885690008 0.033858867000090907 0 -0.0072968978449718287 0.033723183359070603 0 -0.0061442684885690008 0.033858867000090907 0 -0.0058498297603081463 0.032884447092171504 0 -0.0072968978449718287 0.033723183359070603 0 -0.0073499686422079753 0.031909100359103895 0 -0.0058498297603081463 0.032884447092171504 0 -0.0072968978449718287 0.033723183359070603 0 -0.0051337912393167109 0.034048756940798938 0 -0.0061442684885690008 0.033858867000090907 0 -0.0058498297603081463 0.032884447092171504 0 -0.0073499686422079753 0.031909100359103895 0 -0.0080749571721302361 0.033499642440419038 0 -0.0072968978449718287 0.033723183359070603 0 -0.0049736084389488686 0.028415353830257083 0 -0.0057057290665913449 0.030201503486640288 0 -0.0025886115231796543 0.025014100785350518 0 -0.00260291241492875 0.025063806273163347 0 -0.0025988727972130784 0.02585611598657913 0 -0.0073499686422079753 0.031909100359103895 0 -0.0090546174083210931 0.033684692816466258 0 -0.0080749571721302361 0.033499642440419038 0 -0.0081943824097445855 0.034226319812970141 0 -0.0080749571721302361 0.033499642440419038 0 -0.0072968978449718287 0.033723183359070603 0 -0.0085462592913975594 0.033936170680019494 0 -0.0081943824097445855 0.034226319812970141 0 -0.0080749571721302361 0.033499642440419038 0 -0.020661082336912242 0.030758255862785105 0 -0.020736590849336933 0.029473133708516761 0 -0.021717575227437849 0.030419754969809098 0 -0.020661082336912242 0.030758255862785105 0 -0.019548077454172814 0.030674497835918982 0 -0.020736590849336933 0.029473133708516761 0 -0.019548077454172814 0.030674497835918982 0 -0.019649631251563399 0.029301990868652001 0 -0.020736590849336933 0.029473133708516761 0 -0.019548077454172814 0.030674497835918982 0 -0.019649631251563399 0.029301990868652001 0 -0.018567065737120005 0.029873695435760825 0 -0.019548077454172814 0.030674497835918982 0 -0.017934918449140826 0.031252684832312694 0 -0.018567065737120005 0.029873695435760825 0 -0.019649631251563399 0.029301990868652001 0 -0.018567065737120005 0.029873695435760825 0 -0.018815926448607016 0.028223391307443429 0 -0.019649631251563399 0.029301990868652001 0 -0.02036098108746167 0.027922267689182524 0 -0.018815926448607016 0.028223391307443429 0 -0.020736590849336933 0.029473133708516761 0 -0.021327311564531385 0.028145360307017798 0 -0.02036098108746167 0.027922267689182524 0 -0.019649631251563399 0.029301990868652001 0 -0.020736590849336933 0.029473133708516761 0 -0.02036098108746167 0.027922267689182524 0 -0.020736590849336933 0.029473133708516761 0 -0.021924809433317458 0.029126286612043823 0 -0.021327311564531385 0.028145360307017798 0 -0.021924809433317458 0.029126286612043823 0 -0.021327311564531385 0.028145360307017798 0 -0.022098674067694071 0.028285243791060708 0 -0.022619207194390655 0.028739683077216319 0 -0.021924809433317458 0.029126286612043823 0 -0.022098674067694071 0.028285243791060708 0 -0.022619207194390655 0.028739683077216319 0 -0.021924809433317458 0.029126286612043823 0 -0.023100830028564445 0.029639348235478875 0 -0.022619207194390655 0.028739683077216319 0 -0.023100830028564445 0.029639348235478875 0 -0.024197850965398077 0.028349018550233019 0 -0.023100830028564445 0.029639348235478875 0 -0.022900682197961843 0.030917930847228364 0 -0.024000907873705978 0.030772412243863713 0 -0.023100830028564445 0.029639348235478875 0 -0.021717575227437849 0.030419754969809098 0 -0.022900682197961843 0.030917930847228364 0 -0.021924809433317458 0.029126286612043823 0 -0.023100830028564445 0.029639348235478875 0 -0.021717575227437849 0.030419754969809098 0 -0.020736590849336933 0.029473133708516761 0 -0.021924809433317458 0.029126286612043823 0 -0.021717575227437849 0.030419754969809098 0 -0.021717575227437849 0.030419754969809098 0 -0.022312683311299097 0.031789164418019045 0 -0.022900682197961843 0.030917930847228364 0 -0.021717575227437849 0.030419754969809098 0 -0.022312683311299097 0.031789164418019045 0 -0.021191812891116626 0.031710531455247527 0 -0.022900682197961843 0.030917930847228364 0 -0.023326071771500465 0.031943462967828282 0 -0.024000907873705978 0.030772412243863713 0 -0.022312683311299097 0.031789164418019045 0 -0.022900682197961843 0.030917930847228364 0 -0.023326071771500465 0.031943462967828282 0 -0.023326071771500465 0.031943462967828282 0 -0.022097518308313295 0.032841924733612846 0 -0.024084903845559506 0.032904289088639495 0 -0.021804579055438394 0.032361746253309717 0 -0.023952998470199865 0.03288691226430774 0 -0.022312683311299097 0.031789164418019045 0 -0.022097518308313295 0.032841924733612846 0 -0.021191812891116626 0.031710531455247527 0 -0.022312683311299097 0.031789164418019045 0 -0.023326071771500465 0.031943462967828282 0 -0.022097518308313295 0.032841924733612846 0 -0.022097518308313295 0.032841924733612846 0 -0.021191812891116626 0.031710531455247527 0 -0.019868698764613019 0.03262013930285098 0 -0.021616085503890117 0.031990585210876735 0 -0.01877420711046561 0.031213231750628106 0 -0.019719628298729721 0.032911415192595432 0 -0.021804579055438394 0.032361746253309717 0 -0.019452726904631422 0.032324428613051612 0 -0.020661082336912242 0.030758255862785105 0 -0.021717575227437849 0.030419754969809098 0 -0.021191812891116626 0.031710531455247527 0 -0.021191812891116626 0.031710531455247527 0 -0.020080811726284384 0.031506399040256941 0 -0.019868698764613019 0.03262013930285098 0 -0.020661082336912242 0.030758255862785105 0 -0.021191812891116626 0.031710531455247527 0 -0.020080811726284384 0.031506399040256941 0 -0.020661082336912242 0.030758255862785105 0 -0.019548077454172814 0.030674497835918982 0 -0.020080811726284384 0.031506399040256941 0 -0.019012941189933481 0.031669691208678213 0 -0.019868698764613019 0.03262013930285098 0 -0.01756860336050084 0.032211746514311683 0 -0.019548077454172814 0.030674497835918982 0 -0.019012941189933481 0.031669691208678213 0 -0.017934918449140826 0.031252684832312694 0 -0.019548077454172814 0.030674497835918982 0 -0.020080811726284384 0.031506399040256941 0 -0.019012941189933481 0.031669691208678213 0 -0.020080811726284384 0.031506399040256941 0 -0.019012941189933481 0.031669691208678213 0 -0.019868698764613019 0.03262013930285098 0 -0.01677637228695467 0.027411930226274958 0 -0.018870847122951381 0.029173331330161832 0 -0.01877420711046561 0.031213231750628106 0 -0.017768237125541209 0.031720116417022874 0 -0.015780853149301124 0.030455267655194483 0 -0.019452726904631422 0.032324428613051612 0 -0.016297319178610548 0.028153755289555833 0 -0.01877420711046561 0.031213231750628106 0 -0.017768237125541209 0.031720116417022874 0 -0.019719628298729721 0.032911415192595432 0 -0.016334347243364203 0.023591686378298855 0 -0.015376806865824643 0.023511752910186499 0 -0.015480030842146178 0.023151398547385949 0 -0.016334347243364203 0.023591686378298855 0 -0.015376806865824643 0.023511752910186499 0 -0.015868405678947237 0.024062885914963177 0 -0.01677637228695467 0.027411930226274958 0 -0.016297319178610548 0.028153755289555833 0 -0.015376806865824643 0.023511752910186499 0 -0.0153243505427707 0.023125866129331818 0 -0.015480030842146178 0.023151398547385949 0 -0.015376806865824643 0.023511752910186499 0 -0.01519970290713139 0.023929860994318881 0 -0.015868405678947237 0.024062885914963177 0 -0.015376806865824643 0.023511752910186499 0 -0.014767559011311366 0.023382253614684392 0 -0.01519970290713139 0.023929860994318881 0 -0.014767559011311366 0.023382253614684392 0 -0.014458583717867799 0.023800254054999862 0 -0.01519970290713139 0.023929860994318881 0 -0.014767559011311366 0.023382253614684392 0 -0.015116576470711286 0.023290227823750887 0 -0.014996422098381383 0.023141298503492169 0 -0.015376806865824643 0.023511752910186499 0 -0.015116576470711286 0.023290227823750887 0 -0.0153243505427707 0.023125866129331818 0 -0.015376806865824643 0.023511752910186499 0 -0.014767559011311366 0.023382253614684392 0 -0.015116576470711286 0.023290227823750887 0 -0.015116576470711286 0.023290227823750887 0 -0.0153243505427707 0.023125866129331818 0 -0.014996422098381383 0.023141298503492169 0 -0.0153243505427707 0.023125866129331818 0 -0.014996422098381383 0.023141298503492169 0 -0.014824128779659254 0.02279269455633235 0 -0.0153243505427707 0.023125866129331818 0 -0.014824128779659254 0.02279269455633235 0 -0.015480821908233853 0.023158815774758566 0 -0.016445405986558383 0.031523567657105622 0 -0.017934918449140826 0.031252684832312694 0 -0.017519543651291249 0.030352699566444364 0 -0.015478107871715951 0.027138926718688266 0 -0.016297319178610548 0.028153755289555833 0 -0.016445405986558383 0.031523567657105622 0 -0.017934918449140826 0.031252684832312694 0 -0.01756860336050084 0.032211746514311683 0 -0.014767559011311366 0.023382253614684392 0 -0.014996422098381383 0.023141298503492169 0 -0.014824128779659254 0.02279269455633235 0 -0.019012941189933481 0.031669691208678213 0 -0.017934918449140826 0.031252684832312694 0 -0.01756860336050084 0.032211746514311683 0 -0.015728950036696845 0.027519502206540813 0 -0.016297319178610548 0.028153755289555833 0 -0.013116635726086914 0.023514067494810803 0 -0.014031808210483476 0.02322645718043052 0 -0.013914994488910726 0.024200605978702789 0 -0.014031808210483476 0.02322645718043052 0 -0.014458583717867799 0.023800254054999862 0 -0.013914994488910726 0.024200605978702789 0 -0.014767559011311366 0.023382253614684392 0 -0.014031808210483476 0.02322645718043052 0 -0.014458583717867799 0.023800254054999862 0 -0.014824128779659254 0.02279269455633235 0 -0.014031808210483476 0.02322645718043052 0 -0.014172009603876455 0.022427336948510266 0 -0.014767559011311366 0.023382253614684392 0 -0.014824128779659254 0.02279269455633235 0 -0.014031808210483476 0.02322645718043052 0 -0.014031808210483476 0.02322645718043052 0 -0.013413478346817942 0.022618525421789867 0 -0.014172009603876455 0.022427336948510266 0 -0.015478107871715951 0.027138926718688266 0 -0.014486336784821783 0.028874419122519413 0 -0.013915422411412201 0.027031008813064861 0 -0.014486336784821783 0.028874419122519413 0 -0.013116635726086914 0.023514067494810803 0 -0.014031808210483476 0.02322645718043052 0 -0.013413478346817942 0.022618525421789867 0 -0.012986510553321786 0.031735485585063838 0 -0.014005895292026796 0.031066048991009194 0 -0.014693826294769502 0.031289351259984943 0 -0.012986510553321786 0.031735485585063838 0 -0.012636137171054985 0.030376710098012287 0 -0.013637164083340482 0.030773237026666865 0 -0.012986510553321786 0.031735485585063838 0 -0.013637164083340482 0.030773237026666865 0 -0.014005895292026796 0.031066048991009194 0 -0.013637164083340482 0.030773237026666865 0 -0.014296250650583417 0.030629010977649168 0 -0.014005895292026796 0.031066048991009194 0 -0.012636137171054985 0.030376710098012287 0 -0.013637164083340482 0.030773237026666865 0 -0.014068003639164032 0.030058699641922218 0 -0.014068003639164032 0.030058699641922218 0 -0.015155297002628087 0.030285871285256175 0 -0.014965977085870875 0.029331645089648049 0 -0.014068003639164032 0.030058699641922218 0 -0.014296250650583417 0.030629010977649168 0 -0.015155297002628087 0.030285871285256175 0 -0.014296250650583417 0.030629010977649168 0 -0.014557905873607127 0.030905031251056918 0 -0.015155297002628087 0.030285871285256175 0 -0.013637164083340482 0.030773237026666865 0 -0.014068003639164032 0.030058699641922218 0 -0.014296250650583417 0.030629010977649168 0 -0.014296250650583417 0.030629010977649168 0 -0.014005895292026796 0.031066048991009194 0 -0.014557905873607127 0.030905031251056918 0 -0.014693826294769502 0.031289351259984943 0 -0.014557905873607127 0.030905031251056918 0 -0.015155297002628087 0.030285871285256175 0 -0.014005895292026796 0.031066048991009194 0 -0.014693826294769502 0.031289351259984943 0 -0.014557905873607127 0.030905031251056918 0 -0.015155297002628087 0.030285871285256175 0 -0.014965977085870875 0.029331645089648049 0 -0.016152302612725881 0.029283364533539157 0 -0.014965977085870875 0.029331645089648049 0 -0.015413822480158428 0.028376817453027458 0 -0.016152302612725881 0.029283364533539157 0 -0.014965977085870875 0.029331645089648049 0 -0.015413822480158428 0.028376817453027458 0 -0.014014891727036098 0.028684408734477793 0 -0.014068003639164032 0.030058699641922218 0 -0.014965977085870875 0.029331645089648049 0 -0.014014891727036098 0.028684408734477793 0 -0.0063517851318665511 0.032617465617133211 0 -0.0072993319168292046 0.031545930688155741 0 -0.00086697395418618638 0.033652970320250483 0 -0.00046232146017327727 0.03465794578924606 0 -0.0010539402821922053 0.034662109152848099 0 -0.012636137171054985 0.030376710098012287 0 -0.014068003639164032 0.030058699641922218 0 -0.014014891727036098 0.028684408734477793 0 -0.017934918449140826 0.031252684832312694 0 -0.017519543651291249 0.030352699566444364 0 -0.018567065737120005 0.029873695435760825 0 -0.017519543651291249 0.030352699566444364 0 -0.018567065737120005 0.029873695435760825 0 -0.017573296568841181 0.0289916467857423 0 -0.015155297002628087 0.030285871285256175 0 -0.017519543651291249 0.030352699566444364 0 -0.016152302612725881 0.029283364533539157 0 -0.016445405986558383 0.031523567657105622 0 -0.015367055401135784 0.030859836972906368 0 -0.017519543651291249 0.030352699566444364 0 -0.014693826294769502 0.031289351259984943 0 -0.015155297002628087 0.030285871285256175 0 -0.017519543651291249 0.030352699566444364 0 -0.014486336784821783 0.028874419122519413 0 -0.017535175614072866 0.030980513372193156 0 -0.017519543651291249 0.030352699566444364 0 -0.016152302612725881 0.029283364533539157 0 -0.017573296568841181 0.0289916467857423 0 -0.015413822480158428 0.028376817453027458 0 -0.016152302612725881 0.029283364533539157 0 -0.016566057937172172 0.028257547539397375 0 -0.016152302612725881 0.029283364533539157 0 -0.017573296568841181 0.0289916467857423 0 -0.016566057937172172 0.028257547539397375 0 -0.018567065737120005 0.029873695435760825 0 -0.017573296568841181 0.0289916467857423 0 -0.018815926448607016 0.028223391307443429 0 -0.017573296568841181 0.0289916467857423 0 -0.017559963548533321 0.027815300084662015 0 -0.018815926448607016 0.028223391307443429 0 -0.018249797030353815 0.027186572732279445 0 -0.017559963548533321 0.027815300084662015 0 -0.018815926448607016 0.028223391307443429 0 -0.017559963548533321 0.027815300084662015 0 -0.016649670410362485 0.027483087380572927 0 -0.017304348495460104 0.026811025484745378 0 -0.018249797030353815 0.027186572732279445 0 -0.017559963548533321 0.027815300084662015 0 -0.017304348495460104 0.026811025484745378 0 -0.017573296568841181 0.0289916467857423 0 -0.017559963548533321 0.027815300084662015 0 -0.016566057937172172 0.028257547539397375 0 -0.017559963548533321 0.027815300084662015 0 -0.016566057937172172 0.028257547539397375 0 -0.016649670410362485 0.027483087380572927 0 -0.016566057937172172 0.028257547539397375 0 -0.015985819378793148 0.02780201651948595 0 -0.016649670410362485 0.027483087380572927 0 -0.016649670410362485 0.027483087380572927 0 -0.017304348495460104 0.026811025484745378 0 -0.015303419241203747 0.027090689800587046 0 -0.017620964319440033 0.026800194566260798 0 -0.0079153644042711871 0.031261459692403591 0 -0.015413822480158428 0.028376817453027458 0 -0.016566057937172172 0.028257547539397375 0 -0.015985819378793148 0.02780201651948595 0 -0.015985819378793148 0.02780201651948595 0 -0.016649670410362485 0.027483087380572927 0 -0.015303419241203747 0.027090689800587046 0 -0.0050202551710604448 0.035781560939250119 0 -0.0080360691903368572 0.03573739430289169 0 -0.0064503768944050325 0.033793314252360242 0 -0.012862644649544229 0.026564129348049477 0 -0.015581770396130257 0.027558136838575272 0 -0.016585958519194793 0.026470529391437354 0 -0.012862644649544229 0.026564129348049477 0 -0.015581770396130257 0.027558136838575272 0 -0.011467226961309307 0.028453966935827201 0 -0.0070221258239070335 0.033235423235942689 0 -0.015013524612309318 0.034287082537301554 0 -0.0070221258239070335 0.033235423235942689 0 -0.0079153644042711871 0.031261459692403591 0 -0.0048648406201915149 0.035628873149099238 0 -0.0064503768944050325 0.033793314252360242 0 -0.0043726255069443344 0.034203828184953648 0 -0.0070221258239070335 0.033235423235942689 0 -0.0056794851927650805 0.034811872296277448 0 -0.015581770396130257 0.027558136838575272 0 -0.016585958519194793 0.026470529391437354 0 -0.01893065103985974 0.026559159371995371 0 -0.018648626476373848 0.037318865108229439 0 -0.018446377579010728 0.037803399255156259 0 -0.018214954430779966 0.036144446567443818 0 -0.017620964319440033 0.026800194566260798 0 -0.018247287670885678 0.026746048929370447 0 -0.018249797030353815 0.027186572732279445 0 -0.017304348495460104 0.026811025484745378 0 -0.01893065103985974 0.026559159371995371 0 -0.018648626476373848 0.037318865108229439 0 -0.019273328191856846 0.037523728698506287 0 -0.018446377579010728 0.037803399255156259 0 -0.018648626476373848 0.037318865108229439 0 -0.018924905198506398 0.03708535752124123 0 -0.019273328191856846 0.037523728698506287 0 -0.018924905198506398 0.03708535752124123 0 -0.019273328191856846 0.037523728698506287 0 -0.019518485273712603 0.037162177333738194 0 -0.0018118783266328428 0.035305291610113608 0 -0.0022680244506933698 0.035810706941341849 0 -0.0021325537152549765 0.035551201473344819 0 -0.0023006052444184597 0.035255942686332531 0 -0.00027355543067624595 0.035847683418190779 0 -0.0018118783266328428 0.035305291610113608 0 -0.0010539402821922053 0.034662109152848099 0 -0.00071172094038756415 0.035261092517495186 0 -0.00046232146017327727 0.03465794578924606 0 -0.0010539402821922053 0.034662109152848099 0 -0.00071172094038756415 0.035261092517495186 0 -0.00046232146017327727 0.03465794578924606 0 -0.00071172094038756415 0.035261092517495186 0 -0.00012647158251769531 0.035308145268896363 0 -0.00027355543067624595 0.035847683418190779 0 -0.0079153644042711871 0.031261459692403591 0 -0.0022680244506933698 0.035810706941341849 0 -0.0032288626049848503 0.035872326596752595 0 -0.0024988610176048974 0.035651715837406409 0 -0.0072993319168292046 0.031545930688155741 0 -0.0079153644042711871 0.031261459692403591 0 -0.015413822480158428 0.028376817453027458 0 -0.014014891727036098 0.028684408734477793 0 -0.015303419241203747 0.027090689800587046 0 -0.015413822480158428 0.028376817453027458 0 -0.015985819378793148 0.02780201651948595 0 -0.015303419241203747 0.027090689800587046 0 -0.002878179342346777 0.035490727003356148 0 -0.0022030406167716805 0.03544299050311437 0 -0.0043726255069443344 0.034203828184953648 0 -0.0027698201553477196 0.035239361506432046 0 -0.0020252014228396452 0.035161867979490537 0 -0.0070221258239070335 0.033235423235942689 0 -0.0022325200533699647 0.035334412642065216 0 -0.0035468488485708768 0.035471374104247701 0 -0.0032288626049848503 0.035872326596752595 0 -0.002878179342346777 0.035490727003356148 0 -0.0048648406201915149 0.035628873149099238 0 -0.002878179342346777 0.035490727003356148 0 -0.0043726255069443344 0.034203828184953648 0 -0.0032288626049848503 0.035872326596752595 0 -0.002878179342346777 0.035490727003356148 0 -0.0024988610176048974 0.035651715837406409 0 -0.0022680244506933698 0.035810706941341849 0 -0.0024988610176048974 0.035651715837406409 0 -0.0021325537152549765 0.035551201473344819 0 -0.0024988610176048974 0.035651715837406409 0 -0.0022030406167716805 0.03544299050311437 0 -0.0021325537152549765 0.035551201473344819 0 -0.002878179342346777 0.035490727003356148 0 -0.0024988610176048974 0.035651715837406409 0 -0.0022030406167716805 0.03544299050311437 0 -0.0022030406167716805 0.03544299050311437 0 -0.0021792904660872118 0.035563132941400039 0 -0.0021977554746841557 0.035654135500082576 0 -0.0022030406167716805 0.03544299050311437 0 -0.0021792904660872118 0.035563132941400039 0 -0.0021325537152549765 0.035551201473344819 0 -0.0021202971169649505 0.035558815647180032 0 -0.0021792904660872118 0.035563132941400039 0 -0.0021325537152549765 0.035551201473344819 0 -0.0022194623355921302 0.035699652526208672 0 -0.0021792904660872118 0.035563132941400039 0 -0.0021977554746841557 0.035654135500082576 0 -0.0022030406167716805 0.03544299050311437 0 -0.0021977554746841557 0.035654135500082576 0 -0.0021631671082949261 0.035704607036144149 0 -0.0022194623355921302 0.035699652526208672 0 -0.0021977554746841557 0.035654135500082576 0 -0.0021890948721610603 0.035829405064788822 0 -0.0021977554746841557 0.035654135500082576 0 -0.0021890948721610603 0.035829405064788822 0 -0.0021631671082949261 0.035704607036144149 0 -0.0022030406167716805 0.03544299050311437 0 -0.0021631671082949261 0.035704607036144149 0 -0.0021040267561817975 0.03571588496227282 0 -0.0021890948721610603 0.035829405064788822 0 -0.0021631671082949261 0.035704607036144149 0 -0.0021456335981098395 0.035821302692175656 0 -0.0021631671082949261 0.035704607036144149 0 -0.0021456335981098395 0.035821302692175656 0 -0.0021040267561817975 0.03571588496227282 0 -0.0021718579619761117 0.035949188042587545 0 -0.0021553784984564401 0.036148347387718084 0 -0.0021823458145722252 0.035979335253475561 0 -0.0021890948721610603 0.035829405064788822 0 -0.0021718579619761117 0.035949188042587545 0 -0.0021823458145722252 0.035979335253475561 0 -0.0021456335981098395 0.035821302692175656 0 -0.0021718579619761117 0.035949188042587545 0 -0.0021110047592857984 0.035915824535274664 0 -0.0021890948721610603 0.035829405064788822 0 -0.0021456335981098395 0.035821302692175656 0 -0.0021718579619761117 0.035949188042587545 0 -0.0022428918209183653 0.035897542880777185 0 -0.0021890948721610603 0.035829405064788822 0 -0.0021823458145722252 0.035979335253475561 0 -0.0022428918209183653 0.035897542880777185 0 -0.0022194623355921302 0.035699652526208672 0 -0.0021890948721610603 0.035829405064788822 0 -0.015013524612309318 0.034287082537301554 0 -0.01166743901423717 0.035960041438679292 0 -0.0080360691903368572 0.03573739430289169 0 -0.0076547903921610977 0.032995209439427721 0 -0.0064503768944050325 0.033793314252360242 0 -0.018648626476373848 0.037318865108229439 0 -0.018924905198506398 0.03708535752124123 0 -0.018214954430779966 0.036144446567443818 0 -0.018924905198506398 0.03708535752124123 0 -0.018214954430779966 0.036144446567443818 0 -0.019385483523701969 0.036676167795710396 0 -0.018924905198506398 0.03708535752124123 0 -0.019385483523701969 0.036676167795710396 0 -0.019518485273712603 0.037162177333738194 0 -0.0021456335981098395 0.035821302692175656 0 -0.0021040267561817975 0.03571588496227282 0 -0.0021110047592857984 0.035915824535274664 0 -0.0076547903921610977 0.032995209439427721 0 -0.0064503768944050325 0.033793314252360242 0 -0.0043726255069443344 0.034203828184953648 0 -0.0019434542740651738 0.035787577574859321 0 -0.0021040267561817975 0.03571588496227282 0 -0.0021110047592857984 0.035915824535274664 0 -0.01166743901423717 0.035960041438679292 0 -0.0020252014228396452 0.035161867979490537 0 -0.0019434542740651738 0.035787577574859321 0 -0.0021110047592857984 0.035915824535274664 0 -0.0019212345646513738 0.036280602269213855 0 -0.0021718579619761117 0.035949188042587545 0 -0.0021110047592857984 0.035915824535274664 0 -0.0021553784984564401 0.036148347387718084 0 -0.0021110047592857984 0.035915824535274664 0 -0.0021553784984564401 0.036148347387718084 0 -0.0019212345646513738 0.036280602269213855 0 -0.017378764229516695 0.036929106516255847 0 -0.018451072345338344 0.035415051629020672 0 -0.017058924401394466 0.034263648624471101 0 -0.01166743901423717 0.035960041438679292 0 -0.0093241251736610915 0.035414717366696449 0 -0.018451072345338344 0.035415051629020672 0 -0.020254476868413248 0.035840546469916038 0 -0.020641240893410698 0.033976629487295247 0 -0.017378764229516695 0.036929106516255847 0 -0.018451072345338344 0.035415051629020672 0 -0.020254476868413248 0.035840546469916038 0 -0.02180859163308202 0.035421401512919934 0 -0.022311594926888764 0.034770424477120157 0 -0.020254476868413248 0.035840546469916038 0 -0.023006448179124495 0.034584797753929704 0 -0.020641240893410698 0.033976629487295247 0 -0.020681614401911838 0.03531932699758851 0 -0.021565941394546109 0.036636156212042532 0 -0.023006448179124495 0.034584797753929704 0 -0.020681614401911838 0.03531932699758851 0 -0.021565941394546109 0.036636156212042532 0 -0.02033301032724364 0.036942941885032644 0 -0.021565941394546109 0.036636156212042532 0 -0.02033301032724364 0.036942941885032644 0 -0.021008261861236669 0.037215831016030584 0 -0.021565941394546109 0.036636156212042532 0 -0.022191978343460261 0.037217060076992187 0 -0.022770478149283461 0.036755958062472435 0 -0.018214954430779966 0.036144446567443818 0 -0.020681614401911838 0.03531932699758851 0 -0.019385483523701969 0.036676167795710396 0 -0.01166743901423717 0.035960041438679292 0 -0.02180859163308202 0.035421401512919934 0 -0.020681614401911838 0.03531932699758851 0 -0.02033301032724364 0.036942941885032644 0 -0.019385483523701969 0.036676167795710396 0 -0.02033301032724364 0.036942941885032644 0 -0.019385483523701969 0.036676167795710396 0 -0.019518485273712603 0.037162177333738194 0 -0.019273328191856846 0.037523728698506287 0 -0.018446377579010728 0.037803399255156259 0 -0.020576025430608685 0.037891035065961497 0 -0.02033301032724364 0.036942941885032644 0 -0.019518485273712603 0.037162177333738194 0 -0.019866980930261798 0.037432174105294397 0 -0.016585958519194793 0.026470529391437354 0 -0.01893065103985974 0.026559159371995371 0 -0.01998199653679146 0.02637863271570684 0 -0.019273328191856846 0.037523728698506287 0 -0.019518485273712603 0.037162177333738194 0 -0.019866980930261798 0.037432174105294397 0 -0.015013524612309318 0.034287082537301554 0 -0.020868505652131015 0.032102007090903273 0 -0.019273328191856846 0.037523728698506287 0 -0.019866980930261798 0.037432174105294397 0 -0.020576025430608685 0.037891035065961497 0 -0.018249797030353815 0.027186572732279445 0 -0.01893065103985974 0.026559159371995371 0 -0.018858895879032174 0.027180217369535398 0 -0.01893065103985974 0.026559159371995371 0 -0.018858895879032174 0.027180217369535398 0 -0.019583332133711939 0.027350547822153917 0 -0.01893065103985974 0.026559159371995371 0 -0.01998199653679146 0.02637863271570684 0 -0.019583332133711939 0.027350547822153917 0 -0.01998199653679146 0.02637863271570684 0 -0.020466870888434123 0.027023421206228002 0 -0.019583332133711939 0.027350547822153917 0 -0.02033301032724364 0.036942941885032644 0 -0.019866980930261798 0.037432174105294397 0 -0.020576025430608685 0.037891035065961497 0 -0.02033301032724364 0.036942941885032644 0 -0.020576025430608685 0.037891035065961497 0 -0.021008261861236669 0.037215831016030584 0 -0.020868505652131015 0.032102007090903273 0 -0.021518228443665442 0.029443245776414176 0 -0.01998199653679146 0.02637863271570684 0 -0.020466870888434123 0.027023421206228002 0 -0.021849356769582936 0.026474091142922557 0 -0.021565941394546109 0.036636156212042532 0 -0.021008261861236669 0.037215831016030584 0 -0.02155460602961029 0.037395043394157841 0 -0.020576025430608685 0.037891035065961497 0 -0.02155460602961029 0.037395043394157841 0 -0.022487755434442095 0.037878174873637163 0 -0.020576025430608685 0.037891035065961497 0 -0.021008261861236669 0.037215831016030584 0 -0.02155460602961029 0.037395043394157841 0 -0.022191978343460261 0.037217060076992187 0 -0.02155460602961029 0.037395043394157841 0 -0.022487755434442095 0.037878174873637163 0 -0.021565941394546109 0.036636156212042532 0 -0.022191978343460261 0.037217060076992187 0 -0.02155460602961029 0.037395043394157841 0 -0.021327311564531385 0.028145360307017798 0 -0.02036098108746167 0.027922267689182524 0 -0.021674418597098375 0.026894970383620136 0 -0.020466870888434123 0.027023421206228002 0 -0.02036098108746167 0.027922267689182524 0 -0.019583332133711939 0.027350547822153917 0 -0.020883911505560199 0.027096905026381408 0 -0.021518228443665442 0.029443245776414176 0 -0.020466870888434123 0.027023421206228002 0 -0.02036098108746167 0.027922267689182524 0 -0.021849356769582936 0.026474091142922557 0 -0.02036098108746167 0.027922267689182524 0 -0.018815926448607016 0.028223391307443429 0 -0.019583332133711939 0.027350547822153917 0 -0.018815926448607016 0.028223391307443429 0 -0.018858895879032174 0.027180217369535398 0 -0.019583332133711939 0.027350547822153917 0 -0.018249797030353815 0.027186572732279445 0 -0.018815926448607016 0.028223391307443429 0 -0.018858895879032174 0.027180217369535398 0 -0.022619207194390655 0.028739683077216319 0 -0.022626709603508127 0.027829526221005364 0 -0.024197850965398077 0.028349018550233019 0 -0.022626709603508127 0.027829526221005364 0 -0.023780051131547686 0.026968377982989022 0 -0.024378930167493252 0.028434791107065274 0 -0.022716994645646974 0.027860983311728427 0 -0.024335267521291538 0.028394728295519697 0 -0.022619207194390655 0.028739683077216319 0 -0.022098674067694071 0.028285243791060708 0 -0.022626709603508127 0.027829526221005364 0 -0.021327311564531385 0.028145360307017798 0 -0.021966153322354288 0.027612692050027112 0 -0.021674418597098375 0.026894970383620136 0 -0.021327311564531385 0.028145360307017798 0 -0.022098674067694071 0.028285243791060708 0 -0.021966153322354288 0.027612692050027112 0 -0.021966153322354288 0.027612692050027112 0 -0.022626709603508127 0.027829526221005364 0 -0.022200914301447706 0.026950847265877428 0 -0.022098674067694071 0.028285243791060708 0 -0.021966153322354288 0.027612692050027112 0 -0.022626709603508127 0.027829526221005364 0 -0.021518228443665442 0.029443245776414176 0 -0.023347893812482867 0.031604218065963474 0 -0.022200914301447706 0.026950847265877428 0 -0.021729791055841195 0.026941598426505182 0 -0.02296410401329195 0.025901279419742889 0 -0.022487755434442095 0.037878174873637163 0 -0.023944845597742289 0.036484374276059002 0 -0.022770478149283461 0.036755958062472435 0 -0.021966153322354288 0.027612692050027112 0 -0.022200914301447706 0.026950847265877428 0 -0.021674418597098375 0.026894970383620136 0 -0.021900991937767979 0.028633852504393577 0 -0.021518228443665442 0.029443245776414176 0 -0.022191978343460261 0.037217060076992187 0 -0.022487755434442095 0.037878174873637163 0 -0.022770478149283461 0.036755958062472435 0 -0.022626709603508127 0.027829526221005364 0 -0.022200914301447706 0.026950847265877428 0 -0.023780051131547686 0.026968377982989022 0 -0.022200914301447706 0.026950847265877428 0 -0.023780051131547686 0.026968377982989022 0 -0.02296410401329195 0.025901279419742889 0 -0.023347893812482867 0.031604218065963474 0 -0.024742414554337754 0.029690167847641957 0 -0.02296410401329195 0.025901279419742889 0 -0.024205422483172423 0.025970971891470341 0 -0.024162452618149876 0.02489969481680681 0 -0.023780051131547686 0.026968377982989022 0 -0.02296410401329195 0.025901279419742889 0 -0.024205422483172423 0.025970971891470341 0 -0.021565941394546109 0.036636156212042532 0 -0.022770478149283461 0.036755958062472435 0 -0.023006448179124495 0.034584797753929704 0 -0.023944845597742289 0.036484374276059002 0 -0.022770478149283461 0.036755958062472435 0 -0.023006448179124495 0.034584797753929704 0 -0.023006448179124495 0.034584797753929704 0 -0.024634160870444861 0.033410671886836739 0 -0.025495436304564773 0.035038309211493 0 -0.023944845597742289 0.036484374276059002 0 -0.023006448179124495 0.034584797753929704 0 -0.025495436304564773 0.035038309211493 0 -0.024634160870444861 0.033410671886836739 0 -0.024906034969627951 0.031602953665411583 0 -0.022648361870464009 0.032278854050492183 0 -0.024906034969627951 0.031602953665411583 0 -0.022648361870464009 0.032278854050492183 0 -0.022839874831436388 0.029522375717981789 0 -0.023006448179124495 0.034584797753929704 0 -0.024634160870444861 0.033410671886836739 0 -0.022648361870464009 0.032278854050492183 0 -0.023006448179124495 0.034584797753929704 0 -0.022648361870464009 0.032278854050492183 0 -0.020641240893410698 0.033976629487295247 0 -0.022648361870464009 0.032278854050492183 0 -0.020641240893410698 0.033976629487295247 0 -0.020421676655219816 0.032304046352550408 0 -0.020641240893410698 0.033976629487295247 0 -0.018919045223148669 0.033511609841734423 0 -0.020421676655219816 0.032304046352550408 0 -0.018451072345338344 0.035415051629020672 0 -0.020641240893410698 0.033976629487295247 0 -0.018919045223148669 0.033511609841734423 0 -0.020421676655219816 0.032304046352550408 0 -0.018955908492627835 0.031655417648738478 0 -0.020721303032610421 0.030583061165291917 0 -0.018919045223148669 0.033511609841734423 0 -0.020421676655219816 0.032304046352550408 0 -0.018955908492627835 0.031655417648738478 0 -0.022648361870464009 0.032278854050492183 0 -0.020421676655219816 0.032304046352550408 0 -0.020721303032610421 0.030583061165291917 0 -0.020721303032610421 0.030583061165291917 0 -0.01959156022668198 0.028793725215192953 0 -0.022839874831436388 0.029522375717981789 0 -0.022648361870464009 0.032278854050492183 0 -0.020721303032610421 0.030583061165291917 0 -0.022839874831436388 0.029522375717981789 0 -0.018955908492627835 0.031655417648738478 0 -0.020721303032610421 0.030583061165291917 0 -0.018042583652189151 0.03016854145657076 0 -0.020721303032610421 0.030583061165291917 0 -0.01959156022668198 0.028793725215192953 0 -0.018042583652189151 0.03016854145657076 0 -0.017457063747778369 0.034180746074607415 0 -0.019327600720877101 0.033793518138017099 0 -0.01959156022668198 0.028793725215192953 0 -0.023268742654960473 0.028419576967850517 0 -0.022839874831436388 0.029522375717981789 0 -0.013765488755637639 0.039729097543540155 0 -0.015965011620405561 0.039596052191365444 0 -0.01456592491718408 0.038226553164067895 0 -0.023268742654960473 0.028419576967850517 0 -0.025834268384268246 0.029887039252912778 0 -0.022839874831436388 0.029522375717981789 0 -0.023268742654960473 0.028419576967850517 0 -0.025834268384268246 0.029887039252912778 0 -0.028075228324162847 0.028211268241169277 0 -0.015965011620405561 0.039596052191365444 0 -0.016477963368055532 0.037964631856885978 0 -0.01828936394556438 0.039412860301268185 0 -0.019327600720877101 0.033793518138017099 0 -0.023828311811640874 0.035528434774370017 0 -0.026872840052811063 0.032427588011737826 0 -0.025834268384268246 0.029887039252912778 0 -0.022839874831436388 0.029522375717981789 0 -0.026872840052811063 0.032427588011737826 0 -0.025834268384268246 0.029887039252912778 0 -0.028071275415164847 0.030703533139506124 0 -0.026018731151934267 0.032436899302555208 0 -0.022859784052910326 0.029428622539120756 0 -0.0028156035328417532 0.036581894972728991 0 -0.0025145177838056722 0.036318327975815447 0 -0.0033525891725197238 0.03710484635632972 0 -0.0030755980026556345 0.037314694926911571 0 -0.0029117965746076157 0.036651142100584636 0 -0.0022835015572567692 0.036049044342735398 0 -0.0022428918209183653 0.035897542880777185 0 -0.0021823458145722252 0.035979335253475561 0 -0.0021553784984564401 0.036148347387718084 0 -0.0029117965746076157 0.036651142100584636 0 -0.0023312871776104251 0.036778645792193511 0 -0.0030755980026556345 0.037314694926911571 0 -0.0029117965746076157 0.036651142100584636 0 -0.0023312871776104251 0.036778645792193511 0 -0.0021608128295290832 0.036157218446831813 0 -0.0025145177838056722 0.036318327975815447 0 -0.0030755980026556345 0.037314694926911571 0 -0.0023312871776104251 0.036778645792193511 0 -0.0025662209538529373 0.037413349063251528 0 -0.0021181403901135262 0.037184143465478048 0 -0.0023312871776104251 0.036778645792193511 0 -0.0025662209538529373 0.037413349063251528 0 -0.009257099712814118 0.034042841718764275 0 -0.0093241251736610915 0.035414717366696449 0 -0.0021181403901135262 0.037184143465478048 0 -0.0023312871776104251 0.036778645792193511 0 -0.0019212345646513738 0.036280602269213855 0 -0.0021553784984564401 0.036148347387718084 0 -0.0023312871776104251 0.036778645792193511 0 -0.0019212345646513738 0.036280602269213855 0 -0.018919045223148669 0.033511609841734423 0 -0.016693852066055028 0.03168960224374516 0 -0.017058924401394466 0.034263648624471101 0 -0.018451072345338344 0.035415051629020672 0 -0.018919045223148669 0.033511609841734423 0 -0.017058924401394466 0.034263648624471101 0 -0.018919045223148669 0.033511609841734423 0 -0.018955908492627835 0.031655417648738478 0 -0.016693852066055028 0.03168960224374516 0 -0.018955908492627835 0.031655417648738478 0 -0.016693852066055028 0.03168960224374516 0 -0.018042583652189151 0.03016854145657076 0 -0.016693852066055028 0.03168960224374516 0 -0.018042583652189151 0.03016854145657076 0 -0.016284039274363366 0.029090716351972974 0 -0.013765488755637639 0.039729097543540155 0 -0.012313641299704584 0.039206265071601874 0 -0.012812856909719778 0.038215868951247421 0 -0.017457063747778369 0.034180746074607415 0 -0.010700024511197054 0.035092478327562217 0 -0.013765488755637639 0.039729097543540155 0 -0.012313641299704584 0.039206265071601874 0 -0.011542078052324592 0.039843777760807657 0 -0.01959156022668198 0.028793725215192953 0 -0.018042583652189151 0.03016854145657076 0 -0.016284039274363366 0.029090716351972974 0 -0.012313641299704584 0.039206265071601874 0 -0.011542078052324592 0.039843777760807657 0 -0.011482035207126833 0.039464772633708713 0 -0.010700024511197054 0.035092478327562217 0 -0.011117308994537526 0.037861305147655483 0 -0.012313641299704584 0.039206265071601874 0 -0.011482035207126833 0.039464772633708713 0 -0.011847867824096883 0.038775764810162483 0 -0.011482035207126833 0.039464772633708713 0 -0.011313080475188196 0.038833875886819809 0 -0.011847867824096883 0.038775764810162483 0 -0.011523798049243528 0.039824195049164228 0 -0.011482035207126833 0.039464772633708713 0 -0.010532132130137184 0.038929207339852695 0 -0.011482035207126833 0.039464772633708713 0 -0.010532132130137184 0.038929207339852695 0 -0.011313080475188196 0.038833875886819809 0 -0.0021181403901135262 0.037184143465478048 0 -0.0023253739197764954 0.037810085292619582 0 -0.0025662209538529373 0.037413349063251528 0 -0.009257099712814118 0.034042841718764275 0 -0.010700024511197054 0.035092478327562217 0 -0.0030755980026556345 0.037314694926911571 0 -0.0025662209538529373 0.037413349063251528 0 -0.0029553683704061804 0.037760445067752703 0 -0.0023253739197764954 0.037810085292619582 0 -0.0025662209538529373 0.037413349063251528 0 -0.0029553683704061804 0.037760445067752703 0 -0.011523798049243528 0.039824195049164228 0 -0.010532132130137184 0.038929207339852695 0 -0.0095449176084922999 0.039846090152863792 0 -0.010700024511197054 0.035092478327562217 0 -0.0053924389284168307 0.03927452750917193 0 -0.010532132130137184 0.038929207339852695 0 -0.0095449176084922999 0.039846090152863792 0 -0.0086294340700332796 0.03853392207516753 0 -0.007676827612149933 0.039767235897586413 0 -0.0095449176084922999 0.039846090152863792 0 -0.0086294340700332796 0.03853392207516753 0 -0.005759298324081283 0.038669459211940628 0 -0.0053924389284168307 0.03927452750917193 0 -0.0034346241682879932 0.037705773645553504 0 -0.0030755980026556345 0.037314694926911571 0 -0.0029553683704061804 0.037760445067752703 0 -0.0076519082348117384 0.037358477482319727 0 -0.0091299214092419572 0.036986156565859692 0 -0.0086294340700332796 0.03853392207516753 0 -0.0091299214092419572 0.036986156565859692 0 -0.0086294340700332796 0.03853392207516753 0 -0.010017917877881127 0.037839926436628563 0 -0.010532132130137184 0.038929207339852695 0 -0.0086294340700332796 0.03853392207516753 0 -0.010017917877881127 0.037839926436628563 0 -0.010532132130137184 0.038929207339852695 0 -0.010017917877881127 0.037839926436628563 0 -0.011392123028190123 0.038176344446217529 0 -0.010017917877881127 0.037839926436628563 0 -0.010648265385612886 0.037050114525854057 0 -0.011392123028190123 0.038176344446217529 0 -0.0091299214092419572 0.036986156565859692 0 -0.010017917877881127 0.037839926436628563 0 -0.010648265385612886 0.037050114525854057 0 -0.010648265385612886 0.037050114525854057 0 -0.011392123028190123 0.038176344446217529 0 -0.01201713863629942 0.036643372787741671 0 -0.010532132130137184 0.038929207339852695 0 -0.011313080475188196 0.038833875886819809 0 -0.011392123028190123 0.038176344446217529 0 -0.011313080475188196 0.038833875886819809 0 -0.011847867824096883 0.038775764810162483 0 -0.011392123028190123 0.038176344446217529 0 -0.011847867824096883 0.038775764810162483 0 -0.011392123028190123 0.038176344446217529 0 -0.012812856909719778 0.038215868951247421 0 -0.012313641299704584 0.039206265071601874 0 -0.011847867824096883 0.038775764810162483 0 -0.012812856909719778 0.038215868951247421 0 -0.011392123028190123 0.038176344446217529 0 -0.012812856909719778 0.038215868951247421 0 -0.01201713863629942 0.036643372787741671 0 -0.012812856909719778 0.038215868951247421 0 -0.01201713863629942 0.036643372787741671 0 -0.013523038668239533 0.037160510142792126 0 -0.01201713863629942 0.036643372787741671 0 -0.012157598335669631 0.03500001359991689 0 -0.013473284669400846 0.036098422142393241 0 -0.01201713863629942 0.036643372787741671 0 -0.013523038668239533 0.037160510142792126 0 -0.013473284669400846 0.036098422142393241 0 -0.012157598335669631 0.03500001359991689 0 -0.01131088700917285 0.035701907718198637 0 -0.010496158179184043 0.034999887352921005 0 -0.01201713863629942 0.036643372787741671 0 -0.012157598335669631 0.03500001359991689 0 -0.01131088700917285 0.035701907718198637 0 -0.01201713863629942 0.036643372787741671 0 -0.01131088700917285 0.035701907718198637 0 -0.010473859975704184 0.036229591190023981 0 -0.01189568222784676 0.036610520006931893 0 -0.010342189330874045 0.036056027037576419 0 -0.010648265385612886 0.037050114525854057 0 -0.01201713863629942 0.036643372787741671 0 -0.010175639400547547 0.035861885633665894 0 -0.0091299214092419572 0.036986156565859692 0 -0.010648265385612886 0.037050114525854057 0 -0.010175639400547547 0.035861885633665894 0 -0.010473859975704184 0.036229591190023981 0 -0.010496158179184043 0.034999887352921005 0 -0.0088136639604029805 0.035648120225738121 0 -0.01131088700917285 0.035701907718198637 0 -0.010473859975704184 0.036229591190023981 0 -0.010496158179184043 0.034999887352921005 0 -0.010496158179184043 0.034999887352921005 0 -0.0088346251699099286 0.035000003941266171 0 -0.0088136639604029805 0.035648120225738121 0 -0.010342189330874045 0.036056027037576419 0 -0.0086629112993382041 0.0355034635400319 0 -0.010175639400547547 0.035861885633665894 0 -0.0084924418259013836 0.035359050534763681 0 -0.0085170110415670047 0.036277675540640174 0 -0.0091299214092419572 0.036986156565859692 0 -0.010175639400547547 0.035861885633665894 0 -0.0085170110415670047 0.036277675540640174 0 -0.01558168555025571 0.038439191831769595 0 -0.015178008279086745 0.036623774211380015 0 -0.017021486088261751 0.037064210782114387 0 -0.016592889049669674 0.038013245833918345 0 -0.016112149657536674 0.036692422149524853 0 -0.016592889049669674 0.038013245833918345 0 -0.014777369741957185 0.036672335513005035 0 -0.016112149657536674 0.036692422149524853 0 -0.017021486088261751 0.037064210782114387 0 -0.017791315752527195 0.037367697945867168 0 -0.016592889049669674 0.038013245833918345 0 -0.017533095012153478 0.036789407677396233 0 -0.017791315752527195 0.037367697945867168 0 -0.018106697587356939 0.036456763982462628 0 -0.017021486088261751 0.037064210782114387 0 -0.017533095012153478 0.036789407677396233 0 -0.017791315752527195 0.037367697945867168 0 -0.017791315752527195 0.037367697945867168 0 -0.016592889049669674 0.038013245833918345 0 -0.01816520422093261 0.038079546751220772 0 -0.016592889049669674 0.038013245833918345 0 -0.01816520422093261 0.038079546751220772 0 -0.01827605016994828 0.039259686521965848 0 -0.01558168555025571 0.038439191831769595 0 -0.023828311811640874 0.035528434774370017 0 -0.015965011620405561 0.039596052191365444 0 -0.016477963368055532 0.037964631856885978 0 -0.01456592491718408 0.038226553164067895 0 -0.013765488755637639 0.039729097543540155 0 -0.012812856909719778 0.038215868951247421 0 -0.01456592491718408 0.038226553164067895 0 -0.012812856909719778 0.038215868951247421 0 -0.01456592491718408 0.038226553164067895 0 -0.013523038668239533 0.037160510142792126 0 -0.01456592491718408 0.038226553164067895 0 -0.013523038668239533 0.037160510142792126 0 -0.014777369741957185 0.036672335513005035 0 -0.016477963368055532 0.037964631856885978 0 -0.01456592491718408 0.038226553164067895 0 -0.014777369741957185 0.036672335513005035 0 -0.014777369741957185 0.036672335513005035 0 -0.015213642339091865 0.035505135096568892 0 -0.016112149657536674 0.036692422149524853 0 -0.014777369741957185 0.036672335513005035 0 -0.013473284669400846 0.036098422142393241 0 -0.015213642339091865 0.035505135096568892 0 -0.013523038668239533 0.037160510142792126 0 -0.014777369741957185 0.036672335513005035 0 -0.013473284669400846 0.036098422142393241 0 -0.013473284669400846 0.036098422142393241 0 -0.013818880923049325 0.034999448612121793 0 -0.015213642339091865 0.035505135096568892 0 -0.012157598335669631 0.03500001359991689 0 -0.013473284669400846 0.036098422142393241 0 -0.013818880923049325 0.034999448612121793 0 -0.01381904670384535 0.034999998535978571 0 -0.015210275268294332 0.035803538159267831 0 -0.015458744536486956 0.034999996883495366 0 -0.013819395182462684 0.035000129814014021 0 -0.015222294132882553 0.035679976652785404 0 -0.015210275268294332 0.035803538159267831 0 -0.015458744536486956 0.034999996883495366 0 -0.016213923531619826 0.035673154393764894 0 -0.015458744536486956 0.034999996883495366 0 -0.016213923531619826 0.035673154393764894 0 -0.01709843768135666 0.034999996843680062 0 -0.015210275268294332 0.035803538159267831 0 -0.016213923531619826 0.035673154393764894 0 -0.016599471055190253 0.036605148391022704 0 -0.015213642339091865 0.035505135096568892 0 -0.016112149657536674 0.036692422149524853 0 -0.016736533998893431 0.036220409144244868 0 -0.015222294132882553 0.035679976652785404 0 -0.016717904143512503 0.036296080253535604 0 -0.01629436322278351 0.036577342063675682 0 -0.016717904143512503 0.036296080253535604 0 -0.017533095012153478 0.036789407677396233 0 -0.017146531873468512 0.036283609760669383 0 -0.018106697587356939 0.036456763982462628 0 -0.017021486088261751 0.037064210782114387 0 -0.016112149657536674 0.036692422149524853 0 -0.017146531873468512 0.036283609760669383 0 -0.017021486088261751 0.037064210782114387 0 -0.017533095012153478 0.036789407677396233 0 -0.017146531873468512 0.036283609760669383 0 -0.016112149657536674 0.036692422149524853 0 -0.017146531873468512 0.036283609760669383 0 -0.016899460367541499 0.036136761304581717 0 -0.016813154488329436 0.036324048592301775 0 -0.016717904143512503 0.036296080253535604 0 -0.017146531873468512 0.036283609760669383 0 -0.018024504757110527 0.035530964287361619 0 -0.018106697587356939 0.036456763982462628 0 -0.017146531873468512 0.036283609760669383 0 -0.016958738629226464 0.036173785717856288 0 -0.018024504757110527 0.035530964287361619 0 -0.016717904143512503 0.036296080253535604 0 -0.017830890633195321 0.035671826687608869 0 -0.016599471055190253 0.036605148391022704 0 -0.016894820382257477 0.03577051741107673 0 -0.017667368158958797 0.035803143240276177 0 -0.016213923531619826 0.035673154393764894 0 -0.016599471055190253 0.036605148391022704 0 -0.016894820382257477 0.03577051741107673 0 -0.016213923531619826 0.035673154393764894 0 -0.016894820382257477 0.03577051741107673 0 -0.01709843768135666 0.034999996843680062 0 -0.016894820382257477 0.03577051741107673 0 -0.01709843768135666 0.034999996843680062 0 -0.017667368158958797 0.035803143240276177 0 -0.018024504757110527 0.035530964287361619 0 -0.018739187443280399 0.03499961154528098 0 -0.018751636661518953 0.036007339333047395 0 -0.01709843768135666 0.034999996843680062 0 -0.017667368158958797 0.035803143240276177 0 -0.018738131461228581 0.034999998015064759 0 -0.017830890633195321 0.035671826687608869 0 -0.018737915138621924 0.035000163937806257 0 -0.018739187443280399 0.03499961154528098 0 -0.018751636661518953 0.036007339333047395 0 -0.019997014534703254 0.036113768238702153 0 -0.018751636661518953 0.036007339333047395 0 -0.018913471151274276 0.037129860367657953 0 -0.019997014534703254 0.036113768238702153 0 -0.018751636661518953 0.036007339333047395 0 -0.018106697587356939 0.036456763982462628 0 -0.018913471151274276 0.037129860367657953 0 -0.018024504757110527 0.035530964287361619 0 -0.018751636661518953 0.036007339333047395 0 -0.018106697587356939 0.036456763982462628 0 -0.017791315752527195 0.037367697945867168 0 -0.018106697587356939 0.036456763982462628 0 -0.018913471151274276 0.037129860367657953 0 -0.017791315752527195 0.037367697945867168 0 -0.018913471151274276 0.037129860367657953 0 -0.01816520422093261 0.038079546751220772 0 -0.018913471151274276 0.037129860367657953 0 -0.01991111470039094 0.037595382619409458 0 -0.019129612478367336 0.038273223124705921 0 -0.018913471151274276 0.037129860367657953 0 -0.01991111470039094 0.037595382619409458 0 -0.019997014534703254 0.036113768238702153 0 -0.01991111470039094 0.037595382619409458 0 -0.019129612478367336 0.038273223124705921 0 -0.02031577182844747 0.038987708022992729 0 -0.019129612478367336 0.038273223124705921 0 -0.01816520422093261 0.038079546751220772 0 -0.01827605016994828 0.039259686521965848 0 -0.018913471151274276 0.037129860367657953 0 -0.019129612478367336 0.038273223124705921 0 -0.01816520422093261 0.038079546751220772 0 -0.021104058741171931 0.037343553017792498 0 -0.022482112897417805 0.036660512372969224 0 -0.022476341839352189 0.038479054950731652 0 -0.021104058741171931 0.037343553017792498 0 -0.022476341839352189 0.038479054950731652 0 -0.02031577182844747 0.038987708022992729 0 -0.01991111470039094 0.037595382619409458 0 -0.021104058741171931 0.037343553017792498 0 -0.02031577182844747 0.038987708022992729 0 -0.01991111470039094 0.037595382619409458 0 -0.021104058741171931 0.037343553017792498 0 -0.019997014534703254 0.036113768238702153 0 -0.021104058741171931 0.037343553017792498 0 -0.021172528931575629 0.036256701115654211 0 -0.022482112897417805 0.036660512372969224 0 -0.021172528931575629 0.036256701115654211 0 -0.021085067743629334 0.034999724922770259 0 -0.022482112897417805 0.036660512372969224 0 -0.018739187443280399 0.03499961154528098 0 -0.019997014534703254 0.036113768238702153 0 -0.021085067743629334 0.034999724922770259 0 -0.021104058741171931 0.037343553017792498 0 -0.021172528931575629 0.036256701115654211 0 -0.019997014534703254 0.036113768238702153 0 -0.021172528931575629 0.036256701115654211 0 -0.019997014534703254 0.036113768238702153 0 -0.021085067743629334 0.034999724922770259 0 -0.021085067743629334 0.034999724922770259 0 -0.024195519604491084 0.035532744971895139 0 -0.024329434575409616 0.034999003976463841 0 -0.021085067743629334 0.034999724922770259 0 -0.024195519604491084 0.035532744971895139 0 -0.023368334195879265 0.036273345420501778 0 -0.021085067743629334 0.034999724922770259 0 -0.023368334195879265 0.036273345420501778 0 -0.022482112897417805 0.036660512372969224 0 -0.024195519604491084 0.035532744971895139 0 -0.023368334195879265 0.036273345420501778 0 -0.024457273631898101 0.036727495796348673 0 -0.024329434575409616 0.034999003976463841 0 -0.026052850805541272 0.035342877851730743 0 -0.028055294147017528 0.035156761218379913 0 -0.026052850805541272 0.035342877851730743 0 -0.027332363494953438 0.03545841057043185 0 -0.028055294147017528 0.035156761218379913 0 -0.024195519604491084 0.035532744971895139 0 -0.024329434575409616 0.034999003976463841 0 -0.026052850805541272 0.035342877851730743 0 -0.024252101872243106 0.035370649975287986 0 -0.024667942134066721 0.037018977693168052 0 -0.026052850805541272 0.035342877851730743 0 -0.027332363494953438 0.03545841057043185 0 -0.025163019364922316 0.036341761794562159 0 -0.024195519604491084 0.035532744971895139 0 -0.026052850805541272 0.035342877851730743 0 -0.025163019364922316 0.036341761794562159 0 -0.027395943322901663 0.036039803215884819 0 -0.027682092249633295 0.034765441980043811 0 -0.027332363494953438 0.03545841057043185 0 -0.028350179662223713 0.034342717883382182 0 -0.02964535254060004 0.033863389824798737 0 -0.024457273631898101 0.036727495796348673 0 -0.024177547722540646 0.037364990913614463 0 -0.024315471110300437 0.03720392377465264 0 -0.027332363494953438 0.03545841057043185 0 -0.025163019364922316 0.036341761794562159 0 -0.025931423702888815 0.038594718882562093 0 -0.024667942134066721 0.037018977693168052 0 -0.027682092249633295 0.034765441980043811 0 -0.024177547722540646 0.037364990913614463 0 -0.024315471110300437 0.03720392377465264 0 -0.024746741840972281 0.037104989702903456 0 -0.02964535254060004 0.033863389824798737 0 -0.028998655409651682 0.033706364286488565 0 -0.02966273414006133 0.033077924723132 0 -0.028350179662223713 0.034342717883382182 0 -0.02964535254060004 0.033863389824798737 0 -0.028998655409651682 0.033706364286488565 0 -0.022482112897417805 0.036660512372969224 0 -0.023828333361006166 0.037083473156145165 0 -0.022476341839352189 0.038479054950731652 0 -0.023368334195879265 0.036273345420501778 0 -0.022482112897417805 0.036660512372969224 0 -0.023828333361006166 0.037083473156145165 0 -0.024457273631898101 0.036727495796348673 0 -0.023828333361006166 0.037083473156145165 0 -0.024315471110300437 0.03720392377465264 0 -0.023368334195879265 0.036273345420501778 0 -0.024457273631898101 0.036727495796348673 0 -0.023828333361006166 0.037083473156145165 0 -0.023828333361006166 0.037083473156145165 0 -0.024315471110300437 0.03720392377465264 0 -0.024746741840972281 0.037104989702903456 0 -0.023828333361006166 0.037083473156145165 0 -0.022476341839352189 0.038479054950731652 0 -0.024746741840972281 0.037104989702903456 0 -0.028940199870511239 0.035693308701940374 0 -0.027127695681216618 0.034921998353533712 0 -0.029901859979253015 0.033185254827128675 0 -0.025490457493180206 0.037046430654308918 0 -0.024738820261694099 0.037128146779020051 0 -0.028940199870511239 0.035693308701940374 0 -0.027127695681216618 0.034921998353533712 0 -0.024746741840972281 0.037104989702903456 0 -0.027127695681216618 0.034921998353533712 0 -0.024746741840972281 0.037104989702903456 0 -0.024365516822751152 0.035598067047427753 0 -0.027127695681216618 0.034921998353533712 0 -0.026501794978724482 0.032566570406498949 0 -0.024365516822751152 0.035598067047427753 0 -0.028268746027498421 0.031260415058257003 0 -0.027575328892292493 0.03214722255181806 0 -0.027127695681216618 0.034921998353533712 0 -0.026501794978724482 0.032566570406498949 0 -0.028739977872902105 0.0321960782383005 0 -0.027127695681216618 0.034921998353533712 0 -0.028739977872902105 0.0321960782383005 0 -0.029901859979253015 0.033185254827128675 0 -0.028998655409651682 0.033706364286488565 0 -0.02966273414006133 0.033077924723132 0 -0.029135707439869041 0.033325171687578765 0 -0.02966273414006133 0.033077924723132 0 -0.029650720958688825 0.032912275508303203 0 -0.029135707439869041 0.033325171687578765 0 -0.024177547722540646 0.037364990913614463 0 -0.024746741840972281 0.037104989702903456 0 -0.024365516822751152 0.035598067047427753 0 -0.027682092249633295 0.034765441980043811 0 -0.030356245358091213 0.03064643496188215 0 -0.027682092249633295 0.034765441980043811 0 -0.027575328892292493 0.03214722255181806 0 -0.030692431104963922 0.029060903557189603 0 -0.030858080162515709 0.029278583586186652 0 -0.030539820830620928 0.029259401346088322 0 -0.030077512855729547 0.029584556000077873 0 -0.030539820830620928 0.029259401346088322 0 -0.030682661523262569 0.029533577383547501 0 -0.030858080162515709 0.029278583586186652 0 -0.030539820830620928 0.029259401346088322 0 -0.030682661523262569 0.029533577383547501 0 -0.030077512855729547 0.029584556000077873 0 -0.030682661523262569 0.029533577383547501 0 -0.03074490677668773 0.029836995932656075 0 -0.030356245358091213 0.03064643496188215 0 -0.030730219692835351 0.031129084785678472 0 -0.030858080162515709 0.029278583586186652 0 -0.030682661523262569 0.029533577383547501 0 -0.031144980641795487 0.029802933183591729 0 -0.02966273414006133 0.033077924723132 0 -0.029650720958688825 0.032912275508303203 0 -0.030338871760482184 0.032490971470027441 0 -0.029650720958688825 0.032912275508303203 0 -0.030338871760482184 0.032490971470027441 0 -0.029713205394635626 0.032608411697798927 0 -0.030730219692835351 0.031129084785678472 0 -0.030851899286483242 0.030284314934578234 0 -0.031144980641795487 0.029802933183591729 0 -0.031107010053307113 0.030063791240059805 0 -0.03074490677668773 0.029836995932656075 0 -0.031144980641795487 0.029802933183591729 0 -0.031107010053307113 0.030063791240059805 0 -0.030987801130424455 0.030310672197253863 0 -0.030682661523262569 0.029533577383547501 0 -0.031144980641795487 0.029802933183591729 0 -0.03074490677668773 0.029836995932656075 0 -0.031107010053307113 0.030063791240059805 0 -0.03074490677668773 0.029836995932656075 0 -0.030328486061045205 0.03045132767674515 0 -0.031107010053307113 0.030063791240059805 0 -0.031510465329719586 0.029771487966836992 0 -0.030328486061045205 0.03045132767674515 0 -0.031510465329719586 0.029771487966836992 0 -0.030328486061045205 0.03045132767674515 0 -0.032504175254250832 0.028625432720354064 0 -0.031510465329719586 0.029771487966836992 0 -0.030987801130424455 0.030310672197253863 0 -0.031293638033082244 0.028851999865403793 0 -0.031107010053307113 0.030063791240059805 0 -0.031510465329719586 0.029771487966836992 0 -0.030987801130424455 0.030310672197253863 0 -0.026501794978724482 0.032566570406498949 0 -0.028739977872902105 0.0321960782383005 0 -0.029111699714639658 0.030737832557529512 0 -0.028739977872902105 0.0321960782383005 0 -0.029111699714639658 0.030737832557529512 0 -0.029379818593513976 0.031284200310709699 0 -0.030077512855729547 0.029584556000077873 0 -0.03074490677668773 0.029836995932656075 0 -0.030328486061045205 0.03045132767674515 0 -0.028268746027498421 0.031260415058257003 0 -0.028923493679506435 0.030786015344232132 0 -0.030077512855729547 0.029584556000077873 0 -0.030328486061045205 0.03045132767674515 0 -0.029111699714639658 0.030737832557529512 0 -0.030328486061045205 0.03045132767674515 0 -0.029111699714639658 0.030737832557529512 0 -0.029675287069888114 0.030627448061584222 0 -0.029111699714639658 0.030737832557529512 0 -0.02967121927815642 0.030839707566089895 0 -0.029675287069888114 0.030627448061584222 0 -0.029111699714639658 0.030737832557529512 0 -0.029379818593513976 0.031284200310709699 0 -0.02967121927815642 0.030839707566089895 0 -0.029926773906452691 0.031801423648002633 0 -0.030388919121802953 0.031606601414871316 0 -0.02967121927815642 0.030839707566089895 0 -0.029379818593513976 0.031284200310709699 0 -0.029926773906452691 0.031801423648002633 0 -0.02967121927815642 0.030839707566089895 0 -0.029926773906452691 0.031801423648002633 0 -0.030576745612545544 0.032127393519234451 0 -0.029901859979253015 0.033185254827128675 0 -0.028739977872902105 0.0321960782383005 0 -0.029926773906452691 0.031801423648002633 0 -0.029901859979253015 0.033185254827128675 0 -0.028739977872902105 0.0321960782383005 0 -0.029379818593513976 0.031284200310709699 0 -0.029926773906452691 0.031801423648002633 0 -0.030576745612545544 0.032127393519234451 0 -0.030826922834490723 0.032443433465979332 0 -0.031056529119227891 0.032217647187226209 0 -0.029926773906452691 0.031801423648002633 0 -0.030576745612545544 0.032127393519234451 0 -0.030388919121802953 0.031606601414871316 0 -0.030576745612545544 0.032127393519234451 0 -0.030388919121802953 0.031606601414871316 0 -0.030826922834490723 0.032443433465979332 0 -0.030388919121802953 0.031606601414871316 0 -0.031408637455426221 0.031651073686004644 0 -0.030325286236445315 0.030568407088299814 0 -0.030388919121802953 0.031606601414871316 0 -0.031408637455426221 0.031651073686004644 0 -0.030826922834490723 0.032443433465979332 0 -0.028096304665733197 0.031089864383149379 0 -0.030572715068700414 0.032117540631629179 0 -0.024634160870444861 0.033410671886836739 0 -0.024906034969627951 0.031602953665411583 0 -0.027047167393203311 0.033506199160914692 0 -0.024634160870444861 0.033410671886836739 0 -0.027047167393203311 0.033506199160914692 0 -0.025495436304564773 0.035038309211493 0 -0.026872840052811063 0.032427588011737826 0 -0.029576529661044789 0.032065828616330665 0 -0.028071275415164847 0.030703533139506124 0 -0.026018731151934267 0.032436899302555208 0 -0.028096304665733197 0.031089864383149379 0 -0.026872840052811063 0.032427588011737826 0 -0.029853164561551723 0.033828702623026584 0 -0.029576529661044789 0.032065828616330665 0 -0.029576529661044789 0.032065828616330665 0 -0.030826922834490723 0.032443433465979332 0 -0.031056529119227891 0.032217647187226209 0 -0.029853164561551723 0.033828702623026584 0 -0.029576529661044789 0.032065828616330665 0 -0.030826922834490723 0.032443433465979332 0 -0.031056529119227891 0.032217647187226209 0 -0.032290573884353788 0.033409612786945965 0 -0.031091461676097342 0.034669800630564324 0 -0.029576529661044789 0.032065828616330665 0 -0.031056529119227891 0.032217647187226209 0 -0.029808594755651369 0.030159054122102708 0 -0.030965491042125315 0.031994066632240421 0 -0.031280845959401817 0.032026345710973986 0 -0.029576529661044789 0.032065828616330665 0 -0.029808594755651369 0.030159054122102708 0 -0.028071275415164847 0.030703533139506124 0 -0.029808594755651369 0.030159054122102708 0 -0.028071275415164847 0.030703533139506124 0 -0.028075228324162847 0.028211268241169277 0 -0.025834268384268246 0.029887039252912778 0 -0.028071275415164847 0.030703533139506124 0 -0.028075228324162847 0.028211268241169277 0 -0.031280845959401817 0.032026345710973986 0 -0.023828311811640874 0.035528434774370017 0 -0.023828311811640874 0.035528434774370017 0 -0.026112049135451721 0.037011979805872952 0 -0.032290573884353788 0.033409612786945965 0 -0.033205597715405891 0.034311416700416528 0 -0.031091461676097342 0.034669800630564324 0 -0.019129612478367336 0.038273223124705921 0 -0.01827605016994828 0.039259686521965848 0 -0.02031577182844747 0.038987708022992729 0 -0.025490457493180206 0.037046430654308918 0 -0.026112049135451721 0.037011979805872952 0 -0.028940199870511239 0.035693308701940374 0 -0.031091461676097342 0.034669800630564324 0 -0.029901859979253015 0.033185254827128675 0 -0.030576745612545544 0.032127393519234451 0 -0.031056529119227891 0.032217647187226209 0 -0.029901859979253015 0.033185254827128675 0 -0.031056529119227891 0.032217647187226209 0 -0.031091461676097342 0.034669800630564324 0 -0.029901859979253015 0.033185254827128675 0 -0.034999668147408812 0.034997061158148206 0 -0.033070531680988231 0.03448501526865623 0 -0.028811704510966624 0.034997135394686484 0 -0.034098059852236809 0.033068335742009208 0 -0.034997443953151013 0.032330391841298774 0 -0.033070531680988231 0.03448501526865623 0 -0.034098059852236809 0.033068335742009208 0 -0.034997443953151013 0.032330391841298774 0 -0.034448817237153671 0.031248881666344708 0 -0.034098059852236809 0.033068335742009208 0 -0.033638383461260822 0.033754275935218896 0 -0.034448817237153671 0.031248881666344708 0 -0.032747577403111516 0.032354375256973184 0 -0.034153230304297129 0.031489519613339526 0 -0.034997443953151013 0.032330391841298774 0 -0.034999668147408812 0.034997061158148206 0 -0.033070531680988231 0.03448501526865623 0 -0.033070531680988231 0.03448501526865623 0 -0.033638383461260822 0.033754275935218896 0 -0.031775102675185393 0.035195633799275608 0 -0.034098059852236809 0.033068335742009208 0 -0.033070531680988231 0.03448501526865623 0 -0.033638383461260822 0.033754275935218896 0 -0.031917021036223167 0.031033459476804352 0 -0.029952216660521981 0.031949491397039627 0 -0.030867307111800669 0.031967217768034267 0 -0.032747577403111516 0.032354375256973184 0 -0.0308865259999806 0.033544890946776096 0 -0.024329434575409616 0.034999003976463841 0 -0.028811704510966624 0.034997135394686484 0 -0.028055294147017528 0.035156761218379913 0 -0.033070531680988231 0.03448501526865623 0 -0.031775102675185393 0.035195633799275608 0 -0.029730449491168986 0.035516691809855588 0 -0.029183125747043185 0.032796311496195427 0 -0.029952216660521981 0.031949491397039627 0 -0.029715963705248271 0.032512659121459425 0 -0.029952216660521981 0.031949491397039627 0 -0.029715963705248271 0.032512659121459425 0 -0.030867307111800669 0.031967217768034267 0 -0.029183125747043185 0.032796311496195427 0 -0.028962933551029059 0.033088904823606928 0 -0.029715963705248271 0.032512659121459425 0 -0.029183125747043185 0.032796311496195427 0 -0.028682783352597163 0.033481020562146691 0 -0.028962933551029059 0.033088904823606928 0 -0.029183125747043185 0.032796311496195427 0 -0.028694193954145325 0.033369507598537941 0 -0.028682783352597163 0.033481020562146691 0 -0.029183125747043185 0.032796311496195427 0 -0.029952216660521981 0.031949491397039627 0 -0.028694193954145325 0.033369507598537941 0 -0.0308865259999806 0.033544890946776096 0 -0.029263075263176362 0.034461781538389455 0 -0.033070531680988231 0.03448501526865623 0 -0.028811704510966624 0.034997135394686484 0 -0.029730449491168986 0.035516691809855588 0 -0.028811704510966624 0.034997135394686484 0 -0.029730449491168986 0.035516691809855588 0 -0.028055294147017528 0.035156761218379913 0 -0.029263075263176362 0.034461781538389455 0 -0.028263891025842789 0.035013087803839625 0 -0.028694193954145325 0.033369507598537941 0 -0.028055294147017528 0.035156761218379913 0 -0.028227804256492243 0.034461523450446452 0 -0.027332363494953438 0.03545841057043185 0 -0.028055294147017528 0.035156761218379913 0 -0.028227804256492243 0.034461523450446452 0 -0.027332363494953438 0.03545841057043185 0 -0.028350179662223713 0.034342717883382182 0 -0.028227804256492243 0.034461523450446452 0 -0.028350179662223713 0.034342717883382182 0 -0.028227804256492243 0.034461523450446452 0 -0.028617952659095183 0.033810185621072963 0 -0.028694193954145325 0.033369507598537941 0 -0.028227804256492243 0.034461523450446452 0 -0.028682783352597163 0.033481020562146691 0 -0.028227804256492243 0.034461523450446452 0 -0.028682783352597163 0.033481020562146691 0 -0.028617952659095183 0.033810185621072963 0 -0.028682783352597163 0.033481020562146691 0 -0.028617952659095183 0.033810185621072963 0 -0.028962933551029059 0.033088904823606928 0 -0.028617952659095183 0.033810185621072963 0 -0.029135707439869041 0.033325171687578765 0 -0.028962933551029059 0.033088904823606928 0 -0.028998655409651682 0.033706364286488565 0 -0.028617952659095183 0.033810185621072963 0 -0.029135707439869041 0.033325171687578765 0 -0.028350179662223713 0.034342717883382182 0 -0.028998655409651682 0.033706364286488565 0 -0.028617952659095183 0.033810185621072963 0 -0.029135707439869041 0.033325171687578765 0 -0.028962933551029059 0.033088904823606928 0 -0.029339445957340754 0.032944552429498404 0 -0.029650720958688825 0.032912275508303203 0 -0.029135707439869041 0.033325171687578765 0 -0.029339445957340754 0.032944552429498404 0 -0.028962933551029059 0.033088904823606928 0 -0.029214009155803227 0.032881859624851129 0 -0.029457535053599035 0.032802479123544927 0 -0.028962933551029059 0.033088904823606928 0 -0.029214009155803227 0.032881859624851129 0 -0.029339445957340754 0.032944552429498404 0 -0.029214009155803227 0.032881859624851129 0 -0.029270362492669653 0.032722954224218434 0 -0.029339445957340754 0.032944552429498404 0 -0.029214009155803227 0.032881859624851129 0 -0.029270362492669653 0.032722954224218434 0 -0.029457535053599035 0.032802479123544927 0 -0.029270362492669653 0.032722954224218434 0 -0.029339445957340754 0.032944552429498404 0 -0.029713205394635626 0.032608411697798927 0 -0.029650720958688825 0.032912275508303203 0 -0.029339445957340754 0.032944552429498404 0 -0.029713205394635626 0.032608411697798927 0 -0.030338871760482184 0.032490971470027441 0 -0.029867962380289857 0.031884670886884764 0 -0.030987801130424455 0.030310672197253863 0 -0.030338871760482184 0.032490971470027441 0 -0.029713205394635626 0.032608411697798927 0 -0.029867962380289857 0.031884670886884764 0 -0.029270362492669653 0.032722954224218434 0 -0.029713205394635626 0.032608411697798927 0 -0.029867962380289857 0.031884670886884764 0 -0.02988987380491424 0.02963821180320703 0 -0.030987801130424455 0.030310672197253863 0 -0.031293638033082244 0.028851999865403793 0 -0.029867962380289857 0.031884670886884764 0 -0.02988987380491424 0.02963821180320703 0 -0.030987801130424455 0.030310672197253863 0 -0.029867962380289857 0.031884670886884764 0 -0.02988987380491424 0.02963821180320703 0 -0.02842637017262287 0.030727187762393467 0 -0.02988987380491424 0.02963821180320703 0 -0.02842637017262287 0.030727187762393467 0 -0.028081156759198839 0.028504236176929171 0 -0.029270362492669653 0.032722954224218434 0 -0.029867962380289857 0.031884670886884764 0 -0.029255457515678398 0.033085299479036864 0 -0.029842109968400702 0.031968326328320779 0 -0.029046780161089802 0.031898481491625094 0 -0.029270362492669653 0.032722954224218434 0 -0.029255457515678398 0.033085299479036864 0 -0.029457535053599035 0.032802479123544927 0 -0.029255457515678398 0.033085299479036864 0 -0.03021625732476654 0.033192119208129645 0 -0.029457535053599035 0.032802479123544927 0 -0.02842637017262287 0.030727187762393467 0 -0.02627552010952542 0.029846034589697566 0 -0.028081156759198839 0.028504236176929171 0 -0.029046780161089802 0.031898481491625094 0 -0.02765645439657316 0.03233135731336656 0 -0.030188411433232219 0.03406825414829763 0 -0.03021625732476654 0.033192119208129645 0 -0.031098041225791389 0.033630352955571111 0 -0.029255457515678398 0.033085299479036864 0 -0.030188411433232219 0.03406825414829763 0 -0.03021625732476654 0.033192119208129645 0 -0.029457535053599035 0.032802479123544927 0 -0.029715963705248271 0.032512659121459425 0 -0.03068311076642237 0.032564991677699072 0 -0.03021625732476654 0.033192119208129645 0 -0.029457535053599035 0.032802479123544927 0 -0.03068311076642237 0.032564991677699072 0 -0.028962933551029059 0.033088904823606928 0 -0.029457535053599035 0.032802479123544927 0 -0.029715963705248271 0.032512659121459425 0 -0.029715963705248271 0.032512659121459425 0 -0.030867307111800669 0.031967217768034267 0 -0.03068311076642237 0.032564991677699072 0 -0.031917021036223167 0.031033459476804352 0 -0.030867307111800669 0.031967217768034267 0 -0.032801710154545922 0.03149157778620755 0 -0.030867307111800669 0.031967217768034267 0 -0.032801710154545922 0.03149157778620755 0 -0.032040536679744637 0.032101070859566545 0 -0.031917021036223167 0.031033459476804352 0 -0.032801710154545922 0.03149157778620755 0 -0.034448817237153671 0.031248881666344708 0 -0.032040536679744637 0.032101070859566545 0 -0.032545300372903624 0.032631088301287157 0 -0.034608553454081925 0.030559897215620302 0 -0.032801710154545922 0.03149157778620755 0 -0.032040536679744637 0.032101070859566545 0 -0.034608553454081925 0.030559897215620302 0 -0.032040536679744637 0.032101070859566545 0 -0.031528089531059608 0.032927584752760919 0 -0.032545300372903624 0.032631088301287157 0 -0.032040536679744637 0.032101070859566545 0 -0.03068311076642237 0.032564991677699072 0 -0.031528089531059608 0.032927584752760919 0 -0.030867307111800669 0.031967217768034267 0 -0.032040536679744637 0.032101070859566545 0 -0.03068311076642237 0.032564991677699072 0 -0.03021625732476654 0.033192119208129645 0 -0.03068311076642237 0.032564991677699072 0 -0.031528089531059608 0.032927584752760919 0 -0.03021625732476654 0.033192119208129645 0 -0.031528089531059608 0.032927584752760919 0 -0.031098041225791389 0.033630352955571111 0 -0.031528089531059608 0.032927584752760919 0 -0.031098041225791389 0.033630352955571111 0 -0.032008819507100786 0.033615632763836306 0 -0.030188411433232219 0.03406825414829763 0 -0.031098041225791389 0.033630352955571111 0 -0.031432281135184953 0.034154305853377399 0 -0.030188411433232219 0.03406825414829763 0 -0.031432281135184953 0.034154305853377399 0 -0.031683712026482298 0.034883176348158684 0 -0.02765645439657316 0.03233135731336656 0 -0.03161976029351387 0.027574252573654021 0 -0.031098041225791389 0.033630352955571111 0 -0.031432281135184953 0.034154305853377399 0 -0.032008819507100786 0.033615632763836306 0 -0.032330157719634246 0.034508075681082939 0 -0.032008819507100786 0.033615632763836306 0 -0.033331502795064992 0.033367732910604166 0 -0.03461113604606305 0.029271091282026377 0 -0.034049631206075549 0.031902445364327216 0 -0.031432281135184953 0.034154305853377399 0 -0.032330157719634246 0.034508075681082939 0 -0.031683712026482298 0.034883176348158684 0 -0.03461113604606305 0.029271091282026377 0 -0.03161976029351387 0.027574252573654021 0 -0.031432281135184953 0.034154305853377399 0 -0.032330157719634246 0.034508075681082939 0 -0.032008819507100786 0.033615632763836306 0 -0.031528089531059608 0.032927584752760919 0 -0.032008819507100786 0.033615632763836306 0 -0.032545300372903624 0.032631088301287157 0 -0.032008819507100786 0.033615632763836306 0 -0.032545300372903624 0.032631088301287157 0 -0.033331502795064992 0.033367732910604166 0 -0.032545300372903624 0.032631088301287157 0 -0.033331502795064992 0.033367732910604166 0 -0.034608553454081925 0.030559897215620302 0 -0.034796261170146205 0.029479578539617472 0 -0.035198421715042685 0.029663953367268465 0 -0.034608553454081925 0.030559897215620302 0 -0.035568346936339659 0.028912719218831234 0 -0.034796261170146205 0.029479578539617472 0 -0.035198421715042685 0.029663953367268465 0 -0.037523332296054708 0.026548954748734595 0 -0.036286110508358449 0.027537142623199434 0 -0.036315567082986569 0.026566544781682147 0 -0.03461113604606305 0.029271091282026377 0 -0.035919805293279393 0.028176147589397533 0 -0.036286110508358449 0.027537142623199434 0 -0.036315567082986569 0.026566544781682147 0 -0.034999978301309194 0.026726459041985336 0 -0.034796261170146205 0.029479578539617472 0 -0.034997421750824091 0.028573729460859201 0 -0.034608553454081925 0.030559897215620302 0 -0.035919805293279393 0.028176147589397533 0 -0.034999470775225944 0.028566880908564542 0 -0.036286110508358449 0.027537142623199434 0 -0.034999978301309194 0.026726459041985336 0 -0.034999987047906758 0.028566268021874119 0 -0.034997421750824091 0.028573729460859201 0 -0.034608553454081925 0.030559897215620302 0 -0.034448817237153671 0.031248881666344708 0 -0.034997443953151013 0.032330391841298774 0 -0.034997421750824091 0.028573729460859201 0 -0.034448817237153671 0.031248881666344708 0 -0.034049631206075549 0.031902445364327216 0 -0.03467836171355658 0.030501708464429858 0 -0.032801710154545922 0.03149157778620755 0 -0.034608553454081925 0.030559897215620302 0 -0.034448817237153671 0.031248881666344708 0 -0.03550961289505563 0.022234225790856151 0 -0.034999579059484733 0.023179753537335951 0 -0.034999656687439221 0.021472561770623223 0 -0.03550961289505563 0.022234225790856151 0 -0.035704414590289217 0.023303546286332077 0 -0.036012402660765302 0.022120005534778574 0 -0.035704414590289217 0.023303546286332077 0 -0.034999579059484733 0.023179753537335951 0 -0.034999822252880425 0.024884168647790576 0 -0.03550961289505563 0.022234225790856151 0 -0.035704414590289217 0.023303546286332077 0 -0.034999579059484733 0.023179753537335951 0 -0.034999762286222431 0.024886367227008974 0 -0.036250709965337642 0.024938631595018801 0 -0.035704414590289217 0.023303546286332077 0 -0.034999822252880425 0.024884168647790576 0 -0.035617855705743454 0.024254875702474241 0 -0.034999978301309194 0.026726459041985336 0 -0.034999973581099346 0.024886725606234453 0 -0.036428471702787145 0.025453283368577936 0 -0.036315567082986569 0.026566544781682147 0 -0.034999978301309194 0.026726459041985336 0 -0.036428471702787145 0.025453283368577936 0 -0.037523332296054708 0.026548954748734595 0 -0.036315567082986569 0.026566544781682147 0 -0.036428471702787145 0.025453283368577936 0 -0.035704414590289217 0.023303546286332077 0 -0.035617855705743454 0.024254875702474241 0 -0.036023986987872812 0.023568946056095951 0 -0.036023986987872812 0.023568946056095951 0 -0.036256646672413143 0.024264561633594965 0 -0.036491393622521968 0.023123683490369803 0 -0.036023986987872812 0.023568946056095951 0 -0.036491393622521968 0.023123683490369803 0 -0.036138190403584416 0.022742596711099908 0 -0.037523332296054708 0.026548954748734595 0 -0.036428471702787145 0.025453283368577936 0 -0.037802242310039001 0.025984034104063667 0 -0.035617855705743454 0.024254875702474241 0 -0.036023986987872812 0.023568946056095951 0 -0.036256646672413143 0.024264561633594965 0 -0.036250709965337642 0.024938631595018801 0 -0.035559134391076185 0.025006136774343928 0 -0.034097952581362452 0.02799241997960435 0 -0.034428125405132431 0.027323786023240534 0 -0.034780585889076135 0.027451478550525588 0 -0.03461113604606305 0.029271091282026377 0 -0.035559134391076185 0.025006136774343928 0 -0.035559134391076185 0.025006136774343928 0 -0.03161976029351387 0.027574252573654021 0 -0.03161976029351387 0.027574252573654021 0 -0.030703110357621115 0.023697976886021228 0 -0.035971502849083452 0.020764807266628781 0 -0.035935122110568103 0.020787121781011279 0 -0.035761935168409198 0.020724517675493055 0 -0.02627552010952542 0.029846034589697566 0 -0.024119572079460711 0.028977294510191168 0 -0.026008029186853868 0.027393455052566445 0 -0.035972091822156195 0.020752201949902706 0 -0.035971502849083452 0.020764807266628781 0 -0.035935122110568103 0.020787121781011279 0 -0.035559134391076185 0.025006136774343928 0 -0.036404424419842166 0.021503593566272534 0 -0.035935122110568103 0.020787121781011279 0 -0.036019773497893925 0.02091988216536831 0 -0.035761935168409198 0.020724517675493055 0 -0.035972091822156195 0.020752201949902706 0 -0.035935122110568103 0.020787121781011279 0 -0.036019773497893925 0.02091988216536831 0 -0.036404424419842166 0.021503593566272534 0 -0.035952003358032489 0.02218833522589761 0 -0.036012402660765302 0.022120005534778574 0 -0.036036341123523441 0.021870613963415948 0 -0.036084034491578085 0.021498772665424635 0 -0.036491393622521968 0.023123683490369803 0 -0.036138190403584416 0.022742596711099908 0 -0.036036341123523441 0.021870613963415948 0 -0.036138190403584416 0.022742596711099908 0 -0.036012402660765302 0.022120005534778574 0 -0.036036341123523441 0.021870613963415948 0 -0.035704414590289217 0.023303546286332077 0 -0.036138190403584416 0.022742596711099908 0 -0.036012402660765302 0.022120005534778574 0 -0.035704414590289217 0.023303546286332077 0 -0.036023986987872812 0.023568946056095951 0 -0.036138190403584416 0.022742596711099908 0 -0.036036341123523441 0.021870613963415948 0 -0.034739685276780209 0.021006286110764938 0 -0.03498820818779573 0.022113812560383087 0 -0.034739685276780209 0.021006286110764938 0 -0.033829430701031706 0.022317247190332349 0 -0.03498820818779573 0.022113812560383087 0 -0.036019773497893925 0.02091988216536831 0 -0.036036341123523441 0.021870613963415948 0 -0.035671409306404181 0.021147112363233134 0 -0.036036341123523441 0.021870613963415948 0 -0.034739685276780209 0.021006286110764938 0 -0.035671409306404181 0.021147112363233134 0 -0.036019773497893925 0.02091988216536831 0 -0.035671409306404181 0.021147112363233134 0 -0.035761935168409198 0.020724517675493055 0 -0.034739685276780209 0.021006286110764938 0 -0.035671409306404181 0.021147112363233134 0 -0.035761935168409198 0.020724517675493055 0 -0.02627552010952542 0.029846034589697566 0 -0.026008029186853868 0.027393455052566445 0 -0.028081156759198839 0.028504236176929171 0 -0.028162926818174741 0.025418713545825054 0 -0.026008029186853868 0.027393455052566445 0 -0.028081156759198839 0.028504236176929171 0 -0.031501592633802471 0.023301843468003042 0 -0.030703110357621115 0.023697976886021228 0 -0.028162926818174741 0.025418713545825054 0 -0.030232493331711772 0.027572167377447845 0 -0.03136105548207016 0.025454868874964856 0 -0.028162926818174741 0.025418713545825054 0 -0.028081156759198839 0.028504236176929171 0 -0.030232493331711772 0.027572167377447845 0 -0.02988987380491424 0.02963821180320703 0 -0.028081156759198839 0.028504236176929171 0 -0.030232493331711772 0.027572167377447845 0 -0.02988987380491424 0.02963821180320703 0 -0.030232493331711772 0.027572167377447845 0 -0.031293638033082244 0.028851999865403793 0 -0.030232493331711772 0.027572167377447845 0 -0.031293638033082244 0.028851999865403793 0 -0.031712704524957877 0.027076581878381457 0 -0.030232493331711772 0.027572167377447845 0 -0.031712704524957877 0.027076581878381457 0 -0.03136105548207016 0.025454868874964856 0 -0.031712704524957877 0.027076581878381457 0 -0.03136105548207016 0.025454868874964856 0 -0.032885195580951883 0.024664785752898759 0 -0.03136105548207016 0.025454868874964856 0 -0.032477230294860514 0.022693544503349403 0 -0.032885195580951883 0.024664785752898759 0 -0.031501592633802471 0.023301843468003042 0 -0.032374740443288523 0.022695387489963532 0 -0.028162926818174741 0.025418713545825054 0 -0.03136105548207016 0.025454868874964856 0 -0.032477230294860514 0.022693544503349403 0 -0.034739685276780209 0.021006286110764938 0 -0.033829430701031706 0.022317247190332349 0 -0.032477230294860514 0.022693544503349403 0 -0.033829430701031706 0.022317247190332349 0 -0.032477230294860514 0.022693544503349403 0 -0.033219586072716724 0.022173207131213589 0 -0.028610252003799349 0.028955465157260246 0 -0.028988144793869765 0.029810879508496032 0 -0.02908178620923392 0.029040779281492856 0 -0.030943547630547824 0.025486998289645135 0 -0.030883191089300079 0.027201819889327416 0 -0.032477230294860514 0.022693544503349403 0 -0.033219586072716724 0.022173207131213589 0 -0.032885195580951883 0.024664785752898759 0 -0.028610252003799349 0.028955465157260246 0 -0.028731694274200539 0.02817070957816923 0 -0.029082488783843181 0.028579670895269103 0 -0.028610252003799349 0.028955465157260246 0 -0.02908178620923392 0.029040779281492856 0 -0.029082488783843181 0.028579670895269103 0 -0.033829430701031706 0.022317247190332349 0 -0.035178474193568565 0.021979588563414545 0 -0.03498820818779573 0.022113812560383087 0 -0.030943547630547824 0.025486998289645135 0 -0.031355171786334977 0.025243897144021307 0 -0.033829430701031706 0.022317247190332349 0 -0.033219586072716724 0.022173207131213589 0 -0.035178474193568565 0.021979588563414545 0 -0.028610252003799349 0.028955465157260246 0 -0.028201075265838746 0.02814882253000003 0 -0.028731694274200539 0.02817070957816923 0 -0.028731694274200539 0.02817070957816923 0 -0.029082488783843181 0.028579670895269103 0 -0.029098941651035968 0.028209012254929913 0 -0.028731694274200539 0.02817070957816923 0 -0.028683940351233752 0.027728753002732868 0 -0.029013517614192904 0.027752584199576286 0 -0.028731694274200539 0.02817070957816923 0 -0.029098941651035968 0.028209012254929913 0 -0.029013517614192904 0.027752584199576286 0 -0.028731694274200539 0.02817070957816923 0 -0.028683940351233752 0.027728753002732868 0 -0.028372884433934046 0.027761998456991246 0 -0.028683940351233752 0.027728753002732868 0 -0.028703116440480271 0.027404690159047611 0 -0.028388360374260648 0.027486821167114841 0 -0.028683940351233752 0.027728753002732868 0 -0.028703116440480271 0.027404690159047611 0 -0.029013517614192904 0.027752584199576286 0 -0.028703116440480271 0.027404690159047611 0 -0.028379883934444242 0.027204398718531368 0 -0.029328628689196414 0.026942656141900678 0 -0.033126585542985788 0.019571110874406543 0 -0.033343445233994386 0.019794921865248685 0 -0.028703116440480271 0.027404690159047611 0 -0.029013517614192904 0.027752584199576286 0 -0.029328628689196414 0.026942656141900678 0 -0.03682226439032734 0.012496895277012889 0 -0.036699233433069987 0.012733357626785274 0 -0.037469222824844967 0.012626148045595843 0 -0.028389352854641416 0.02720425968540232 0 -0.028391369471133146 0.027272026617427805 0 -0.027801288382497999 0.027265422134466758 0 -0.028391369471133146 0.027272026617427805 0 -0.028388360374260648 0.027486821167114841 0 -0.027801288382497999 0.027265422134466758 0 -0.033126585542985788 0.019571110874406543 0 -0.033955707902855368 0.022590740392067571 0 -0.028703116440480271 0.027404690159047611 0 -0.028379883934444242 0.027204398718531368 0 -0.028391369471133146 0.027272026617427805 0 -0.028703116440480271 0.027404690159047611 0 -0.028391369471133146 0.027272026617427805 0 -0.028388360374260648 0.027486821167114841 0 -0.033126585542985788 0.019571110874406543 0 -0.033013276784085534 0.020709435156913029 0 -0.028388360374260648 0.027486821167114841 0 -0.028372884433934046 0.027761998456991246 0 -0.027801288382497999 0.027265422134466758 0 -0.028201075265838746 0.02814882253000003 0 -0.028372884433934046 0.027761998456991246 0 -0.027801288382497999 0.027265422134466758 0 -0.028201075265838746 0.02814882253000003 0 -0.028731694274200539 0.02817070957816923 0 -0.028372884433934046 0.027761998456991246 0 -0.028683940351233752 0.027728753002732868 0 -0.028388360374260648 0.027486821167114841 0 -0.028372884433934046 0.027761998456991246 0 -0.031355171786334977 0.025243897144021307 0 -0.033955707902855368 0.022590740392067571 0 -0.035178474193568565 0.021979588563414545 0 -0.035869433562781855 0.021400916645919876 0 -0.036055983507333494 0.021080231484589377 0 -0.038727074450527095 0.018113762909141934 0 -0.036219389482981292 0.018471722584282708 0 -0.037037959618667765 0.016875552833323346 0 -0.033955707902855368 0.022590740392067571 0 -0.036432672648228075 0.017230212793325005 0 -0.036219389482981292 0.018471722584282708 0 -0.035110561694697798 0.016535880531440506 0 -0.037037959618667765 0.016875552833323346 0 -0.033955707902855368 0.022590740392067571 0 -0.037337702696406967 0.020486858323233655 0 -0.036351378223018142 0.020501554655299663 0 -0.036364193903571068 0.019684258825671409 0 -0.036933551982390483 0.019359831665852832 0 -0.037457452068721274 0.02036682089416654 0 -0.036351378223018142 0.020501554655299663 0 -0.036933551982390483 0.019359831665852832 0 -0.035869433562781855 0.021400916645919876 0 -0.036055983507333494 0.021080231484589377 0 -0.036351378223018142 0.020501554655299663 0 -0.035869433562781855 0.021400916645919876 0 -0.036351378223018142 0.020501554655299663 0 -0.036164436403319546 0.02074185278667854 0 -0.035869433562781855 0.021400916645919876 0 -0.036061435482447647 0.021375386154581458 0 -0.036164436403319546 0.02074185278667854 0 -0.035869433562781855 0.021400916645919876 0 -0.035695056171158285 0.021783656352094817 0 -0.036061435482447647 0.021375386154581458 0 -0.035178474193568565 0.021979588563414545 0 -0.035869433562781855 0.021400916645919876 0 -0.035695056171158285 0.021783656352094817 0 -0.035178474193568565 0.021979588563414545 0 -0.03498820818779573 0.022113812560383087 0 -0.035695056171158285 0.021783656352094817 0 -0.036036341123523441 0.021870613963415948 0 -0.035695056171158285 0.021783656352094817 0 -0.036061435482447647 0.021375386154581458 0 -0.036036341123523441 0.021870613963415948 0 -0.03498820818779573 0.022113812560383087 0 -0.035695056171158285 0.021783656352094817 0 -0.036036341123523441 0.021870613963415948 0 -0.036084034491578085 0.021498772665424635 0 -0.036061435482447647 0.021375386154581458 0 -0.036012402660765302 0.022120005534778574 0 -0.036084034491578085 0.021498772665424635 0 -0.035704702303389999 0.02103738823156287 0 -0.036084034491578085 0.021498772665424635 0 -0.036020831292675824 0.020666207361169968 0 -0.035704702303389999 0.02103738823156287 0 -0.036020831292675824 0.020666207361169968 0 -0.036061435482447647 0.021375386154581458 0 -0.036164436403319546 0.02074185278667854 0 -0.036084034491578085 0.021498772665424635 0 -0.036020831292675824 0.020666207361169968 0 -0.036061435482447647 0.021375386154581458 0 -0.036351378223018142 0.020501554655299663 0 -0.036164436403319546 0.02074185278667854 0 -0.036157941767705204 0.019890099450129414 0 -0.036164436403319546 0.02074185278667854 0 -0.036157941767705204 0.019890099450129414 0 -0.035981015663676168 0.019756288199140895 0 -0.036351378223018142 0.020501554655299663 0 -0.036364193903571068 0.019684258825671409 0 -0.036157941767705204 0.019890099450129414 0 -0.036364193903571068 0.019684258825671409 0 -0.036157941767705204 0.019890099450129414 0 -0.036198128050083871 0.019018690629140519 0 -0.036157941767705204 0.019890099450129414 0 -0.036037913696899536 0.019012892337990736 0 -0.036198128050083871 0.019018690629140519 0 -0.036157941767705204 0.019890099450129414 0 -0.036037913696899536 0.019012892337990736 0 -0.035981015663676168 0.019756288199140895 0 -0.036020831292675824 0.020666207361169968 0 -0.036164436403319546 0.02074185278667854 0 -0.035981015663676168 0.019756288199140895 0 -0.036020831292675824 0.020666207361169968 0 -0.035981015663676168 0.019756288199140895 0 -0.03560581955117248 0.01952229504468686 0 -0.035981015663676168 0.019756288199140895 0 -0.03560581955117248 0.01952229504468686 0 -0.035593587616857825 0.018118659202285677 0 -0.036037913696899536 0.019012892337990736 0 -0.035981015663676168 0.019756288199140895 0 -0.035593587616857825 0.018118659202285677 0 -0.03560581955117248 0.01952229504468686 0 -0.03499963103297285 0.018059209667527928 0 -0.035593587616857825 0.018118659202285677 0 -0.03560581955117248 0.01952229504468686 0 -0.03499963103297285 0.018059209667527928 0 -0.03499962182037139 0.019766256909431748 0 -0.03499962182037139 0.019766256909431748 0 -0.035704702303389999 0.02103738823156287 0 -0.034999656687439221 0.021472561770623223 0 -0.03560581955117248 0.01952229504468686 0 -0.03499962182037139 0.019766256909431748 0 -0.035704702303389999 0.02103738823156287 0 -0.036020831292675824 0.020666207361169968 0 -0.03560581955117248 0.01952229504468686 0 -0.035704702303389999 0.02103738823156287 0 -0.03550961289505563 0.022234225790856151 0 -0.036012402660765302 0.022120005534778574 0 -0.035704702303389999 0.02103738823156287 0 -0.03550961289505563 0.022234225790856151 0 -0.035704702303389999 0.02103738823156287 0 -0.034999656687439221 0.021472561770623223 0 -0.026795296757540683 0.027173843756841107 0 -0.027652416572129211 0.027717524684514029 0 -0.028220256955345559 0.026524351449283702 0 -0.027652416572129211 0.027717524684514029 0 -0.028220256955345559 0.026524351449283702 0 -0.028384946681670062 0.027905347240102813 0 -0.027652416572129211 0.027717524684514029 0 -0.028384946681670062 0.027905347240102813 0 -0.027899181748521927 0.028608385475031601 0 -0.027652416572129211 0.027717524684514029 0 -0.02692107585736361 0.028299612838127194 0 -0.027899181748521927 0.028608385475031601 0 -0.026795296757540683 0.027173843756841107 0 -0.02692107585736361 0.028299612838127194 0 -0.02555864627046114 0.027682906536947206 0 -0.026795296757540683 0.027173843756841107 0 -0.027652416572129211 0.027717524684514029 0 -0.02692107585736361 0.028299612838127194 0 -0.02555864627046114 0.027682906536947206 0 -0.024378930167493252 0.028434791107065274 0 -0.0260132030521221 0.02888600412671553 0 -0.02692107585736361 0.028299612838127194 0 -0.02555864627046114 0.027682906536947206 0 -0.0260132030521221 0.02888600412671553 0 -0.023780051131547686 0.026968377982989022 0 -0.02555864627046114 0.027682906536947206 0 -0.024378930167493252 0.028434791107065274 0 -0.023780051131547686 0.026968377982989022 0 -0.025315496023165008 0.026291538950773293 0 -0.024205422483172423 0.025970971891470341 0 -0.023780051131547686 0.026968377982989022 0 -0.02555864627046114 0.027682906536947206 0 -0.025315496023165008 0.026291538950773293 0 -0.026795296757540683 0.027173843756841107 0 -0.02555864627046114 0.027682906536947206 0 -0.025315496023165008 0.026291538950773293 0 -0.025315496023165008 0.026291538950773293 0 -0.025372600261160626 0.025124352642406603 0 -0.026770521848204904 0.025149155642208848 0 -0.025315496023165008 0.026291538950773293 0 -0.024205422483172423 0.025970971891470341 0 -0.025372600261160626 0.025124352642406603 0 -0.024205422483172423 0.025970971891470341 0 -0.024162452618149876 0.02489969481680681 0 -0.025372600261160626 0.025124352642406603 0 -0.025280549087728553 0.023882166775403123 0 -0.024162452618149876 0.02489969481680681 0 -0.025372600261160626 0.025124352642406603 0 -0.028096304665733197 0.031089864383149379 0 -0.024742414554337754 0.029690167847641957 0 -0.025280549087728553 0.023882166775403123 0 -0.025372600261160626 0.025124352642406603 0 -0.026770521848204904 0.025149155642208848 0 -0.028096304665733197 0.031089864383149379 0 -0.028446066607074386 0.027295280125655925 0 -0.030388919121802953 0.031606601414871316 0 -0.030325286236445315 0.030568407088299814 0 -0.02967121927815642 0.030839707566089895 0 -0.026795296757540683 0.027173843756841107 0 -0.025315496023165008 0.026291538950773293 0 -0.026770521848204904 0.025149155642208848 0 -0.028446066607074386 0.027295280125655925 0 -0.029110960375453115 0.028454900251812684 0 -0.026795296757540683 0.027173843756841107 0 -0.026770521848204904 0.025149155642208848 0 -0.028220256955345559 0.026524351449283702 0 -0.030325286236445315 0.030568407088299814 0 -0.029934260711334933 0.030202747159719549 0 -0.02967121927815642 0.030839707566089895 0 -0.029934260711334933 0.030202747159719549 0 -0.02967121927815642 0.030839707566089895 0 -0.029675287069888114 0.030627448061584222 0 -0.029675287069888114 0.030627448061584222 0 -0.029783503328805187 0.030161505635817206 0 -0.029552842221445663 0.030006055374872394 0 -0.029934260711334933 0.030202747159719549 0 -0.029675287069888114 0.030627448061584222 0 -0.029783503328805187 0.030161505635817206 0 -0.031510465329719586 0.029771487966836992 0 -0.031293638033082244 0.028851999865403793 0 -0.032504175254250832 0.028625432720354064 0 -0.031293638033082244 0.028851999865403793 0 -0.031712704524957877 0.027076581878381457 0 -0.032504175254250832 0.028625432720354064 0 -0.030384833373365294 0.030232674852313641 0 -0.030914175343318102 0.029423426977760545 0 -0.030328486061045205 0.03045132767674515 0 -0.029675287069888114 0.030627448061584222 0 -0.029516720131168916 0.030501920260852994 0 -0.029675287069888114 0.030627448061584222 0 -0.029516720131168916 0.030501920260852994 0 -0.029552842221445663 0.030006055374872394 0 -0.030914175343318102 0.029423426977760545 0 -0.030883191089300079 0.027201819889327416 0 -0.029516720131168916 0.030501920260852994 0 -0.028988144793869765 0.029810879508496032 0 -0.029552842221445663 0.030006055374872394 0 -0.031712704524957877 0.027076581878381457 0 -0.032504175254250832 0.028625432720354064 0 -0.032885195580951883 0.024664785752898759 0 -0.029552842221445663 0.030006055374872394 0 -0.029424676543654403 0.029468016991685077 0 -0.029904833929010492 0.029687740629501014 0 -0.028988144793869765 0.029810879508496032 0 -0.029552842221445663 0.030006055374872394 0 -0.029424676543654403 0.029468016991685077 0 -0.029424676543654403 0.029468016991685077 0 -0.029904833929010492 0.029687740629501014 0 -0.029523158614480353 0.02872315536669676 0 -0.029480935796189881 0.028702781094351763 0 -0.029503725445573923 0.028713599993434653 0 -0.028988144793869765 0.029810879508496032 0 -0.029424676543654403 0.029468016991685077 0 -0.02908178620923392 0.029040779281492856 0 -0.029424676543654403 0.029468016991685077 0 -0.02908178620923392 0.029040779281492856 0 -0.029523158614480353 0.02872315536669676 0 -0.028220256955345559 0.026524351449283702 0 -0.029165589172476025 0.02783514232610259 0 -0.028384946681670062 0.027905347240102813 0 -0.029110960375453115 0.028454900251812684 0 -0.029480935796189881 0.028702781094351763 0 -0.029934260711334933 0.030202747159719549 0 -0.029783503328805187 0.030161505635817206 0 -0.029904833929010492 0.029687740629501014 0 -0.029783503328805187 0.030161505635817206 0 -0.029552842221445663 0.030006055374872394 0 -0.029904833929010492 0.029687740629501014 0 -0.029165589172476025 0.02783514232610259 0 -0.028833024212776337 0.028461551986684687 0 -0.029523158614480353 0.02872315536669676 0 -0.028384946681670062 0.027905347240102813 0 -0.028833024212776337 0.028461551986684687 0 -0.027899181748521927 0.028608385475031601 0 -0.029165589172476025 0.02783514232610259 0 -0.028384946681670062 0.027905347240102813 0 -0.028833024212776337 0.028461551986684687 0 -0.028833024212776337 0.028461551986684687 0 -0.029064905804980671 0.0289546208453655 0 -0.027777893174296076 0.028941209913276963 0 -0.028833024212776337 0.028461551986684687 0 -0.029523158614480353 0.02872315536669676 0 -0.029397661405929591 0.028682478311720879 0 -0.028833024212776337 0.028461551986684687 0 -0.029064905804980671 0.0289546208453655 0 -0.029397661405929591 0.028682478311720879 0 -0.030489526073917098 0.028943055856584375 0 -0.02944587976689161 0.0283112704592491 0 -0.029064905804980671 0.0289546208453655 0 -0.029397661405929591 0.028682478311720879 0 -0.02958480125799505 0.028285734407762952 0 -0.031425859678672181 0.028874140632168355 0 -0.032666871838309609 0.028224000647476797 0 -0.033215533211001083 0.029484478513143383 0 -0.030489526073917098 0.028943055856584375 0 -0.029307628165342867 0.029023373135693833 0 -0.02908178620923392 0.029040779281492856 0 -0.029082488783843181 0.028579670895269103 0 -0.029523158614480353 0.02872315536669676 0 -0.029082488783843181 0.028579670895269103 0 -0.029523158614480353 0.02872315536669676 0 -0.029394550505498343 0.028457375740597902 0 -0.029523158614480353 0.02872315536669676 0 -0.029397661405929591 0.028682478311720879 0 -0.029394550505498343 0.028457375740597902 0 -0.029397661405929591 0.028682478311720879 0 -0.029394550505498343 0.028457375740597902 0 -0.02958480125799505 0.028285734407762952 0 -0.029394550505498343 0.028457375740597902 0 -0.029304927865713475 0.028055346877304412 0 -0.02958480125799505 0.028285734407762952 0 -0.029394550505498343 0.028457375740597902 0 -0.029098941651035968 0.028209012254929913 0 -0.029304927865713475 0.028055346877304412 0 -0.029082488783843181 0.028579670895269103 0 -0.029394550505498343 0.028457375740597902 0 -0.029098941651035968 0.028209012254929913 0 -0.029013517614192904 0.027752584199576286 0 -0.029304927865713475 0.028055346877304412 0 -0.029404893173635763 0.027623406540952529 0 -0.029098941651035968 0.028209012254929913 0 -0.029013517614192904 0.027752584199576286 0 -0.029304927865713475 0.028055346877304412 0 -0.029304927865713475 0.028055346877304412 0 -0.029404893173635763 0.027623406540952529 0 -0.02958480125799505 0.028285734407762952 0 -0.031425859678672181 0.028874140632168355 0 -0.02958480125799505 0.028285734407762952 0 -0.030064103755076749 0.027735572899873741 0 -0.029404893173635763 0.027623406540952529 0 -0.02958480125799505 0.028285734407762952 0 -0.030064103755076749 0.027735572899873741 0 -0.033343445233994386 0.019794921865248685 0 -0.034482077838284525 0.019993832802750015 0 -0.030064103755076749 0.027735572899873741 0 -0.029328628689196414 0.026942656141900678 0 -0.030769832064680026 0.026611748692784362 0 -0.029013517614192904 0.027752584199576286 0 -0.029404893173635763 0.027623406540952529 0 -0.029328628689196414 0.026942656141900678 0 -0.029404893173635763 0.027623406540952529 0 -0.030064103755076749 0.027735572899873741 0 -0.029328628689196414 0.026942656141900678 0 -0.031425859678672181 0.028874140632168355 0 -0.03174421934894929 0.027405001433423653 0 -0.032666871838309609 0.028224000647476797 0 -0.031425859678672181 0.028874140632168355 0 -0.030064103755076749 0.027735572899873741 0 -0.03174421934894929 0.027405001433423653 0 -0.028571086758654052 0.030326898608316877 0 -0.034482077838284525 0.019993832802750015 0 -0.030064103755076749 0.027735572899873741 0 -0.03174421934894929 0.027405001433423653 0 -0.030919085338191536 0.026221130069940556 0 -0.03174421934894929 0.027405001433423653 0 -0.032306783731005671 0.026032880890396237 0 -0.030919085338191536 0.026221130069940556 0 -0.03174421934894929 0.027405001433423653 0 -0.033122157869160562 0.027097034314839372 0 -0.032306783731005671 0.026032880890396237 0 -0.033122157869160562 0.027097034314839372 0 -0.033674129983307689 0.025838080619035642 0 -0.032306783731005671 0.026032880890396237 0 -0.033122157869160562 0.027097034314839372 0 -0.034439876812385674 0.026953051884422898 0 -0.033674129983307689 0.025838080619035642 0 -0.029627333714417853 0.030978979132455377 0 -0.030477942352530138 0.029266577671295691 0 -0.033122157869160562 0.027097034314839372 0 -0.034439876812385674 0.026953051884422898 0 -0.033827624367104299 0.028237766043031666 0 -0.026071585448363018 0.032146556722062229 0 -0.026735989464810574 0.030808064468193178 0 -0.025402800658505389 0.03075543097857308 0 -0.033122157869160562 0.027097034314839372 0 -0.033827624367104299 0.028237766043031666 0 -0.032666871838309609 0.028224000647476797 0 -0.03174421934894929 0.027405001433423653 0 -0.033122157869160562 0.027097034314839372 0 -0.032666871838309609 0.028224000647476797 0 -0.033827624367104299 0.028237766043031666 0 -0.032666871838309609 0.028224000647476797 0 -0.033215533211001083 0.029484478513143383 0 -0.026735989464810574 0.030808064468193178 0 -0.026378737517098887 0.029802529403784979 0 -0.027408703105959133 0.029420695237574575 0 -0.026735989464810574 0.030808064468193178 0 -0.026378737517098887 0.029802529403784979 0 -0.025402800658505389 0.03075543097857308 0 -0.030477942352530138 0.029266577671295691 0 -0.029307628165342867 0.029023373135693833 0 -0.026378737517098887 0.029802529403784979 0 -0.027408703105959133 0.029420695237574575 0 -0.025805100496929332 0.02888571327000734 0 -0.029307628165342867 0.029023373135693833 0 -0.025560324425195225 0.02884937254781357 0 -0.02692107585736361 0.028299612838127194 0 -0.027595686277946174 0.029280973730882221 0 -0.0260132030521221 0.02888600412671553 0 -0.02692107585736361 0.028299612838127194 0 -0.027899181748521927 0.028608385475031601 0 -0.027595686277946174 0.029280973730882221 0 -0.028833024212776337 0.028461551986684687 0 -0.027899181748521927 0.028608385475031601 0 -0.027777893174296076 0.028941209913276963 0 -0.028367245022264075 0.029057478255653479 0 -0.029307628165342867 0.029023373135693833 0 -0.023100830028564445 0.029639348235478875 0 -0.024197850965398077 0.028349018550233019 0 -0.02481891033419828 0.029702351714938447 0 -0.024197850965398077 0.028349018550233019 0 -0.025805100496929332 0.02888571327000734 0 -0.02481891033419828 0.029702351714938447 0 -0.026378737517098887 0.029802529403784979 0 -0.025805100496929332 0.02888571327000734 0 -0.02481891033419828 0.029702351714938447 0 -0.024335267521291538 0.028394728295519697 0 -0.025560324425195225 0.02884937254781357 0 -0.026378737517098887 0.029802529403784979 0 -0.02481891033419828 0.029702351714938447 0 -0.025402800658505389 0.03075543097857308 0 -0.02481891033419828 0.029702351714938447 0 -0.024000907873705978 0.030772412243863713 0 -0.025402800658505389 0.03075543097857308 0 -0.023100830028564445 0.029639348235478875 0 -0.02481891033419828 0.029702351714938447 0 -0.024000907873705978 0.030772412243863713 0 -0.023326071771500465 0.031943462967828282 0 -0.024000907873705978 0.030772412243863713 0 -0.024639184806435978 0.031749041177059831 0 -0.024000907873705978 0.030772412243863713 0 -0.024639184806435978 0.031749041177059831 0 -0.025402800658505389 0.03075543097857308 0 -0.026071585448363018 0.032146556722062229 0 -0.024639184806435978 0.031749041177059831 0 -0.025402800658505389 0.03075543097857308 0 -0.026071585448363018 0.032146556722062229 0 -0.024639184806435978 0.031749041177059831 0 -0.024962566457766497 0.032612722206846148 0 -0.029627333714417853 0.030978979132455377 0 -0.032989118081122114 0.022259595339980565 0 -0.026071585448363018 0.032146556722062229 0 -0.024962566457766497 0.032612722206846148 0 -0.025468755146668534 0.033429697635803821 0 -0.023326071771500465 0.031943462967828282 0 -0.024249512925859144 0.032302797233425683 0 -0.024084903845559506 0.032904289088639495 0 -0.023326071771500465 0.031943462967828282 0 -0.024639184806435978 0.031749041177059831 0 -0.024249512925859144 0.032302797233425683 0 -0.024639184806435978 0.031749041177059831 0 -0.024962566457766497 0.032612722206846148 0 -0.024249512925859144 0.032302797233425683 0 -0.024962566457766497 0.032612722206846148 0 -0.024249512925859144 0.032302797233425683 0 -0.024084903845559506 0.032904289088639495 0 -0.032989118081122114 0.022259595339980565 0 -0.024203312843398023 0.026227244110579383 0 -0.029723154730424646 0.016907516087958964 0 -0.027443892088348423 0.018474676751063866 0 -0.026466275452558322 0.017306301371132673 0 -0.024962566457766497 0.032612722206846148 0 -0.024084903845559506 0.032904289088639495 0 -0.025468755146668534 0.033429697635803821 0 -0.024084903845559506 0.032904289088639495 0 -0.025468755146668534 0.033429697635803821 0 -0.023769768232769044 0.03371260491819332 0 -0.042280512202752168 0.014453113194462885 0 -0.041839468920647611 0.012594380219831888 0 -0.043369750426034172 0.011990824678195443 0 -0.042280512202752168 0.014453113194462885 0 -0.041839468920647611 0.012594380219831888 0 -0.041169254292289389 0.013677360333639166 0 -0.032989118081122114 0.022259595339980565 0 -0.034233044102648706 0.011876982837462729 0 -0.029723154730424646 0.016907516087958964 0 -0.027443892088348423 0.018474676751063866 0 -0.027983532775365499 0.020527434894213239 0 -0.027443892088348423 0.018474676751063866 0 -0.027983532775365499 0.020527434894213239 0 -0.025573798826458587 0.019166847997076325 0 -0.034233044102648706 0.011876982837462729 0 -0.021867760224273603 0.013122699002505048 0 -0.027443892088348423 0.018474676751063866 0 -0.026466275452558322 0.017306301371132673 0 -0.025573798826458587 0.019166847997076325 0 -0.022771707654529166 0.0097397219934290472 0 -0.02118309170049568 0.0089051735559860339 0 -0.021765992504588466 0.010245098535636071 0 -0.034233044102648706 0.011876982837462729 0 -0.028867104597637114 0.010041273110773992 0 -0.022771707654529166 0.0097397219934290472 0 -0.022189708383819933 0.010993368502275926 0 -0.021765992504588466 0.010245098535636071 0 -0.028867104597637114 0.010041273110773992 0 -0.02458198393445175 0.0090161494616239207 0 -0.043029954452232663 0.011712048278710262 0 -0.043487649084361729 0.010758292686406577 0 -0.042865788454609248 0.010925413702696092 0 -0.043029954452232663 0.011712048278710262 0 -0.042256364803533161 0.011260819195690658 0 -0.042865788454609248 0.010925413702696092 0 -0.041839468920647611 0.012594380219831888 0 -0.043369750426034172 0.011990824678195443 0 -0.042256364803533161 0.011260819195690658 0 -0.041839468920647611 0.012594380219831888 0 -0.042256364803533161 0.011260819195690658 0 -0.04135525787416626 0.011673104294791842 0 -0.034233044102648706 0.011876982837462729 0 -0.04385826783144043 0.012937634774535007 0 -0.042256364803533161 0.011260819195690658 0 -0.042332088108934608 0.010046524657342739 0 -0.040882649755227901 0.010767575692810382 0 -0.042256364803533161 0.011260819195690658 0 -0.042332088108934608 0.010046524657342739 0 -0.042865788454609248 0.010925413702696092 0 -0.022376544190448624 0.011275563176209456 0 -0.022129111151482403 0.01088371733776301 0 -0.021243547099209038 0.011018850860354801 0 -0.034495731254803409 0.010016827647066269 0 -0.028867104597637114 0.010041273110773992 0 -0.042332088108934608 0.010046524657342739 0 -0.043325068527690025 0.010408947252247162 0 -0.042865788454609248 0.010925413702696092 0 -0.043325068527690025 0.010408947252247162 0 -0.043487649084361729 0.010758292686406577 0 -0.042865788454609248 0.010925413702696092 0 -0.040882649755227901 0.010767575692810382 0 -0.039021870867585094 0.01114457173594279 0 -0.04061137391194717 0.0092818027552573866 0 -0.04013096552341984 0.01035856981310034 0 -0.04061137391194717 0.0092818027552573866 0 -0.040086167023974155 0.0092625604046180053 0 -0.03941961118839242 0.011047597422724136 0 -0.040587279232640522 0.0092622947739912868 0 -0.042332088108934608 0.010046524657342739 0 -0.040882649755227901 0.010767575692810382 0 -0.04148372419151241 0.0093649887827334712 0 -0.040882649755227901 0.010767575692810382 0 -0.04148372419151241 0.0093649887827334712 0 -0.04061137391194717 0.0092818027552573866 0 -0.040882649755227901 0.010767575692810382 0 -0.04135525787416626 0.011673104294791842 0 -0.040619513501190967 0.012522136858670006 0 -0.042256364803533161 0.011260819195690658 0 -0.040882649755227901 0.010767575692810382 0 -0.04135525787416626 0.011673104294791842 0 -0.041839468920647611 0.012594380219831888 0 -0.04135525787416626 0.011673104294791842 0 -0.040619513501190967 0.012522136858670006 0 -0.040882649755227901 0.010767575692810382 0 -0.039021870867585094 0.01114457173594279 0 -0.040619513501190967 0.012522136858670006 0 -0.039021870867585094 0.01114457173594279 0 -0.039308157861709707 0.013556429878664126 0 -0.040619513501190967 0.012522136858670006 0 -0.039308157861709707 0.013556429878664126 0 -0.040619513501190967 0.012522136858670006 0 -0.041169254292289389 0.013677360333639166 0 -0.041839468920647611 0.012594380219831888 0 -0.040619513501190967 0.012522136858670006 0 -0.041169254292289389 0.013677360333639166 0 -0.039308157861709707 0.013556429878664126 0 -0.041169254292289389 0.013677360333639166 0 -0.040410132526150777 0.014744209259127979 0 -0.042280512202752168 0.014453113194462885 0 -0.041169254292289389 0.013677360333639166 0 -0.040410132526150777 0.014744209259127979 0 -0.034439876812385674 0.026953051884422898 0 -0.035040116689784476 0.025630958966625837 0 -0.033674129983307689 0.025838080619035642 0 -0.032989118081122114 0.022259595339980565 0 -0.038244057799057124 0.020030571042020752 0 -0.039308157861709707 0.013556429878664126 0 -0.040410132526150777 0.014744209259127979 0 -0.038422090780937578 0.015114226759888976 0 -0.038244057799057124 0.020030571042020752 0 -0.034936356920711752 0.020683564512461353 0 -0.034936356920711752 0.020683564512461353 0 -0.034482077838284525 0.019993832802750015 0 -0.038422090780937578 0.015114226759888976 0 -0.036275145865386667 0.015461519149184399 0 -0.037635603450494048 0.013218233149172294 0 -0.039308157861709707 0.013556429878664126 0 -0.038422090780937578 0.015114226759888976 0 -0.037635603450494048 0.013218233149172294 0 -0.038654549914571297 0.012633127404784674 0 -0.038493303109305176 0.011876310442682182 0 -0.039385821536831497 0.011587111217525679 0 -0.034482077838284525 0.019993832802750015 0 -0.039207633417066831 0.011120487989985517 0 -0.038493303109305176 0.011876310442682182 0 -0.039385821536831497 0.011587111217525679 0 -0.037975445386380008 0.011168835012892408 0 -0.039021870867585094 0.01114457173594279 0 -0.039308157861709707 0.013556429878664126 0 -0.037635603450494048 0.013218233149172294 0 -0.037469222824844967 0.012626148045595843 0 -0.037266068728853033 0.012016170337757403 0 -0.037976237585896473 0.012085226720978656 0 -0.038654549914571297 0.012633127404784674 0 -0.038493303109305176 0.011876310442682182 0 -0.037976237585896473 0.012085226720978656 0 -0.037469222824844967 0.012626148045595843 0 -0.038654549914571297 0.012633127404784674 0 -0.037976237585896473 0.012085226720978656 0 -0.037266068728853033 0.012016170337757403 0 -0.037976237585896473 0.012085226720978656 0 -0.037975445386380008 0.011168835012892408 0 -0.038493303109305176 0.011876310442682182 0 -0.037976237585896473 0.012085226720978656 0 -0.037975445386380008 0.011168835012892408 0 -0.037623790128203195 0.0117123603759607 0 -0.038376157193912193 0.01085101430643523 0 -0.038016573812416125 0.011406148239034122 0 -0.038174822859215786 0.010271704406979974 0 -0.037566159645303972 0.01043722397142861 0 -0.038016573812416125 0.011406148239034122 0 -0.038174822859215786 0.010271704406979974 0 -0.038763556548740231 0.010522671039570332 0 -0.038174822859215786 0.010271704406979974 0 -0.038763556548740231 0.010522671039570332 0 -0.038576728616723913 0.0096661842800866583 0 -0.038763556548740231 0.010522671039570332 0 -0.038576728616723913 0.0096661842800866583 0 -0.03943295672514998 0.0098178572447107215 0 -0.038576728616723913 0.0096661842800866583 0 -0.037965888385785136 0.0091571298340213398 0 -0.037823758983450723 0.0097048851484111999 0 -0.038174822859215786 0.010271704406979974 0 -0.038576728616723913 0.0096661842800866583 0 -0.037823758983450723 0.0097048851484111999 0 -0.03941961118839242 0.011047597422724136 0 -0.039207633417066831 0.011120487989985517 0 -0.04013096552341984 0.01035856981310034 0 -0.039385821536831497 0.011587111217525679 0 -0.03898158045503021 0.010194451778155669 0 -0.038376157193912193 0.01085101430643523 0 -0.039221681456926387 0.010004609683381854 0 -0.039385821536831497 0.011587111217525679 0 -0.037975445386380008 0.011168835012892408 0 -0.03898158045503021 0.010194451778155669 0 -0.03943295672514998 0.0098178572447107215 0 -0.039552053634172864 0.0091568969567620805 0 -0.039029128557191435 0.0091658034522905697 0 -0.038576728616723913 0.0096661842800866583 0 -0.03943295672514998 0.0098178572447107215 0 -0.039029128557191435 0.0091658034522905697 0 -0.039221681456926387 0.010004609683381854 0 -0.040035896234571766 0.0093029315839882349 0 -0.04013096552341984 0.01035856981310034 0 -0.03898158045503021 0.010194451778155669 0 -0.040086167023974155 0.0092625604046180053 0 -0.03943295672514998 0.0098178572447107215 0 -0.039552053634172864 0.0091568969567620805 0 -0.040086167023974155 0.0092625604046180053 0 -0.039871793544745189 0.0087074987691101533 0 -0.039552053634172864 0.0091568969567620805 0 -0.040086167023974155 0.0092625604046180053 0 -0.039871793544745189 0.0087074987691101533 0 -0.040086167023974155 0.0092625604046180053 0 -0.040395149663256573 0.0087025636039107235 0 -0.039871793544745189 0.0087074987691101533 0 -0.039552053634172864 0.0091568969567620805 0 -0.039326196571221175 0.0087463110857136876 0 -0.039552053634172864 0.0091568969567620805 0 -0.039029128557191435 0.0091658034522905697 0 -0.039326196571221175 0.0087463110857136876 0 -0.039029128557191435 0.0091658034522905697 0 -0.039326196571221175 0.0087463110857136876 0 -0.038861808427569262 0.008453309742174564 0 -0.039871793544745189 0.0087074987691101533 0 -0.039326196571221175 0.0087463110857136876 0 -0.039485212126509128 0.0081233835881910025 0 -0.039485212126509128 0.0081233835881910025 0 -0.038861808427569262 0.008453309742174564 0 -0.039069303964437724 0.0076506601469937107 0 -0.039326196571221175 0.0087463110857136876 0 -0.039485212126509128 0.0081233835881910025 0 -0.038861808427569262 0.008453309742174564 0 -0.039871793544745189 0.0087074987691101533 0 -0.039485212126509128 0.0081233835881910025 0 -0.040405567051936327 0.0079473967205616041 0 -0.038576728616723913 0.0096661842800866583 0 -0.037965888385785136 0.0091571298340213398 0 -0.038340242878378637 0.0088717490899318432 0 -0.037965888385785136 0.0091571298340213398 0 -0.038340242878378637 0.0088717490899318432 0 -0.038006488087442676 0.0087553345181227184 0 -0.039029128557191435 0.0091658034522905697 0 -0.038340242878378637 0.0088717490899318432 0 -0.038861808427569262 0.008453309742174564 0 -0.038576728616723913 0.0096661842800866583 0 -0.039029128557191435 0.0091658034522905697 0 -0.038340242878378637 0.0088717490899318432 0 -0.038861808427569262 0.008453309742174564 0 -0.038171214266197573 0.0081249694748523685 0 -0.039069303964437724 0.0076506601469937107 0 -0.038340242878378637 0.0088717490899318432 0 -0.038861808427569262 0.008453309742174564 0 -0.038171214266197573 0.0081249694748523685 0 -0.038224199627577712 0.0085283813041471587 0 -0.038006488087442676 0.0087553345181227184 0 -0.037817455916288656 0.008500612689671741 0 -0.038340242878378637 0.0088717490899318432 0 -0.038224199627577712 0.0085283813041471587 0 -0.038006488087442676 0.0087553345181227184 0 -0.038304024151624178 0.0087855726078032194 0 -0.038220313148837212 0.008379740903705071 0 -0.038224199627577712 0.0085283813041471587 0 -0.038155889440288325 0.0082030700263570535 0 -0.037817455916288656 0.008500612689671741 0 -0.038220313148837212 0.008379740903705071 0 -0.038245685546942063 0.0075293962827052852 0 -0.038171214266197573 0.0081249694748523685 0 -0.038070220598059146 0.0074091543328891557 0 -0.039069303964437724 0.0076506601469937107 0 -0.03801286832283151 0.0073334423336304357 0 -0.038758175101286499 0.0066919064739169518 0 -0.039069303964437724 0.0076506601469937107 0 -0.038245685546942063 0.0075293962827052852 0 -0.038918168262321126 0.007592363823825405 0 -0.038680727601393981 0.0071602623885383496 0 -0.038284463738547742 0.0070504752369794704 0 -0.038637788173829499 0.0068319841481888086 0 -0.03801286832283151 0.0073334423336304357 0 -0.038758175101286499 0.0066919064739169518 0 -0.037851466281212054 0.0062918232308305008 0 -0.038245685546942063 0.0075293962827052852 0 -0.038827023199474744 0.0062253529584207143 0 -0.039818373167153198 0.0072690010627861623 0 -0.040502980582635219 0.0070067032774614249 0 -0.040405567051936327 0.0079473967205616041 0 -0.039485212126509128 0.0081233835881910025 0 -0.039818373167153198 0.0072690010627861623 0 -0.040405567051936327 0.0079473967205616041 0 -0.039818373167153198 0.0072690010627861623 0 -0.039069303964437724 0.0076506601469937107 0 -0.039498640419510588 0.0065378376011676108 0 -0.039485212126509128 0.0081233835881910025 0 -0.039818373167153198 0.0072690010627861623 0 -0.039069303964437724 0.0076506601469937107 0 -0.038758175101286499 0.0066919064739169518 0 -0.039069303964437724 0.0076506601469937107 0 -0.039498640419510588 0.0065378376011676108 0 -0.039818373167153198 0.0072690010627861623 0 -0.040059183328812316 0.0064460964233022701 0 -0.040502980582635219 0.0070067032774614249 0 -0.039818373167153198 0.0072690010627861623 0 -0.039498640419510588 0.0065378376011676108 0 -0.040059183328812316 0.0064460964233022701 0 -0.040059183328812316 0.0064460964233022701 0 -0.040472125446189146 0.0064175132889219407 0 -0.040502980582635219 0.0070067032774614249 0 -0.040472125446189146 0.0064175132889219407 0 -0.040502980582635219 0.0070067032774614249 0 -0.041095220446786568 0.0063846838832694406 0 -0.040502980582635219 0.0070067032774614249 0 -0.041649377681113195 0.0074874097160143914 0 -0.040405567051936327 0.0079473967205616041 0 -0.040502980582635219 0.0070067032774614249 0 -0.041649377681113195 0.0074874097160143914 0 -0.041095220446786568 0.0063846838832694406 0 -0.039321373553498462 0.0047233454363995869 0 -0.039951264885611737 0.0054465697397030836 0 -0.039729940546375707 0.0055932896512237203 0 -0.040406876237156455 0.0061564859227788886 0 -0.040537029964785518 0.0059099811978392926 0 -0.039321373553498462 0.0047233454363995869 0 -0.038996144193927711 0.0055336395838493707 0 -0.03861425283541297 0.0049926164013172286 0 -0.039321373553498462 0.0047233454363995869 0 -0.038996144193927711 0.0055336395838493707 0 -0.039729940546375707 0.0055932896512237203 0 -0.038996144193927711 0.0055336395838493707 0 -0.038072329753608559 0.0054665287906921368 0 -0.03861425283541297 0.0049926164013172286 0 -0.038072329753608559 0.0054665287906921368 0 -0.03861425283541297 0.0049926164013172286 0 -0.038134920205241687 0.0044468055615385109 0 -0.039321373553498462 0.0047233454363995869 0 -0.03861425283541297 0.0049926164013172286 0 -0.038704055922170154 0.0039410807645103548 0 -0.041649377681113195 0.0074874097160143914 0 -0.042412361302403272 0.0087278297728600376 0 -0.041180804277550338 0.0083620694156372362 0 -0.040406876237156455 0.0061564859227788886 0 -0.041314948692080619 0.0059755832573017541 0 -0.038134920205241687 0.0044468055615385109 0 -0.038048016130996606 0.0038081276375448148 0 -0.038704055922170154 0.0039410807645103548 0 -0.03861425283541297 0.0049926164013172286 0 -0.038134920205241687 0.0044468055615385109 0 -0.038704055922170154 0.0039410807645103548 0 -0.038143648348278936 0.0031803764305678543 0 -0.038048016130996606 0.0038081276375448148 0 -0.037638272739796808 0.0034530383566489381 0 -0.038143648348278936 0.0031803764305678543 0 -0.038048016130996606 0.0038081276375448148 0 -0.038704055922170154 0.0039410807645103548 0 -0.034495731254803409 0.010016827647066269 0 -0.041314948692080619 0.0059755832573017541 0 -0.042412361302403272 0.0087278297728600376 0 -0.04148372419151241 0.0093649887827334712 0 -0.041180804277550338 0.0083620694156372362 0 -0.042332088108934608 0.010046524657342739 0 -0.043325068527690025 0.010408947252247162 0 -0.042412361302403272 0.0087278297728600376 0 -0.042332088108934608 0.010046524657342739 0 -0.042412361302403272 0.0087278297728600376 0 -0.04148372419151241 0.0093649887827334712 0 -0.04148372419151241 0.0093649887827334712 0 -0.04061137391194717 0.0092818027552573866 0 -0.041180804277550338 0.0083620694156372362 0 -0.04061137391194717 0.0092818027552573866 0 -0.040395149663256573 0.0087025636039107235 0 -0.041180804277550338 0.0083620694156372362 0 -0.04061137391194717 0.0092818027552573866 0 -0.040086167023974155 0.0092625604046180053 0 -0.040395149663256573 0.0087025636039107235 0 -0.040395149663256573 0.0087025636039107235 0 -0.040405567051936327 0.0079473967205616041 0 -0.041180804277550338 0.0083620694156372362 0 -0.039871793544745189 0.0087074987691101533 0 -0.040395149663256573 0.0087025636039107235 0 -0.040405567051936327 0.0079473967205616041 0 -0.041649377681113195 0.0074874097160143914 0 -0.040405567051936327 0.0079473967205616041 0 -0.041180804277550338 0.0083620694156372362 0 -0.035855912445496949 0.013905155951767285 0 -0.034999682428104938 0.014440365682736492 0 -0.035489056487728501 0.012779398851777812 0 -0.034999682428104938 0.014440365682736492 0 -0.035489056487728501 0.012779398851777812 0 -0.034999682557303714 0.012529510854306836 0 -0.035855912445496949 0.013905155951767285 0 -0.036182508281367258 0.012724487393320268 0 -0.035489056487728501 0.012779398851777812 0 -0.035855912445496949 0.013905155951767285 0 -0.036763372343747061 0.013418153149222654 0 -0.036182508281367258 0.012724487393320268 0 -0.035855912445496949 0.013905155951767285 0 -0.036394737443450592 0.015337362653154822 0 -0.036763372343747061 0.013418153149222654 0 -0.035855912445496949 0.013905155951767285 0 -0.034999682428104938 0.014440365682736492 0 -0.036394737443450592 0.015337362653154822 0 -0.034993847679952436 0.016351673076094805 0 -0.036073569384061678 0.015845921730219006 0 -0.034999682428104938 0.014440365682736492 0 -0.034993754847316975 0.016351374030824709 0 -0.036394737443450592 0.015337362653154822 0 -0.035321376337100335 0.016569438764682119 0 -0.03499333321059326 0.016353970642637491 0 -0.035866241954254571 0.01641619609746655 0 -0.035321376337100335 0.016569438764682119 0 -0.03499333321059326 0.016353970642637491 0 -0.035593587616857825 0.018118659202285677 0 -0.03499963103297285 0.018059209667527928 0 -0.03499333321059326 0.016353970642637491 0 -0.035593587616857825 0.018118659202285677 0 -0.035321376337100335 0.016569438764682119 0 -0.035593587616857825 0.018118659202285677 0 -0.035954401214421401 0.018067228528163559 0 -0.035299446558911443 0.016741689239200132 0 -0.035880030547484329 0.017363857801527376 0 -0.036037913696899536 0.019012892337990736 0 -0.035593587616857825 0.018118659202285677 0 -0.035954401214421401 0.018067228528163559 0 -0.035321376337100335 0.016569438764682119 0 -0.036038970607713175 0.01680295166782321 0 -0.035866241954254571 0.01641619609746655 0 -0.036038970607713175 0.01680295166782321 0 -0.035866241954254571 0.01641619609746655 0 -0.036465938244253329 0.016535370485067574 0 -0.035866241954254571 0.01641619609746655 0 -0.036465938244253329 0.016535370485067574 0 -0.036580529565547644 0.016001738174253599 0 -0.035880030547484329 0.017363857801527376 0 -0.036607055470000149 0.01802652620415238 0 -0.036038970607713175 0.01680295166782321 0 -0.036465938244253329 0.016535370485067574 0 -0.036703060069380254 0.016915015224131288 0 -0.036037913696899536 0.019012892337990736 0 -0.035954401214421401 0.018067228528163559 0 -0.036198128050083871 0.019018690629140519 0 -0.036703060069380254 0.016915015224131288 0 -0.036897544154206888 0.01666616696724187 0 -0.037259011309286237 0.01692492950846387 0 -0.036465938244253329 0.016535370485067574 0 -0.036864530073372176 0.016368076809273262 0 -0.036580529565547644 0.016001738174253599 0 -0.036897544154206888 0.01666616696724187 0 -0.036864530073372176 0.016368076809273262 0 -0.037081648564204976 0.016473200754289978 0 -0.036465938244253329 0.016535370485067574 0 -0.036703060069380254 0.016915015224131288 0 -0.036897544154206888 0.01666616696724187 0 -0.036465938244253329 0.016535370485067574 0 -0.036897544154206888 0.01666616696724187 0 -0.036864530073372176 0.016368076809273262 0 -0.037395473662117686 0.015474914054876311 0 -0.037315132451356071 0.012512039173950482 0 -0.036864530073372176 0.016368076809273262 0 -0.036580529565547644 0.016001738174253599 0 -0.037319034462639206 0.016232855589615177 0 -0.036394737443450592 0.015337362653154822 0 -0.037870983743856439 0.01444288223551253 0 -0.036763372343747061 0.013418153149222654 0 -0.036073569384061678 0.015845921730219006 0 -0.037395473662117686 0.015474914054876311 0 -0.037870983743856439 0.01444288223551253 0 -0.036763372343747061 0.013418153149222654 0 -0.037510502287315707 0.012694380661144505 0 -0.037870983743856439 0.01444288223551253 0 -0.038440098777033069 0.012686802124748016 0 -0.039601519180234579 0.01357780266214968 0 -0.037870983743856439 0.01444288223551253 0 -0.038440098777033069 0.012686802124748016 0 -0.037510502287315707 0.012694380661144505 0 -0.038440098777033069 0.012686802124748016 0 -0.039601519180234579 0.01357780266214968 0 -0.038868333379120643 0.012005628623318713 0 -0.03500178576120782 0.010961867569915346 0 -0.036450068682884432 0.011962370301128284 0 -0.037532111948910034 0.0098247376997142258 0 -0.036713224205847828 0.010118989497170177 0 -0.037532111948910034 0.0098247376997142258 0 -0.037088903698135521 0.0095495215742299987 0 -0.037315132451356071 0.012512039173950482 0 -0.037081232015856641 0.0096156991301115328 0 -0.036450068682884432 0.011962370301128284 0 -0.038168493337601105 0.01228824092550232 0 -0.037532111948910034 0.0098247376997142258 0 -0.036450068682884432 0.011962370301128284 0 -0.034850088795878538 0.01333512012714559 0 -0.036811975341885364 0.013590020044029925 0 -0.036450068682884432 0.011962370301128284 0 -0.036811975341885364 0.013590020044029925 0 -0.038168493337601105 0.01228824092550232 0 -0.037315132451356071 0.012512039173950482 0 -0.036025732911523022 0.014913580905842145 0 -0.03500178576120782 0.010961867569915346 0 -0.036450068682884432 0.011962370301128284 0 -0.034850088795878538 0.01333512012714559 0 -0.036580529565547644 0.016001738174253599 0 -0.037359699495241185 0.015592749632444912 0 -0.037319034462639206 0.016232855589615177 0 -0.036025732911523022 0.014913580905842145 0 -0.036526025370399659 0.016397061667067923 0 -0.034850088795878538 0.01333512012714559 0 -0.034710204133226348 0.015715157626546374 0 -0.036146603672453363 0.015177730171350757 0 -0.037319034462639206 0.016232855589615177 0 -0.037184455383610017 0.016690311126840902 0 -0.037268247924508432 0.016843126279165222 0 -0.036864530073372176 0.016368076809273262 0 -0.037081648564204976 0.016473200754289978 0 -0.037319034462639206 0.016232855589615177 0 -0.037081648564204976 0.016473200754289978 0 -0.037319034462639206 0.016232855589615177 0 -0.037184455383610017 0.016690311126840902 0 -0.036897544154206888 0.01666616696724187 0 -0.037081648564204976 0.016473200754289978 0 -0.037184455383610017 0.016690311126840902 0 -0.036703060069380254 0.016915015224131288 0 -0.037259011309286237 0.01692492950846387 0 -0.037374642287675335 0.017032614319849908 0 -0.036364193903571068 0.019684258825671409 0 -0.036198128050083871 0.019018690629140519 0 -0.036933551982390483 0.019359831665852832 0 -0.036897544154206888 0.01666616696724187 0 -0.037184455383610017 0.016690311126840902 0 -0.037259011309286237 0.01692492950846387 0 -0.036607055470000149 0.01802652620415238 0 -0.036432672648228075 0.017230212793325005 0 -0.036839142970221658 0.016720086559141093 0 -0.036526025370399659 0.016397061667067923 0 -0.037184455383610017 0.016690311126840902 0 -0.037265303292129529 0.016838280617602914 0 -0.037259011309286237 0.01692492950846387 0 -0.034710204133226348 0.015715157626546374 0 -0.035166226759181032 0.016508870671149756 0 -0.036146603672453363 0.015177730171350757 0 -0.036526025370399659 0.016397061667067923 0 -0.036432672648228075 0.017230212793325005 0 -0.037262359541205492 0.01683978772338315 0 -0.037259011309286237 0.01692492950846387 0 -0.037374642287675335 0.017032614319849908 0 -0.036526025370399659 0.016397061667067923 0 -0.036577202816455864 0.016520706442377398 0 -0.037037959618667765 0.016875552833323346 0 -0.036146603672453363 0.015177730171350757 0 -0.038454516614192524 0.015196502503517877 0 -0.036432672648228075 0.017230212793325005 0 -0.036369309940340634 0.016784759121936475 0 -0.035166226759181032 0.016508870671149756 0 -0.037037959618667765 0.016875552833323346 0 -0.036146603672453363 0.015177730171350757 0 -0.034850088795878538 0.01333512012714559 0 -0.036146603672453363 0.015177730171350757 0 -0.036811975341885364 0.013590020044029925 0 -0.036146603672453363 0.015177730171350757 0 -0.036811975341885364 0.013590020044029925 0 -0.038454516614192524 0.015196502503517877 0 -0.036646589858371957 0.011458989135259383 0 -0.037356072125115256 0.011186131016671203 0 -0.036780323696507869 0.010242059680639942 0 -0.036811975341885364 0.013590020044029925 0 -0.038454516614192524 0.015196502503517877 0 -0.038168493337601105 0.01228824092550232 0 -0.037914585983102718 0.012529974581951401 0 -0.037453146036086883 0.011445562937147649 0 -0.03682226439032734 0.012496895277012889 0 -0.036699233433069987 0.012733357626785274 0 -0.036646589858371957 0.011458989135259383 0 -0.033126585542985788 0.019571110874406543 0 -0.037914585983102718 0.012529974581951401 0 -0.03682226439032734 0.012496895277012889 0 -0.036646589858371957 0.011458989135259383 0 -0.037208125196679424 0.01163469010486801 0 -0.038727074450527095 0.018113762909141934 0 -0.037037959618667765 0.016875552833323346 0 -0.038454516614192524 0.015196502503517877 0 -0.03682226439032734 0.012496895277012889 0 -0.037469222824844967 0.012626148045595843 0 -0.037266068728853033 0.012016170337757403 0 -0.036865459278215752 0.012446689018207746 0 -0.037623790128203195 0.0117123603759607 0 -0.03682226439032734 0.012496895277012889 0 -0.038016573812416125 0.011406148239034122 0 -0.037208125196679424 0.01163469010486801 0 -0.038016573812416125 0.011406148239034122 0 -0.037356072125115256 0.011186131016671203 0 -0.037566159645303972 0.01043722397142861 0 -0.037356072125115256 0.011186131016671203 0 -0.037566159645303972 0.01043722397142861 0 -0.036780323696507869 0.010242059680639942 0 -0.038016573812416125 0.011406148239034122 0 -0.037208125196679424 0.01163469010486801 0 -0.037356072125115256 0.011186131016671203 0 -0.036646589858371957 0.011458989135259383 0 -0.037208125196679424 0.01163469010486801 0 -0.037356072125115256 0.011186131016671203 0 -0.038174822859215786 0.010271704406979974 0 -0.037566159645303972 0.01043722397142861 0 -0.037823758983450723 0.0097048851484111999 0 -0.037566159645303972 0.01043722397142861 0 -0.037115172700669552 0.0097179059192980879 0 -0.037823758983450723 0.0097048851484111999 0 -0.037566159645303972 0.01043722397142861 0 -0.036780323696507869 0.010242059680639942 0 -0.037115172700669552 0.0097179059192980879 0 -0.037453146036086883 0.011445562937147649 0 -0.037402495517286319 0.0094254735417669492 0 -0.038168493337601105 0.01228824092550232 0 -0.037532111948910034 0.0098247376997142258 0 -0.037804654878034048 0.0095373488805766699 0 -0.036780323696507869 0.010242059680639942 0 -0.037115172700669552 0.0097179059192980879 0 -0.037000048493346531 0.0092691797961336822 0 -0.037115172700669552 0.0097179059192980879 0 -0.037000048493346531 0.0092691797961336822 0 -0.037208292462223118 0.0093708851260268806 0 -0.037000048493346531 0.0092691797961336822 0 -0.037208292462223118 0.0093708851260268806 0 -0.037257054833095514 0.009207910907871401 0 -0.037115172700669552 0.0097179059192980879 0 -0.037208292462223118 0.0093708851260268806 0 -0.037460300530074368 0.0092939427792662812 0 -0.037208292462223118 0.0093708851260268806 0 -0.037460300530074368 0.0092939427792662812 0 -0.037257054833095514 0.009207910907871401 0 -0.037965888385785136 0.0091571298340213398 0 -0.037823758983450723 0.0097048851484111999 0 -0.037460300530074368 0.0092939427792662812 0 -0.037115172700669552 0.0097179059192980879 0 -0.037823758983450723 0.0097048851484111999 0 -0.037460300530074368 0.0092939427792662812 0 -0.037965888385785136 0.0091571298340213398 0 -0.037460300530074368 0.0092939427792662812 0 -0.037684254100210229 0.0088454972782463226 0 -0.037684254100210229 0.0088454972782463226 0 -0.037361773835133089 0.008962697209581023 0 -0.037524611709924174 0.0086748714001276053 0 -0.037965888385785136 0.0091571298340213398 0 -0.038006488087442676 0.0087553345181227184 0 -0.037684254100210229 0.0088454972782463226 0 -0.037460300530074368 0.0092939427792662812 0 -0.037684254100210229 0.0088454972782463226 0 -0.037361773835133089 0.008962697209581023 0 -0.037460300530074368 0.0092939427792662812 0 -0.037257054833095514 0.009207910907871401 0 -0.037361773835133089 0.008962697209581023 0 -0.037000048493346531 0.0092691797961336822 0 -0.037361773835133089 0.008962697209581023 0 -0.037381626728503668 0.0086040867516764662 0 -0.037402495517286319 0.0094254735417669492 0 -0.037378640652610151 0.0087059121438919536 0 -0.037000048493346531 0.0092691797961336822 0 -0.037257054833095514 0.009207910907871401 0 -0.037361773835133089 0.008962697209581023 0 -0.037381626728503668 0.0086040867516764662 0 -0.037365612360522764 0.00833587570031139 0 -0.037526005631508187 0.00846968928963753 0 -0.037361773835133089 0.008962697209581023 0 -0.037524611709924174 0.0086748714001276053 0 -0.037381626728503668 0.0086040867516764662 0 -0.037524611709924174 0.0086748714001276053 0 -0.037381626728503668 0.0086040867516764662 0 -0.037526005631508187 0.00846968928963753 0 -0.037524611709924174 0.0086748714001276053 0 -0.037817455916288656 0.008500612689671741 0 -0.037526005631508187 0.00846968928963753 0 -0.037684254100210229 0.0088454972782463226 0 -0.037524611709924174 0.0086748714001276053 0 -0.037817455916288656 0.008500612689671741 0 -0.038006488087442676 0.0087553345181227184 0 -0.037684254100210229 0.0088454972782463226 0 -0.037817455916288656 0.008500612689671741 0 -0.038245685546942063 0.0075293962827052852 0 -0.038485778527714232 0.0073020802108241991 0 -0.037817455916288656 0.008500612689671741 0 -0.037646637187042364 0.0081044299568871856 0 -0.037526005631508187 0.00846968928963753 0 -0.038155889440288325 0.0082030700263570535 0 -0.037817455916288656 0.008500612689671741 0 -0.037646637187042364 0.0081044299568871856 0 -0.038941417190306409 0.0068051846499884447 0 -0.039055327376626314 0.006123070922134652 0 -0.039614634258907551 0.0063528892243148094 0 -0.038485778527714232 0.0073020802108241991 0 -0.038827023199474744 0.0062253529584207143 0 -0.038941417190306409 0.0068051846499884447 0 -0.038730252592101666 0.0063882243406300256 0 -0.039055327376626314 0.006123070922134652 0 -0.039210850243631988 0.007271251873432521 0 -0.038539345263505755 0.0070818989290085859 0 -0.038487137540971376 0.0077387891952897369 0 -0.038556832454094456 0.0067387208622242739 0 -0.038467934951790669 0.0063761284763708022 0 -0.038730252592101666 0.0063882243406300256 0 -0.038941417190306409 0.0068051846499884447 0 -0.038556832454094456 0.0067387208622242739 0 -0.038730252592101666 0.0063882243406300256 0 -0.038485778527714232 0.0073020802108241991 0 -0.03860565181710883 0.0069516208412141829 0 -0.038485778527714232 0.0073020802108241991 0 -0.037866159485930077 0.0080633752918567378 0 -0.037646637187042364 0.0081044299568871856 0 -0.037365612360522764 0.00833587570031139 0 -0.037526005631508187 0.00846968928963753 0 -0.038487137540971376 0.0077387891952897369 0 -0.03749755797359737 0.0075816953744364214 0 -0.037228503646162807 0.0083082411732162582 0 -0.038487137540971376 0.0077387891952897369 0 -0.038169868816455413 0.0072891120967890815 0 -0.03749755797359737 0.0075816953744364214 0 -0.037866159485930077 0.0080633752918567378 0 -0.037325130612372963 0.0082911196066283929 0 -0.038539345263505755 0.0070818989290085859 0 -0.038169868816455413 0.0072891120967890815 0 -0.038114740534488364 0.0068971989503665287 0 -0.038169868816455413 0.0072891120967890815 0 -0.038114740534488364 0.0068971989503665287 0 -0.03749755797359737 0.0075816953744364214 0 -0.038114740534488364 0.0068971989503665287 0 -0.03749755797359737 0.0075816953744364214 0 -0.038367327233130792 0.0065099532904330489 0 -0.038539345263505755 0.0070818989290085859 0 -0.038487137540971376 0.0077387891952897369 0 -0.038169868816455413 0.0072891120967890815 0 -0.03860565181710883 0.0069516208412141829 0 -0.038122643615953702 0.0068616780229325504 0 -0.038556832454094456 0.0067387208622242739 0 -0.038114740534488364 0.0068971989503665287 0 -0.038467934951790669 0.0063761284763708022 0 -0.038333088222368958 0.007775058677627949 0 -0.039456573407744222 0.0089592652503376717 0 -0.038367327233130792 0.0065099532904330489 0 -0.038425759606492846 0.0083622321781874637 0 -0.038403257455749656 0.0066861158976457384 0 -0.038333088222368958 0.007775058677627949 0 -0.037754340527206991 0.0074056517928524877 0 -0.038083459442910736 0.0068970208144151623 0 -0.038333088222368958 0.007775058677627949 0 -0.03844440699086183 0.0088972059388783675 0 -0.039456573407744222 0.0089592652503376717 0 -0.03844440699086183 0.0088972059388783675 0 -0.039456573407744222 0.0089592652503376717 0 -0.038769149723705779 0.0099478117650079519 0 -0.038769149723705779 0.0099478117650079519 0 -0.039680765345033731 0.011400303359757153 0 -0.038477733507447813 0.010889002094865329 0 -0.03749755797359737 0.0075816953744364214 0 -0.037228503646162807 0.0083082411732162582 0 -0.036841246022754043 0.0089977925429454413 0 -0.038425759606492846 0.0083622321781874637 0 -0.038383901602694941 0.010060328059276785 0 -0.039456573407744222 0.0089592652503376717 0 -0.038769149723705779 0.0099478117650079519 0 -0.039680765345033731 0.011400303359757153 0 -0.037381626728503668 0.0086040867516764662 0 -0.037365612360522764 0.00833587570031139 0 -0.037228503646162807 0.0083082411732162582 0 -0.037381626728503668 0.0086040867516764662 0 -0.037228503646162807 0.0083082411732162582 0 -0.037202433628415188 0.0087426660551936011 0 -0.037381626728503668 0.0086040867516764662 0 -0.037202433628415188 0.0087426660551936011 0 -0.037239865281658714 0.0091276109514087378 0 -0.037228503646162807 0.0083082411732162582 0 -0.037202433628415188 0.0087426660551936011 0 -0.036841246022754043 0.0089977925429454413 0 -0.037804654878034048 0.0095373488805766699 0 -0.037381626728503668 0.0086040867516764662 0 -0.037418136356755685 0.0093174353253956139 0 -0.037239865281658714 0.0091276109514087378 0 -0.037088903698135521 0.0095495215742299987 0 -0.036841246022754043 0.0089977925429454413 0 -0.037381626728503668 0.0086040867516764662 0 -0.037239865281658714 0.0091276109514087378 0 -0.037418136356755685 0.0093174353253956139 0 -0.037202433628415188 0.0087426660551936011 0 -0.037239865281658714 0.0091276109514087378 0 -0.036841246022754043 0.0089977925429454413 0 -0.037532111948910034 0.0098247376997142258 0 -0.037418136356755685 0.0093174353253956139 0 -0.037088903698135521 0.0095495215742299987 0 -0.037532111948910034 0.0098247376997142258 0 -0.037804654878034048 0.0095373488805766699 0 -0.037418136356755685 0.0093174353253956139 0 -0.037239865281658714 0.0091276109514087378 0 -0.037418136356755685 0.0093174353253956139 0 -0.037088903698135521 0.0095495215742299987 0 -0.037315132451356071 0.012512039173950482 0 -0.038383901602694941 0.010060328059276785 0 -0.039601519180234579 0.01357780266214968 0 -0.038868333379120643 0.012005628623318713 0 -0.039680765345033731 0.011400303359757153 0 -0.036713224205847828 0.010118989497170177 0 -0.037088903698135521 0.0095495215742299987 0 -0.036841246022754043 0.0089977925429454413 0 -0.038868333379120643 0.012005628623318713 0 -0.039680765345033731 0.011400303359757153 0 -0.038477733507447813 0.010889002094865329 0 -0.038868333379120643 0.012005628623318713 0 -0.038021836478760333 0.011764626967805576 0 -0.038477733507447813 0.010889002094865329 0 -0.038440098777033069 0.012686802124748016 0 -0.038868333379120643 0.012005628623318713 0 -0.038021836478760333 0.011764626967805576 0 -0.038440098777033069 0.012686802124748016 0 -0.038021836478760333 0.011764626967805576 0 -0.037510502287315707 0.012694380661144505 0 -0.037510502287315707 0.012694380661144505 0 -0.036701310122784478 0.012037563348471666 0 -0.03729058145215336 0.011551085215923277 0 -0.036763372343747061 0.013418153149222654 0 -0.037510502287315707 0.012694380661144505 0 -0.036701310122784478 0.012037563348471666 0 -0.038021836478760333 0.011764626967805576 0 -0.037510502287315707 0.012694380661144505 0 -0.03729058145215336 0.011551085215923277 0 -0.03729058145215336 0.011551085215923277 0 -0.036714134207197616 0.010593644439321563 0 -0.037568300711262721 0.010708664697137549 0 -0.036701310122784478 0.012037563348471666 0 -0.03729058145215336 0.011551085215923277 0 -0.036714134207197616 0.010593644439321563 0 -0.036714134207197616 0.010593644439321563 0 -0.037568300711262721 0.010708664697137549 0 -0.037176287581874988 0.0097732505531409851 0 -0.037568300711262721 0.010708664697137549 0 -0.038477733507447813 0.010889002094865329 0 -0.037908266440060311 0.0096288990560467677 0 -0.037568300711262721 0.010708664697137549 0 -0.037908266440060311 0.0096288990560467677 0 -0.037176287581874988 0.0097732505531409851 0 -0.038021836478760333 0.011764626967805576 0 -0.037568300711262721 0.010708664697137549 0 -0.038477733507447813 0.010889002094865329 0 -0.038021836478760333 0.011764626967805576 0 -0.03729058145215336 0.011551085215923277 0 -0.037568300711262721 0.010708664697137549 0 -0.038769149723705779 0.0099478117650079519 0 -0.038477733507447813 0.010889002094865329 0 -0.037908266440060311 0.0096288990560467677 0 -0.03844440699086183 0.0088972059388783675 0 -0.038769149723705779 0.0099478117650079519 0 -0.037908266440060311 0.0096288990560467677 0 -0.037908266440060311 0.0096288990560467677 0 -0.037200150706503413 0.0087789431587493687 0 -0.037176287581874988 0.0097732505531409851 0 -0.037908266440060311 0.0096288990560467677 0 -0.037816658589794584 0.0083580417307661664 0 -0.037200150706503413 0.0087789431587493687 0 -0.03844440699086183 0.0088972059388783675 0 -0.037908266440060311 0.0096288990560467677 0 -0.037816658589794584 0.0083580417307661664 0 -0.038333088222368958 0.007775058677627949 0 -0.03844440699086183 0.0088972059388783675 0 -0.037816658589794584 0.0083580417307661664 0 -0.037816658589794584 0.0083580417307661664 0 -0.037298695438132592 0.0078607110205177362 0 -0.037200150706503413 0.0087789431587493687 0 -0.037816658589794584 0.0083580417307661664 0 -0.037298695438132592 0.0078607110205177362 0 -0.037754340527206991 0.0074056517928524877 0 -0.038333088222368958 0.007775058677627949 0 -0.037816658589794584 0.0083580417307661664 0 -0.037754340527206991 0.0074056517928524877 0 -0.037298695438132592 0.0078607110205177362 0 -0.03651368453732283 0.0079806495781216246 0 -0.037253972685064411 0.0070578226487306569 0 -0.037298695438132592 0.0078607110205177362 0 -0.03651368453732283 0.0079806495781216246 0 -0.037200150706503413 0.0087789431587493687 0 -0.03651368453732283 0.0079806495781216246 0 -0.036487387693411463 0.0091848962145158457 0 -0.037200150706503413 0.0087789431587493687 0 -0.036714134207197616 0.010593644439321563 0 -0.036487387693411463 0.0091848962145158457 0 -0.037176287581874988 0.0097732505531409851 0 -0.036487387693411463 0.0091848962145158457 0 -0.037200150706503413 0.0087789431587493687 0 -0.037176287581874988 0.0097732505531409851 0 -0.036714134207197616 0.010593644439321563 0 -0.036487387693411463 0.0091848962145158457 0 -0.036056013082952205 0.0099850042530480309 0 -0.035940675635859232 0.0090276152269696715 0 -0.035443854278910308 0.0079461656767334434 0 -0.035072472827089196 0.010196084731796892 0 -0.036056013082952205 0.0099850042530480309 0 -0.035940675635859232 0.0090276152269696715 0 -0.035072472827089196 0.010196084731796892 0 -0.036487387693411463 0.0091848962145158457 0 -0.036056013082952205 0.0099850042530480309 0 -0.035940675635859232 0.0090276152269696715 0 -0.03651368453732283 0.0079806495781216246 0 -0.036487387693411463 0.0091848962145158457 0 -0.035940675635859232 0.0090276152269696715 0 -0.03651368453732283 0.0079806495781216246 0 -0.035940675635859232 0.0090276152269696715 0 -0.035443854278910308 0.0079461656767334434 0 -0.036107802198074482 0.0090969731344938357 0 -0.035000060775546557 0.010618927837844967 0 -0.034999819779496302 0.0087075620132461579 0 -0.036107802198074482 0.0090969731344938357 0 -0.035000060775546557 0.010618927837844967 0 -0.035913798372453273 0.011041834324745538 0 -0.035767509499117348 0.0085296316345290744 0 -0.03552164211494898 0.010631429767974555 0 -0.035000060775546557 0.010618927837844967 0 -0.035913798372453273 0.011041834324745538 0 -0.034999682557303714 0.012529510854306836 0 -0.03552164211494898 0.010631429767974555 0 -0.035465487986812226 0.012609152929146246 0 -0.036056013082952205 0.0099850042530480309 0 -0.035072472827089196 0.010196084731796892 0 -0.036080141786085554 0.011497268530256814 0 -0.036701310122784478 0.012037563348471666 0 -0.036714134207197616 0.010593644439321563 0 -0.036080141786085554 0.011497268530256814 0 -0.036714134207197616 0.010593644439321563 0 -0.036056013082952205 0.0099850042530480309 0 -0.036080141786085554 0.011497268530256814 0 -0.035072472827089196 0.010196084731796892 0 -0.036080141786085554 0.011497268530256814 0 -0.035489056487728501 0.012779398851777812 0 -0.036763372343747061 0.013418153149222654 0 -0.036701310122784478 0.012037563348471666 0 -0.036182508281367258 0.012724487393320268 0 -0.036701310122784478 0.012037563348471666 0 -0.036080141786085554 0.011497268530256814 0 -0.036182508281367258 0.012724487393320268 0 -0.036080141786085554 0.011497268530256814 0 -0.036182508281367258 0.012724487393320268 0 -0.035489056487728501 0.012779398851777812 0 -0.035913798372453273 0.011041834324745538 0 -0.035489056487728501 0.012779398851777812 0 -0.034999682557303714 0.012529510854306836 0 -0.034999810437684291 0.0048856314200185014 0 -0.036211753972326191 0.0043717340368468628 0 -0.035784658989148344 0.0056344595226677386 0 -0.036211753972326191 0.0043717340368468628 0 -0.035784658989148344 0.0056344595226677386 0 -0.036652959963732211 0.0052948173936653844 0 -0.035784658989148344 0.0056344595226677386 0 -0.035971797922195611 0.0067860301537768022 0 -0.036652959963732211 0.0052948173936653844 0 -0.034999810437684291 0.0048856314200185014 0 -0.035784658989148344 0.0056344595226677386 0 -0.034999797958495178 0.0067960910022830797 0 -0.034999797958495178 0.0067960910022830797 0 -0.034999819779496302 0.0087075620132461579 0 -0.035971797922195611 0.0067860301537768022 0 -0.035784658989148344 0.0056344595226677386 0 -0.034999797958495178 0.0067960910022830797 0 -0.035971797922195611 0.0067860301537768022 0 -0.036107802198074482 0.0090969731344938357 0 -0.034999819779496302 0.0087075620132461579 0 -0.035971797922195611 0.0067860301537768022 0 -0.035443854278910308 0.0079461656767334434 0 -0.035971797922195611 0.0067860301537768022 0 -0.036576304823022043 0.0069789309138160146 0 -0.035767509499117348 0.0085296316345290744 0 -0.035954990871506477 0.0069152111391708113 0 -0.03651368453732283 0.0079806495781216246 0 -0.035443854278910308 0.0079461656767334434 0 -0.036576304823022043 0.0069789309138160146 0 -0.035971797922195611 0.0067860301537768022 0 -0.036795148681261595 0.0061218171236218028 0 -0.036652959963732211 0.0052948173936653844 0 -0.035971797922195611 0.0067860301537768022 0 -0.036795148681261595 0.0061218171236218028 0 -0.036576304823022043 0.0069789309138160146 0 -0.036795148681261595 0.0061218171236218028 0 -0.036576304823022043 0.0069789309138160146 0 -0.037498147997325107 0.0061348703444915687 0 -0.03651368453732283 0.0079806495781216246 0 -0.036576304823022043 0.0069789309138160146 0 -0.037253972685064411 0.0070578226487306569 0 -0.036576304823022043 0.0069789309138160146 0 -0.037253972685064411 0.0070578226487306569 0 -0.037498147997325107 0.0061348703444915687 0 -0.037754340527206991 0.0074056517928524877 0 -0.037253972685064411 0.0070578226487306569 0 -0.037771538967140583 0.0067140786592216947 0 -0.037754340527206991 0.0074056517928524877 0 -0.037771538967140583 0.0067140786592216947 0 -0.038083459442910736 0.0068970208144151623 0 -0.037298695438132592 0.0078607110205177362 0 -0.037754340527206991 0.0074056517928524877 0 -0.037253972685064411 0.0070578226487306569 0 -0.037253972685064411 0.0070578226487306569 0 -0.037771538967140583 0.0067140786592216947 0 -0.037498147997325107 0.0061348703444915687 0 -0.036795148681261595 0.0061218171236218028 0 -0.037498147997325107 0.0061348703444915687 0 -0.037229506637058762 0.0054928588458550412 0 -0.037771538967140583 0.0067140786592216947 0 -0.037498147997325107 0.0061348703444915687 0 -0.038091745731501259 0.0062672632864364608 0 -0.037498147997325107 0.0061348703444915687 0 -0.037648333116281997 0.0052845457518718121 0 -0.037229506637058762 0.0054928588458550412 0 -0.037229506637058762 0.0054928588458550412 0 -0.036652959963732211 0.0052948173936653844 0 -0.037508905137815247 0.0046464824970606283 0 -0.037648333116281997 0.0052845457518718121 0 -0.037229506637058762 0.0054928588458550412 0 -0.037508905137815247 0.0046464824970606283 0 -0.036795148681261595 0.0061218171236218028 0 -0.037229506637058762 0.0054928588458550412 0 -0.036652959963732211 0.0052948173936653844 0 -0.036211753972326191 0.0043717340368468628 0 -0.036652959963732211 0.0052948173936653844 0 -0.037055629305545359 0.0040522466916096773 0 -0.036652959963732211 0.0052948173936653844 0 -0.037508905137815247 0.0046464824970606283 0 -0.037055629305545359 0.0040522466916096773 0 -0.037508905137815247 0.0046464824970606283 0 -0.037733266238887599 0.0036090592093492276 0 -0.037055629305545359 0.0040522466916096773 0 -0.037508905137815247 0.0046464824970606283 0 -0.038018034127204822 0.0041500741296005179 0 -0.037947913789777736 0.0048685831204151493 0 -0.037508905137815247 0.0046464824970606283 0 -0.038018034127204822 0.0041500741296005179 0 -0.037733266238887599 0.0036090592093492276 0 -0.038018034127204822 0.0041500741296005179 0 -0.038349717482934323 0.0047659129583817626 0 -0.037947913789777736 0.0048685831204151493 0 -0.038018034127204822 0.0041500741296005179 0 -0.038349717482934323 0.0047659129583817626 0 -0.038274653604247082 0.0037923427828623212 0 -0.038349717482934323 0.0047659129583817626 0 -0.037947913789777736 0.0048685831204151493 0 -0.038120143930537441 0.0055021150240109713 0 -0.038349717482934323 0.0047659129583817626 0 -0.038120143930537441 0.0055021150240109713 0 -0.038476041127750757 0.0054230967667511362 0 -0.037648333116281997 0.0052845457518718121 0 -0.037947913789777736 0.0048685831204151493 0 -0.038120143930537441 0.0055021150240109713 0 -0.037648333116281997 0.0052845457518718121 0 -0.037508905137815247 0.0046464824970606283 0 -0.037947913789777736 0.0048685831204151493 0 -0.037498147997325107 0.0061348703444915687 0 -0.038120143930537441 0.0055021150240109713 0 -0.038091745731501259 0.0062672632864364608 0 -0.037498147997325107 0.0061348703444915687 0 -0.037648333116281997 0.0052845457518718121 0 -0.038120143930537441 0.0055021150240109713 0 -0.038120143930537441 0.0055021150240109713 0 -0.038091745731501259 0.0062672632864364608 0 -0.038382006533236583 0.0059972681297994481 0 -0.037771538967140583 0.0067140786592216947 0 -0.038091745731501259 0.0062672632864364608 0 -0.038083459442910736 0.0068970208144151623 0 -0.038091745731501259 0.0062672632864364608 0 -0.038367327233130792 0.0065099532904330489 0 -0.038083459442910736 0.0068970208144151623 0 -0.038333088222368958 0.007775058677627949 0 -0.038367327233130792 0.0065099532904330489 0 -0.038083459442910736 0.0068970208144151623 0 -0.038467934951790669 0.0063761284763708022 0 -0.038382006533236583 0.0059972681297994481 0 -0.03868207445735232 0.0058592268805449342 0 -0.038114740534488364 0.0068971989503665287 0 -0.038367327233130792 0.0065099532904330489 0 -0.038467934951790669 0.0063761284763708022 0 -0.038367327233130792 0.0065099532904330489 0 -0.038467934951790669 0.0063761284763708022 0 -0.038382006533236583 0.0059972681297994481 0 -0.038091745731501259 0.0062672632864364608 0 -0.038367327233130792 0.0065099532904330489 0 -0.038382006533236583 0.0059972681297994481 0 -0.038120143930537441 0.0055021150240109713 0 -0.038382006533236583 0.0059972681297994481 0 -0.038476041127750757 0.0054230967667511362 0 -0.038382006533236583 0.0059972681297994481 0 -0.038476041127750757 0.0054230967667511362 0 -0.03868207445735232 0.0058592268805449342 0 -0.038476041127750757 0.0054230967667511362 0 -0.03868207445735232 0.0058592268805449342 0 -0.038737051203377636 0.005026532052748528 0 -0.03868207445735232 0.0058592268805449342 0 -0.038730252592101666 0.0063882243406300256 0 -0.039055327376626314 0.006123070922134652 0 -0.038467934951790669 0.0063761284763708022 0 -0.03868207445735232 0.0058592268805449342 0 -0.038730252592101666 0.0063882243406300256 0 -0.03868207445735232 0.0058592268805449342 0 -0.039055327376626314 0.006123070922134652 0 -0.039001860927247035 0.0055119858853328423 0 -0.039055327376626314 0.006123070922134652 0 -0.039001860927247035 0.0055119858853328423 0 -0.039499250876264533 0.0056560255606411475 0 -0.03868207445735232 0.0058592268805449342 0 -0.039001860927247035 0.0055119858853328423 0 -0.038737051203377636 0.005026532052748528 0 -0.039001860927247035 0.0055119858853328423 0 -0.038737051203377636 0.005026532052748528 0 -0.039088214360655224 0.0047984047063791089 0 -0.038737051203377636 0.005026532052748528 0 -0.03862302343675704 0.0040543407240562187 0 -0.039088214360655224 0.0047984047063791089 0 -0.038349717482934323 0.0047659129583817626 0 -0.038737051203377636 0.005026532052748528 0 -0.03862302343675704 0.0040543407240562187 0 -0.038349717482934323 0.0047659129583817626 0 -0.038476041127750757 0.0054230967667511362 0 -0.038737051203377636 0.005026532052748528 0 -0.038349717482934323 0.0047659129583817626 0 -0.038274653604247082 0.0037923427828623212 0 -0.03862302343675704 0.0040543407240562187 0 -0.03862302343675704 0.0040543407240562187 0 -0.039005985118178807 0.0040941455121843162 0 -0.038637621449949047 0.0028628347141061617 0 -0.03862302343675704 0.0040543407240562187 0 -0.039088214360655224 0.0047984047063791089 0 -0.039005985118178807 0.0040941455121843162 0 -0.03862302343675704 0.0040543407240562187 0 -0.038283245545375828 0.0028468243792776509 0 -0.038637621449949047 0.0028628347141061617 0 -0.038274653604247082 0.0037923427828623212 0 -0.038283245545375828 0.0028468243792776509 0 -0.038095146574527138 0.0031843053193999996 0 -0.038274653604247082 0.0037923427828623212 0 -0.03862302343675704 0.0040543407240562187 0 -0.038283245545375828 0.0028468243792776509 0 -0.038283245545375828 0.0028468243792776509 0 -0.038175221434230293 0.0020019676142013516 0 -0.038062478924134786 0.0022974950791303729 0 -0.038283245545375828 0.0028468243792776509 0 -0.038304991593801456 0.0022294074941367451 0 -0.038175221434230293 0.0020019676142013516 0 -0.038283245545375828 0.0028468243792776509 0 -0.038304991593801456 0.0022294074941367451 0 -0.038637621449949047 0.0028628347141061617 0 -0.038304991593801456 0.0022294074941367451 0 -0.038175221434230293 0.0020019676142013516 0 -0.038120424615560242 0.001693173517905695 0 -0.038105891843877471 0.0018561189585168166 0 -0.038034983894834173 0.0017583389002210979 0 -0.038175221434230293 0.0020019676142013516 0 -0.038034983894834173 0.0017583389002210979 0 -0.038175221434230293 0.0020019676142013516 0 -0.038120424615560242 0.001693173517905695 0 -0.038105891843877471 0.0018561189585168166 0 -0.038175221434230293 0.0020019676142013516 0 -0.038097651547206207 0.0019732291298320856 0 -0.038175221434230293 0.0020019676142013516 0 -0.038062478924134786 0.0022974950791303729 0 -0.038097651547206207 0.0019732291298320856 0 -0.038062478924134786 0.0022974950791303729 0 -0.038097651547206207 0.0019732291298320856 0 -0.037995456195069319 0.0019419277093624943 0 -0.039107394772656207 0.00064656092509974444 0 -0.03796744954633563 0.0020362826521470217 0 -0.037772968521877719 0.00087531202273609138 0 -0.038516235528528016 0.0013017515897373662 0 -0.03802538293464406 0.0019759949750244128 0 -0.038062478924134786 0.0022974950791303729 0 -0.037916267941558425 0.0027800489084789598 0 -0.03796744954633563 0.0020362826521470217 0 -0.038062478924134786 0.0022974950791303729 0 -0.037995456195069319 0.0019419277093624943 0 -0.03796744954633563 0.0020362826521470217 0 -0.037916267941558425 0.0027800489084789598 0 -0.037733266238887599 0.0036090592093492276 0 -0.03746472538207845 0.0029787823033031041 0 -0.038062478924134786 0.0022974950791303729 0 -0.037916267941558425 0.0027800489084789598 0 -0.038095146574527138 0.0031843053193999996 0 -0.038283245545375828 0.0028468243792776509 0 -0.038062478924134786 0.0022974950791303729 0 -0.038095146574527138 0.0031843053193999996 0 -0.038018034127204822 0.0041500741296005179 0 -0.038274653604247082 0.0037923427828623212 0 -0.038095146574527138 0.0031843053193999996 0 -0.038018034127204822 0.0041500741296005179 0 -0.038095146574527138 0.0031843053193999996 0 -0.037733266238887599 0.0036090592093492276 0 -0.037916267941558425 0.0027800489084789598 0 -0.038095146574527138 0.0031843053193999996 0 -0.037733266238887599 0.0036090592093492276 0 -0.037733266238887599 0.0036090592093492276 0 -0.037055629305545359 0.0040522466916096773 0 -0.03746472538207845 0.0029787823033031041 0 -0.037055629305545359 0.0040522466916096773 0 -0.036757812730028643 0.0031182246071142479 0 -0.03746472538207845 0.0029787823033031041 0 -0.036211753972326191 0.0043717340368468628 0 -0.037055629305545359 0.0040522466916096773 0 -0.036757812730028643 0.0031182246071142479 0 -0.036757812730028643 0.0031182246071142479 0 -0.03746472538207845 0.0029787823033031041 0 -0.03713408890394037 0.0021233687002767455 0 -0.036757812730028643 0.0031182246071142479 0 -0.03713408890394037 0.0021233687002767455 0 -0.036025664104311017 0.0020771789341596119 0 -0.037916267941558425 0.0027800489084789598 0 -0.03746472538207845 0.0029787823033031041 0 -0.03796744954633563 0.0020362826521470217 0 -0.03746472538207845 0.0029787823033031041 0 -0.03796744954633563 0.0020362826521470217 0 -0.03713408890394037 0.0021233687002767455 0 -0.03796744954633563 0.0020362826521470217 0 -0.037772968521877719 0.00087531202273609138 0 -0.03713408890394037 0.0021233687002767455 0 -0.037772968521877719 0.00087531202273609138 0 -0.036724910448158343 0.00100244946727269 0 -0.03713408890394037 0.0021233687002767455 0 -0.037483692908263873 -0.0002567053304981547 0 -0.037772968521877719 0.00087531202273609138 0 -0.036724910448158343 0.00100244946727269 0 -0.036724910448158343 0.00100244946727269 0 -0.03713408890394037 0.0021233687002767455 0 -0.036025664104311017 0.0020771789341596119 0 -0.03634082379607876 -0.00055089330583782728 0 -0.036724910448158343 0.00100244946727269 0 -0.035857411693168341 0.00058331656200717437 0 -0.036724910448158343 0.00100244946727269 0 -0.036025664104311017 0.0020771789341596119 0 -0.035857411693168341 0.00058331656200717437 0 -0.034999774057907079 -0.00084639952188409644 0 -0.035857411693168341 0.00058331656200717437 0 -0.034999821182313727 0.0010640193244404834 0 -0.036025664104311017 0.0020771789341596119 0 -0.035857411693168341 0.00058331656200717437 0 -0.034999821182313727 0.0010640193244404834 0 -0.036025664104311017 0.0020771789341596119 0 -0.034999821182313727 0.0010640193244404834 0 -0.034999789356663993 0.0029748977684223681 0 -0.036025664104311017 0.0020771789341596119 0 -0.034999789356663993 0.0029748977684223681 0 -0.035825076781170084 0.0034666096863463312 0 -0.036757812730028643 0.0031182246071142479 0 -0.036025664104311017 0.0020771789341596119 0 -0.035825076781170084 0.0034666096863463312 0 -0.036211753972326191 0.0043717340368468628 0 -0.036757812730028643 0.0031182246071142479 0 -0.035825076781170084 0.0034666096863463312 0 -0.034999810437684291 0.0048856314200185014 0 -0.036211753972326191 0.0043717340368468628 0 -0.035825076781170084 0.0034666096863463312 0 -0.034999810437684291 0.0048856314200185014 0 -0.034999789356663993 0.0029748977684223681 0 -0.035825076781170084 0.0034666096863463312 0 -0.034254385034077676 0.0014962775072858024 0 -0.035113206818141438 0.0011267899343106401 0 -0.034593377736634102 0.0024329671912520509 0 -0.034254385034077676 0.0014962775072858024 0 -0.033256711210845294 0.0017276616957937938 0 -0.034031363832916023 0.00068712442241297613 0 -0.034254385034077676 0.0014962775072858024 0 -0.035113206818141438 0.0011267899343106401 0 -0.034031363832916023 0.00068712442241297613 0 -0.037804075067329336 0.0040894725937389948 0 -0.038020055609388946 0.0030607898743582329 0 -0.040555818545731467 0.0051315525859762174 0 -0.040355982703071683 0.0049862465573542224 0 -0.040241585959721493 0.004458212206012795 0 -0.035113206818141438 0.0011267899343106401 0 -0.034593377736634102 0.0024329671912520509 0 -0.035947411663781299 0.00199250290334932 0 -0.04043023903662038 0.0052687902197042216 0 -0.040355982703071683 0.0049862465573542224 0 -0.040356080241710515 0.0052527471420077618 0 -0.037804075067329336 0.0040894725937389948 0 -0.040355308421014847 0.0050834663901859548 0 -0.034593377736634102 0.0024329671912520509 0 -0.035947411663781299 0.00199250290334932 0 -0.035841483373372465 0.0031131957780392728 0 -0.034267470324164009 -0.0012731553816627971 0 -0.032755039894948275 -0.0035992909565478585 0 -0.034254385034077676 0.0014962775072858024 0 -0.034593377736634102 0.0024329671912520509 0 -0.033256711210845294 0.0017276616957937938 0 -0.033956756329801635 -0.0052725889393392322 0 -0.031523429579139006 -0.0049730900944405521 0 -0.031720141913311371 -0.0066633873570587686 0 -0.031523429579139006 -0.0049730900944405521 0 -0.03036954642099433 -0.0058401738935124599 0 -0.031720141913311371 -0.0066633873570587686 0 -0.03036954642099433 -0.0058401738935124599 0 -0.030215019410460779 -0.0044282885780488239 0 -0.029151607877760541 -0.0056466054847016276 0 -0.031523429579139006 -0.0049730900944405521 0 -0.03036954642099433 -0.0058401738935124599 0 -0.030215019410460779 -0.0044282885780488239 0 -0.03036954642099433 -0.0058401738935124599 0 -0.029275796812148581 -0.0071646741604555492 0 -0.029151607877760541 -0.0056466054847016276 0 -0.032755039894948275 -0.0035992909565478585 0 -0.026888454048607388 0.0048605138622777174 0 -0.03036954642099433 -0.0058401738935124599 0 -0.029275796812148581 -0.0071646741604555492 0 -0.031720141913311371 -0.0066633873570587686 0 -0.029275796812148581 -0.0071646741604555492 0 -0.031720141913311371 -0.0066633873570587686 0 -0.028898484564732072 -0.0085745189196166673 0 -0.035861916002930663 0.0050457161762910291 0 -0.036097796108818109 0.0048761326710166624 0 -0.036365590787728705 0.0050557402703036982 0 -0.033319122192652748 0.0059478956969176849 0 -0.034873642621255141 0.0026230776539634504 0 -0.033256711210845294 0.0017276616957937938 0 -0.032900566541576914 0.0002613403125949201 0 -0.034031363832916023 0.00068712442241297613 0 -0.035861916002930663 0.0050457161762910291 0 -0.036365590787728705 0.0050557402703036982 0 -0.036386413495153251 0.0052125971224635205 0 -0.030332911819976483 0.0084814542688568268 0 -0.027778448012042566 0.0074955552594187158 0 -0.028134400444152673 0.010044560037147333 0 -0.033256711210845294 0.0017276616957937938 0 -0.032900566541576914 0.0002613403125949201 0 -0.031865949132678144 0.00097993115511932371 0 -0.033319122192652748 0.0059478956969176849 0 -0.026888454048607388 0.0048605138622777174 0 -0.035918590198504505 0.0062613007127445231 0 -0.036566302602706824 0.0064571305482512536 0 -0.033319122192652748 0.0059478956969176849 0 -0.029742367884317646 0.0082032752245541386 0 -0.031920850340313618 0.0072197585141290793 0 -0.033475136981784274 0.0095283931238586139 0 -0.031432980430755965 0.0087434827986312587 0 -0.031920850340313618 0.0072197585141290793 0 -0.033475136981784274 0.0095283931238586139 0 -0.034344193823761582 0.0089055099543375021 0 -0.038996144193927711 0.0055336395838493707 0 -0.038072329753608559 0.0054665287906921368 0 -0.039107570651287393 0.0060737634020076557 0 -0.036295293695274192 0.0048498683553617888 0 -0.036191912295018704 0.0049298237721318045 0 -0.036365590787728705 0.0050557402703036982 0 -0.036566302602706824 0.0064571305482512536 0 -0.035969496706704941 0.0051247508815672948 0 -0.038303414808584388 0.0054952552832901805 0 -0.036566302602706824 0.0064571305482512536 0 -0.033319122192652748 0.0059478956969176849 0 -0.036566302602706824 0.0064571305482512536 0 -0.039119574230857337 0.0058168933439359041 0 -0.038303414808584388 0.0054952552832901805 0 -0.038996144193927711 0.0055336395838493707 0 -0.039334734094106191 0.0059062039098256086 0 -0.039107570651287393 0.0060737634020076557 0 -0.038996144193927711 0.0055336395838493707 0 -0.039444957297320428 0.0058309376917377873 0 -0.039729940546375707 0.0055932896512237203 0 -0.039743162137740269 0.0055769620207981874 0 -0.039729940546375707 0.0055932896512237203 0 -0.039981533223347916 0.0055221389056030086 0 -0.038303414808584388 0.0054952552832901805 0 -0.039193304328983727 0.0052566872068541427 0 -0.039951264885611737 0.0054465697397030836 0 -0.039729940546375707 0.0055932896512237203 0 -0.039981533223347916 0.0055221389056030086 0 -0.038303414808584388 0.0054952552832901805 0 -0.038425754128429537 0.005406500828290129 0 -0.039743162137740269 0.0055769620207981874 0 -0.039981533223347916 0.0055221389056030086 0 -0.040103687679787003 0.0055343754440257634 0 -0.037804075067329336 0.0040894725937389948 0 -0.034873642621255141 0.0026230776539634504 0 -0.036815764085632578 0.0053424241896549637 0 -0.036541759664814363 0.0050927055489203106 0 -0.036386413495153251 0.0052125971224635205 0 -0.036295293695274192 0.0048498683553617888 0 -0.036365590787728705 0.0050557402703036982 0 -0.036541759664814363 0.0050927055489203106 0 -0.036365590787728705 0.0050557402703036982 0 -0.036541759664814363 0.0050927055489203106 0 -0.036386413495153251 0.0052125971224635205 0 -0.039981533223347916 0.0055221389056030086 0 -0.040103687679787003 0.0055343754440257634 0 -0.040407053378108938 0.0054219403856670617 0 -0.040407053378108938 0.0054219403856670617 0 -0.040303747556843912 0.0059090986974326062 0 -0.040167020654739101 0.0052824064725989868 0 -0.040356080241710515 0.0052527471420077618 0 -0.040407053378108938 0.0054219403856670617 0 -0.040167020654739101 0.0052824064725989868 0 -0.04043023903662038 0.0052687902197042216 0 -0.040356080241710515 0.0052527471420077618 0 -0.040407053378108938 0.0054219403856670617 0 -0.04043023903662038 0.0052687902197042216 0 -0.040103687679787003 0.0055343754440257634 0 -0.040407053378108938 0.0054219403856670617 0 -0.037804075067329336 0.0040894725937389948 0 -0.038425754128429537 0.005406500828290129 0 -0.041095220446786568 0.0063846838832694406 0 -0.040407053378108938 0.0054219403856670617 0 -0.040303747556843912 0.0059090986974326062 0 -0.040472125446189146 0.0064175132889219407 0 -0.041095220446786568 0.0063846838832694406 0 -0.040303747556843912 0.0059090986974326062 0 -0.039951264885611737 0.0054465697397030836 0 -0.039981533223347916 0.0055221389056030086 0 -0.040407053378108938 0.0054219403856670617 0 -0.040537029964785518 0.0059099811978392926 0 -0.04041303316574793 0.005489304915403284 0 -0.040059183328812316 0.0064460964233022701 0 -0.040303747556843912 0.0059090986974326062 0 -0.039866990494596383 0.0057308936007015397 0 -0.039498640419510588 0.0065378376011676108 0 -0.040059183328812316 0.0064460964233022701 0 -0.039866990494596383 0.0057308936007015397 0 -0.040059183328812316 0.0064460964233022701 0 -0.040472125446189146 0.0064175132889219407 0 -0.040303747556843912 0.0059090986974326062 0 -0.038758175101286499 0.0066919064739169518 0 -0.039498640419510588 0.0065378376011676108 0 -0.039358441435955051 0.005495480954519915 0 -0.039498640419510588 0.0065378376011676108 0 -0.039866990494596383 0.0057308936007015397 0 -0.039358441435955051 0.005495480954519915 0 -0.039866990494596383 0.0057308936007015397 0 -0.039358441435955051 0.005495480954519915 0 -0.039772232687145491 0.0049997175855022368 0 -0.039358441435955051 0.005495480954519915 0 -0.03940298336432612 0.0046742125396211816 0 -0.039772232687145491 0.0049997175855022368 0 -0.040303747556843912 0.0059090986974326062 0 -0.039866990494596383 0.0057308936007015397 0 -0.040167020654739101 0.0052824064725989868 0 -0.039866990494596383 0.0057308936007015397 0 -0.040167020654739101 0.0052824064725989868 0 -0.039772232687145491 0.0049997175855022368 0 -0.040355982703071683 0.0049862465573542224 0 -0.040356080241710515 0.0052527471420077618 0 -0.040167020654739101 0.0052824064725989868 0 -0.038827023199474744 0.0062253529584207143 0 -0.039252608214386184 0.0054176604267677959 0 -0.039055327376626314 0.006123070922134652 0 -0.039614634258907551 0.0063528892243148094 0 -0.039499250876264533 0.0056560255606411475 0 -0.03918666422127335 0.005436760449545614 0 -0.038827023199474744 0.0062253529584207143 0 -0.038758175101286499 0.0066919064739169518 0 -0.039358441435955051 0.005495480954519915 0 -0.037851466281212054 0.0062918232308305008 0 -0.039358441435955051 0.005495480954519915 0 -0.039041813654903661 0.0055594275022084281 0 -0.03901365336265307 0.0052680600571273261 0 -0.039358441435955051 0.005495480954519915 0 -0.039197293929319657 0.0050105407206443384 0 -0.03901365336265307 0.0052680600571273261 0 -0.039358441435955051 0.005495480954519915 0 -0.039197293929319657 0.0050105407206443384 0 -0.03940298336432612 0.0046742125396211816 0 -0.039252608214386184 0.0054176604267677959 0 -0.039126940737914603 0.0049142468613215685 0 -0.039197293929319657 0.0050105407206443384 0 -0.03901365336265307 0.0052680600571273261 0 -0.039088214360655224 0.0047984047063791089 0 -0.039001860927247035 0.0055119858853328423 0 -0.039499250876264533 0.0056560255606411475 0 -0.039088214360655224 0.0047984047063791089 0 -0.039197293929319657 0.0050105407206443384 0 -0.039088214360655224 0.0047984047063791089 0 -0.03940298336432612 0.0046742125396211816 0 -0.039088214360655224 0.0047984047063791089 0 -0.03940298336432612 0.0046742125396211816 0 -0.039005985118178807 0.0040941455121843162 0 -0.03940298336432612 0.0046742125396211816 0 -0.039453949391588257 0.0038362530401418781 0 -0.039005985118178807 0.0040941455121843162 0 -0.03940298336432612 0.0046742125396211816 0 -0.039453949391588257 0.0038362530401418781 0 -0.039832813698606008 0.0044400428831462531 0 -0.040076487742943173 0.0048271524698395201 0 -0.039832813698606008 0.0044400428831462531 0 -0.040241585959721493 0.004458212206012795 0 -0.040355982703071683 0.0049862465573542224 0 -0.040076487742943173 0.0048271524698395201 0 -0.040241585959721493 0.004458212206012795 0 -0.040355982703071683 0.0049862465573542224 0 -0.040167020654739101 0.0052824064725989868 0 -0.040076487742943173 0.0048271524698395201 0 -0.040167020654739101 0.0052824064725989868 0 -0.040076487742943173 0.0048271524698395201 0 -0.039772232687145491 0.0049997175855022368 0 -0.03940298336432612 0.0046742125396211816 0 -0.039772232687145491 0.0049997175855022368 0 -0.039832813698606008 0.0044400428831462531 0 -0.040076487742943173 0.0048271524698395201 0 -0.039772232687145491 0.0049997175855022368 0 -0.039832813698606008 0.0044400428831462531 0 -0.039832813698606008 0.0044400428831462531 0 -0.040241585959721493 0.004458212206012795 0 -0.039977286897792952 0.0037488994960872568 0 -0.039453949391588257 0.0038362530401418781 0 -0.039832813698606008 0.0044400428831462531 0 -0.039977286897792952 0.0037488994960872568 0 -0.038020055609388946 0.0030607898743582329 0 -0.038395821574196048 0.00337137858395218 0 -0.035947411663781299 0.00199250290334932 0 -0.035841483373372465 0.0031131957780392728 0 -0.036748485708443274 0.0028195456142165289 0 -0.038395821574196048 0.00337137858395218 0 -0.038561533220691613 0.0027317354871532534 0 -0.035841483373372465 0.0031131957780392728 0 -0.036748485708443274 0.0028195456142165289 0 -0.037029644248888396 0.0037848686233980292 0 -0.036748485708443274 0.0028195456142165289 0 -0.037029644248888396 0.0037848686233980292 0 -0.037539405395797087 0.003626907293739635 0 -0.035984599240443949 -0.00036708218687503885 0 -0.037792797496658995 0.00033624196615682434 0 -0.037362514813180592 3.7859141202853641e-05 0 -0.038142866774706442 0.0011655836751932006 0 -0.037349781357022716 0.00075191482735991865 0 -0.037792797496658995 0.00033624196615682434 0 -0.035670320745269074 -0.0013414579080485982 0 -0.037362514813180592 3.7859141202853641e-05 0 -0.036683322978500084 0.00037121829301414532 0 -0.035698325465369191 -0.0004958731908612814 0 -0.036168486875625336 -0.00387546895962503 0 -0.038330228707155606 -0.0025139994049846646 0 -0.035717650287185612 -0.0017440137290999377 0 -0.039453949391588257 0.0038362530401418781 0 -0.039005985118178807 0.0040941455121843162 0 -0.038637621449949047 0.0028628347141061617 0 -0.039453949391588257 0.0038362530401418781 0 -0.038637621449949047 0.0028628347141061617 0 -0.039548640044239997 0.0029202146729063565 0 -0.039453949391588257 0.0038362530401418781 0 -0.039977286897792952 0.0037488994960872568 0 -0.039548640044239997 0.0029202146729063565 0 -0.037792797496658995 0.00033624196615682434 0 -0.038561533220691613 0.0027317354871532534 0 -0.038876248069343006 0.0016177866058610347 0 -0.038343359594371476 0.0016821725527033031 0 -0.038327311401945216 0.0015475057719147695 0 -0.037792797496658995 0.00033624196615682434 0 -0.038263509490526856 0.0010588017876552898 0 -0.038876248069343006 0.0016177866058610347 0 -0.038327311401945216 0.0015475057719147695 0 -0.038142866774706442 0.0011655836751932006 0 -0.038327311401945216 0.0015475057719147695 0 -0.038322497327613468 0.001779116779547765 0 -0.038142866774706442 0.0011655836751932006 0 -0.038322497327613468 0.001779116779547765 0 -0.038142866774706442 0.0011655836751932006 0 -0.038118730481928896 0.0014467761014752996 0 -0.038343359594371476 0.0016821725527033031 0 -0.038327311401945216 0.0015475057719147695 0 -0.038322497327613468 0.001779116779547765 0 -0.038637621449949047 0.0028628347141061617 0 -0.038322497327613468 0.001779116779547765 0 -0.038305567463941349 0.0019220546401060954 0 -0.038637621449949047 0.0028628347141061617 0 -0.038343359594371476 0.0016821725527033031 0 -0.038322497327613468 0.001779116779547765 0 -0.038304991593801456 0.0022294074941367451 0 -0.038637621449949047 0.0028628347141061617 0 -0.038305567463941349 0.0019220546401060954 0 -0.038704631478596964 0.0026865343328223538 0 -0.038561533220691613 0.0027317354871532534 0 -0.038322497327613468 0.001779116779547765 0 -0.038305567463941349 0.0019220546401060954 0 -0.038118730481928896 0.0014467761014752996 0 -0.038120424615560242 0.001693173517905695 0 -0.038118730481928896 0.0014467761014752996 0 -0.037780737622037583 0.0014427875795399161 0 -0.038304991593801456 0.0022294074941367451 0 -0.038305567463941349 0.0019220546401060954 0 -0.038120424615560242 0.001693173517905695 0 -0.038305567463941349 0.0019220546401060954 0 -0.038120424615560242 0.001693173517905695 0 -0.038118730481928896 0.0014467761014752996 0 -0.038118730481928896 0.0014467761014752996 0 -0.037805298959005661 0.0012028288563170149 0 -0.037780737622037583 0.0014427875795399161 0 -0.038142866774706442 0.0011655836751932006 0 -0.038118730481928896 0.0014467761014752996 0 -0.037805298959005661 0.0012028288563170149 0 -0.038142866774706442 0.0011655836751932006 0 -0.037805298959005661 0.0012028288563170149 0 -0.037349781357022716 0.00075191482735991865 0 -0.037805298959005661 0.0012028288563170149 0 -0.037474375947482083 0.0012007436041304006 0 -0.037349781357022716 0.00075191482735991865 0 -0.037805298959005661 0.0012028288563170149 0 -0.037474375947482083 0.0012007436041304006 0 -0.037780737622037583 0.0014427875795399161 0 -0.037373902522764561 0.0014614487128877416 0 -0.037474375947482083 0.0012007436041304006 0 -0.037780737622037583 0.0014427875795399161 0 -0.037373902522764561 0.0014614487128877416 0 -0.037780737622037583 0.0014427875795399161 0 -0.037679763899428807 0.0016537618211602319 0 -0.038034983894834173 0.0017583389002210979 0 -0.038120424615560242 0.001693173517905695 0 -0.037679763899428807 0.0016537618211602319 0 -0.038120424615560242 0.001693173517905695 0 -0.037780737622037583 0.0014427875795399161 0 -0.037679763899428807 0.0016537618211602319 0 -0.036050546780639299 0.00045682508565770695 0 -0.036683322978500084 0.00037121829301414532 0 -0.035698325465369191 -0.0004958731908612814 0 -0.036050546780639299 0.00045682508565770695 0 -0.036683322978500084 0.00037121829301414532 0 -0.036895799231956551 0.00097166630689045342 0 -0.037362514813180592 3.7859141202853641e-05 0 -0.036683322978500084 0.00037121829301414532 0 -0.037349781357022716 0.00075191482735991865 0 -0.037474375947482083 0.0012007436041304006 0 -0.037349781357022716 0.00075191482735991865 0 -0.036895799231956551 0.00097166630689045342 0 -0.036683322978500084 0.00037121829301414532 0 -0.037349781357022716 0.00075191482735991865 0 -0.036895799231956551 0.00097166630689045342 0 -0.037373902522764561 0.0014614487128877416 0 -0.036895799231956551 0.00097166630689045342 0 -0.036125096565896783 0.0011770774467964856 0 -0.037373902522764561 0.0014614487128877416 0 -0.037474375947482083 0.0012007436041304006 0 -0.036895799231956551 0.00097166630689045342 0 -0.036050546780639299 0.00045682508565770695 0 -0.036125096565896783 0.0011770774467964856 0 -0.034871050159741582 0.00035151778105496574 0 -0.036050546780639299 0.00045682508565770695 0 -0.036895799231956551 0.00097166630689045342 0 -0.036125096565896783 0.0011770774467964856 0 -0.034879472357708038 0.0013248405798222686 0 -0.036125096565896783 0.0011770774467964856 0 -0.034871050159741582 0.00035151778105496574 0 -0.034871050159741582 0.00035151778105496574 0 -0.032892997457838011 0.00044526110930429838 0 -0.033137876229494524 -0.00093878226183070977 0 -0.034879472357708038 0.0013248405798222686 0 -0.034871050159741582 0.00035151778105496574 0 -0.032892997457838011 0.00044526110930429838 0 -0.036050546780639299 0.00045682508565770695 0 -0.034871050159741582 0.00035151778105496574 0 -0.035698325465369191 -0.0004958731908612814 0 -0.033204972615986032 -0.00080169753148312995 0 -0.035670320745269074 -0.0013414579080485982 0 -0.034871050159741582 0.00035151778105496574 0 -0.033137876229494524 -0.00093878226183070977 0 -0.035698325465369191 -0.0004958731908612814 0 -0.036168486875625336 -0.00387546895962503 0 -0.034303998640708572 -0.0031328356306315431 0 -0.035717650287185612 -0.0017440137290999377 0 -0.033137876229494524 -0.00093878226183070977 0 -0.034303998640708572 -0.0031328356306315431 0 -0.035717650287185612 -0.0017440137290999377 0 -0.033137876229494524 -0.00093878226183070977 0 -0.034303998640708572 -0.0031328356306315431 0 -0.032326352653111547 -0.003597052895539321 0 -0.033956756329801635 -0.0052725889393392322 0 -0.034303998640708572 -0.0031328356306315431 0 -0.032326352653111547 -0.003597052895539321 0 -0.034267470324164009 -0.0012731553816627971 0 -0.035984599240443949 -0.00036708218687503885 0 -0.033956756329801635 -0.0052725889393392322 0 -0.036168486875625336 -0.00387546895962503 0 -0.034303998640708572 -0.0031328356306315431 0 -0.030215019410460779 -0.0044282885780488239 0 -0.0307945664659665 -0.0021819521163739014 0 -0.029283085651321754 -0.0034484678373328899 0 -0.033956756329801635 -0.0052725889393392322 0 -0.031523429579139006 -0.0049730900944405521 0 -0.032326352653111547 -0.003597052895539321 0 -0.031523429579139006 -0.0049730900944405521 0 -0.030215019410460779 -0.0044282885780488239 0 -0.032326352653111547 -0.003597052895539321 0 -0.030215019410460779 -0.0044282885780488239 0 -0.032326352653111547 -0.003597052895539321 0 -0.0307945664659665 -0.0021819521163739014 0 -0.033137876229494524 -0.00093878226183070977 0 -0.032326352653111547 -0.003597052895539321 0 -0.0307945664659665 -0.0021819521163739014 0 -0.0307945664659665 -0.0021819521163739014 0 -0.029118971916005397 -0.0022775723907829571 0 -0.029283085651321754 -0.0034484678373328899 0 -0.030343171503363655 -0.0011200179632684197 0 -0.03115399983806531 7.0107017668146675e-05 0 -0.028864840039590518 -0.00073351269710792495 0 -0.030343171503363655 -0.0011200179632684197 0 -0.031630601668879085 -0.00073614172913122127 0 -0.03115399983806531 7.0107017668146675e-05 0 -0.0307945664659665 -0.0021819521163739014 0 -0.030343171503363655 -0.0011200179632684197 0 -0.029118971916005397 -0.0022775723907829571 0 -0.0307945664659665 -0.0021819521163739014 0 -0.030343171503363655 -0.0011200179632684197 0 -0.031630601668879085 -0.00073614172913122127 0 -0.033137876229494524 -0.00093878226183070977 0 -0.0307945664659665 -0.0021819521163739014 0 -0.031630601668879085 -0.00073614172913122127 0 -0.032892997457838011 0.00044526110930429838 0 -0.033137876229494524 -0.00093878226183070977 0 -0.031630601668879085 -0.00073614172913122127 0 -0.030475781060079515 0.0017423299802676168 0 -0.032892997457838011 0.00044526110930429838 0 -0.03115399983806531 7.0107017668146675e-05 0 -0.032892997457838011 0.00044526110930429838 0 -0.031630601668879085 -0.00073614172913122127 0 -0.03115399983806531 7.0107017668146675e-05 0 -0.03115399983806531 7.0107017668146675e-05 0 -0.028281755410052935 4.0719753384067048e-06 0 -0.026540393969232034 -0.003531054440074718 0 -0.030934263709562673 -0.00012376042335491972 0 -0.027682454509153728 -0.0020592439398771497 0 -0.030475781060079515 0.0017423299802676168 0 -0.03115399983806531 7.0107017668146675e-05 0 -0.028281755410052935 4.0719753384067048e-06 0 -0.028281755410052935 4.0719753384067048e-06 0 -0.025464615080876097 -0.0015578302462102779 0 -0.026540393969232034 -0.003531054440074718 0 -0.02608831172497196 0.00038855847949516439 0 -0.028281755410052935 4.0719753384067048e-06 0 -0.025464615080876097 -0.0015578302462102779 0 -0.025464615080876097 -0.0015578302462102779 0 -0.023056904711203911 -0.0029982191458156802 0 -0.026540393969232034 -0.003531054440074718 0 -0.02608831172497196 0.00038855847949516439 0 -0.024166188035375947 -0.0014363205536726401 0 -0.022123906249533459 -0.0014252396588961258 0 -0.02608831172497196 0.00038855847949516439 0 -0.025464615080876097 -0.0015578302462102779 0 -0.024166188035375947 -0.0014363205536726401 0 -0.024166188035375947 -0.0014363205536726401 0 -0.023056904711203911 -0.0029982191458156802 0 -0.022123906249533459 -0.0014252396588961258 0 -0.025464615080876097 -0.0015578302462102779 0 -0.024166188035375947 -0.0014363205536726401 0 -0.023056904711203911 -0.0029982191458156802 0 -0.023056904711203911 -0.0029982191458156802 0 -0.026540393969232034 -0.003531054440074718 0 -0.022931965627554497 -0.0049173160141310103 0 -0.027682454509153728 -0.0020592439398771497 0 -0.02481351450034289 -0.003479696521414504 0 -0.028864840039590518 -0.00073351269710792495 0 -0.026326783488130334 -0.0019597109049738944 0 -0.027805244064895766 -0.0023881224476279142 0 -0.030343171503363655 -0.0011200179632684197 0 -0.028864840039590518 -0.00073351269710792495 0 -0.029118971916005397 -0.0022775723907829571 0 -0.028864840039590518 -0.00073351269710792495 0 -0.029118971916005397 -0.0022775723907829571 0 -0.027805244064895766 -0.0023881224476279142 0 -0.018002332853398726 -0.0044686242802569843 0 -0.018899869548662955 -0.0055631742207801049 0 -0.01684285536422718 -0.0049897984643027925 0 -0.020032691793528935 -0.0048007684036468039 0 -0.018272557735596912 -0.0040262375292942484 0 -0.018002332853398726 -0.0044686242802569843 0 -0.018002332853398726 -0.0044686242802569843 0 -0.022123906249533459 -0.0014252396588961258 0 -0.018899869548662955 -0.0055631742207801049 0 -0.022746267955264379 -0.0032758178552047086 0 -0.019976534547231039 -0.0043229923233956665 0 -0.018360460517967858 -0.0042715933778513134 0 -0.021364305755429937 -0.0032824143465544162 0 -0.023056904711203911 -0.0029982191458156802 0 -0.022123906249533459 -0.0014252396588961258 0 -0.018899869548662955 -0.0055631742207801049 0 -0.020032691793528935 -0.0048007684036468039 0 -0.018002332853398726 -0.0044686242802569843 0 -0.020279238158566543 -0.0051333232612917005 0 -0.023056904711203911 -0.0029982191458156802 0 -0.022095637464953983 -0.0039642808208281291 0 -0.022931965627554497 -0.0049173160141310103 0 -0.023056904711203911 -0.0029982191458156802 0 -0.022095637464953983 -0.0039642808208281291 0 -0.021118768653353534 -0.0033550951799522517 0 -0.022095637464953983 -0.0039642808208281291 0 -0.021376976236076557 -0.0045526582163194322 0 -0.022931965627554497 -0.0049173160141310103 0 -0.022095637464953983 -0.0039642808208281291 0 -0.021118768653353534 -0.0033550951799522517 0 -0.021376976236076557 -0.0045526582163194322 0 -0.021118768653353534 -0.0033550951799522517 0 -0.020710419685717643 -0.0041228535955376714 0 -0.021376976236076557 -0.0045526582163194322 0 -0.021118768653353534 -0.0033550951799522517 0 -0.020710419685717643 -0.0041228535955376714 0 -0.020254567389347101 -0.0038904278350121229 0 -0.020710419685717643 -0.0041228535955376714 0 -0.020233973268425166 -0.0043793766326164461 0 -0.020254567389347101 -0.0038904278350121229 0 -0.020786362764478667 -0.0055110921036146746 0 -0.020776861083034427 -0.0045759731974039652 0 -0.020233973268425166 -0.0043793766326164461 0 -0.020710419685717643 -0.0041228535955376714 0 -0.020776861083034427 -0.0045759731974039652 0 -0.020233973268425166 -0.0043793766326164461 0 -0.020710419685717643 -0.0041228535955376714 0 -0.020776861083034427 -0.0045759731974039652 0 -0.021376976236076557 -0.0045526582163194322 0 -0.020786362764478667 -0.0055110921036146746 0 -0.020776861083034427 -0.0045759731974039652 0 -0.021376976236076557 -0.0045526582163194322 0 -0.021512447475690324 -0.0038480288457083205 0 -0.02481351450034289 -0.003479696521414504 0 -0.020786362764478667 -0.0055110921036146746 0 -0.021376976236076557 -0.0045526582163194322 0 -0.022931965627554497 -0.0049173160141310103 0 -0.023871724082317178 -0.0032716925057785949 0 -0.026326783488130334 -0.0019597109049738944 0 -0.025659899717641828 -0.0033475807862294793 0 -0.026326783488130334 -0.0019597109049738944 0 -0.025659899717641828 -0.0033475807862294793 0 -0.026789628300613769 -0.0033785124793197082 0 -0.023871724082317178 -0.0032716925057785949 0 -0.025659899717641828 -0.0033475807862294793 0 -0.025836521905590673 -0.0045727701361059124 0 -0.021512447475690324 -0.0038480288457083205 0 -0.024253569279270699 -0.0041276924512949221 0 -0.025659899717641828 -0.0033475807862294793 0 -0.025836521905590673 -0.0045727701361059124 0 -0.026789628300613769 -0.0033785124793197082 0 -0.018247232200827961 0.0059372717654666077 0 -0.016952364008679329 0.0074951187896741701 0 -0.021112060830103523 -0.0039588815491583334 0 -0.020293670355428475 -0.0036490901812090575 0 -0.019636435534463217 -0.0037391029959593695 0 -0.02048818672692641 -0.0034134385773159459 0 -0.022409805194541384 -0.003655755998244397 0 -0.021112060830103523 -0.0039588815491583334 0 -0.02048818672692641 -0.0034134385773159459 0 -0.021112060830103523 -0.0039588815491583334 0 -0.020293670355428475 -0.0036490901812090575 0 -0.021512447475690324 -0.0038480288457083205 0 -0.021054235230925304 -0.0039453598249400718 0 -0.029118971916005397 -0.0022775723907829571 0 -0.027805244064895766 -0.0023881224476279142 0 -0.027911280228725847 -0.0036009873600352333 0 -0.029118971916005397 -0.0022775723907829571 0 -0.027911280228725847 -0.0036009873600352333 0 -0.029283085651321754 -0.0034484678373328899 0 -0.026326783488130334 -0.0019597109049738944 0 -0.027805244064895766 -0.0023881224476279142 0 -0.026789628300613769 -0.0033785124793197082 0 -0.027805244064895766 -0.0023881224476279142 0 -0.027911280228725847 -0.0036009873600352333 0 -0.026789628300613769 -0.0033785124793197082 0 -0.027911280228725847 -0.0036009873600352333 0 -0.026789628300613769 -0.0033785124793197082 0 -0.027283495218714003 -0.0044729664274757086 0 -0.025836521905590673 -0.0045727701361059124 0 -0.026789628300613769 -0.0033785124793197082 0 -0.027283495218714003 -0.0044729664274757086 0 -0.027911280228725847 -0.0036009873600352333 0 -0.027283495218714003 -0.0044729664274757086 0 -0.028348088559715174 -0.0047826836800365031 0 -0.030215019410460779 -0.0044282885780488239 0 -0.028348088559715174 -0.0047826836800365031 0 -0.029283085651321754 -0.0034484678373328899 0 -0.027911280228725847 -0.0036009873600352333 0 -0.028348088559715174 -0.0047826836800365031 0 -0.029283085651321754 -0.0034484678373328899 0 -0.029275796812148581 -0.0071646741604555492 0 -0.029151607877760541 -0.0056466054847016276 0 -0.027704966373115241 -0.0058023798801521264 0 -0.030215019410460779 -0.0044282885780488239 0 -0.028348088559715174 -0.0047826836800365031 0 -0.029151607877760541 -0.0056466054847016276 0 -0.028348088559715174 -0.0047826836800365031 0 -0.029151607877760541 -0.0056466054847016276 0 -0.027704966373115241 -0.0058023798801521264 0 -0.019562952528319789 0.0048357147044051701 0 -0.026888454048607388 0.0048605138622777174 0 -0.029112070074607241 -0.0070555270124554644 0 -0.026617883552262755 -0.0054416280294309824 0 -0.029275796812148581 -0.0071646741604555492 0 -0.024239616923404653 -0.0058397293618696776 0 -0.02544738453822637 -0.0049296135697841081 0 -0.029275796812148581 -0.0071646741604555492 0 -0.024239616923404653 -0.0058397293618696776 0 -0.028898484564732072 -0.0085745189196166673 0 -0.016090123969839325 0.01512607079929295 0 -0.016086023093335504 0.015792115825450141 0 -0.018046499721316035 0.014655204160937921 0 -0.016090123969839325 0.01512607079929295 0 -0.016086023093335504 0.015792115825450141 0 -0.01535682526457631 0.015518465400927498 0 -0.024253569279270699 -0.0041276924512949221 0 -0.026617883552262755 -0.0054416280294309824 0 -0.022409805194541384 -0.003655755998244397 0 -0.024239616923404653 -0.0058397293618696776 0 -0.02544738453822637 -0.0049296135697841081 0 -0.025836521905590673 -0.0045727701361059124 0 -0.027283495218714003 -0.0044729664274757086 0 -0.027704966373115241 -0.0058023798801521264 0 -0.027283495218714003 -0.0044729664274757086 0 -0.028348088559715174 -0.0047826836800365031 0 -0.027704966373115241 -0.0058023798801521264 0 -0.018247232200827961 0.0059372717654666077 0 -0.019562952528319789 0.0048357147044051701 0 -0.015081510509464366 0.016219699990475435 0 -0.016086023093335504 0.015792115825450141 0 -0.01535682526457631 0.015518465400927498 0 -0.022409805194541384 -0.003655755998244397 0 -0.021112060830103523 -0.0039588815491583334 0 -0.024239616923404653 -0.0058397293618696776 0 -0.015081510509464366 0.016219699990475435 0 -0.014652474315621167 0.015607861831227754 0 -0.01535682526457631 0.015518465400927498 0 -0.014652474315621167 0.015607861831227754 0 -0.01535682526457631 0.015518465400927498 0 -0.014935032276287992 0.015229058522379324 0 -0.014652474315621167 0.015607861831227754 0 -0.014935032276287992 0.015229058522379324 0 -0.014530661260461623 0.015179441774372119 0 -0.01535682526457631 0.015518465400927498 0 -0.015540760169332738 0.014976377846876141 0 -0.014935032276287992 0.015229058522379324 0 -0.016090123969839325 0.01512607079929295 0 -0.01535682526457631 0.015518465400927498 0 -0.015540760169332738 0.014976377846876141 0 -0.014935032276287992 0.015229058522379324 0 -0.01477656403388153 0.014797942051784719 0 -0.014530661260461623 0.015179441774372119 0 -0.015540760169332738 0.014976377846876141 0 -0.014935032276287992 0.015229058522379324 0 -0.01477656403388153 0.014797942051784719 0 -0.01477656403388153 0.014797942051784719 0 -0.015332093881926429 0.014473768966820136 0 -0.014703845589798729 0.014276705340082718 0 -0.015540760169332738 0.014976377846876141 0 -0.01477656403388153 0.014797942051784719 0 -0.015332093881926429 0.014473768966820136 0 -0.017409341077005404 0.013906585711906245 0 -0.019226069526416194 0.013197936343307381 0 -0.015540760169332738 0.014976377846876141 0 -0.015332093881926429 0.014473768966820136 0 -0.015956683943237977 0.014702778181055772 0 -0.01950643237441373 0.013110750542696212 0 -0.021359710230380802 0.01421417753404312 0 -0.02041765623927394 0.012644247859703297 0 -0.02524814431026795 0.0065207790901163762 0 -0.027778448012042566 0.0074955552594187158 0 -0.025164306218839954 0.008295184807522369 0 -0.021435262822512506 0.012829126196723781 0 -0.021359710230380802 0.01421417753404312 0 -0.02041765623927394 0.012644247859703297 0 -0.025314059270506329 0.0095933898958024556 0 -0.019226069526416194 0.013197936343307381 0 -0.031920850340313618 0.0072197585141290793 0 -0.029398574651702668 0.0079528274478153083 0 -0.031432980430755965 0.0087434827986312587 0 -0.025314059270506329 0.0095933898958024556 0 -0.029742367884317646 0.0082032752245541386 0 -0.026888454048607388 0.0048605138622777174 0 -0.019226069526416194 0.013197936343307381 0 -0.027778448012042566 0.0074955552594187158 0 -0.028134400444152673 0.010044560037147333 0 -0.025164306218839954 0.008295184807522369 0 -0.015857919850463031 0.015416916294571049 0 -0.019226069526416194 0.013197936343307381 0 -0.016090123969839325 0.01512607079929295 0 -0.018046499721316035 0.014655204160937921 0 -0.016188885988226775 0.01352485980717073 0 -0.016090123969839325 0.01512607079929295 0 -0.015540760169332738 0.014976377846876141 0 -0.015956683943237977 0.014702778181055772 0 -0.013407305199677177 0.015479696968846721 0 -0.013056652101058188 0.01525000347505895 0 -0.013666068628077586 0.014923667148857431 0 -0.013407305199677177 0.015479696968846721 0 -0.013056652101058188 0.01525000347505895 0 -0.012899756861722372 0.015678959198004192 0 -0.013056652101058188 0.01525000347505895 0 -0.01258288759016897 0.015081009973847264 0 -0.012222229512092038 0.015521528284620612 0 -0.013056652101058188 0.01525000347505895 0 -0.012899756861722372 0.015678959198004192 0 -0.012222229512092038 0.015521528284620612 0 -0.01258288759016897 0.015081009973847264 0 -0.012052979784423335 0.014842605466551813 0 -0.013002071543770055 0.014690145021234167 0 -0.013056652101058188 0.01525000347505895 0 -0.01258288759016897 0.015081009973847264 0 -0.013002071543770055 0.014690145021234167 0 -0.013666068628077586 0.014923667148857431 0 -0.013767526819968266 0.014419109641740721 0 -0.013002071543770055 0.014690145021234167 0 -0.013056652101058188 0.01525000347505895 0 -0.013666068628077586 0.014923667148857431 0 -0.013002071543770055 0.014690145021234167 0 -0.013666068628077586 0.014923667148857431 0 -0.014248492635884756 0.014821479158460523 0 -0.014100539547890655 0.014472423044269829 0 -0.014248492635884756 0.014821479158460523 0 -0.014703845589798729 0.014276705340082718 0 -0.014100539547890655 0.014472423044269829 0 -0.01477656403388153 0.014797942051784719 0 -0.014248492635884756 0.014821479158460523 0 -0.014703845589798729 0.014276705340082718 0 -0.014248492635884756 0.014821479158460523 0 -0.014530661260461623 0.015179441774372119 0 -0.01405269139484659 0.015454720638444091 0 -0.01477656403388153 0.014797942051784719 0 -0.014248492635884756 0.014821479158460523 0 -0.014530661260461623 0.015179441774372119 0 -0.013407305199677177 0.015479696968846721 0 -0.013666068628077586 0.014923667148857431 0 -0.01405269139484659 0.015454720638444091 0 -0.013666068628077586 0.014923667148857431 0 -0.014248492635884756 0.014821479158460523 0 -0.01405269139484659 0.015454720638444091 0 -0.014652474315621167 0.015607861831227754 0 -0.01405269139484659 0.015454720638444091 0 -0.014079912250166915 0.016053942100055132 0 -0.014652474315621167 0.015607861831227754 0 -0.014530661260461623 0.015179441774372119 0 -0.01405269139484659 0.015454720638444091 0 -0.015081510509464366 0.016219699990475435 0 -0.014652474315621167 0.015607861831227754 0 -0.014079912250166915 0.016053942100055132 0 -0.01405269139484659 0.015454720638444091 0 -0.014079912250166915 0.016053942100055132 0 -0.013357742768613311 0.016006049635435088 0 -0.014079912250166915 0.016053942100055132 0 -0.013357742768613311 0.016006049635435088 0 -0.013671939973810667 0.016370389894271208 0 -0.013407305199677177 0.015479696968846721 0 -0.01405269139484659 0.015454720638444091 0 -0.013357742768613311 0.016006049635435088 0 -0.013407305199677177 0.015479696968846721 0 -0.013357742768613311 0.016006049635435088 0 -0.012899756861722372 0.015678959198004192 0 -0.013357742768613311 0.016006049635435088 0 -0.012899756861722372 0.015678959198004192 0 -0.012460592360350659 0.016014078220469356 0 -0.013357742768613311 0.016006049635435088 0 -0.012793710180666764 0.016347264184479376 0 -0.012460592360350659 0.016014078220469356 0 -0.013357742768613311 0.016006049635435088 0 -0.013149846506166414 0.016398263499468262 0 -0.012793710180666764 0.016347264184479376 0 -0.013024608244759655 0.016353697294602058 0 -0.011983207690463146 0.016071516944183351 0 -0.013149846506166414 0.016398263499468262 0 -0.012793710180666764 0.016347264184479376 0 -0.012222323983239287 0.016869980543379102 0 -0.013357742768613311 0.016006049635435088 0 -0.013149846506166414 0.016398263499468262 0 -0.013671939973810667 0.016370389894271208 0 -0.013149846506166414 0.016398263499468262 0 -0.013671939973810667 0.016370389894271208 0 -0.013572725461713144 0.016886417494961743 0 -0.013149846506166414 0.016398263499468262 0 -0.012696801059754074 0.01672665965524453 0 -0.011869224249325456 0.015287417788880884 0 -0.013149846506166414 0.016398263499468262 0 -0.012696801059754074 0.01672665965524453 0 -0.013572725461713144 0.016886417494961743 0 -0.015081510509464366 0.016219699990475435 0 -0.014079912250166915 0.016053942100055132 0 -0.014266940334989023 0.016577415991833808 0 -0.014079912250166915 0.016053942100055132 0 -0.013671939973810667 0.016370389894271208 0 -0.014266940334989023 0.016577415991833808 0 -0.013671939973810667 0.016370389894271208 0 -0.014266940334989023 0.016577415991833808 0 -0.013572725461713144 0.016886417494961743 0 -0.019636435534463217 -0.0037391029959593695 0 -0.019318224325719363 -0.0037654371282976134 0 -0.018857402528338289 -0.0037560064748302386 0 -0.016952364008679329 0.0074951187896741701 0 -0.014687309401920918 4.9706196262974895e-05 0 -0.020786362764478667 -0.0055110921036146746 0 -0.020233973268425166 -0.0043793766326164461 0 -0.019318224325719363 -0.0037654371282976134 0 -0.020408933422539122 -0.0035303112579536454 0 -0.019636435534463217 -0.0037391029959593695 0 -0.019318224325719363 -0.0037654371282976134 0 -0.021512447475690324 -0.0038480288457083205 0 -0.019174569385305047 -0.003976215515043598 0 -0.020408933422539122 -0.0035303112579536454 0 -0.020293670355428475 -0.0036490901812090575 0 -0.019636435534463217 -0.0037391029959593695 0 -0.018899869548662955 -0.0055631742207801049 0 -0.016498331780887124 -0.006284295167352255 0 -0.01684285536422718 -0.0049897984643027925 0 -0.021118768653353534 -0.0033550951799522517 0 -0.020254567389347101 -0.0038904278350121229 0 -0.019523888683200468 -0.0035294445155756244 0 -0.019976534547231039 -0.0043229923233956665 0 -0.018286937401743197 -0.0053018096056440646 0 -0.020254567389347101 -0.0038904278350121229 0 -0.019817942208106384 -0.0038894041342553394 0 -0.019523888683200468 -0.0035294445155756244 0 -0.020233973268425166 -0.0043793766326164461 0 -0.020254567389347101 -0.0038904278350121229 0 -0.019817942208106384 -0.0038894041342553394 0 -0.019817942208106384 -0.0038894041342553394 0 -0.019523888683200468 -0.0035294445155756244 0 -0.019318224325719363 -0.0037654371282976134 0 -0.020233973268425166 -0.0043793766326164461 0 -0.019817942208106384 -0.0038894041342553394 0 -0.019318224325719363 -0.0037654371282976134 0 -0.016498331780887124 -0.006284295167352255 0 -0.015320170379854283 -0.0056218216885832815 0 -0.014536551417286638 -0.006713187861507001 0 -0.019523888683200468 -0.0035294445155756244 0 -0.019318224325719363 -0.0037654371282976134 0 -0.018857402528338289 -0.0037560064748302386 0 -0.015320170379854283 -0.0056218216885832815 0 -0.014536551417286638 -0.006713187861507001 0 -0.014338172109444026 -0.005406832693369671 0 -0.018286937401743197 -0.0053018096056440646 0 -0.014687309401920918 4.9706196262974895e-05 0 -0.015320170379854283 -0.0056218216885832815 0 -0.015690963323890524 -0.0045277407817917309 0 -0.01684285536422718 -0.0049897984643027925 0 -0.015320170379854283 -0.0056218216885832815 0 -0.015690963323890524 -0.0045277407817917309 0 -0.014338172109444026 -0.005406832693369671 0 -0.016498331780887124 -0.006284295167352255 0 -0.015320170379854283 -0.0056218216885832815 0 -0.01684285536422718 -0.0049897984643027925 0 -0.017105807600818809 -0.0039869107183212972 0 -0.015690963323890524 -0.0045277407817917309 0 -0.01684285536422718 -0.0049897984643027925 0 -0.017105807600818809 -0.0039869107183212972 0 -0.018002332853398726 -0.0044686242802569843 0 -0.01684285536422718 -0.0049897984643027925 0 -0.012357435693567471 -0.0069967071186456033 0 -0.012353702788921728 -0.0059679248353705933 0 -0.013548432736299588 -0.0060425218354684448 0 -0.012357435693567471 -0.0069967071186456033 0 -0.014371111351077282 -0.0065780345494768511 0 -0.013548432736299588 -0.0060425218354684448 0 -0.012466444635000459 0.0055081707925292824 0 -0.014687309401920918 4.9706196262974895e-05 0 -0.014536551417286638 -0.006713187861507001 0 -0.013548432736299588 -0.0060425218354684448 0 -0.014338172109444026 -0.005406832693369671 0 -0.014687309401920918 4.9706196262974895e-05 0 -0.014990469805465378 -0.0059596848131924906 0 -0.014114586000416573 -0.0044935859706045486 0 -0.015690963323890524 -0.0045277407817917309 0 -0.014338172109444026 -0.005406832693369671 0 -0.014114586000416573 -0.0044935859706045486 0 -0.014338172109444026 -0.005406832693369671 0 -0.012937792411976269 -0.0051254853504711624 0 -0.013548432736299588 -0.0060425218354684448 0 -0.014338172109444026 -0.005406832693369671 0 -0.012937792411976269 -0.0051254853504711624 0 -0.01234108519890364 -0.0040558248766134081 0 -0.012937792411976269 -0.0051254853504711624 0 -0.011661788615055674 -0.0052439688266097823 0 -0.012353702788921728 -0.0059679248353705933 0 -0.012937792411976269 -0.0051254853504711624 0 -0.011661788615055674 -0.0052439688266097823 0 -0.012353702788921728 -0.0059679248353705933 0 -0.013548432736299588 -0.0060425218354684448 0 -0.012937792411976269 -0.0051254853504711624 0 -0.011661788615055674 -0.0052439688266097823 0 -0.011414351913029952 -0.006287881852752788 0 -0.010275293469552154 -0.0058632269301635946 0 -0.012353702788921728 -0.0059679248353705933 0 -0.011661788615055674 -0.0052439688266097823 0 -0.011414351913029952 -0.006287881852752788 0 -0.012357435693567471 -0.0069967071186456033 0 -0.011414351913029952 -0.006287881852752788 0 -0.01043155651060565 -0.0073905597449574686 0 -0.012357435693567471 -0.0069967071186456033 0 -0.012353702788921728 -0.0059679248353705933 0 -0.011414351913029952 -0.006287881852752788 0 -0.011414351913029952 -0.006287881852752788 0 -0.010275293469552154 -0.0058632269301635946 0 -0.01043155651060565 -0.0073905597449574686 0 -0.010424237927790044 -0.0039468477880747052 0 -0.011661788615055674 -0.0052439688266097823 0 -0.010275293469552154 -0.0058632269301635946 0 -0.010424237927790044 -0.0039468477880747052 0 -0.010275293469552154 -0.0058632269301635946 0 -0.0091998093028936665 -0.004816861034400685 0 -0.010275293469552154 -0.0058632269301635946 0 -0.0091998093028936665 -0.004816861034400685 0 -0.0089857186438823695 -0.0064886292524683172 0 -0.0091998093028936665 -0.004816861034400685 0 -0.0076736959849780361 -0.0057966743837241028 0 -0.0089857186438823695 -0.0064886292524683172 0 -0.0089473432219285103 -0.0050994593065613837 0 -0.0073171176617242741 -0.0062316204123251092 0 -0.0064284844077878598 -0.0052360212354646048 0 -0.0086845752381980654 -0.0054228432165814152 0 -0.0069735097094806124 -0.0066660830320626353 0 -0.0076736959849780361 -0.0057966743837241028 0 -0.0089857186438823695 -0.0064886292524683172 0 -0.0073962915432468331 -0.0070979604702523973 0 -0.010275293469552154 -0.0058632269301635946 0 -0.0089857186438823695 -0.0064886292524683172 0 -0.01043155651060565 -0.0073905597449574686 0 -0.0085324520132694995 0.0036978757973841611 0 -0.010696614998607763 0.0042756975059377849 0 -0.0089857186438823695 -0.0064886292524683172 0 -0.0084529884190349888 -0.0079433833840683622 0 -0.01043155651060565 -0.0073905597449574686 0 -0.0086152839761315034 0.015329088567637572 0 -0.0098226167686992823 0.014277696737635667 0 -0.010945093673065289 0.016121387021311176 0 -0.0089857186438823695 -0.0064886292524683172 0 -0.0084529884190349888 -0.0079433833840683622 0 -0.0073962915432468331 -0.0070979604702523973 0 -0.010289028108647132 0.015661440987123878 0 -0.0082275880150262833 0.015215036057026822 0 -0.0086152839761315034 0.015329088567637572 0 -0.0098226167686992823 0.014277696737635667 0 -0.0074021586425357163 0.013379322224334697 0 -0.010289028108647132 0.015661440987123878 0 -0.011983207690463146 0.016071516944183351 0 -0.010851623960844096 0.017060686057461742 0 -0.012222323983239287 0.016869980543379102 0 -0.011722972096388647 0.016320165702376734 0 -0.0098226167686992823 0.014277696737635667 0 -0.011869224249325456 0.015287417788880884 0 -0.010945093673065289 0.016121387021311176 0 -0.012793710180666764 0.016347264184479376 0 -0.012222323983239287 0.016869980543379102 0 -0.011722972096388647 0.016320165702376734 0 -0.012696801059754074 0.01672665965524453 0 -0.011869224249325456 0.015287417788880884 0 -0.010945093673065289 0.016121387021311176 0 -0.012466444635000459 0.0055081707925292824 0 -0.010696614998607763 0.0042756975059377849 0 -0.0010526421740895524 -0.0068652484394361394 0 -0.002469462189001374 -0.0069791836509585916 0 -0.0019146019374259526 -0.0081205755341435936 0 -0.002469462189001374 -0.0069791836509585916 0 -0.0021413426788808548 -0.0055840365788226787 0 -0.003641367208242062 -0.0060373220469132184 0 -0.0010526421740895524 -0.0068652484394361394 0 -0.002469462189001374 -0.0069791836509585916 0 -0.0021413426788808548 -0.0055840365788226787 0 -0.003641367208242062 -0.0060373220469132184 0 -0.0036448727561797559 -0.0071381331084110402 0 -0.0047677963831735332 -0.0066267877349711207 0 -0.0036448727561797559 -0.0071381331084110402 0 -0.0047677963831735332 -0.0066267877349711207 0 -0.0041698327025651589 -0.0077326053933711699 0 -0.002469462189001374 -0.0069791836509585916 0 -0.003641367208242062 -0.0060373220469132184 0 -0.0036448727561797559 -0.0071381331084110402 0 -0.002469462189001374 -0.0069791836509585916 0 -0.0036448727561797559 -0.0071381331084110402 0 -0.0031708288334646828 -0.0079291515501440195 0 -0.0036448727561797559 -0.0071381331084110402 0 -0.0041698327025651589 -0.0077326053933711699 0 -0.0031708288334646828 -0.0079291515501440195 0 -0.0047677963831735332 -0.0066267877349711207 0 -0.0052920447220256668 -0.0077696101651543907 0 -0.0041698327025651589 -0.0077326053933711699 0 -0.0047498831455127649 -0.0049961708857785081 0 -0.0064284844077878598 -0.0052360212354646048 0 -0.0047677963831735332 -0.0066267877349711207 0 -0.0047498831455127649 -0.0049961708857785081 0 -0.003641367208242062 -0.0060373220469132184 0 -0.0047677963831735332 -0.0066267877349711207 0 -0.0064284844077878598 -0.0052360212354646048 0 -0.0069735097094806124 -0.0066660830320626353 0 -0.0047677963831735332 -0.0066267877349711207 0 -0.0076736959849780361 -0.0057966743837241028 0 -0.0073962915432468331 -0.0070979604702523973 0 -0.0058647369585034023 -0.0070085770739059241 0 -0.0069735097094806124 -0.0066660830320626353 0 -0.0047677963831735332 -0.0066267877349711207 0 -0.0052920447220256668 -0.0077696101651543907 0 -0.0073171176617242741 -0.0062316204123251092 0 -0.0055651938612705266 -0.0074110172029345405 0 -0.0084529884190349888 -0.0079433833840683622 0 -0.0073962915432468331 -0.0070979604702523973 0 -0.0060589453020662839 -0.0086925104222940145 0 -0.0085324520132694995 0.0036978757973841611 0 -0.0060511262026755053 0.0029071424324554956 0 -0.0073962915432468331 -0.0070979604702523973 0 -0.0060589453020662839 -0.0086925104222940145 0 -0.0058647369585034023 -0.0070085770739059241 0 -0.0060333355262529266 0.01448281102264074 0 -0.0074021586425357163 0.013379322224334697 0 -0.0048335979111266483 0.012584632773823944 0 -0.0086152839761315034 0.015329088567637572 0 -0.0060333355262529266 0.01448281102264074 0 -0.0074021586425357163 0.013379322224334697 0 -0.0060333355262529266 0.01448281102264074 0 -0.003366770695731255 0.013666679502386479 0 -0.0048335979111266483 0.012584632773823944 0 -0.0060511262026755053 0.0029071424324554956 0 -0.0033326299171104854 0.0021195911515782496 0 -0.0055651938612705266 -0.0074110172029345405 0 -0.0039636950610369755 -0.0085940567127250119 0 -0.0052920447220256668 -0.0077696101651543907 0 -0.0041698327025651589 -0.0077326053933711699 0 -0.0038356856160426914 -0.0086763014464989897 0 -0.0060589453020662839 -0.0086925104222940145 0 -0.0058647369585034023 -0.0070085770739059241 0 -0.0038356856160426914 -0.0086763014464989897 0 -0.0041698327025651589 -0.0077326053933711699 0 -0.0031708288334646828 -0.0079291515501440195 0 -0.0038356856160426914 -0.0086763014464989897 0 -0.0031708288334646828 -0.0079291515501440195 0 -0.0038356856160426914 -0.0086763014464989897 0 -0.0026628696569574195 -0.0087644488152707704 0 -0.0060589453020662839 -0.0086925104222940145 0 -0.0038356856160426914 -0.0086763014464989897 0 -0.0033322892389942597 -0.0093641283088244428 0 -0.0038356856160426914 -0.0086763014464989897 0 -0.0033322892389942597 -0.0093641283088244428 0 -0.0026628696569574195 -0.0087644488152707704 0 -0.0011842941307309933 -0.0096671312565190359 0 -0.0033322892389942597 -0.0093641283088244428 0 -0.0026628696569574195 -0.0087644488152707704 0 -0.0011842941307309933 -0.0096671312565190359 0 -0.0026628696569574195 -0.0087644488152707704 0 -0.0019146019374259526 -0.0081205755341435936 0 -0.00067496336469125245 0.012920375539303515 0 -0.003366770695731255 0.013666679502386479 0 -0.0022179017217810694 0.011881636600752523 0 -0.0010688347606476393 0.0019788334281877155 0 -0.0033326299171104854 0.0021195911515782496 0 -0.002469462189001374 -0.0069791836509585916 0 -0.0031708288334646828 -0.0079291515501440195 0 -0.0019146019374259526 -0.0081205755341435936 0 -0.0031708288334646828 -0.0079291515501440195 0 -0.0026628696569574195 -0.0087644488152707704 0 -0.0019146019374259526 -0.0081205755341435936 0 -0.0053038283538824702 0.015664236469118794 0 -0.0056656809725500528 0.016087785285296835 0 -0.0047751441278089954 0.016861643640376126 0 -0.0053038283538824702 0.015664236469118794 0 -0.0056656809725500528 0.016087785285296835 0 -0.0058842275157109884 0.015440344156488621 0 -0.0056656809725500528 0.016087785285296835 0 -0.0061931512870075905 0.015906614131957528 0 -0.0058842275157109884 0.015440344156488621 0 -0.0056656809725500528 0.016087785285296835 0 -0.0062373057309158819 0.016493074900776943 0 -0.0061931512870075905 0.015906614131957528 0 -0.0056656809725500528 0.016087785285296835 0 -0.0056916415791608945 0.016611084457099804 0 -0.0062373057309158819 0.016493074900776943 0 -0.0056656809725500528 0.016087785285296835 0 -0.0047751441278089954 0.016861643640376126 0 -0.0056916415791608945 0.016611084457099804 0 -0.0047751441278089954 0.016861643640376126 0 -0.0058227084425628954 0.017050964379278961 0 -0.0056916415791608945 0.016611084457099804 0 -0.0058227084425628954 0.017050964379278961 0 -0.0056916415791608945 0.016611084457099804 0 -0.0062373057309158819 0.016493074900776943 0 -0.0067347199282050182 0.016164451553013978 0 -0.0062373057309158819 0.016493074900776943 0 -0.0072713360143310543 0.017016585753465326 0 -0.003366770695731255 0.013666679502386479 0 -0.0022179017217810694 0.011881636600752523 0 -0.0048335979111266483 0.012584632773823944 0 -0.0058227084425628954 0.017050964379278961 0 -0.0062373057309158819 0.016493074900776943 0 -0.0072713360143310543 0.017016585753465326 0 -0.0039367974264872809 0.014445177831841705 0 -0.0060448803993230693 0.014803686707534213 0 -0.0067347199282050182 0.016164451553013978 0 -0.0062373057309158819 0.016493074900776943 0 -0.0061931512870075905 0.015906614131957528 0 -0.0067347199282050182 0.016164451553013978 0 -0.0061931512870075905 0.015906614131957528 0 -0.0065191926368507744 0.015446030580546017 0 -0.0067347199282050182 0.016164451553013978 0 -0.0072655383757962355 0.015656562971684933 0 -0.0065191926368507744 0.015446030580546017 0 -0.0073467363249724721 0.01524091109796695 0 -0.0083672401305857191 0.01688947782727182 0 -0.0072655383757962355 0.015656562971684933 0 -0.0073968537787635954 0.016415802605428419 0 -0.0083757413638975483 0.016863985218252567 0 -0.0075639689567831223 0.015058680994653033 0 -0.0083757413638975483 0.016863985218252567 0 -0.0085712776007507759 0.015802807492744236 0 -0.0067347199282050182 0.016164451553013978 0 -0.0072655383757962355 0.015656562971684933 0 -0.0073968537787635954 0.016415802605428419 0 -0.0067347199282050182 0.016164451553013978 0 -0.0073968537787635954 0.016415802605428419 0 -0.0072713360143310543 0.017016585753465326 0 -0.0073968537787635954 0.016415802605428419 0 -0.0072713360143310543 0.017016585753465326 0 -0.0083757413638975483 0.016863985218252567 0 -0.0083757413638975483 0.016863985218252567 0 -0.0090319464240997821 0.016398189056599836 0 -0.0085712776007507759 0.015802807492744236 0 -0.0082275880150262833 0.015215036057026822 0 -0.0060448803993230693 0.014803686707534213 0 -0.0091283408874478188 0.01705508146364396 0 -0.0072713360143310543 0.017016585753465326 0 -0.0083757413638975483 0.016863985218252567 0 -0.0091283408874478188 0.01705508146364396 0 -0.0083757413638975483 0.016863985218252567 0 -0.0090319464240997821 0.016398189056599836 0 -0.0090319464240997821 0.016398189056599836 0 -0.0092163831425059409 0.015671819310406433 0 -0.0085712776007507759 0.015802807492744236 0 -0.0075639689567831223 0.015058680994653033 0 -0.0085712776007507759 0.015802807492744236 0 -0.0086616457985256023 0.015057208075743152 0 -0.0092163831425059409 0.015671819310406433 0 -0.0085712776007507759 0.015802807492744236 0 -0.0086616457985256023 0.015057208075743152 0 -0.0085052715536590544 0.014910840270509443 0 -0.0099230118700926427 0.015370097013814484 0 -0.0086616457985256023 0.015057208075743152 0 -0.0082427896700651131 0.014056687695745617 0 -0.0098396172221076831 0.014696119268944523 0 -0.0087285206570285236 0.015808999788723306 0 -0.0098376459968200838 0.015105972903489851 0 -0.0090137010488194527 0.01489376942984539 0 -0.0085052715536590544 0.014910840270509443 0 -0.0069604582784197821 0.014604581748714042 0 -0.0087285206570285236 0.015808999788723306 0 -0.0082854996603857374 0.015121415834851236 0 -0.0090137010488194527 0.01489376942984539 0 -0.0087285206570285236 0.015808999788723306 0 -0.0082854996603857374 0.015121415834851236 0 -0.0074771602672899385 0.015445086821641614 0 -0.0075639689567831223 0.015058680994653033 0 -0.0086616457985256023 0.015057208075743152 0 -0.0082427896700651131 0.014056687695745617 0 -0.0075639689567831223 0.015058680994653033 0 -0.0082427896700651131 0.014056687695745617 0 -0.0067313974604277004 0.013463685940001332 0 -0.0073467363249724721 0.01524091109796695 0 -0.0069604582784197821 0.014604581748714042 0 -0.0065191926368507744 0.015446030580546017 0 -0.0061301218447022019 0.015049579139889436 0 -0.0063834247990430942 0.01452734163295382 0 -0.0072655383757962355 0.015656562971684933 0 -0.0065191926368507744 0.015446030580546017 0 -0.0063834247990430942 0.01452734163295382 0 -0.0065191926368507744 0.015446030580546017 0 -0.0061301218447022019 0.015049579139889436 0 -0.0058842275157109884 0.015440344156488621 0 -0.0061931512870075905 0.015906614131957528 0 -0.0065191926368507744 0.015446030580546017 0 -0.0058842275157109884 0.015440344156488621 0 -0.0082854996603857374 0.015121415834851236 0 -0.0074771602672899385 0.015445086821641614 0 -0.0077993257886128792 0.014834394700383707 0 -0.0061301218447022019 0.015049579139889436 0 -0.0063834247990430942 0.01452734163295382 0 -0.0056856400585680866 0.014806815671862322 0 -0.0053864100987755298 0.014414718575573119 0 -0.0063834247990430942 0.01452734163295382 0 -0.0056856400585680866 0.014806815671862322 0 -0.0057842693311760465 0.014689535849970136 0 -0.0069604582784197821 0.014604581748714042 0 -0.0053415714187972103 0.015128125242316413 0 -0.0056856400585680866 0.014806815671862322 0 -0.0058842275157109884 0.015440344156488621 0 -0.0061301218447022019 0.015049579139889436 0 -0.0056856400585680866 0.014806815671862322 0 -0.0058842275157109884 0.015440344156488621 0 -0.0053415714187972103 0.015128125242316413 0 -0.0053038283538824702 0.015664236469118794 0 -0.0058842275157109884 0.015440344156488621 0 -0.011325060748748493 0.015741054129295235 0 -0.012354225804004092 0.016005890272739281 0 -0.011353947836936096 0.015334072583979326 0 -0.012460592360350659 0.016014078220469356 0 -0.011722972096388647 0.016320165702376734 0 -0.012899756861722372 0.015678959198004192 0 -0.012460592360350659 0.016014078220469356 0 -0.012222229512092038 0.015521528284620612 0 -0.011333876136668943 0.016170875582488895 0 -0.012460592360350659 0.016014078220469356 0 -0.012222229512092038 0.015521528284620612 0 -0.012793710180666764 0.016347264184479376 0 -0.012460592360350659 0.016014078220469356 0 -0.011722972096388647 0.016320165702376734 0 -0.011353947836936096 0.015334072583979326 0 -0.011722972096388647 0.016320165702376734 0 -0.010138979062991086 0.016427743590699023 0 -0.010851623960844096 0.017060686057461742 0 -0.011722972096388647 0.016320165702376734 0 -0.010138979062991086 0.016427743590699023 0 -0.0091283408874478188 0.01705508146364396 0 -0.0090319464240997821 0.016398189056599836 0 -0.010138979062991086 0.016427743590699023 0 -0.0090319464240997821 0.016398189056599836 0 -0.0092163831425059409 0.015671819310406433 0 -0.010138979062991086 0.016427743590699023 0 -0.010851623960844096 0.017060686057461742 0 -0.0091283408874478188 0.01705508146364396 0 -0.010138979062991086 0.016427743590699023 0 -0.0092163831425059409 0.015671819310406433 0 -0.010138979062991086 0.016427743590699023 0 -0.0098396172221076831 0.014696119268944523 0 -0.0092163831425059409 0.015671819310406433 0 -0.0086616457985256023 0.015057208075743152 0 -0.0098396172221076831 0.014696119268944523 0 -0.011353947836936096 0.015334072583979326 0 -0.010138979062991086 0.016427743590699023 0 -0.0098396172221076831 0.014696119268944523 0 -0.011325060748748493 0.015741054129295235 0 -0.0099230118700926427 0.015370097013814484 0 -0.011333876136668943 0.016170875582488895 0 -0.010046317957172028 0.016061125616035028 0 -0.011411267453767814 0.015512269133871073 0 -0.010046317957172028 0.016061125616035028 0 -0.0098376459968200838 0.015105972903489851 0 -0.010971296445278805 0.014885095728549468 0 -0.0087285206570285236 0.015808999788723306 0 -0.010046317957172028 0.016061125616035028 0 -0.0098376459968200838 0.015105972903489851 0 -0.010046317957172028 0.016061125616035028 0 -0.010971296445278805 0.014885095728549468 0 -0.011411267453767814 0.015512269133871073 0 -0.010971296445278805 0.014885095728549468 0 -0.011411267453767814 0.015512269133871073 0 -0.012052979784423335 0.014842605466551813 0 -0.011333876136668943 0.016170875582488895 0 -0.011411267453767814 0.015512269133871073 0 -0.012222229512092038 0.015521528284620612 0 -0.011411267453767814 0.015512269133871073 0 -0.012222229512092038 0.015521528284620612 0 -0.012052979784423335 0.014842605466551813 0 -0.01258288759016897 0.015081009973847264 0 -0.012222229512092038 0.015521528284620612 0 -0.012052979784423335 0.014842605466551813 0 -0.012052979784423335 0.014842605466551813 0 -0.012318756992688125 0.014345112721182782 0 -0.013002071543770055 0.014690145021234167 0 -0.012052979784423335 0.014842605466551813 0 -0.012318756992688125 0.014345112721182782 0 -0.011696393309687246 0.014375487611137876 0 -0.012318756992688125 0.014345112721182782 0 -0.011978176580764851 0.013861164871196563 0 -0.012810827309667202 0.014046646446189614 0 -0.012318756992688125 0.014345112721182782 0 -0.011978176580764851 0.013861164871196563 0 -0.011696393309687246 0.014375487611137876 0 -0.011148107280905123 0.014023117749157628 0 -0.01153186106186091 0.013539286854557745 0 -0.011036829302355788 0.013217768806432339 0 -0.011978176580764851 0.013861164871196563 0 -0.011148107280905123 0.014023117749157628 0 -0.01153186106186091 0.013539286854557745 0 -0.011978176580764851 0.013861164871196563 0 -0.011148107280905123 0.014023117749157628 0 -0.011696393309687246 0.014375487611137876 0 -0.010971296445278805 0.014885095728549468 0 -0.011148107280905123 0.014023117749157628 0 -0.011696393309687246 0.014375487611137876 0 -0.010971296445278805 0.014885095728549468 0 -0.012052979784423335 0.014842605466551813 0 -0.011696393309687246 0.014375487611137876 0 -0.010971296445278805 0.014885095728549468 0 -0.011148107280905123 0.014023117749157628 0 -0.010443879257847245 0.014410113605889315 0 -0.0098376459968200838 0.015105972903489851 0 -0.010971296445278805 0.014885095728549468 0 -0.010443879257847245 0.014410113605889315 0 -0.0098376459968200838 0.015105972903489851 0 -0.0096849480524183948 0.014520548214959751 0 -0.0090137010488194527 0.01489376942984539 0 -0.0098376459968200838 0.015105972903489851 0 -0.010443879257847245 0.014410113605889315 0 -0.0096849480524183948 0.014520548214959751 0 -0.0097870729665018846 0.013944456837935219 0 -0.0094799929893385326 0.013515489198261708 0 -0.008912561816253356 0.013750495439296063 0 -0.0096849480524183948 0.014520548214959751 0 -0.0097870729665018846 0.013944456837935219 0 -0.0091105012502747437 0.014287695025342984 0 -0.010443879257847245 0.014410113605889315 0 -0.0096849480524183948 0.014520548214959751 0 -0.0097870729665018846 0.013944456837935219 0 -0.0097870729665018846 0.013944456837935219 0 -0.010488239705274557 0.013781466356536168 0 -0.010025086454038356 0.013291280545192043 0 -0.011148107280905123 0.014023117749157628 0 -0.010488239705274557 0.013781466356536168 0 -0.011036829302355788 0.013217768806432339 0 -0.011148107280905123 0.014023117749157628 0 -0.010443879257847245 0.014410113605889315 0 -0.010488239705274557 0.013781466356536168 0 -0.010443879257847245 0.014410113605889315 0 -0.0097870729665018846 0.013944456837935219 0 -0.010488239705274557 0.013781466356536168 0 -0.010488239705274557 0.013781466356536168 0 -0.010025086454038356 0.013291280545192043 0 -0.011036829302355788 0.013217768806432339 0 -0.010025086454038356 0.013291280545192043 0 -0.010438452856438397 0.012658882562026149 0 -0.011036829302355788 0.013217768806432339 0 -0.0097870729665018846 0.013944456837935219 0 -0.0094799929893385326 0.013515489198261708 0 -0.010025086454038356 0.013291280545192043 0 -0.0094799929893385326 0.013515489198261708 0 -0.010025086454038356 0.013291280545192043 0 -0.009259123724135624 0.013047895789043145 0 -0.010025086454038356 0.013291280545192043 0 -0.0098440614328052824 0.01279402759953021 0 -0.009259123724135624 0.013047895789043145 0 -0.0098440614328052824 0.01279402759953021 0 -0.0094004084033285761 0.012450024036406084 0 -0.009259123724135624 0.013047895789043145 0 -0.010025086454038356 0.013291280545192043 0 -0.0098440614328052824 0.01279402759953021 0 -0.010438452856438397 0.012658882562026149 0 -0.0098440614328052824 0.01279402759953021 0 -0.0094004084033285761 0.012450024036406084 0 -0.010002377739581562 0.012118971033540833 0 -0.010438452856438397 0.012658882562026149 0 -0.011050824825099075 0.012543424046382185 0 -0.011036829302355788 0.013217768806432339 0 -0.010438452856438397 0.012658882562026149 0 -0.010746606240165947 0.012027494161680759 0 -0.010002377739581562 0.012118971033540833 0 -0.0098440614328052824 0.01279402759953021 0 -0.010438452856438397 0.012658882562026149 0 -0.010002377739581562 0.012118971033540833 0 -0.010438452856438397 0.012658882562026149 0 -0.011050824825099075 0.012543424046382185 0 -0.010746606240165947 0.012027494161680759 0 -0.011050824825099075 0.012543424046382185 0 -0.011425069666529994 0.012111048139675914 0 -0.010746606240165947 0.012027494161680759 0 -0.011050824825099075 0.012543424046382185 0 -0.011548013608079158 0.012677144592887407 0 -0.011036829302355788 0.013217768806432339 0 -0.011050824825099075 0.012543424046382185 0 -0.011548013608079158 0.012677144592887407 0 -0.011425069666529994 0.012111048139675914 0 -0.012039615260814075 0.012369370798240322 0 -0.011936750117906328 0.01311417846577567 0 -0.012589534886449824 0.012695502711675199 0 -0.011548013608079158 0.012677144592887407 0 -0.012039615260814075 0.012369370798240322 0 -0.011425069666529994 0.012111048139675914 0 -0.012039615260814075 0.012369370798240322 0 -0.012613084718197283 0.011914369487735933 0 -0.012589534886449824 0.012695502711675199 0 -0.011548013608079158 0.012677144592887407 0 -0.012039615260814075 0.012369370798240322 0 -0.011936750117906328 0.01311417846577567 0 -0.011978176580764851 0.013861164871196563 0 -0.011936750117906328 0.01311417846577567 0 -0.01153186106186091 0.013539286854557745 0 -0.011978176580764851 0.013861164871196563 0 -0.011936750117906328 0.01311417846577567 0 -0.012675159412686408 0.013398580766430386 0 -0.011936750117906328 0.01311417846577567 0 -0.012675159412686408 0.013398580766430386 0 -0.012589534886449824 0.012695502711675199 0 -0.011548013608079158 0.012677144592887407 0 -0.011936750117906328 0.01311417846577567 0 -0.011036829302355788 0.013217768806432339 0 -0.011936750117906328 0.01311417846577567 0 -0.01153186106186091 0.013539286854557745 0 -0.011036829302355788 0.013217768806432339 0 -0.0061518424740991742 0.014420957645158225 0 -0.0065915343345150758 0.014175605625780473 0 -0.006872261571411421 0.014730215137728955 0 -0.0066195989063086028 0.014188917283187379 0 -0.0070232181016883916 0.014879194024746245 0 -0.0061969040415695538 0.014916026091635578 0 -0.0071800101732968852 0.015306623049925703 0 -0.006872261571411421 0.014730215137728955 0 -0.0061518424740991742 0.014420957645158225 0 -0.0061969040415695538 0.014916026091635578 0 -0.006872261571411421 0.014730215137728955 0 -0.0070606628588246656 0.014800418198462641 0 -0.0077993257886128792 0.014834394700383707 0 -0.0076683055383600799 0.014168552166236272 0 -0.0074771602672899385 0.015445086821641614 0 -0.0070606628588246656 0.014800418198462641 0 -0.0077993257886128792 0.014834394700383707 0 -0.0069604582784197821 0.014604581748714042 0 -0.0070232181016883916 0.014879194024746245 0 -0.0065915343345150758 0.014175605625780473 0 -0.0076683055383600799 0.014168552166236272 0 -0.0072045356909438106 0.013603690488300844 0 -0.0065915343345150758 0.014175605625780473 0 -0.0070606628588246656 0.014800418198462641 0 -0.0076683055383600799 0.014168552166236272 0 -0.0076683055383600799 0.014168552166236272 0 -0.0083276250247196187 0.013985078846228018 0 -0.0080851033449236814 0.01347618636989612 0 -0.0076683055383600799 0.014168552166236272 0 -0.0083276250247196187 0.013985078846228018 0 -0.0084259901423856479 0.014565821955915855 0 -0.0077993257886128792 0.014834394700383707 0 -0.0076683055383600799 0.014168552166236272 0 -0.0084259901423856479 0.014565821955915855 0 -0.0082854996603857374 0.015121415834851236 0 -0.0077993257886128792 0.014834394700383707 0 -0.0084259901423856479 0.014565821955915855 0 -0.0082854996603857374 0.015121415834851236 0 -0.0084259901423856479 0.014565821955915855 0 -0.0090137010488194527 0.01489376942984539 0 -0.0084259901423856479 0.014565821955915855 0 -0.0090137010488194527 0.01489376942984539 0 -0.0091105012502747437 0.014287695025342984 0 -0.0096849480524183948 0.014520548214959751 0 -0.0090137010488194527 0.01489376942984539 0 -0.0091105012502747437 0.014287695025342984 0 -0.0097870729665018846 0.013944456837935219 0 -0.0091105012502747437 0.014287695025342984 0 -0.008912561816253356 0.013750495439296063 0 -0.0083276250247196187 0.013985078846228018 0 -0.0084259901423856479 0.014565821955915855 0 -0.0091105012502747437 0.014287695025342984 0 -0.0083276250247196187 0.013985078846228018 0 -0.0091105012502747437 0.014287695025342984 0 -0.008912561816253356 0.013750495439296063 0 -0.008912561816253356 0.013750495439296063 0 -0.0086344384151231558 0.013137860770398666 0 -0.009259123724135624 0.013047895789043145 0 -0.0094799929893385326 0.013515489198261708 0 -0.008912561816253356 0.013750495439296063 0 -0.009259123724135624 0.013047895789043145 0 -0.0094004084033285761 0.012450024036406084 0 -0.009259123724135624 0.013047895789043145 0 -0.0087940746149056531 0.012604208999225529 0 -0.0086344384151231558 0.013137860770398666 0 -0.0087940746149056531 0.012604208999225529 0 -0.0081652846025794066 0.012699471250075081 0 -0.0086344384151231558 0.013137860770398666 0 -0.009259123724135624 0.013047895789043145 0 -0.0087940746149056531 0.012604208999225529 0 -0.0086344384151231558 0.013137860770398666 0 -0.0081652846025794066 0.012699471250075081 0 -0.0080851033449236814 0.01347618636989612 0 -0.0081652846025794066 0.012699471250075081 0 -0.0080851033449236814 0.01347618636989612 0 -0.00755219432700629 0.013080891296228128 0 -0.0087940746149056531 0.012604208999225529 0 -0.0081652846025794066 0.012699471250075081 0 -0.0084671481704192853 0.012286660576693458 0 -0.0083276250247196187 0.013985078846228018 0 -0.008912561816253356 0.013750495439296063 0 -0.0080851033449236814 0.01347618636989612 0 -0.008912561816253356 0.013750495439296063 0 -0.0086344384151231558 0.013137860770398666 0 -0.0080851033449236814 0.01347618636989612 0 -0.0076683055383600799 0.014168552166236272 0 -0.0080851033449236814 0.01347618636989612 0 -0.0072045356909438106 0.013603690488300844 0 -0.0080851033449236814 0.01347618636989612 0 -0.0072045356909438106 0.013603690488300844 0 -0.00755219432700629 0.013080891296228128 0 -0.0081652846025794066 0.012699471250075081 0 -0.00755219432700629 0.013080891296228128 0 -0.0073665439090076796 0.012502299308141299 0 -0.00755219432700629 0.013080891296228128 0 -0.0068222384107349222 0.013157568375295473 0 -0.0073665439090076796 0.012502299308141299 0 -0.0072045356909438106 0.013603690488300844 0 -0.00755219432700629 0.013080891296228128 0 -0.0068222384107349222 0.013157568375295473 0 -0.0060080174130269885 0.013207193553781854 0 -0.0068222384107349222 0.013157568375295473 0 -0.0062856030280661291 0.01362586568327835 0 -0.0060080174130269885 0.013207193553781854 0 -0.0068222384107349222 0.013157568375295473 0 -0.0064508067457667347 0.012726430004234695 0 -0.0068222384107349222 0.013157568375295473 0 -0.0064508067457667347 0.012726430004234695 0 -0.0073665439090076796 0.012502299308141299 0 -0.0072045356909438106 0.013603690488300844 0 -0.0068222384107349222 0.013157568375295473 0 -0.0062856030280661291 0.01362586568327835 0 -0.0065915343345150758 0.014175605625780473 0 -0.0072045356909438106 0.013603690488300844 0 -0.0062856030280661291 0.01362586568327835 0 -0.0066289569552980526 0.012068257592586763 0 -0.0064508067457667347 0.012726430004234695 0 -0.0073665439090076796 0.012502299308141299 0 -0.0066289569552980526 0.012068257592586763 0 -0.0073665439090076796 0.012502299308141299 0 -0.0078025815127708998 0.011692678218055873 0 -0.0073665439090076796 0.012502299308141299 0 -0.0078025815127708998 0.011692678218055873 0 -0.0079933437068622649 0.012220443939740413 0 -0.0045921483923937693 0.013553895902495519 0 -0.0040085525602270265 0.013104351928834742 0 -0.0024842941273050651 0.015011480643056468 0 -0.00061253972042781229 0.015056745327502542 0 -0.0020375566577844808 0.016393282493052212 0 0.00030449533763072433 0.016169094044785275 0 -0.00061253972042781229 0.015056745327502542 0 -0.0020375566577844808 0.016393282493052212 0 -0.0078025815127708998 0.011692678218055873 0 -0.0084899520377559601 0.011924900339783669 0 -0.0088025929873545364 0.011604895473847498 0 0.00030449533763072433 0.016169094044785275 0 -0.00061253972042781229 0.015056745327502542 0 0.001926674977138492 0.01539283773231079 0 -0.0040085525602270265 0.013104351928834742 0 -0.0045580651658734773 0.016710356053045685 0 -0.0078025815127708998 0.011692678218055873 0 -0.0079933437068622649 0.012220443939740413 0 -0.0084899520377559601 0.011924900339783669 0 -0.0081652846025794066 0.012699471250075081 0 -0.0073665439090076796 0.012502299308141299 0 -0.0079933437068622649 0.012220443939740413 0 -0.0081652846025794066 0.012699471250075081 0 -0.0079933437068622649 0.012220443939740413 0 -0.0084671481704192853 0.012286660576693458 0 -0.0079933437068622649 0.012220443939740413 0 -0.0084899520377559601 0.011924900339783669 0 -0.0084671481704192853 0.012286660576693458 0 -0.0084899520377559601 0.011924900339783669 0 -0.0084671481704192853 0.012286660576693458 0 -0.0088978747032245203 0.012041628570375851 0 -0.0084899520377559601 0.011924900339783669 0 -0.0088978747032245203 0.012041628570375851 0 -0.0088825145139621673 0.011776459335576767 0 -0.0087940746149056531 0.012604208999225529 0 -0.0084671481704192853 0.012286660576693458 0 -0.0088978747032245203 0.012041628570375851 0 -0.0094004084033285761 0.012450024036406084 0 -0.0087940746149056531 0.012604208999225529 0 -0.0088978747032245203 0.012041628570375851 0 -0.0088978747032245203 0.012041628570375851 0 -0.0088825145139621673 0.011776459335576767 0 -0.0090640996853774258 0.011685530283471725 0 -0.0088825145139621673 0.011776459335576767 0 -0.0088404841360578482 0.011725234924436483 0 -0.0090640996853774258 0.011685530283471725 0 -0.0049812320475006184 0.015035569772915 0 -0.0045580651658734773 0.016710356053045685 0 -0.0084899520377559601 0.011924900339783669 0 -0.0088825145139621673 0.011776459335576767 0 -0.0088025929873545364 0.011604895473847498 0 -0.0030308302484202514 0.025611481047160489 0 -0.0030100723199321059 0.025692399893927013 0 -0.0030648199610364664 0.025584259750614548 0 0.00030449533763072433 0.016169094044785275 0 0.001926674977138492 0.01539283773231079 0 0.00085685402926417018 0.017857780911584537 0 -0.0045580651658734773 0.016710356053045685 0 -0.00061526286635499793 0.022345406853597181 0 -0.0030308302484202514 0.025611481047160489 0 -0.0030100723199321059 0.025692399893927013 0 -0.0028256838274584818 0.025713669393953583 0 -0.0030100723199321059 0.025692399893927013 0 -0.002969389873675639 0.0257416428537935 0 -0.0028256838274584818 0.025713669393953583 0 -0.0030100723199321059 0.025692399893927013 0 -0.002969389873675639 0.0257416428537935 0 -0.0030293046845825504 0.025753739588886857 0 -0.0028131513081649183 0.025528275685515592 0 -0.002969389873675639 0.0257416428537935 0 -0.0030447389615781183 0.025848174469119672 0 -0.0028131513081649183 0.025528275685515592 0 -0.002969389873675639 0.0257416428537935 0 -0.0028256838274584818 0.025713669393953583 0 -0.00044344017738604782 0.021161202283574151 0 0.00085685402926417018 0.017857780911584537 0 -0.0012933168830351741 0.018799477720027168 0 -0.0028131513081649183 0.025528275685515592 0 -0.0025298825157450693 0.025341803089252511 0 -0.0028256838274584818 0.025713669393953583 0 -0.0015860390595094588 0.023179343967639154 0 -0.00061526286635499793 0.022345406853597181 0 0.00030449533763072433 0.016169094044785275 0 0.00085685402926417018 0.017857780911584537 0 -0.0020375566577844808 0.016393282493052212 0 0.00085685402926417018 0.017857780911584537 0 -0.0020375566577844808 0.016393282493052212 0 -0.0012933168830351741 0.018799477720027168 0 -0.0020375566577844808 0.016393282493052212 0 -0.0012933168830351741 0.018799477720027168 0 -0.0037330910241937317 0.020111620801409033 0 -0.00044344017738604782 0.021161202283574151 0 -0.0012933168830351741 0.018799477720027168 0 -0.0037330910241937317 0.020111620801409033 0 -0.0021361290619949709 0.016490639792867693 0 -0.002964690927684979 0.018817278861087236 0 -0.0031171889988483208 0.016324046940736067 0 -0.0024842941273050651 0.015011480643056468 0 -0.0020375566577844808 0.016393282493052212 0 -0.0031171889988483208 0.016324046940736067 0 -0.0020375566577844808 0.016393282493052212 0 -0.0023065050787145444 0.017255663456566407 0 -0.010921825262139102 0.010772397742109915 0 -0.011877307753923129 0.011404242124978987 0 -0.012122777863499348 0.010566116420860902 0 -0.010921825262139102 0.010772397742109915 0 -0.011877307753923129 0.011404242124978987 0 -0.01108727514947417 0.011530955504852176 0 -0.01066679826684978 0.015446342154423108 0 -0.010468943430453535 0.016659625799707783 0 -0.011877307753923129 0.011404242124978987 0 -0.012122777863499348 0.010566116420860902 0 -0.012636656698336093 0.011237706582084415 0 -0.012039615260814075 0.012369370798240322 0 -0.011877307753923129 0.011404242124978987 0 -0.012613084718197283 0.011914369487735933 0 -0.012039615260814075 0.012369370798240322 0 -0.011877307753923129 0.011404242124978987 0 -0.011425069666529994 0.012111048139675914 0 -0.011877307753923129 0.011404242124978987 0 -0.012636656698336093 0.011237706582084415 0 -0.012613084718197283 0.011914369487735933 0 -0.011877307753923129 0.011404242124978987 0 -0.011425069666529994 0.012111048139675914 0 -0.01108727514947417 0.011530955504852176 0 -0.011425069666529994 0.012111048139675914 0 -0.01108727514947417 0.011530955504852176 0 -0.010746606240165947 0.012027494161680759 0 -0.010746606240165947 0.012027494161680759 0 -0.010002377739581562 0.012118971033540833 0 -0.010379622616580856 0.011445241202091151 0 -0.01108727514947417 0.011530955504852176 0 -0.010746606240165947 0.012027494161680759 0 -0.010379622616580856 0.011445241202091151 0 -0.0088978747032245203 0.012041628570375851 0 -0.0096685202462929842 0.011615126929855463 0 -0.0096420459080720049 0.010957686592586988 0 -0.0094004084033285761 0.012450024036406084 0 -0.0088978747032245203 0.012041628570375851 0 -0.0094881620218522957 0.012034946767378957 0 -0.0094004084033285761 0.012450024036406084 0 -0.0094881620218522957 0.012034946767378957 0 -0.010002377739581562 0.012118971033540833 0 -0.0094881620218522957 0.012034946767378957 0 -0.010002377739581562 0.012118971033540833 0 -0.0096685202462929842 0.011615126929855463 0 -0.010002377739581562 0.012118971033540833 0 -0.0096685202462929842 0.011615126929855463 0 -0.010379622616580856 0.011445241202091151 0 -0.0088978747032245203 0.012041628570375851 0 -0.0094881620218522957 0.012034946767378957 0 -0.0096685202462929842 0.011615126929855463 0 -0.010031171246221722 0.0098440875870110071 0 -0.0077342394442344092 0.017615085596405296 0 -0.0096685202462929842 0.011615126929855463 0 -0.0096420459080720049 0.010957686592586988 0 -0.010379622616580856 0.011445241202091151 0 -0.0045580651658734773 0.016710356053045685 0 -0.0077342394442344092 0.017615085596405296 0 -0.010921825262139102 0.010772397742109915 0 -0.01108727514947417 0.011530955504852176 0 -0.010379622616580856 0.011445241202091151 0 -0.01066679826684978 0.015446342154423108 0 -0.0077342394442344092 0.017615085596405296 0 -0.010921825262139102 0.010772397742109915 0 -0.0096420459080720049 0.010957686592586988 0 -0.010379622616580856 0.011445241202091151 0 -0.0077342394442344092 0.017615085596405296 0 -0.0051915832772697909 0.024638957598667181 0 -0.0094569180143321795 0.020755726517542102 0 -0.0095398845663420724 0.021002306584302344 0 -0.0094162037626212992 0.020897676210182872 0 -0.0094569180143321795 0.020755726517542102 0 -0.0097041049111538137 0.020694109349623277 0 -0.0095398845663420724 0.021002306584302344 0 -0.0030648199610364664 0.025584259750614548 0 -0.0030167724682642724 0.025809489719302071 0 -0.0027117410537895624 0.025747585535051517 0 -0.0030648199610364664 0.025584259750614548 0 -0.0030167724682642724 0.025809489719302071 0 -0.0030293046845825504 0.025753739588886857 0 -0.0030100723199321059 0.025692399893927013 0 -0.0030648199610364664 0.025584259750614548 0 -0.0030293046845825504 0.025753739588886857 0 -0.0030581017444757598 0.025453956442625141 0 -0.0030447389615781183 0.025848174469119672 0 -0.0030402738077466426 0.026298835128619902 0 -0.0043006549100695285 0.02753405113486454 0 -0.0030676626327595215 0.02632532248646623 0 -0.002969389873675639 0.0257416428537935 0 -0.0030293046845825504 0.025753739588886857 0 -0.0030447389615781183 0.025848174469119672 0 -0.0030167724682642724 0.025809489719302071 0 -0.0030447389615781183 0.025848174469119672 0 -0.0030402738077466426 0.026298835128619902 0 -0.0030167724682642724 0.025809489719302071 0 -0.0030293046845825504 0.025753739588886857 0 -0.0030447389615781183 0.025848174469119672 0 -0.0024162086776658275 0.028360124860039172 0 -0.0027117410537895624 0.025747585535051517 0 -0.0030402738077466426 0.026298835128619902 0 7.5843349231832701e-06 0.029237839063133715 0 -0.0024162086776658275 0.028360124860039172 0 -0.0027117410537895624 0.025747585535051517 0 -0.0030167724682642724 0.025809489719302071 0 -0.0027117410537895624 0.025747585535051517 0 -0.0030402738077466426 0.026298835128619902 0 -0.0024162086776658275 0.028360124860039172 0 -0.0036367681815409679 0.029054446312697227 0 -0.0030402738077466426 0.026298835128619902 0 -0.0075354962762458153 0.025156211595158493 0 -0.0051915832772697909 0.024638957598667181 0 -0.009357133404483799 0.021313391587485277 0 -0.0095398845663420724 0.021002306584302344 0 -0.0093588231970693492 0.021012980155810972 0 -0.009357133404483799 0.021313391587485277 0 -0.0093588231970693492 0.021012980155810972 0 -0.0092031504509921657 0.021045930191569549 0 -0.0095398845663420724 0.021002306584302344 0 -0.0093588231970693492 0.021012980155810972 0 -0.0094162037626212992 0.020897676210182872 0 -0.0094569180143321795 0.020755726517542102 0 -0.0093113182729872082 0.020822614641195322 0 -0.0092179865584341037 0.020783298094057129 0 -0.0093588231970693492 0.021012980155810972 0 -0.0094162037626212992 0.020897676210182872 0 -0.0093113182729872082 0.020822614641195322 0 -0.0094569180143321795 0.020755726517542102 0 -0.0094162037626212992 0.020897676210182872 0 -0.0093113182729872082 0.020822614641195322 0 -0.0092211411974676988 0.020802815116107008 0 -0.0092327163062027526 0.020903749579704412 0 -0.0090895528788058899 0.020808179992029857 0 -0.0092327163062027526 0.020903749579704412 0 -0.0092031504509921657 0.021045930191569549 0 -0.0090895528788058899 0.020808179992029857 0 -0.0093113182729872082 0.020822614641195322 0 -0.0092211411974676988 0.020802815116107008 0 -0.0092327163062027526 0.020903749579704412 0 -0.0097000347923171196 0.019135987484698067 0 -0.010468943430453535 0.016659625799707783 0 -0.0093588231970693492 0.021012980155810972 0 -0.0093113182729872082 0.020822614641195322 0 -0.0092327163062027526 0.020903749579704412 0 -0.0075354962762458153 0.025156211595158493 0 -0.011433746616578234 0.023196473632396655 0 -0.0093588231970693492 0.021012980155810972 0 -0.0092327163062027526 0.020903749579704412 0 -0.0092031504509921657 0.021045930191569549 0 -0.012825370264625876 0.024364150325528598 0 -0.013914994488910726 0.024200605978702789 0 -0.013571178134466804 0.025122060879470567 0 -0.013116635726086914 0.023514067494810803 0 -0.012825370264625876 0.024364150325528598 0 -0.013914994488910726 0.024200605978702789 0 -0.013914994488910726 0.024200605978702789 0 -0.014663184860428811 0.024990506138680511 0 -0.014756229335923771 0.024372749084210162 0 -0.014458583717867799 0.023800254054999862 0 -0.013914994488910726 0.024200605978702789 0 -0.014756229335923771 0.024372749084210162 0 -0.01251289797996335 0.017796797962596748 0 -0.0145501452053204 0.017068781509713134 0 -0.013914994488910726 0.024200605978702789 0 -0.013571178134466804 0.025122060879470567 0 -0.014663184860428811 0.024990506138680511 0 -0.012618331708183576 0.0095746043827697226 0 -0.013099852731088811 0.010070024568209844 0 -0.014183886785009082 0.0092594162289339962 0 -0.010468943430453535 0.016659625799707783 0 -0.01251289797996335 0.017796797962596748 0 -0.011433746616578234 0.023196473632396655 0 -0.01251289797996335 0.017796797962596748 0 -0.012636656698336093 0.011237706582084415 0 -0.013244398547670389 0.010778642636887204 0 -0.013318106373658226 0.011539416366020313 0 -0.011361903974189897 0.014940566603111004 0 -0.011924707155391859 0.014840842429174083 0 -0.0121809818064736 0.015100661670492944 0 -0.010468943430453535 0.016659625799707783 0 -0.012616124302758462 0.011475769445345353 0 -0.012122777863499348 0.010566116420860902 0 -0.012636656698336093 0.011237706582084415 0 -0.013244398547670389 0.010778642636887204 0 -0.01251289797996335 0.017796797962596748 0 -0.012616124302758462 0.011475769445345353 0 -0.012616124302758462 0.011475769445345353 0 -0.014578121625250363 0.010298082179094096 0 -0.012824903133800502 0.010014756382763813 0 -0.014213079739632345 0.011539284223602174 0 -0.014493755699551969 0.010423632148474584 0 -0.012616124302758462 0.011475769445345353 0 -0.014182586562152289 0.011174167809549692 0 -0.013099852731088811 0.010070024568209844 0 -0.014566855958280802 0.01038052437674394 0 -0.014183886785009082 0.0092594162289339962 0 -0.013244398547670389 0.010778642636887204 0 -0.013318106373658226 0.011539416366020313 0 -0.014213079739632345 0.011539284223602174 0 -0.013318106373658226 0.011539416366020313 0 -0.013654713756272384 0.011934325571027396 0 -0.014213079739632345 0.011539284223602174 0 -0.013318106373658226 0.011539416366020313 0 -0.013654713756272384 0.011934325571027396 0 -0.013160816991074523 0.012256176490928496 0 -0.013318106373658226 0.011539416366020313 0 -0.012613084718197283 0.011914369487735933 0 -0.013160816991074523 0.012256176490928496 0 -0.012636656698336093 0.011237706582084415 0 -0.013318106373658226 0.011539416366020313 0 -0.012613084718197283 0.011914369487735933 0 -0.015153442843780734 0.011191637717092933 0 -0.016113670595592048 0.010747432387232941 0 -0.014493755699551969 0.010423632148474584 0 -0.015153442843780734 0.011191637717092933 0 -0.016113670595592048 0.010747432387232941 0 -0.016004440936417848 0.011590266299343498 0 -0.015153442843780734 0.011191637717092933 0 -0.016004440936417848 0.011590266299343498 0 -0.015320723609349307 0.011934799877328456 0 -0.015153442843780734 0.011191637717092933 0 -0.014213079739632345 0.011539284223602174 0 -0.015320723609349307 0.011934799877328456 0 -0.014213079739632345 0.011539284223602174 0 -0.014626091555088741 0.012266618841717722 0 -0.015320723609349307 0.011934799877328456 0 -0.015153442843780734 0.011191637717092933 0 -0.014213079739632345 0.011539284223602174 0 -0.014493755699551969 0.010423632148474584 0 -0.014566855958280802 0.01038052437674394 0 -0.015501772543210557 0.0099056644997050861 0 -0.014183886785009082 0.0092594162289339962 0 -0.015990835586277778 0.010747037088375808 0 -0.014578121625250363 0.010298082179094096 0 -0.016113670595592048 0.010747432387232941 0 -0.014566855958280802 0.01038052437674394 0 -0.015501772543210557 0.0099056644997050861 0 -0.016113670595592048 0.010747432387232941 0 -0.015501772543210557 0.0099056644997050861 0 -0.016841875388694503 0.0097465553741073168 0 -0.015501772543210557 0.0099056644997050861 0 -0.015859030637479888 0.0088850915832487595 0 -0.016841875388694503 0.0097465553741073168 0 -0.015501772543210557 0.0099056644997050861 0 -0.015859030637479888 0.0088850915832487595 0 -0.014183886785009082 0.0092594162289339962 0 -0.015779172904090796 0.024856047502595822 0 -0.014663184860428811 0.024990506138680511 0 -0.014756229335923771 0.024372749084210162 0 -0.015865874258089021 0.016908245836397766 0 -0.0145501452053204 0.017068781509713134 0 -0.015779172904090796 0.024856047502595822 0 -0.014756229335923771 0.024372749084210162 0 -0.01519970290713139 0.023929860994318881 0 -0.014458583717867799 0.023800254054999862 0 -0.014756229335923771 0.024372749084210162 0 -0.01519970290713139 0.023929860994318881 0 -0.015779172904090796 0.024856047502595822 0 -0.01519970290713139 0.023929860994318881 0 -0.015868405678947237 0.024062885914963177 0 -0.015779172904090796 0.024856047502595822 0 -0.015868405678947237 0.024062885914963177 0 -0.016427462405863614 0.024256765384685557 0 -0.016334347243364203 0.023591686378298855 0 -0.016427462405863614 0.024256765384685557 0 -0.01723993968864183 0.024048566605815815 0 -0.016334347243364203 0.023591686378298855 0 -0.015868405678947237 0.024062885914963177 0 -0.016427462405863614 0.024256765384685557 0 -0.016427462405863614 0.024256765384685557 0 -0.01723993968864183 0.024048566605815815 0 -0.016945367550199531 0.024720797140467734 0 -0.018870847122951381 0.029173331330161832 0 -0.020909930060945197 0.021183483745307565 0 -0.01723993968864183 0.024048566605815815 0 -0.016945367550199531 0.024720797140467734 0 -0.018178369845052961 0.024542422314774704 0 -0.017709109083900262 0.008489092253433729 0 -0.01902602182503571 0.009174313538700218 0 -0.019701358297699218 0.0081437772811203905 0 -0.017709109083900262 0.008489092253433729 0 -0.01902602182503571 0.009174313538700218 0 -0.018238353375807603 0.0099041756597058779 0 -0.017010398660406705 0.016194160056202327 0 -0.020909930060945197 0.021183483745307565 0 -0.015859030637479888 0.0088850915832487595 0 -0.017709109083900262 0.008489092253433729 0 -0.016841875388694503 0.0097465553741073168 0 -0.017709109083900262 0.008489092253433729 0 -0.016841875388694503 0.0097465553741073168 0 -0.018238353375807603 0.0099041756597058779 0 -0.015865874258089021 0.016908245836397766 0 -0.017010398660406705 0.016194160056202327 0 -0.015779172904090796 0.024856047502595822 0 -0.016427462405863614 0.024256765384685557 0 -0.016945367550199531 0.024720797140467734 0 -0.024203312843398023 0.026227244110579383 0 -0.020909930060945197 0.021183483745307565 0 -0.021616085503890117 0.031990585210876735 0 -0.024084903845559506 0.032904289088639495 0 -0.022725679467761207 0.033122375402712442 0 -0.023769768232769044 0.03371260491819332 0 -0.022725679467761207 0.033122375402712442 0 -0.021568270896330101 0.034001775672664138 0 -0.024084903845559506 0.032904289088639495 0 -0.023769768232769044 0.03371260491819332 0 -0.022725679467761207 0.033122375402712442 0 -0.021616085503890117 0.031990585210876735 0 -0.019719628298729721 0.032911415192595432 0 -0.021568270896330101 0.034001775672664138 0 -0.021616085503890117 0.031990585210876735 0 -0.022725679467761207 0.033122375402712442 0 -0.021568270896330101 0.034001775672664138 0 -0.020001685486520118 0.0092517576400182704 0 -0.019701358297699218 0.0081437772811203905 0 -0.02118309170049568 0.0089051735559860339 0 -0.01902602182503571 0.009174313538700218 0 -0.020001685486520118 0.0092517576400182704 0 -0.019701358297699218 0.0081437772811203905 0 -0.020909930060945197 0.021183483745307565 0 -0.021867760224273603 0.013122699002505048 0 -0.026466275452558322 0.017306301371132673 0 -0.023129622900160136 0.01776166992749174 0 -0.025573798826458587 0.019166847997076325 0 -0.02118309170049568 0.0089051735559860339 0 -0.021765992504588466 0.010245098535636071 0 -0.020643266054989434 0.010083047474832404 0 -0.021765992504588466 0.010245098535636071 0 -0.020643266054989434 0.010083047474832404 0 -0.021243547099209038 0.011018850860354801 0 -0.020001685486520118 0.0092517576400182704 0 -0.02118309170049568 0.0089051735559860339 0 -0.020643266054989434 0.010083047474832404 0 -0.020643266054989434 0.010083047474832404 0 -0.019504402068341819 0.010091949552760675 0 -0.020047872222700727 0.010937898999886656 0 -0.020001685486520118 0.0092517576400182704 0 -0.020643266054989434 0.010083047474832404 0 -0.019504402068341819 0.010091949552760675 0 -0.01902602182503571 0.009174313538700218 0 -0.020001685486520118 0.0092517576400182704 0 -0.019504402068341819 0.010091949552760675 0 -0.019578002278877193 0.011471068589843121 0 -0.020047872222700727 0.010937898999886656 0 -0.018877510637409899 0.011020694987208365 0 -0.019504402068341819 0.010091949552760675 0 -0.020047872222700727 0.010937898999886656 0 -0.018877510637409899 0.011020694987208365 0 -0.01909548642494879 0.011841445360333889 0 -0.019578002278877193 0.011471068589843121 0 -0.019897688062346035 0.011981173238857234 0 -0.01909548642494879 0.011841445360333889 0 -0.019578002278877193 0.011471068589843121 0 -0.018877510637409899 0.011020694987208365 0 -0.019578002278877193 0.011471068589843121 0 -0.020047872222700727 0.010937898999886656 0 -0.020410196727641192 0.011510245584393638 0 -0.019578002278877193 0.011471068589843121 0 -0.020410196727641192 0.011510245584393638 0 -0.019897688062346035 0.011981173238857234 0 -0.020047872222700727 0.010937898999886656 0 -0.020410196727641192 0.011510245584393638 0 -0.021243547099209038 0.011018850860354801 0 -0.020643266054989434 0.010083047474832404 0 -0.020047872222700727 0.010937898999886656 0 -0.021243547099209038 0.011018850860354801 0 -0.020410196727641192 0.011510245584393638 0 -0.021138569791207401 0.011962442548154154 0 -0.019897688062346035 0.011981173238857234 0 -0.020410196727641192 0.011510245584393638 0 -0.021138569791207401 0.011962442548154154 0 -0.021243547099209038 0.011018850860354801 0 -0.034495731254803409 0.010016827647066269 0 -0.029483871132073486 0.0077356792822887779 0 -0.022376544190448624 0.011275563176209456 0 -0.021138569791207401 0.011962442548154154 0 -0.021243547099209038 0.011018850860354801 0 -0.022129111151482403 0.01088371733776301 0 -0.021765992504588466 0.010245098535636071 0 -0.021243547099209038 0.011018850860354801 0 -0.016113670595592048 0.010747432387232941 0 -0.016841875388694503 0.0097465553741073168 0 -0.017516321691687074 0.011112677599319731 0 -0.016841875388694503 0.0097465553741073168 0 -0.018238353375807603 0.0099041756597058779 0 -0.017516321691687074 0.011112677599319731 0 -0.01902602182503571 0.009174313538700218 0 -0.019504402068341819 0.010091949552760675 0 -0.018238353375807603 0.0099041756597058779 0 -0.019504402068341819 0.010091949552760675 0 -0.018238353375807603 0.0099041756597058779 0 -0.018877510637409899 0.011020694987208365 0 -0.018877510637409899 0.011020694987208365 0 -0.018283958509262066 0.011615790813195926 0 -0.017516321691687074 0.011112677599319731 0 -0.018238353375807603 0.0099041756597058779 0 -0.018877510637409899 0.011020694987208365 0 -0.017516321691687074 0.011112677599319731 0 -0.01909548642494879 0.011841445360333889 0 -0.018877510637409899 0.011020694987208365 0 -0.018283958509262066 0.011615790813195926 0 -0.018283958509262066 0.011615790813195926 0 -0.017516321691687074 0.011112677599319731 0 -0.017654268202716709 0.011885370878678062 0 -0.016113670595592048 0.010747432387232941 0 -0.016004440936417848 0.011590266299343498 0 -0.017516321691687074 0.011112677599319731 0 -0.017516321691687074 0.011112677599319731 0 -0.016755566326518069 0.012008884600346791 0 -0.017654268202716709 0.011885370878678062 0 -0.016004440936417848 0.011590266299343498 0 -0.017516321691687074 0.011112677599319731 0 -0.016755566326518069 0.012008884600346791 0 -0.016755566326518069 0.012008884600346791 0 -0.016580544779784268 0.012710868030058433 0 -0.015993778364783606 0.01228922085155007 0 -0.016755566326518069 0.012008884600346791 0 -0.016580544779784268 0.012710868030058433 0 -0.017314146285397489 0.012484460488651539 0 -0.017314146285397489 0.012484460488651539 0 -0.018036732923626522 0.012844332504645438 0 -0.017093296514328372 0.013257448211973631 0 -0.016580544779784268 0.012710868030058433 0 -0.017314146285397489 0.012484460488651539 0 -0.017093296514328372 0.013257448211973631 0 -0.016755566326518069 0.012008884600346791 0 -0.017314146285397489 0.012484460488651539 0 -0.017654268202716709 0.011885370878678062 0 -0.017314146285397489 0.012484460488651539 0 -0.017654268202716709 0.011885370878678062 0 -0.018302179587992368 0.012227172588172949 0 -0.018283958509262066 0.011615790813195926 0 -0.017654268202716709 0.011885370878678062 0 -0.018302179587992368 0.012227172588172949 0 -0.018036732923626522 0.012844332504645438 0 -0.017625211914286606 0.013671676244762775 0 -0.019840181896649794 0.01257053494311674 0 -0.018302179587992368 0.012227172588172949 0 -0.018036732923626522 0.012844332504645438 0 -0.019840181896649794 0.01257053494311674 0 -0.01909548642494879 0.011841445360333889 0 -0.018283958509262066 0.011615790813195926 0 -0.018302179587992368 0.012227172588172949 0 -0.017314146285397489 0.012484460488651539 0 -0.018302179587992368 0.012227172588172949 0 -0.018036732923626522 0.012844332504645438 0 -0.01836294531642212 0.010978506015849585 0 -0.025433418079949331 0.0081134493754424358 0 -0.018036732923626522 0.012844332504645438 0 -0.017625211914286606 0.013671676244762775 0 -0.017093296514328372 0.013257448211973631 0 -0.01836294531642212 0.010978506015849585 0 -0.016913720449892224 0.011894589288036954 0 -0.017485709432657936 0.013525078885156271 0 -0.016516539119993196 0.013333202807275011 0 -0.016179195070823035 0.014087784180667444 0 -0.016580544779784268 0.012710868030058433 0 -0.016516539119993196 0.013333202807275011 0 -0.017093296514328372 0.013257448211973631 0 -0.016580544779784268 0.012710868030058433 0 -0.016516539119993196 0.013333202807275011 0 -0.015996872469285627 0.012877501267180243 0 -0.017485709432657936 0.013525078885156271 0 -0.016516539119993196 0.013333202807275011 0 -0.017093296514328372 0.013257448211973631 0 -0.01836294531642212 0.010978506015849585 0 -0.018143657119468522 0.012024643154050375 0 -0.038048016130996606 0.0038081276375448148 0 -0.037638272739796808 0.0034530383566489381 0 -0.037609134402879357 0.0040431221309960245 0 -0.037638272739796808 0.0034530383566489381 0 -0.037104648575368319 0.0037515683642766876 0 -0.037609134402879357 0.0040431221309960245 0 -0.029483871132073486 0.0077356792822887779 0 -0.025433418079949331 0.0081134493754424358 0 -0.01909548642494879 0.011841445360333889 0 -0.018302179587992368 0.012227172588172949 0 -0.019840181896649794 0.01257053494311674 0 -0.021138569791207401 0.011962442548154154 0 -0.019892020883320274 0.012640520310412141 0 -0.019897688062346035 0.011981173238857234 0 -0.025433418079949331 0.0081134493754424358 0 -0.02301087830276893 0.011941259174049271 0 -0.01909548642494879 0.011841445360333889 0 -0.019840181896649794 0.01257053494311674 0 -0.019897688062346035 0.011981173238857234 0 -0.037104648575368319 0.0037515683642766876 0 -0.037110183499793385 0.004311470972311683 0 -0.037609134402879357 0.0040431221309960245 0 -0.022225960121167142 0.0083941013421753412 0 -0.025469661004470144 0.0084969496520791842 0 -0.025392155376123823 0.010622822463277648 0 -0.025433418079949331 0.0081134493754424358 0 -0.031098587572175394 0.0058282216204028703 0 -0.022225960121167142 0.0083941013421753412 0 -0.025554024914760626 0.0063689671164054813 0 -0.025469661004470144 0.0084969496520791842 0 -0.037110183499793385 0.004311470972311683 0 -0.037609134402879357 0.0040431221309960245 0 -0.037600809988662859 0.0046310308085881369 0 -0.038134920205241687 0.0044468055615385109 0 -0.038048016130996606 0.0038081276375448148 0 -0.037609134402879357 0.0040431221309960245 0 -0.038134920205241687 0.0044468055615385109 0 -0.037609134402879357 0.0040431221309960245 0 -0.037600809988662859 0.0046310308085881369 0 -0.038072329753608559 0.0054665287906921368 0 -0.038134920205241687 0.0044468055615385109 0 -0.037600809988662859 0.0046310308085881369 0 -0.038072329753608559 0.0054665287906921368 0 -0.037600809988662859 0.0046310308085881369 0 -0.037078875204718559 0.0049048058653179544 0 -0.037110183499793385 0.004311470972311683 0 -0.037600809988662859 0.0046310308085881369 0 -0.037078875204718559 0.0049048058653179544 0 -0.031098587572175394 0.0058282216204028703 0 -0.028201614482126169 0.0079965807605099984 0 -0.025314059270506329 0.0095933898958024556 0 -0.028201614482126169 0.0079965807605099984 0 -0.021435262822512506 0.012829126196723781 0 -0.021567908716210008 0.010455629112537154 0 -0.020151940895283153 0.011503741684245533 0 -0.021435262822512506 0.012829126196723781 0 -0.020151940895283153 0.011503741684245533 0 -0.02041765623927394 0.012644247859703297 0 -0.031920850340313618 0.0072197585141290793 0 -0.029398574651702668 0.0079528274478153083 0 -0.029504678454767945 0.0055335009306411859 0 -0.035918590198504505 0.0062613007127445231 0 -0.028201614482126169 0.0079965807605099984 0 -0.019177728252218352 0.0087694325317689802 0 -0.019094269710463421 0.010444522599924818 0 -0.017455884911237306 0.0098181518423246048 0 -0.019094269710463421 0.010444522599924818 0 -0.017624454579690963 0.012001947247910273 0 -0.017455884911237306 0.0098181518423246048 0 -0.019177728252218352 0.0087694325317689802 0 -0.021567908716210008 0.010455629112537154 0 -0.019094269710463421 0.010444522599924818 0 -0.01836294531642212 0.010978506015849585 0 -0.028201614482126169 0.0079965807605099984 0 -0.021567908716210008 0.010455629112537154 0 -0.019094269710463421 0.010444522599924818 0 -0.020151940895283153 0.011503741684245533 0 -0.01950643237441373 0.013110750542696212 0 -0.020151940895283153 0.011503741684245533 0 -0.02041765623927394 0.012644247859703297 0 -0.01950643237441373 0.013110750542696212 0 -0.020151940895283153 0.011503741684245533 0 -0.017624454579690963 0.012001947247910273 0 -0.017409341077005404 0.013906585711906245 0 -0.016155122315043586 0.013070366146011557 0 -0.019094269710463421 0.010444522599924818 0 -0.020151940895283153 0.011503741684245533 0 -0.017624454579690963 0.012001947247910273 0 -0.014703845589798729 0.014276705340082718 0 -0.014153192482813765 0.014065709731762728 0 -0.014100539547890655 0.014472423044269829 0 -0.016155122315043586 0.013070366146011557 0 -0.014808116524496274 0.013111122172978277 0 -0.016913720449892224 0.011894589288036954 0 -0.014808116524496274 0.013111122172978277 0 -0.016179195070823035 0.014087784180667444 0 -0.014870020374576505 0.014597762483055133 0 -0.014965004763014482 0.01376443420615673 0 -0.017624454579690963 0.012001947247910273 0 -0.017455884911237306 0.0098181518423246048 0 -0.0157329081617129 0.010878615099376815 0 -0.014281222296312719 0.014158892266230507 0 -0.013936816807570279 0.013859347731038169 0 -0.014161364151813799 0.013488077580517888 0 -0.014870020374576505 0.014597762483055133 0 -0.014281222296312719 0.014158892266230507 0 -0.014965004763014482 0.01376443420615673 0 -0.014281222296312719 0.014158892266230507 0 -0.014965004763014482 0.01376443420615673 0 -0.014161364151813799 0.013488077580517888 0 -0.014808116524496274 0.013111122172978277 0 -0.014733529699571838 0.013751290355155661 0 -0.014281222296312719 0.014158892266230507 0 -0.013769037339898949 0.014140832313121672 0 -0.013936816807570279 0.013859347731038169 0 -0.014281222296312719 0.014158892266230507 0 -0.013767526819968266 0.014419109641740721 0 -0.013769037339898949 0.014140832313121672 0 -0.014499684022042065 0.014288377613767762 0 -0.014281222296312719 0.014158892266230507 0 -0.013767526819968266 0.014419109641740721 0 -0.013666068628077586 0.014923667148857431 0 -0.014100539547890655 0.014472423044269829 0 -0.013767526819968266 0.014419109641740721 0 -0.014808116524496274 0.013111122172978277 0 -0.013593455375498404 0.014563343096229831 0 -0.014153192482813765 0.014065709731762728 0 -0.014100539547890655 0.014472423044269829 0 -0.013767526819968266 0.014419109641740721 0 -0.013334765355120234 0.014245031795878786 0 -0.013767526819968266 0.014419109641740721 0 -0.013002071543770055 0.014690145021234167 0 -0.013334765355120234 0.014245031795878786 0 -0.013767526819968266 0.014419109641740721 0 -0.013769037339898949 0.014140832313121672 0 -0.012318756992688125 0.014345112721182782 0 -0.013002071543770055 0.014690145021234167 0 -0.012810827309667202 0.014046646446189614 0 -0.013334765355120234 0.014245031795878786 0 -0.013002071543770055 0.014690145021234167 0 -0.012810827309667202 0.014046646446189614 0 -0.012810827309667202 0.014046646446189614 0 -0.013477971179829885 0.013667224256057398 0 -0.012675159412686408 0.013398580766430386 0 -0.011978176580764851 0.013861164871196563 0 -0.012810827309667202 0.014046646446189614 0 -0.012675159412686408 0.013398580766430386 0 -0.013334765355120234 0.014245031795878786 0 -0.013769037339898949 0.014140832313121672 0 -0.013477971179829885 0.013667224256057398 0 -0.013334765355120234 0.014245031795878786 0 -0.012810827309667202 0.014046646446189614 0 -0.013477971179829885 0.013667224256057398 0 -0.013769037339898949 0.014140832313121672 0 -0.013477971179829885 0.013667224256057398 0 -0.013936816807570279 0.013859347731038169 0 -0.013477971179829885 0.013667224256057398 0 -0.013936816807570279 0.013859347731038169 0 -0.014161364151813799 0.013488077580517888 0 -0.013477971179829885 0.013667224256057398 0 -0.013889870150629384 0.013005367726326208 0 -0.014161364151813799 0.013488077580517888 0 -0.013477971179829885 0.013667224256057398 0 -0.013296789000427871 0.012932863397380666 0 -0.013889870150629384 0.013005367726326208 0 -0.013477971179829885 0.013667224256057398 0 -0.013296789000427871 0.012932863397380666 0 -0.012675159412686408 0.013398580766430386 0 -0.013296789000427871 0.012932863397380666 0 -0.012675159412686408 0.013398580766430386 0 -0.012589534886449824 0.012695502711675199 0 -0.012613084718197283 0.011914369487735933 0 -0.012589534886449824 0.012695502711675199 0 -0.013160816991074523 0.012256176490928496 0 -0.013296789000427871 0.012932863397380666 0 -0.012589534886449824 0.012695502711675199 0 -0.013160816991074523 0.012256176490928496 0 -0.013296789000427871 0.012932863397380666 0 -0.013889870150629384 0.013005367726326208 0 -0.013958791606486286 0.012410482784208055 0 -0.013296789000427871 0.012932863397380666 0 -0.013160816991074523 0.012256176490928496 0 -0.013958791606486286 0.012410482784208055 0 -0.013654713756272384 0.011934325571027396 0 -0.013160816991074523 0.012256176490928496 0 -0.013958791606486286 0.012410482784208055 0 -0.013654713756272384 0.011934325571027396 0 -0.014213079739632345 0.011539284223602174 0 -0.013958791606486286 0.012410482784208055 0 -0.014213079739632345 0.011539284223602174 0 -0.013958791606486286 0.012410482784208055 0 -0.014626091555088741 0.012266618841717722 0 -0.013889870150629384 0.013005367726326208 0 -0.013958791606486286 0.012410482784208055 0 -0.014723606078201975 0.012910100267816953 0 -0.013958791606486286 0.012410482784208055 0 -0.014626091555088741 0.012266618841717722 0 -0.014723606078201975 0.012910100267816953 0 -0.014626091555088741 0.012266618841717722 0 -0.015360904058702541 0.01259009992716629 0 -0.014723606078201975 0.012910100267816953 0 -0.014626091555088741 0.012266618841717722 0 -0.015320723609349307 0.011934799877328456 0 -0.015360904058702541 0.01259009992716629 0 -0.015320723609349307 0.011934799877328456 0 -0.015993778364783606 0.01228922085155007 0 -0.015360904058702541 0.01259009992716629 0 -0.016004440936417848 0.011590266299343498 0 -0.016755566326518069 0.012008884600346791 0 -0.015993778364783606 0.01228922085155007 0 -0.016004440936417848 0.011590266299343498 0 -0.015320723609349307 0.011934799877328456 0 -0.015993778364783606 0.01228922085155007 0 -0.016580544779784268 0.012710868030058433 0 -0.015993778364783606 0.01228922085155007 0 -0.015996872469285627 0.012877501267180243 0 -0.015993778364783606 0.01228922085155007 0 -0.015996872469285627 0.012877501267180243 0 -0.015360904058702541 0.01259009992716629 0 -0.016179195070823035 0.014087784180667444 0 -0.015600445433592611 0.013248742551212941 0 -0.014965004763014482 0.01376443420615673 0 -0.015600445433592611 0.013248742551212941 0 -0.014965004763014482 0.01376443420615673 0 -0.014723606078201975 0.012910100267816953 0 -0.015360904058702541 0.01259009992716629 0 -0.015600445433592611 0.013248742551212941 0 -0.014723606078201975 0.012910100267816953 0 -0.015996872469285627 0.012877501267180243 0 -0.015360904058702541 0.01259009992716629 0 -0.015600445433592611 0.013248742551212941 0 -0.016516539119993196 0.013333202807275011 0 -0.015996872469285627 0.012877501267180243 0 -0.015600445433592611 0.013248742551212941 0 -0.016516539119993196 0.013333202807275011 0 -0.016179195070823035 0.014087784180667444 0 -0.015600445433592611 0.013248742551212941 0 -0.014965004763014482 0.01376443420615673 0 -0.014161364151813799 0.013488077580517888 0 -0.014723606078201975 0.012910100267816953 0 -0.013889870150629384 0.013005367726326208 0 -0.014161364151813799 0.013488077580517888 0 -0.014723606078201975 0.012910100267816953 0 
</DataArray>
</PointData>
<CellData Scalars="region_id,cross_section_updated," Vectors="" Tensors="stress,">
<DataArray type="Float64" Name="region_id" format="ascii">
5 5 5 6 5 5 6 5 5 5 5 5 5 5 5 6 6 5 5 5 5 6 5 5 6 6 5 6 5 6 5 5 5 6 5 5 5 5 5 5 5 5 5 5 5 5 5 6 6 5 5 5 5 5 5 5 5 5 5 5 5 5 5 5 5 5 5 5 5 5 6 5 5 6 5 5 5 5 5 5 5 5 5 5 5 5 5 5 5 6 5 5 5 5 5 6 5 5 5 5 6 6 5 5 5 5 5 5 5 5 6 6 5 5 6 5 5 6 5 6 5 6 5 6 5 5 5 6 5 6 5 6 5 5 6 5 5 5 5 5 6 5 5 5 5 6 6 5 6 5 6 6 6 5 5 5 5 5 5 5 5 5 5 5 5 5 5 5 5 5 6 5 5 5 5 5 5 5 5 5 5 5 5 5 5 5 5 5 5 5 5 5 5 5 5 5 6 5 5 5 5 5 5 6 5 5 5 5 5 5 5 6 5 5 5 5 6 5 6 5 5 5 5 5 5 5 5 5 5 5 5 5 5 5 5 5 5 5 5 5 5 5 6 5 5 5 5 5 5 5 5 5 5 5 5 5 5 5 6 6 6 5 5 5 5 5 5 6 5 5 5 5 6 6 5 5 5 5 6 6 5 5 6 6 5 5 6 5 5 5 5 6 6 5 5 5 5 5 5 5 6 5 6 5 5 5 5 5 5 6 5 5 5 5 5 6 5 5 5 5 5 5 5 5 5 5 5 5 6 5 5 6 5 5 5 5 5 5 5 5 5 5 5 5 5 5 5 5 5 5 5 5 5 5 5 5 5 5 5 5 5 5 5 5 5 5 5 5 5 6 5 5 5 5 5 5 5 5 5 5 6 5 5 5 6 5 6 5 5 5 5 5 6 5 5 5 5 6 5 5 5 5 5 5 5 5 5 6 5 5 5 6 5 5 5 6 5 5 5 6 5 5 5 5 5 5 5 5 5 5 6 5 5 5 5 5 5 5 5 5 5 5 6 5 5 5 5 5 5 5 6 5 5 5 5 5 5 6 6 5 5 5 6 5 5 5 5 5 5 5 5 5 5 5 5 5 5 5 5 5 5 5 5 5 5 5 5 5 5 5 5 5 5 5 6 5 5 5 5 5 5 5 5 5 5 5 5 5 5 5 5 5 5 5 5 5 5 6 5 6 5 5 5 5 5 6 5 5 5 5 6 5 5 5 6 5 5 5 5 5 5 5 5 5 5 5 5 6 5 5 5 5 5 5 5 5 5 5 5 5 5 5 5 5 5 6 5 5 5 5 5 5 5 5 5 5 5 5 5 5 5 5 5 5 6 6 5 5 5 5 5 5 5 5 5 5 5 5 5 5 5 5 5 5 5 5 5 5 5 5 5 5 5 5 5 5 5 5 5 5 5 5 5 5 5 5 5 5 5 5 5 5 5 5 5 6 5 6 5 5 5 5 5 5 5 5 6 5 6 6 5 5 5 5 5 5 5 6 5 5 6 5 6 5 5 5 6 5 6 6 5 5 5 6 5 6 5 5 5 5 5 5 5 5 5 5 5 5 5 5 5 5 5 5 5 5 5 5 5 5 5 5 5 5 5 5 5 5 5 5 5 5 5 5 5 5 5 5 5 5 5 5 5 5 5 5 5 5 5 5 5 5 5 5 5 5 5 5 5 5 5 5 5 5 5 5 5 5 5 5 5 5 5 5 5 5 6 5 5 5 5 6 5 5 5 5 5 5 5 6 5 5 5 5 5 5 5 5 5 5 5 5 5 5 5 5 6 5 5 6 5 6 5 6 5 5 5 5 5 5 5 5 6 5 5 5 6 5 6 5 5 6 5 5 5 6 6 5 5 5 5 5 5 5 5 5 5 5 5 5 5 5 5 5 5 5 5 5 5 5 5 5 5 6 5 5 5 5 5 5 6 5 5 5 6 5 5 5 5 5 5 6 5 5 5 5 5 5 5 5 5 5 6 5 5 6 5 5 6 5 5 5 5 5 5 5 5 6 5 5 5 5 5 5 5 5 5 5 5 6 5 5 5 5 6 5 5 5 6 5 5 5 5 5 5 5 5 5 5 5 5 5 5 5 5 5 5 5 5 5 5 5 5 5 5 6 6 5 5 5 5 6 5 6 6 5 5 5 5 5 6 6 5 6 5 6 5 5 5 5 5 5 5 6 5 5 5 5 5 5 5 5 5 5 5 5 5 5 5 5 5 6 5 5 5 5 5 5 5 5 5 5 6 5 5 5 6 5 5 6 5 5 5 5 5 5 5 5 5 5 5 5 5 5 5 5 5 5 5 5 5 5 5 5 6 6 5 5 5 6 5 5 5 5 6 5 5 5 5 6 5 5 5 5 5 5 5 5 5 6 5 5 5 5 5 5 5 5 5 5 5 5 6 5 5 5 5 5 5 6 5 5 5 6 6 5 5 5 5 6 5 5 6 5 5 5 5 5 5 5 5 5 5 5 5 5 5 5 5 5 5 5 5 5 5 5 5 6 5 5 5 5 5 5 5 5 5 6 5 6 5 5 5 5 5 5 5 6 5 5 6 5 5 5 5 5 5 5 5 5 6 5 5 5 6 5 5 5 5 5 5 5 5 5 5 5 5 5 5 5 5 5 5 5 5 6 5 6 5 5 5 6 5 5 5 6 5 5 5 5 5 5 6 6 5 6 6 5 5 5 5 5 5 5 5 5 5 5 5 5 5 6 5 6 5 5 5 5 6 5 5 5 5 5 6 5 5 5 5 6 5 5 5 6 6 5 5 6 5 5 5 5 5 5 5 6 5 5 5 5 5 5 5 5 6 5 5 5 5 5 5 5 5 6 5 6 6 5 5 5 5 6 5 6 5 5 5 5 5 5 5 5 5 5 5 5 5 5 5 5 5 6 5 5 5 5 5 5 5 5 5 5 5 6 5 5 5 5 6 5 5 6 5 5 5 6 5 5 6 5 5 5 5 5 5 5 5 5 5 5 5 5 5 5 5 5 5 5 5 5 5 5 5 5 5 5 5 5 5 5 5 5 6 5 5 5 5 5 5 5 5 5 5 5 5 5 5 5 5 5 5 5 5 5 5 5 5 5 5 5 5 5 5 5 5 5 5 5 5 5 5 5 5 5 5 5 5 5 5 5 6 5 5 5 5 5 5 5 5 5 5 5 6 5 5 5 5 5 5 5 5 5 5 5 6 5 5 6 5 5 6 5 6 5 6 5 5 6 5 6 5 6 6 6 5 5 5 6 5 5 5 5 6 5 5 5 5 6 5 5 5 5 5 5 5 5 5 5 5 5 5 5 5 5 6 5 5 5 5 5 5 5 5 5 5 5 5 5 5 5 5 5 5 5 5 5 5 5 5 5 5 5 5 5 5 5 5 5 5 5 6 5 5 5 5 5 5 5 5 5 5 5 5 5 5 5 5 5 5 5 5 6 5 5 5 5 5 5 5 5 6 5 5 5 5 5 6 5 5 5 5 5 6 5 5 5 5 5 5 5 5 5 5 5 5 5 6 5 5 5 5 5 5 5 5 5 5 5 5 6 5 5 5 5 5 5 5 5 5 5 5 5 5 5 5 5 5 5 5 5 5 5 5 5 5 5 5 5 5 5 5 5 5 5 5 5 5 5 6 5 5 5 5 5 5 5 5 5 6 6 5 5 5 6 5 5 6 5 5 6 5 5 6 5 5 6 5 5 5 5 5 5 6 5 5 5 6 5 6 5 5 6 5 6 5 6 5 6 5 5 6 5 6 5 5 5 5 5 6 5 5 5 5 5 5 5 5 5 6 5 5 6 5 5 5 5 5 5 5 5 5 5 6 5 5 5 5 5 5 5 5 5 6 5 5 5 5 6 6 5 6 5 6 5 6 5 5 5 5 5 5 5 5 5 5 5 6 5 5 5 5 5 5 5 5 5 5 5 5 5 5 5 5 6 5 5 6 5 5 5 5 6 5 5 5 5 5 5 5 6 5 5 5 5 5 5 5 5 5 5 5 5 5 6 6 5 6 5 5 5 5 5 5 5 6 5 5 5 6 5 6 5 5 5 5 5 5 5 5 5 5 5 5 5 6 5 5 5 5 6 5 5 5 6 5 5 5 5 5 5 6 5 5 5 5 6 5 6 5 5 5 5 5 6 6 5 5 5 6 5 5 5 5 5 5 5 5 5 5 5 6 5 5 5 6 5 5 5 6 5 5 5 5 5 5 5 5 5 5 5 5 5 5 5 6 6 5 5 5 6 5 5 5 5 5 5 6 5 5 5 5 5 5 5 6 5 6 5 5 5 5 6 6 5 5 6 5 6 5 6 5 5 6 6 5 5 5 5 5 6 5 6 5 5 6 5 6 6 5 6 5 5 5 5 6 5 5 5 6 5 5 5 6 5 6 5 5 6 5 5 6 5 6 5 6 5 5 5 5 5 6 6 5 5 5 5 5 5 6 5 5 5 5 6 5 5 6 5 6 5 5 5 6 5 5 5 6 5 5 5 5 5 6 5 5 6 5 5 5 5 6 5 5 5 5 5 6 6 5 5 6 5 5 5 6 6 5 5 6 6 6 5 5 6 6 5 5 5 6 5 6 5 5 6 5 5 6 5 5 5 5 5 5 5 5 6 5 5 6 5 5 5 5 5 5 5 5 6 5 5 5 6 5 5 5 5 6 5 5 5 6 5 6 5 6 5 5 5 5 5 5 6 5 5 5 5 5 5 5 5 5 5 5 5 5 6 6 5 5 5 6 5 5 5 5 5 6 5 5 5 6 5 5 5 5 5 6 5 5 6 5 5 5 5 5 5 5 5 5 6 5 5 5 5 5 5 5 5 5 5 5 5 5 5 5 5 5 5 5 5 5 5 5 5 5 5 5 6 5 5 5 5 5 5 6 5 5 5 5 5 5 5 5 5 6 5 5 6 5 5 5 5 6 5 5 5 5 5 5 5 5 5 5 5 5 5 5 5 5 5 5 5 5 5 5 5 5 5 5 5 5 5 5 5 6 5 5 5 5 5 5 5 5 6 5 5 5 5 5 5 6 5 5 5 5 5 5 5 5 5 5 5 5 5 5 5 5 6 5 5 5 5 5 6 5 5 5 5 5 6 5 5 5 5 5 5 5 5 5 5 5 5 5 5 5 5 5 5 5 5 5 5 5 6 5 5 5 5 5 5 5 5 6 5 5 5 5 5 5 5 5 5 5 5 5 5 5 5 5 5 5 5 5 5 5 5 5 5 6 5 5 5 5 6 5 5 5 5 6 5 5 5 5 5 5 5 5 5 5 5 5 5 5 6 5 5 5 5 5 5 5 5 5 5 5 5 5 5 5 5 5 5 5 5 5 5 5 5 5 5 6 5 6 5 5 5 5 5 6 5 5 5 5 5 5 5 5 5 5 5 5 5 5 5 5 5 5 5 6 5 5 5 6 5 5 5 5 5 5 5 6 5 5 5 5 6 5 6 5 6 5 6 5 5 5 5 5 5 5 5 5 5 5 5 5 5 5 5 5 5 5 5 5 5 5 5 5 5 5 5 5 5 5 5 5 5 5 5 5 5 5 5 5 5 5 5 5 5 5 5 5 5 5 5 5 5 5 5 5 5 5 5 5 5 5 5 5 5 5 5 5 5 6 5 6 5 5 5 5 5 5 5 5 5 5 5 5 5 6 5 5 5 5 6 5 5 5 5 5 5 5 5 5 5 5 5 5 5 5 5 5 5 5 5 5 5 5 5 5 5 5 5 5 5 5 5 5 5 5 5 5 6 5 5 5 5 5 5 5 5 6 5 5 5 5 5 5 5 5 5 5 5 5 5 6 5 5 6 5 5 5 5 5 6 5 5 5 5 5 6 5 5 5 5 5 6 5 5 5 5 5 5 5 5 5 5 5 5 5 5 5 5 6 5 5 6 5 5 5 5 5 5 5 5 5 5 5 5 5 5 5 5 5 5 5 5 5 5 5 5 5 5 5 5 5 5 5 5 5 5 5 5 6 5 5 5 5 5 5 5 5 5 5 5 6 5 5 6 5 6 5 5 6 5 5 5 5 5 5 5 5 5 5 5 5 5 5 5 5 5 6 6 5 5 5 5 6 5 6 5 6 5 5 6 5 5 5 5 6 5 5 6 5 6 5 5 5 5 5 5 5 5 5 5 5 5 5 5 5 5 5 5 5 5 5 5 5 5 5 5 5 5 5 5 5 5 5 5 5 5 5 5 5 5 5 5 5 5 5 5 5 6 5 5 5 6 5 5 5 6 5 6 5 5 6 5 5 6 5 5 5 5 5 5 5 6 5 5 5 5 6 6 5 5 5 5 5 5 5 5 5 5 5 5 5 5 5 5 5 5 5 5 5 6 5 5 5 5 5 5 5 5 5 5 5 5 5 5 5 5 5 5 5 5 5 5 5 5 5 5 5 5 5 5 5 5 5 5 5 5 5 5 5 6 5 5 6 5 5 5 5 5 5 5 5 5 5 5 5 5 5 5 6 5 5 5 5 5 5 5 5 5 5 5 5 5 5 5 5 5 5 5 5 5 5 5 5 5 5 5 5 5 5 5 5 5 5 5 5 5 5 5 5 5 5 5 5 5 5 5 5 5 5 5 5 5 5 5 5 5 5 5 5 6 5 5 5 5 5 5 5 5 5 6 5 5 5 5 5 5 5 5 5 5 5 6 5 5 5 5 5 5 5 5 5 5 5 5 5 6 6 6 5 5 5 5 5 5 5 6 5 5 5 5 5 6 5 5 5 5 5 5 5 5 5 5 5 5 5 5 5 5 5 5 5 5 5 5 5 5 5 5 5 5 5 5 5 5 5 5 5 5 5 6 5 5 5 6 5 5 5 5 5 5 5 5 5 5 5 5 5 5 5 5 6 6 5 5 5 6 6 5 5 5 5 5 5 5 5 5 5 5 5 6 5 5 5 5 5 5 5 5 5 5 5 5 5 5 5 5 5 5 5 5 5 5 5 5 5 5 5 5 5 5 5 5 5 5 5 5 5 6 5 5 5 5 5 5 5 5 6 5 5 5 5 5 5 5 6 5 5 5 5 5 5 5 5 5 5 5 5 5 5 6 5 5 5 6 5 6 5 5 5 5 5 5 5 5 5 6 5 5 5 5 5 6 5 5 5 5 5 5 5 5 5 5 5 5 5 5 5 5 5 5 5 5 6 5 5 5 5 5 6 5 5 5 5 5 5 5 6 5 5 6 5 5 5 5 5 5 6 5 5 5 5 5 5 6 5 5 5 5 5 5 5 5 5 5 5 5 5 5 5 5 5 5 5 5 5 5 5 5 5 5 5 5 5 6 5 5 5 5 6 5 5 6 5 5 5 6 5 5 6 5 5 5 5 5 5 5 5 5 5 5 5 5 5 5 5 5 5 6 5 5 5 5 6 5 5 5 6 5 5 6 5 5 5 5 5 5 5 5 5 5 5 5 5 5 5 5 5 5 5 5 5 5 5 5 5 5 5 5 5 5 5 5 5 5 5 5 5 5 5 5 5 5 5 5 5 5 5 5 5 5 5 5 5 5 5 5 5 5 5 5 5 6 5 5 5 5 5 5 5 5 6 5 5 5 5 5 5 5 5 5 5 5 5 5 5 5 5 5 5 5 5 5 5 5 5 5 5 5 5 6 5 5 5 5 5 5 5 5 5 5 5 5 5 5 5 5 5 5 5 5 5 6 5 6 5 5 6 6 5 5 6 6 5 5 6 5 5 5 5 6 5 5 6 5 5 6 5 5 5 5 5 5 5 5 5 5 5 5 5 5 6 5 5 5 5 5 5 5 5 5 5 6 5 5 6 5 5 5 5 5 6 5 6 5 5 6 5 6 5 6 5 5 5 5 5 5 5 5 5 5 5 5 5 5 5 5 6 5 5 6 5 5 5 5 6 5 5 5 5 5 5 5 5 5 5 5 5 5 5 5 5 5 6 5 5 5 5 5 5 5 5 5 6 5 5 5 5 5 5 5 5 5 5 5 5 5 5 6 5 5 6 5 5 6 5 5 5 6 5 5 5 5 5 5 5 5 5 5 6 5 6 5 5 5 5 5 6 5 5 5 5 5 5 5 5 5 6 5 5 5 5 5 5 5 5 5 5 5 6 5 5 6 5 5 5 5 5 5 5 5 5 6 5 5 5 5 5 5 5 5 6 6 5 5 5 5 5 5 5 5 5 5 5 5 5 5 5 5 5 5 5 5 5 5 5 5 5 6 5 5 5 5 5 5 5 5 5 5 5 5 5 5 5 5 5 5 5 5 5 5 5 5 5 5 5 5 5 5 5 5 5 5 5 5 5 5 5 5 5 5 5 5 5 5 5 5 5 5 5 5 5 6 5 5 6 5 5 6 6 5 5 5 5 6 5 5 5 5 5 5 5 5 5 5 5 5 5 6 5 5 5 5 5 5 5 5 5 5 5 5 5 5 5 5 5 6 5 6 5 5 6 5 5 5 5 5 5 5 5 5 6 5 5 6 5 5 5 6 5 6 5 5 5 5 5 5 5 5 5 5 5 5 5 5 5 5 5 6 5 5 5 5 6 5 5 5 5 5 5 5 5 5 5 5 5 5 6 5 5 5 5 5 5 5 5 5 5 5 5 5 5 5 5 5 5 5 5 5 5 5 5 5 5 5 5 5 5 5 5 5 5 5 5 5 6 5 6 5 6 5 5 6 5 5 6 5 5 5 6 5 5 5 6 5 5 5 5 5 6 5 5 6 5 5 5 5 6 5 5 5 5 5 5 5 5 5 5 5 5 5 5 6 5 5 5 5 5 5 5 5 5 5 5 5 5 5 5 5 5 5 5 5 5 5 5 5 5 6 6 5 5 5 5 5 5 5 5 5 5 5 5 6 6 5 5 5 5 5 5 5 5 5 5 5 5 5 5 5 5 5 5 5 5 5 5 5 5 5 5 5 5 5 5 5 5 5 5 5 5 5 5 5 5 5 5 5 5 5 5 5 5 5 5 5 5 6 5 5 5 5 5 6 5 5 5 6 5 5 6 6 5 6 6 5 5 5 5 6 5 5 5 5 5 5 5 5 5 5 5 5 5 5 5 5 6 5 5 5 6 5 5 5 5 5 5 5 5 5 5 5 6 5 5 6 5 6 5 5 6 5 5 6 5 5 5 5 5 5 5 5 5 5 5 5 5 5 5 5 5 5 5 5 5 5 5 5 5 6 6 5 5 5 6 5 5 6 5 5 5 5 5 5 5 5 5 5 5 5 5 5 5 5 5 5 5 5 5 5 5 5 5 6 5 5 6 5 5 5 5 5 6 5 5 6 5 5 5 5 5 5 6 5 5 5 5 5 6 5 5 5 5 5 5 5 5 5 5 5 5 5 5 5 5 5 5 5 5 5 5 5 5 5 5 5 5 5 5 5 5 5 5 5 5 5 5 5 5 5 5 5 5 5 5 5 5 5 5 5 5 5 5 5 5 5 5 5 6 5 5 5 6 5 5 5 5 6 5 5 5 5 5 5 5 5 5 5 5 5 5 5 5 5 5 5 5 5 5 5 5 5 5 5 5 5 5 5 5 5 5 5 5 5 5 6 5 5 5 5 5 5 5 5 5 5 5 5 6 5 5 5 5 5 5 5 5 5 6 5 6 5 5 5 5 5 5 5 6 6 5 5 6 5 5 5 5 5 5 5 5 6 5 5 5 5 5 5 5 5 5 5 5 5 5 5 5 5 5 5 5 5 5 5 5 5 5 5 5 5 5 5 5 5 6 5 5 6 5 5 5 5 6 5 5 5 6 5 5 5 6 5 5 5 5 5 6 6 5 5 5 5 5 6 5 6 6 5 5 5 5 5 5 5 5 5 5 5 5 5 5 5 5 5 5 5 5 5 5 5 5 5 5 5 5 5 5 5 5 5 5 6 5 5 5 5 5 5 5 5 6 5 5 5 5 5 5 5 5 5 5 5 5 5 5 5 5 5 5 5 5 5 5 5 5 5 5 5 5 5 5 5 5 5 5 5 5 5 5 5 5 5 5 5 5 5 5 5 5 5 5 5 5 5 6 5 5 5 5 5 5 6 5 5 5 5 5 6 6 5 5 5 5 5 5 5 5 5 5 5 6 5 5 5 5 5 5 5 6 5 5 5 5 5 5 5 5 6 5 5 5 5 5 6 5 5 5 5 5 5 5 5 5 5 5 5 5 5 6 5 5 5 5 5 5 5 5 6 5 5 5 6 5 5 5 5 5 5 6 5 5 5 5 5 5 5 5 5 5 5 5 5 5 6 6 5 6 5 5 5 5 5 5 5 5 6 5 5 5 6 5 6 5 6 6 6 5 5 5 5 6 5 6 5 5 6 5 5 5 5 5 6 5 5 6 5 5 5 5 5 5 5 6 5 5 5 6 6 5 5 5 6 6 5 5 5 6 5 6 5 5 6 5 5 5 5 6 5 5 5 6 5 5 6 5 5 5 5 5 5 6 5 5 5 5 5 5 5 5 5 5 5 5 5 6 5 5 5 5 5 6 5 5 5 5 5 5 5 5 5 5 5 5 5 5 5 5 6 5 5 5 5 5 5 5 5 5 5 5 5 6 5 5 5 6 5 5 6 5 5 5 5 5 5 5 5 5 5 5 6 5 6 5 5 5 5 5 5 5 5 5 5 5 5 5 5 5 5 6 5 5 5 5 5 5 5 5 6 5 5 5 5 5 5 5 5 5 5 5 5 5 5 5 5 5 5 5 5 5 5 5 5 5 5 5 5 5 5 5 5 5 5 5 5 5 5 5 5 5 5 5 5 5 5 5 5 5 5 5 5 5 5 5 6 5 5 6 5 5 5 5 5 5 5 5 5 5 5 5 5 5 5 5 5 5 5 5 6 5 5 5 5 6 5 5 5 5 5 6 6 5 5 6 6 5 6 5 5 5 5 5 5 5 5 5 5 5 5 5 5 5 5 5 5 5 5 5 5 5 5 5 5 5 5 5 6 5 5 5 6 5 5 6 5 5 5 5 6 5 5 6 5 5 5 6 6 5 5 5 5 5 5 5 5 5 5 5 5 5 6 5 5 6 5 5 5 5 5 6 5 6 5 5 5 5 6 5 5 5 6 5 5 5 5 5 5 5 5 5 6 5 6 6 5 6 6 5 5 5 5 5 5 5 5 5 5 5 5 6 5 5 5 5 5 6 6 6 5 5 5 5 5 6 5 5 6 5 5 5 5 5 5 5 5 5 5 6 5 5 5 5 5 5 5 5 5 5 6 5 5 5 6 5 5 5 5 5 5 5 5 5 5 6 5 5 6 5 6 5 5 6 5 5 6 5 6 5 5 6 5 6 5 5 6 5 5 5 6 5 5 5 5 6 5 5 5 5 6 6 5 5 5 5 5 5 6 5 5 5 5 5 5 5 5 5 5 6 5 5 5 5 6 5 5 5 5 5 5 5 6 5 5 5 6 6 5 6 5 5 5 5 5 6 5 6 5 6 6 6 5 6 5 5 5 6 5 5 5 5 5 5 5 6 5 5 5 5 5 5 5 5 5 6 5 5 5 5 6 5 5 5 5 5 5 5 5 5 5 5 6 5 5 5 5 5 5 6 5 5 5 6 5 5 5 5 5 5 5 5 5 5 5 5 5 5 6 5 5 5 5 5 6 5 5 5 5 5 5 6 5 6 5 5 6 5 5 5 5 5 6 5 6 5 5 5 5 6 5 5 5 6 5 5 5 5 5 5 5 5 5 6 5 6 5 5 5 5 5 6 5 5 5 5 6 5 5 5 5 6 6 5 6 5 5 6 5 5 6 5 6 5 5 5 5 5 6 5 5 5 5 5 5 5 5 5 5 5 5 5 6 5 5 5 5 5 5 5 6 5 5 5 5 5 5 5 5 5 5 5 5 5 5 6 5 6 6 5 5 5 5 5 5 5 5 5 5 5 5 5 5 5 5 5 5 5 5 6 5 5 5 5 6 5 5 5 5 5 5 5 5 5 5 5 5 5 5 5 5 6 5 5 5 5 5 5 5 6 5 5 5 5 5 5 6 5 6 5 5 6 5 5 5 5 6 5 5 5 5 6 5 5 5 6 5 5 5 5 5 5 5 6 5 5 5 5 5 5 6 5 5 5 5 6 5 5 5 5 5 5 5 5 5 6 5 5 5 5 6 5 5 5 6 5 5 5 5 5 5 5 6 5 6 5 5 5 5 6 5 5 6 6 5 5 6 5 6 5 5 6 6 5 5 6 5 5 5 5 6 5 5 5 5 5 6 6 5 5 5 5 5 5 5 5 6 5 5 6 6 6 5 5 5 6 5 6 5 5 5 5 6 5 5 5 5 5 5 5 5 5 5 5 5 5 5 5 5 5 6 5 5 6 5 5 5 5 5 5 5 5 5 5 5 6 5 5 5 5 5 5 5 5 5 5 6 5 5 6 5 5 5 5 5 5 5 5 5 5 5 5 6 5 5 5 5 5 5 5 6 5 5 5 5 6 5 5 5 5 5 5 5 6 6 5 5 5 5 6 6 5 6 6 5 5 5 5 5 5 6 6 5 5 5 5 6 5 6 5 5 5 5 5 5 5 5 5 5 6 5 5 5 5 5 6 5 5 5 5 5 5 5 5 5 5 5 5 5 6 5 5 6 6 5 5 6 6 5 5 5 6 6 5 5 5 6 5 5 6 6 5 5 5 5 5 5 5 5 5 6 5 5 5 6 5 6 5 6 5 6 5 5 5 5 5 5 6 5 6 5 5 6 5 5 5 5 5 5 5 5 5 6 5 5 5 6 5 5 5 5 5 5 5 5 5 5 5 5 5 5 5 5 6 5 6 5 5 5 5 5 5 5 5 5 6 5 6 5 5 5 6 5 5 6 5 5 5 5 5 5 5 5 5 5 6 5 5 6 5 5 5 5 5 6 5 5 6 5 5 5 5 5 5 5 5 5 5 5 5 5 5 5 5 5 5 6 5 5 5 6 5 5 6 5 5 6 5 5 5 5 5 5 6 5 5 5 5 5 5 5 5 5 5 5 5 6 5 5 5 5 5 5 5 5 5 5 5 5 5 6 5 5 6 5 5 5 6 5 5 5 5 5 5 5 5 5 5 6 5 5 5 5 5 5 5 5 5 5 5 5 5 6 5 5 5 5 5 5 5 5 5 5 5 5 5 5 5 5 5 5 5 5 5 5 5 5 5 5 6 5 5 6 5 5 5 6 5 5 5 5 5 5 5 5 5 5 5 5 5 5 6 5 5 5 5 5 6 6 6 5 5 5 6 5 5 5 5 5 5 5 5 5 6 5 5 5 5 5 5 5 5 6 5 5 5 5 5 6 5 5 5 5 5 6 5 5 6 5 5 5 5 6 5 5 5 5 5 5 5 5 5 5 5 5 5 5 5 5 5 5 5 5 5 5 5 5 5 5 5 6 5 6 5 5 5 5 5 5 6 5 5 5 5 5 5 5 5 5 5 5 5 5 5 5 5 5 5 5 5 5 5 5 6 5 5 5 5 6 5 5 5 5 5 5 5 5 5 5 5 5 6 5 5 6 5 5 5 5 5 5 6 6 5 5 5 5 6 6 5 5 5 5 5 5 5 5 5 5 5 6 6 5 5 6 6 5 5 5 5 6 5 5 5 5 5 5 5 5 5 6 5 5 5 5 5 5 5 5 5 5 5 5 5 5 5 5 5 5 5 5 5 5 5 5 6 5 5 6 5 5 6 5 6 5 5 6 6 5 6 5 5 6 6 5 5 5 5 5 5 5 5 5 5 5 5 5 5 5 5 5 5 5 5 5 5 5 5 5 5 5 5 5 5 6 5 5 5 5 6 5 5 6 5 5 5 5 6 5 5 5 5 5 5 5 5 6 6 5 5 6 6 5 6 5 5 5 5 6 5 5 5 5 5 5 5 5 5 6 5 6 5 5 5 5 5 5 5 5 5 5 5 5 5 5 5 5 5 5 5 5 5 5 6 5 5 5 6 5 5 5 5 6 5 5 5 5 5 6 5 6 5 5 5 5 6 5 6 5 5 6 5 5 5 5 5 6 6 6 5 5 6 5 5 5 5 6 6 5 5 6 6 5 5 5 5 6 6 5 5 6 5 5 5 6 5 5 6 5 5 6 5 5 5 5 5 6 6 5 5 5 5 5 5 5 5 5 5 5 5 5 5 5 6 5 5 5 6 5 5 5 5 6 5 5 5 5 5 5 5 5 5 5 5 5 5 5 5 5 5 6 5 6 6 5 5 6 5 5 5 6 5 5 5 5 5 5 5 5 5 5 6 5 5 5 5 5 5 5 5 5 5 5 5 5 5 5 5 5 5 5 5 5 5 5 5 5 5 5 5 5 5 5 5 5 5 5 5 5 5 5 5 5 5 5 5 6 5 5 6 5 5 5 5 5 5 5 5 5 5 5 6 5 5 5 5 5 6 5 6 5 5 5 5 5 5 5 5 6 5 5 5 5 5 5 6 5 5 6 5 6 5 5 6 5 6 5 5 5 5 5 6 5 5 5 5 5 5 5 5 5 5 5 5 5 5 6 5 5 5 5 6 5 5 5 5 5 5 5 5 5 6 5 5 5 5 5 5 5 5 5 5 5 5 5 5 5 5 5 5 5 5 5 5 5 5 5 5 5 6 5 5 5 5 5 5 5 5 5 5 5 5 5 5 6 5 6 5 5 5 6 5 6 5 6 5 5 5 5 5 5 5 5 5 5 5 5 5 5 5 5 5 5 5 5 5 5 5 5 5 5 5 5 5 5 5 5 6 5 5 6 5 5 5 5 5 5 5 6 5 5 5 5 5 5 5 5 5 5 5 5 5 5 5 5 5 5 5 5 5 5 5 6 5 5 6 5 5 5 5 6 5 5 5 5 5 5 5 5 5 5 5 5 6 5 5 5 5 5 6 5 5 5 5 6 5 5 5 5 5 5 5 5 5 5 5 5 5 6 5 5 5 5 5 5 5 5 5 5 5 5 5 6 5 5 5 5 5 5 5 5 5 5 5 5 5 5 5 5 5 5 6 5 5 5 5 5 5 5 5 5 5 5 5 5 5 5 6 6 5 5 5 5 5 5 5 5 5 6 5 5 5 5 5 5 5 6 5 5 5 5 5 5 5 6 5 5 5 5 6 5 5 5 6 5 5 5 5 5 6 5 5 5 5 5 6 5 5 5 5 5 5 5 5 6 5 6 5 5 5 5 5 6 5 5 5 5 5 5 6 5 5 5 6 5 5 6 5 5 5 5 5 5 6 5 5 6 5 5 5 5 6 5 5 5 5 5 5 5 5 5 5 5 5 5 5 5 5 5 5 6 5 5 5 5 5 5 5 5 5 5 5 5 5 5 5 5 5 6 5 5 5 6 5 5 6 6 5 5 5 5 5 5 5 5 5 5 5 6 5 5 5 5 5 5 5 5 6 5 6 5 5 5 6 5 5 5 5 5 6 5 5 6 5 5 5 5 5 5 5 5 5 5 5 5 5 5 6 6 5 5 5 5 5 6 5 5 5 5 5 5 5 5 6 5 5 6 5 5 5 6 5 6 5 5 5 5 5 5 5 5 5 5 5 6 5 5 5 6 5 6 5 5 6 5 6 5 5 6 5 5 5 5 5 5 5 5 5 5 5 5 6 5 5 6 5 5 5 6 5 6 5 5 5 5 5 5 5 5 5 5 5 5 5 6 6 5 5 5 5 5 6 5 5 6 5 5 6 5 5 5 6 5 5 5 5 5 5 5 5 6 5 5 6 6 5 5 5 5 5 6 5 5 6 5 5 5 6 6 5 5 5 5 5 6 5 6 5 5 5 5 5 5 5 5 5 6 5 5 6 5 5 5 5 5 5 5 5 6 5 5 5 5 5 5 6 5 5 5 6 5 5 5 5 6 5 5 5 5 5 5 5 5 5 5 5 6 5 5 6 5 5 5 5 5 5 6 5 5 5 5 5 5 5 5 6 5 5 6 6 5 5 5 5 5 6 5 5 5 5 5 5 5 6 5 5 6 5 5 5 5 5 5 6 5 5 5 6 5 5 5 5 5 5 5 5 5 5 5 5 6 5 6 5 6 5 5 5 6 5 5 5 5 5 5 6 5 5 5 5 5 5 5 5 5 5 5 5 6 5 5 6 6 5 5 5 5 6 5 5 5 6 6 5 5 5 5 6 5 5 5 6 5 6 6 5 5 6 6 5 5 5 5 5 6 5 6 5 6 6 5 5 5 5 5 5 5 5 5 6 6 6 5 5 6 5 5 6 5 5 5 5 5 5 5 5 6 6 5 5 5 6 5 5 5 6 5 5 6 5 5 5 5 5 5 5 5 5 5 5 5 5 5 5 5 5 5 6 5 5 5 5 5 5 5 5 5 6 5 5 5 5 5 5 5 5 5 5 6 6 5 5 5 5 5 6 5 5 5 5 5 5 5 5 5 5 5 6 5 6 5 5 6 5 5 6 5 5 5 5 5 5 5 5 5 5 5 5 5 5 5 5 5 6 5 5 5 5 5 5 5 5 5 5 5 5 5 5 5 5 5 5 5 5 5 5 5 5 5 6 5 5 5 5 5 5 5 5 5 5 5 5 5 6 5 6 5 5 5 5 5 5 5 5 5 5 5 5 5 5 5 5 5 5 5 5 5 5 5 5 5 5 5 5 5 5 5 5 5 5 6 5 6 5 5 6 5 5 5 6 5 5 5 5 5 5 5 5 5 5 5 5 5 5 5 5 5 5 5 6 6 5 5 5 5 5 5 6 5 6 5 5 5 5 5 5 6 5 5 6 5 6 5 5 5 5 5 5 5 5 5 5 5 5 5 5 5 5 6 5 6 5 5 5 5 5 5 5 5 6 6 5 5 6 5 5 5 5 6 5 6 5 5 6 5 5 5 5 5 5 5 6 6 5 5 5 6 5 5 6 5 6 5 6 6 5 5 5 5 5 6 5 5 5 5 5 5 6 5 5 6 5 5 5 5 5 5 5 5 5 6 6 5 6 5 6 5 5 6 5 5 5 5 5 5 5 5 5 6 5 5 5 5 6 5 5 5 5 5 5 5 5 5 6 6 5 5 5 5 5 5 5 5 5 5 5 5 5 5 5 5 5 5 5 5 5 5 5 5 5 5 5 5 5 5 6 5 6 5 5 5 5 5 6 6 5 6 6 5 5 5 5 5 5 5 5 5 5 5 5 5 6 5 5 5 5 5 5 5 5 5 5 5 5 5 5 5 5 5 6 5 5 6 5 5 5 5 5 5 5 6 5 5 5 5 5 5 5 5 5 5 5 5 5 6 5 5 5 5 5 5 6 5 5 5 5 5 5 5 5 5 5 5 5 5 5 5 5 5 6 5 5 5 5 5 5 5 5 5 5 5 5 5 6 5 5 5 6 5 5 5 5 5 5 5 5 6 5 5 5 5 5 5 6 5 5 5 5 6 5 5 5 6 5 5 5 5 6 5 5 5 5 5 5 5 6 5 5 5 6 5 5 5 6 5 5 5 5 5 5 5 6 5 5 6 5 5 5 5 5 5 5 5 5 5 5 5 5 5 5 5 5 5 5 5 5 5 5 5 5 5 5 5 5 5 5 5 5 5 5 5 5 5 5 5 5 5 6 5 5 6 5 5 6 5 5 5 6 5 5 5 5 5 6 6 5 6 6 5 5 5 5 5 5 5 5 5 5 5 5 5 5 5 5 5 6 5 5 5 5 5 5 5 5 5 5 5 5 5 5 5 5 5 5 5 5 5 5 5 5 5 5 5 5 5 6 5 5 5 5 6 5 5 5 5 5 5 5 6 5 6 5 5 5 6 5 5 5 5 5 5 5 5 5 5 5 5 5 5 5 5 5 5 5 5 5 5 5 5 5 5 5 5 5 5 5 5 5 5 5 5 5 5 5 5 5 5 5 6 6 5 6 5 6 5 5 5 5 6 5 5 5 5 5 5 5 5 5 5 5 5 5 5 5 5 6 5 5 6 5 5 5 5 5 5 5 5 5 5 5 5 5 5 5 6 5 5 5 5 6 5 5 5 5 5 6 5 5 5 5 5 5 5 5 5 5 5 5 6 5 5 6 5 5 5 5 6 5 5 5 5 5 5 5 5 5 6 5 5 5 5 5 5 5 5 5 5 5 5 5 5 5 5 5 5 5 5 5 5 5 5 5 5 5 6 5 5 5 5 6 5 5 5 5 5 5 5 5 6 5 6 5 5 5 6 5 5 5 5 5 5 5 5 5 5 5 6 5 5 5 6 5 5 5 5 5 5 6 6 5 5 5 5 5 5 5 5 5 5 5 5 5 5 5 5 5 6 5 5 5 5 5 5 5 6 5 5 5 5 5 5 5 5 5 5 5 5 6 5 5 5 5 5 6 6 5 6 5 5 6 5 5 5 5 5 6 5 5 5 6 5 6 5 5 5 6 6 5 5 5 5 5 5 5 5 5 5 5 5 5 5 5 5 5 5 5 5 5 5 6 5 5 5 5 5 5 5 6 5 5 5 5 6 5 5 6 5 5 5 5 5 5 6 5 5 5 5 5 5 6 5 5 5 5 5 5 5 6 5 5 5 5 5 5 5 5 6 5 5 5 5 5 5 6 5 5 5 5 5 6 5 5 5 6 5 5 5 6 5 5 5 5 5 5 5 5 5 5 5 5 5 5 5 5 5 5 5 5 6 5 5 5 5 5 6 5 5 6 6 5 5 5 5 6 5 5 6 5 5 5 5 5 5 5 5 6 5 5 5 6 5 5 5 5 5 6 5 5 5 6 5 5 6 5 5 5 5 5 5 5 5 5 5 5 5 5 5 5 5 5 5 5 6 5 5 5 5 5 6 5 5 6 5 5 5 5 5 5 5 6 5 5 5 5 5 5 5 5 5 5 5 6 5 5 5 5 6 6 5 5 5 5 6 5 5 6 5 5 5 5 5 5 6 5 5 5 5 5 5 5 5 5 5 5 5 5 5 5 5 5 5 5 5 5 5 5 5 5 5 5 6 5 5 6 5 5 5 6 5 5 5 5 5 5 5 5 5 5 6 5 5 5 6 5 5 5 5 5 6 6 5 5 5 5 6 5 5 5 6 5 5 5 5 5 5 5 5 5 5 5 6 5 5 5 5 5 5 5 5 5 5 5 5 5 5 6 5 5 5 6 5 5 5 5 5 6 5 5 5 6 6 5 5 6 5 5 5 5 5 5 5 6 5 5 5 5 6 5 5 5 5 5 5 5 5 6 5 5 6 5 5 5 5 5 5 5 5 5 5 5 5 5 5 5 5 5 5 5 5 5 5 5 5 5 5 6 5 5 5 6 5 5 5 5 5 5 5 5 5 5 5 5 5 5 5 5 5 5 5 6 5 5 6 5 6 5 5 5 5 5 5 5 6 5 5 6 5 5 5 6 5 5 5 5 5 6 5 5 5 5 5 5 5 5 5 6 5 6 6 6 5 5 5 6 5 5 6 5 5 5 5 5 5 5 5 5 5 5 5 5 6 5 5 5 5 5 5 5 5 6 5 5 5 5 6 5 5 5 5 6 5 5 5 5 5 5 5 5 5 6 5 5 5 5 6 5 5 6 5 5 5 5 6 5 5 6 5 6 5 5 5 5 5 5 5 5 5 5 5 5 5 5 5 5 5 5 5 5 5 5 5 5 5 5 5 5 5 5 5 5 5 5 5 5 5 5 5 5 5 5 5 5 5 5 5 5 6 5 6 5 5 6 5 5 5 5 5 5 5 6 5 5 6 5 5 5 5 5 6 5 5 5 6 5 5 5 5 5 5 5 5 6 5 5 6 5 5 5 5 5 5 5 5 5 5 5 5 6 5 5 5 5 5 6 5 5 5 5 5 6 5 5 5 5 5 5 5 6 5 6 5 5 5 6 5 5 5 6 5 5 5 5 5 5 5 6 5 5 5 5 5 6 5 5 5 5 5 6 5 5 6 5 5 6 5 6 5 5 5 5 6 5 5 5 6 5 5 5 5 6 5 5 5 5 5 5 5 5 5 5 5 5 6 5 6 6 5 5 5 6 5 5 5 5 5 5 5 6 5 5 5 5 5 5 6 5 6 5 5 5 6 5 5 5 5 5 5 5 5 5 5 5 5 5 5 5 5 5 5 5 6 5 6 5 5 6 5 5 6 5 5 5 5 5 5 5 5 5 5 5 5 6 5 5 5 5 5 5 6 5 5 5 5 6 5 5 5 5 5 5 5 5 5 5 5 5 5 5 5 6 5 5 5 5 5 6 5 5 5 5 6 5 5 5 5 5 5 5 6 5 5 6 5 5 5 5 5 5 6 5 5 5 6 5 5 6 5 5 5 5 5 5 5 5 6 6 5 5 6 5 6 5 6 5 5 5 5 5 6 5 6 5 5 5 6 5 5 5 5 5 5 5 5 6 5 5 5 5 5 5 5 5 5 5 5 5 5 5 6 5 5 5 5 5 5 5 6 5 5 5 6 5 5 5 5 6 6 5 5 5 6 5 5 5 5 6 5 5 6 5 5 5 5 5 6 5 5 5 5 5 5 5 5 5 5 5 5 6 5 5 5 5 5 5 5 5 5 5 5 5 5 5 5 5 5 5 5 5 5 5 5 5 5 5 5 5 5 5 5 5 5 5 5 5 5 5 6 5 6 5 5 5 5 5 5 5 5 5 5 5 5 5 5 5 5 6 5 5 5 5 5 5 5 5 5 5 5 5 5 5 5 5 5 5 5 5 5 5 5 5 5 5 5 5 5 5 5 5 5 5 5 5 5 5 5 5 5 5 5 5 5 5 5 5 5 5 5 5 5 5 5 5 5 5 5 5 5 5 5 5 5 6 5 5 5 5 5 5 5 5 5 5 5 5 5 5 5 5 5 5 5 5 5 5 5 5 5 5 5 5 5 5 5 5 6 5 5 5 6 5 6 5 5 5 5 5 5 6 5 5 5 6 5 5 5 5 6 6 6 5 5 5 5 6 6 6 6 5 5 5 6 5 6 5 6 5 5 5 5 5 5 5 5 6 5 5 5 6 5 5 5 5 5 5 5 5 5 5 6 5 6 5 5 5 5 6 5 5 5 5 5 5 5 5 5 5 5 5 5 5 6 5 6 5 5 6 5 6 5 5 5 5 5 6 5 6 5 5 5 5 5 5 5 6 5 5 5 5 5 5 5 5 5 5 5 5 5 5 5 5 5 5 5 5 5 5 5 5 5 5 6 5 5 5 5 5 6 5 5 5 5 5 5 5 5 5 5 5 5 5 5 5 5 6 5 5 5 5 5 5 5 5 5 6 5 5 5 5 5 5 6 6 5 5 5 5 5 5 5 5 5 5 5 5 5 6 5 5 5 5 6 5 6 5 5 5 6 5 5 5 5 5 5 5 5 5 5 5 5 6 6 5 5 5 5 6 5 5 5 6 5 5 5 5 5 5 5 5 5 5 5 6 5 5 5 5 6 5 6 6 5 6 5 5 5 5 5 5 5 5 5 5 5 5 5 5 5 5 5 5 5 5 5 5 5 5 5 5 5 6 5 5 5 5 5 5 5 5 5 6 5 5 6 5 5 5 6 5 5 5 5 5 5 5 6 5 5 5 5 5 5 5 6 5 6 5 5 5 5 5 5 5 5 5 5 5 5 5 5 5 6 5 5 5 6 5 5 5 6 5 6 5 5 5 5 6 5 5 5 5 5 5 5 5 5 5 5 5 5 5 6 5 6 5 5 5 5 6 6 5 5 5 5 5 5 5 5 5 6 5 5 5 5 5 5 5 5 5 5 5 5 5 6 5 5 5 6 5 5 5 5 5 5 6 5 5 5 5 5 6 5 5 6 5 5 5 5 6 5 5 5 5 5 5 5 6 5 5 5 6 5 5 5 5 5 5 5 5 5 5 5 5 6 5 5 5 5 5 5 5 5 5 5 5 5 5 5 5 5 5 5 5 5 5 5 5 5 5 5 5 5 5 5 5 5 5 5 5 5 5 5 5 5 5 5 5 5 5 5 5 5 5 5 5 5 5 6 5 5 5 5 6 5 5 5 5 5 5 5 5 5 5 5 5 5 5 5 5 5 5 5 5 5 5 5 5 5 5 5 5 5 5 5 5 5 5 5 6 5 5 5 5 6 5 5 5 5 5 5 5 5 5 5 6 5 5 5 6 5 5 5 5 5 5 5 6 5 5 5 5 6 5 5 5 5 6 5 5 5 5 5 5 5 5 5 5 5 5 5 5 6 5 6 5 6 5 6 5 5 5 5 5 5 6 5 5 5 5 5 5 5 6 5 5 5 5 5 5 5 5 5 6 5 6 5 5 5 5 5 6 5 5 6 6 5 5 6 5 6 6 5 6 5 5 5 5 5 5 5 5 5 5 5 5 5 6 5 5 5 5 5 6 5 5 5 5 5 5 5 6 5 5 5 6 5 5 6 5 6 5 5 5 5 5 5 5 6 5 5 5 5 5 5 5 5 5 5 5 5 5 5 5 5 5 6 5 5 5 5 5 5 5 5 5 5 5 5 5 5 5 5 5 5 5 5 5 5 5 5 6 5 6 5 5 5 5 6 5 5 6 5 5 6 5 5 5 6 5 5 5 5 5 5 5 6 6 5 5 5 6 5 5 5 6 5 5 5 6 5 5 6 6 5 5 5 5 5 6 5 5 5 5 6 5 5 5 5 5 5 5 5 5 5 5 5 5 5 5 5 5 5 5 5 5 5 5 5 5 5 5 5 5 5 5 5 5 5 5 5 5 5 5 
</DataArray>
<DataArray type="Float64" Name="stress" NumberOfComponents="9" format="ascii">
7.5281731673347148 3345.3991408883248 0 3345.3991408883248 -2743.1810790184245 0 0 0 0 -439.14916988521873 1239.028386634538 0 1239.028386634538 -2.3389063602444367 0 0 0 0 -80.862217406393029 126.07537087051605 0 126.07537087051605 74.253941642311361 0 0 0 0 3.2381394494553319 -0.039321342079539079 0 -0.039321342079539079 -4.8342868817863973 0 0 0 0 -15.522653100957541 -240.77476797196323 0 -240.77476797196323 73.652433741022833 0 0 0 0 -99.665273978549521 255.13318389744381 0 255.13318389744381 -2748.2476091219182 0 0 0 0 -11.673438870539144 9.1699658536925952 0 9.1699658536925952 -9.3907238579785428 0 0 0 0 0.17193008265167009 134.45760323356808 0 134.45760323356808 68.878816224168986 0 0 0 0 -0.11339435619965034 140.03192457975217 0 140.03192457975217 -100.57539919279225 0 0 0 0 12.934490789106349 44.155886280073901 0 44.155886280073901 55.108584873719337 0 0 0 0 55.805226301687071 90.996218720327306 0 90.996218720327306 -70.291201961881598 0 0 0 0 19.949498713496723 106.55992055112438 0 106.55992055112438 -26.005333400506061 0 0 0 0 -3.5062757091363892 34.090414430218516 0 34.090414430218516 -78.117686000874528 0 0 0 0 5.6469133367500035 -16.349298913737584 0 -16.349298913737584 -3.656142671010457 0 0 0 0 21.531936979023158 14.953996157320944 0 14.953996157320944 -64.739449457229057 0 0 0 0 11.164247287707042 2.070305836725737 0 2.070305836725737 -5.3140777323559689 0 0 0 0 -2.1713960549088824 2.2160518992273097 0 2.2160518992273097 2.1623911158179681 0 0 0 0 0.0031723687746172628 6.8506579960272855 0 6.8506579960272855 -1.1118162985076196 0 0 0 0 6.7122605178883532 -38.269837283849483 0 -38.269837283849483 -150.89501781770741 0 0 0 0 36.035341401206097 178.84767724080302 0 178.84767724080302 -41.397303607242065 0 0 0 0 -64.106333508961526 87.219524578082712 0 87.219524578082712 -173.67715573136229 0 0 0 0 -44.820266177709044 41.726462841306251 0 41.726462841306251 -32.267636032833934 0 0 0 0 -64.271098110519233 -17.557407267500821 0 -17.557407267500821 7.5898190449370304 0 0 0 0 -10.836088474854478 75.018692536279559 0 75.018692536279559 -111.86320736339258 0 0 0 0 -27.515941476668843 28.869367036378421 0 28.869367036378421 -23.300316381160997 0 0 0 0 -3.2920378337533975 14.126402380633124 0 14.126402380633124 -15.41464630972041 0 0 0 0 8.08792308800912 70.26767555591141 0 70.26767555591141 -25.635334880644223 0 0 0 0 -6.0837462315148798 4.8890843310721266 0 4.8890843310721266 2.5590283905870024 0 0 0 0 -38.288479865208501 -0.80322402623278322 0 -0.80322402623278322 112.4422492487065 0 0 0 0 -2.4254315186479687 12.600813426631788 0 12.600813426631788 -2.8061278406634926 0 0 0 0 22.099260688439244 168.45045241244952 0 168.45045241244952 563.98050062608672 0 0 0 0 606.53877432268928 63.241748669781373 0 63.241748669781373 -15.942234650100545 0 0 0 0 123.40825073193992 -57.177405957976589 0 -57.177405957976589 -25.70007812899712 0 0 0 0 11.563409142441401 6.1681674552284136 0 6.1681674552284136 -8.4258194707886389 0 0 0 0 233.54517146874059 611.06169591558501 0 611.06169591558501 71.323100281209918 0 0 0 0 778.64738582467908 752.07265642997663 0 752.07265642997663 94.774910059990361 0 0 0 0 508.90119130676612 216.3649819623588 0 216.3649819623588 -10.448625522913062 0 0 0 0 352.40118930833705 777.96740975427747 0 777.96740975427747 361.85719062251701 0 0 0 0 415.13964630014016 399.67093486790327 0 399.67093486790327 -631.29391387703799 0 0 0 0 291.93035661072645 625.1048732544732 0 625.1048732544732 -7.6786437046939682 0 0 0 0 -983.38077442250506 153.49518672891281 0 153.49518672891281 -0.22450932762876619 0 0 0 0 -24.153058966825483 634.19773913188692 0 634.19773913188692 -240.79332327205702 0 0 0 0 -1305.0338144321399 525.97870476877927 0 525.97870476877927 510.48366819908551 0 0 0 0 -1315.9441052357652 -290.29013398900554 0 -290.29013398900554 244.98283292019914 0 0 0 0 -337.66867827324313 659.09943232566729 0 659.09943232566729 948.89610474575602 0 0 0 0 -375.70482731278753 448.80715266831248 0 448.80715266831248 352.01130219444167 0 0 0 0 6.2961566162557574 9.6880933967913734 0 9.6880933967913734 -86.459101832231681 0 0 0 0 -24.412337862432253 8.1143773274123419 0 8.1143773274123419 -0.028757031706156511 0 0 0 0 -9.2809257014159243 1.8464529685323328 0 1.8464529685323328 -0.77406061338593446 0 0 0 0 -571.83446426872979 -415.71515564108267 0 -415.71515564108267 -207.17137674448531 0 0 0 0 -615.22318254772108 -2.1722510837571463 0 -2.1722510837571463 333.66221498923187 0 0 0 0 -545.47163033566903 -173.82709139640428 0 -173.82709139640428 -2.7810959805356106 0 0 0 0 -55.76895035153575 118.63752178450159 0 118.63752178450159 125.03627737725037 0 0 0 0 72.772653109044768 -60.801530459189962 0 -60.801530459189962 -99.757336965078139 0 0 0 0 30.26311063853791 65.099244604294654 0 65.099244604294654 -33.372916404285206 0 0 0 0 -1.4726361360808369 104.07562752482772 0 104.07562752482772 -42.696090749814175 0 0 0 0 -156.49859790338178 88.248284055155636 0 88.248284055155636 15.988663097901735 0 0 0 0 -148.95524365908932 -5.9328558541965322 0 -5.9328558541965322 62.767755605986167 0 0 0 0 -210.8066471433267 84.687819316473906 0 84.687819316473906 26.829118637208012 0 0 0 0 -582.88760306981567 122.6356170977524 0 122.6356170977524 296.85128361779789 0 0 0 0 -450.33597046333307 75.752148331972421 0 75.752148331972421 75.881784965225961 0 0 0 0 -469.21755890902932 138.37784320285209 0 138.37784320285209 163.63091487984639 0 0 0 0 -444.62318532494828 233.34363274296629 0 233.34363274296629 94.871646615443751 0 0 0 0 -471.50970403337124 280.75246835672442 0 280.75246835672442 47.04612568221637 0 0 0 0 -377.67627981722762 272.94699149216831 0 272.94699149216831 -93.914438156672986 0 0 0 0 -363.30216490718885 327.57658142420041 0 327.57658142420041 59.766656863124808 0 0 0 0 -410.58509262598818 317.6460399399075 0 317.6460399399075 -174.88904239481781 0 0 0 0 -405.08324947889196 292.48682446249586 0 292.48682446249586 -66.524391969025601 0 0 0 0 -402.19994557119207 207.69793300401943 0 207.69793300401943 26.773079151549609 0 0 0 0 -396.42029584549891 253.14805344296201 0 253.14805344296201 -122.99499561302946 0 0 0 0 56.112897639638021 27.482945863338074 0 27.482945863338074 3.6308315797693638 0 0 0 0 19.898061385698384 141.88138912667637 0 141.88138912667637 -104.27681767236936 0 0 0 0 66.231316672405228 33.370986634326982 0 33.370986634326982 -49.753093430510489 0 0 0 0 11.138848002677989 0.1418132774535934 0 0.1418132774535934 -0.99193178940572579 0 0 0 0 -484.14662808680441 271.61702248675283 0 271.61702248675283 -73.118256447618478 0 0 0 0 -146.76749988406664 174.76305524489726 0 174.76305524489726 -44.311426081811078 0 0 0 0 -195.85139421709755 653.60131550249207 0 653.60131550249207 260.88117100286036 0 0 0 0 -603.74306478106882 460.62016123381909 0 460.62016123381909 430.90979869439616 0 0 0 0 -721.30542974120181 252.14009794633603 0 252.14009794633603 272.54089726621169 0 0 0 0 -434.43703068711329 384.4302231780166 0 384.4302231780166 296.65796228404361 0 0 0 0 -403.69828494484682 430.50492735515218 0 430.50492735515218 27.634226550144376 0 0 0 0 -333.46188410391915 381.91816365925479 0 381.91816365925479 -80.996961479730089 0 0 0 0 -324.57769518069108 412.39628092390194 0 412.39628092390194 23.290261916776217 0 0 0 0 -198.3771381798415 445.54792279241792 0 445.54792279241792 -124.11888155483757 0 0 0 0 -37.440429459195002 412.36683136720967 0 412.36683136720967 -67.477086148152011 0 0 0 0 -137.63590065902099 456.57819534248847 0 456.57819534248847 -81.388364089631068 0 0 0 0 -182.18812266233181 335.64698892001888 0 335.64698892001888 -238.94444568351901 0 0 0 0 -279.2689475024381 328.3742218369589 0 328.3742218369589 -230.54215818908415 0 0 0 0 -231.96256258284848 263.42567057414271 0 263.42567057414271 -326.97654646309093 0 0 0 0 -50.199254465027622 53.233302751699419 0 53.233302751699419 -46.844385950757442 0 0 0 0 -291.21972042211564 340.57374350281316 0 340.57374350281316 -191.61966204867349 0 0 0 0 -315.28603114373982 426.33771699287172 0 426.33771699287172 -288.53480331441096 0 0 0 0 -285.75590994136292 348.52627026794653 0 348.52627026794653 -101.51089920608501 0 0 0 0 -296.22846044082962 407.16988673244214 0 407.16988673244214 -176.09323439546279 0 0 0 0 -177.80142210214399 280.54689270618837 0 280.54689270618837 -286.73608269439865 0 0 0 0 -29.219322937391212 25.397164117023067 0 25.397164117023067 1.0496188900766725 0 0 0 0 -213.17542207592487 449.61615069336403 0 449.61615069336403 -578.27805348378024 0 0 0 0 -51.498123101235251 68.412827686188393 0 68.412827686188393 -69.291920054674847 0 0 0 0 -496.68099741864717 213.37685035305913 0 213.37685035305913 263.56833239720436 0 0 0 0 -28.731067221844569 135.79310606786748 0 135.79310606786748 70.060163854621351 0 0 0 0 -8.4157575636211277 11.142419751077796 0 11.142419751077796 0.41029081169840254 0 0 0 0 -48.249424366567155 48.362796968777751 0 48.362796968777751 -17.476060020272257 0 0 0 0 -232.60435732555925 483.20131860057882 0 483.20131860057882 -387.20552726401365 0 0 0 0 -402.11853984365007 502.97717595018912 0 502.97717595018912 -206.30233422477613 0 0 0 0 -444.9078944180219 589.52888785627147 0 589.52888785627147 -566.45614199236297 0 0 0 0 -162.43378338791081 352.62676185672171 0 352.62676185672171 -399.98231349589878 0 0 0 0 -186.35403883826802 335.41454111936764 0 335.41454111936764 -308.07106819591718 0 0 0 0 -200.29612979775993 382.44891178424587 0 382.44891178424587 -253.82124366013886 0 0 0 0 -178.74843213797431 415.38473316624004 0 415.38473316624004 -246.61791627173079 0 0 0 0 -53.018173393038523 86.748789845626561 0 86.748789845626561 -39.88367238821229 0 0 0 0 -23.741263875918406 21.951506362827104 0 21.951506362827104 8.1696501820429859 0 0 0 0 -12.132307540579319 21.656366862191646 0 21.656366862191646 8.7869846326748586 0 0 0 0 -22.109435395919718 50.059997490490787 0 50.059997490490787 -61.377192972257035 0 0 0 0 -52.573136832143064 83.404850730126782 0 83.404850730126782 17.644806228694506 0 0 0 0 17.713187181812778 36.605190184791866 0 36.605190184791866 -9.4769429932139815 0 0 0 0 -62.805341603583656 68.621670814900426 0 68.621670814900426 0.29285296518355608 0 0 0 0 -62.028067768071196 73.988444973278092 0 73.988444973278092 -40.67565636098152 0 0 0 0 -0.25174876941804314 33.239488094473842 0 33.239488094473842 -8.3224058724227916 0 0 0 0 -33.960051043890417 68.523853809107095 0 68.523853809107095 -76.786903663771227 0 0 0 0 -44.422920400653823 33.144765685017092 0 33.144765685017092 17.847100266241782 0 0 0 0 -204.43685952644228 250.35899890260043 0 250.35899890260043 -153.67455686157336 0 0 0 0 12.311477623384178 58.287435527435264 0 58.287435527435264 -56.138099676108766 0 0 0 0 -129.82787537494005 29.736017516392167 0 29.736017516392167 21.850055857968982 0 0 0 0 -11.522766698488198 6.8352722396171259 0 6.8352722396171259 6.4492311484862626 0 0 0 0 -298.93302481010323 289.76745412980381 0 289.76745412980381 -80.352494675593334 0 0 0 0 -197.00711546847015 231.43744063569466 0 231.43744063569466 -138.01733996914118 0 0 0 0 -28.853248242332484 67.677421201718971 0 67.677421201718971 -93.903093551693019 0 0 0 0 -13.193714993112735 25.342095732723948 0 25.342095732723948 3.1138752862273691 0 0 0 0 -39.17845542235591 58.179270408087177 0 58.179270408087177 -27.037037019657873 0 0 0 0 -6.6102904567961787 33.512636370006192 0 33.512636370006192 11.652721916006129 0 0 0 0 -10.938014361829119 42.342780623814178 0 42.342780623814178 -82.190376912389183 0 0 0 0 13.934388197667111 33.924258588998754 0 33.924258588998754 -26.314522169728889 0 0 0 0 -41.034794067265466 75.936215841094963 0 75.936215841094963 -88.861848908243701 0 0 0 0 170.33514396606915 -45.815616016814602 0 -45.815616016814602 -60.500502754031913 0 0 0 0 30.11556835333252 18.679682691410875 0 18.679682691410875 -18.246054755124646 0 0 0 0 -58.063912862387951 60.779896587351686 0 60.779896587351686 5.5837860531173646 0 0 0 0 207.2518274767499 -36.027586770549533 0 -36.027586770549533 -57.913879182146047 0 0 0 0 77.43386234567879 19.856539579959644 0 19.856539579959644 9.6554445864458103 0 0 0 0 72.096677886181169 130.91386262727019 0 130.91386262727019 -44.965710915654199 0 0 0 0 274.83839847838681 25.066595249707461 0 25.066595249707461 -84.876018037452013 0 0 0 0 9.9227072072211229 33.850355234716318 0 33.850355234716318 -17.136293298888347 0 0 0 0 -98.821566156853805 89.295787220762577 0 89.295787220762577 -21.907307409739587 0 0 0 0 -15.525065140580409 62.640815493337868 0 62.640815493337868 -27.39603781080541 0 0 0 0 -5.9946738485014066 54.275160616394714 0 54.275160616394714 -20.060988494951744 0 0 0 0 127.55150438283454 58.301727294339798 0 58.301727294339798 -85.014527401930536 0 0 0 0 18.718940192559629 31.974225411175354 0 31.974225411175354 -21.542558442012989 0 0 0 0 37.007646303273049 11.610755716600615 0 11.610755716600615 -17.334718693430659 0 0 0 0 129.95193803182337 33.709041324516875 0 33.709041324516875 -10.069779634824954 0 0 0 0 22.252096763738962 46.429870301256358 0 46.429870301256358 -47.055338780916202 0 0 0 0 -6.608136665832717 36.718951812275918 0 36.718951812275918 -41.187276154814754 0 0 0 0 -78.654635546428267 72.925863452838456 0 72.925863452838456 -19.204712747195515 0 0 0 0 112.44490366599166 100.31409844222361 0 100.31409844222361 -74.720528144507341 0 0 0 0 -39.363317923548863 23.043556213590477 0 23.043556213590477 -6.8293744583953639 0 0 0 0 -362.47144457207469 190.85138799319247 0 190.85138799319247 -103.54632431002392 0 0 0 0 105.63058299377735 84.081113318083226 0 84.081113318083226 -48.584735546464799 0 0 0 0 -130.7873379964949 95.650411759619601 0 95.650411759619601 -34.808541828766465 0 0 0 0 202.09538914636505 120.52774312995462 0 120.52774312995462 -60.092489529022714 0 0 0 0 155.79260365941445 33.617630698419816 0 33.617630698419816 -26.10385385711561 0 0 0 0 263.74128062858654 101.64411121638113 0 101.64411121638113 -14.016347493452486 0 0 0 0 -78.546678783197422 201.23265301196079 0 201.23265301196079 -65.811661006257054 0 0 0 0 -132.77531658484077 243.12527340284578 0 243.12527340284578 -86.603082824760349 0 0 0 0 -184.51045505175716 325.08713376273226 0 325.08713376273226 -104.69447036290512 0 0 0 0 -61.785384487593547 282.42777397674217 0 282.42777397674217 -127.62158509104484 0 0 0 0 -141.18056769279792 350.45543725508105 0 350.45543725508105 -138.17771935166093 0 0 0 0 -206.59080554189859 390.50614597053936 0 390.50614597053936 -132.14343912020558 0 0 0 0 -167.57383193320129 395.15581816423946 0 395.15581816423946 -232.18831790753757 0 0 0 0 -212.65940162871266 441.90910154249286 0 441.90910154249286 -236.44209002072603 0 0 0 0 -137.22668359312229 247.33284104132326 0 247.33284104132326 -48.14179505239008 0 0 0 0 -327.81515062091057 381.21098268424248 0 381.21098268424248 -11.89462386831292 0 0 0 0 -19.137214924790896 95.889538186922437 0 95.889538186922437 -62.212228892793064 0 0 0 0 -50.375019759313489 53.866757619564062 0 53.866757619564062 -24.631850819661452 0 0 0 0 18.499904766824329 156.08028599815589 0 156.08028599815589 -20.993023285453091 0 0 0 0 14.519601140840678 174.56376055738292 0 174.56376055738292 -106.01968999940436 0 0 0 0 24.35764596669469 112.34663346871821 0 112.34663346871821 -17.001993590485654 0 0 0 0 38.581546093570068 74.632697577413637 0 74.632697577413637 -24.410876413238157 0 0 0 0 35.766748302805354 87.031944983857102 0 87.031944983857102 -66.866563530944404 0 0 0 0 4.2394475190958474 184.68678524297866 0 184.68678524297866 -76.43343624251429 0 0 0 0 24.765566838060977 204.53555866759834 0 204.53555866759834 -116.06480948042008 0 0 0 0 -88.329810934432317 287.07416511591146 0 287.07416511591146 -109.06888088214328 0 0 0 0 -43.137722083527478 258.00389283691402 0 258.00389283691402 -86.534229604934808 0 0 0 0 26.63222087858594 255.80059560715745 0 255.80059560715745 -155.53472375465208 0 0 0 0 -34.960759789537406 265.72066696813272 0 265.72066696813272 -202.53209594424698 0 0 0 0 -82.598651335065369 267.30539810052869 0 267.30539810052869 -268.37726229551481 0 0 0 0 -89.378267199877882 353.31330028130469 0 353.31330028130469 -194.80944531635032 0 0 0 0 -93.137494731781771 382.42492599388333 0 382.42492599388333 -339.81625719185104 0 0 0 0 -61.488027614817838 334.76118223453159 0 334.76118223453159 -198.6393400352099 0 0 0 0 -90.4708831004682 353.09713314726832 0 353.09713314726832 -193.45616232100292 0 0 0 0 -123.50619294840726 371.05881652121025 0 371.05881652121025 -143.21258652061806 0 0 0 0 -159.82839183496253 397.04140502431255 0 397.04140502431255 -161.5857842702535 0 0 0 0 -134.69940920241061 422.89184995063988 0 422.89184995063988 -241.12875608113973 0 0 0 0 -156.73027682618704 442.08322028318798 0 442.08322028318798 -150.93977617869677 0 0 0 0 -149.4328439423407 373.51918378751725 0 373.51918378751725 -128.07994560803854 0 0 0 0 -174.54217074083863 393.23427070022444 0 393.23427070022444 -162.40540849883109 0 0 0 0 -499.41028294080752 759.31886078738899 0 759.31886078738899 -98.140378579681055 0 0 0 0 -169.85709501423116 477.18663851128076 0 477.18663851128076 -231.55860451215995 0 0 0 0 -157.96798043831222 498.10813246529324 0 498.10813246529324 -433.20102134703484 0 0 0 0 3.5166833736285525 1.6876209463367218 0 1.6876209463367218 -1.9009360907148789 0 0 0 0 -543.23684298727312 282.75843195043126 0 282.75843195043126 -195.92737617657986 0 0 0 0 -149.89046671044343 291.99560080323135 0 291.99560080323135 -482.85884403984528 0 0 0 0 -259.75183107457997 207.79024372055574 0 207.79024372055574 -288.66902078583371 0 0 0 0 -148.02677615615539 336.39559875224222 0 336.39559875224222 -230.47716470391606 0 0 0 0 -351.83796861489827 447.01461827582898 0 447.01461827582898 -326.63374709526397 0 0 0 0 -172.57613835067605 549.32775547685014 0 549.32775547685014 -457.32400641168897 0 0 0 0 4.9647349729945063 3.2515085785983047 0 3.2515085785983047 -1.1006990282073161 0 0 0 0 -21.670382717595203 497.77609028199367 0 497.77609028199367 -471.7171164752508 0 0 0 0 25.911434859386645 241.94902231315064 0 241.94902231315064 -410.99411750040235 0 0 0 0 -282.26512300237664 278.04995566305297 0 278.04995566305297 -378.68445200582573 0 0 0 0 0.088692210200846999 341.27753378161037 0 341.27753378161037 -172.88962580906809 0 0 0 0 370.9183591339679 533.98862273856503 0 533.98862273856503 -143.50855475164917 0 0 0 0 -428.6356417502393 476.99295945182712 0 476.99295945182712 -147.52985453863221 0 0 0 0 54.256982405451708 169.46100391613436 0 169.46100391613436 248.67998476650973 0 0 0 0 -4.8906786632046249 3.7689629855865547 0 3.7689629855865547 1.1194744880662313 0 0 0 0 -0.072226653806865215 272.47729835104838 0 272.47729835104838 239.88694613087864 0 0 0 0 87.865402920549968 193.92199267283286 0 193.92199267283286 -86.319167111229035 0 0 0 0 54.226538038332365 243.5272404083953 0 243.5272404083953 271.06053509074081 0 0 0 0 23.24739469884662 149.43053229909128 0 149.43053229909128 488.28186028829077 0 0 0 0 2.6416008355151348 0.45977356173912654 0 0.45977356173912654 -3.2319574872142027 0 0 0 0 -58.477748258621432 74.927688249044877 0 74.927688249044877 -36.449677771641291 0 0 0 0 -6.2016560046174618 7.3293021045634248 0 7.3293021045634248 -0.71602563433543764 0 0 0 0 -160.98644521071401 96.632465733484423 0 96.632465733484423 -52.054705859984097 0 0 0 0 -51.410150047457137 78.003089553325481 0 78.003089553325481 -69.232915315224091 0 0 0 0 -189.9943577064405 274.11460340739904 0 274.11460340739904 -240.05956553922442 0 0 0 0 -234.33925468570669 297.36154101553984 0 297.36154101553984 -191.11325769804535 0 0 0 0 -175.80410457850667 373.84657304688881 0 373.84657304688881 -226.21486616424954 0 0 0 0 -181.74483789815713 374.57026909566684 0 374.57026909566684 -220.63647872844012 0 0 0 0 -151.71927277068608 400.73727576838428 0 400.73727576838428 -232.19276651494147 0 0 0 0 -1027.3438531896245 237.18641839670454 0 237.18641839670454 71.492435429274337 0 0 0 0 -53.559663742271368 441.12159173393593 0 441.12159173393593 -224.90527681770618 0 0 0 0 -459.09361793569406 163.89920575946599 0 163.89920575946599 24.639178212091792 0 0 0 0 -268.08751696014951 456.46240430499165 0 456.46240430499165 -224.39429096544336 0 0 0 0 793.41406998338698 764.76738126155374 0 764.76738126155374 -190.13473146223987 0 0 0 0 786.59895751100703 429.62011428877668 0 429.62011428877668 -240.38087387158157 0 0 0 0 312.1385969584444 873.38482679119625 0 873.38482679119625 -80.354923849266925 0 0 0 0 899.45160801175734 931.36338712426732 0 931.36338712426732 -131.68234192530508 0 0 0 0 871.26706281691258 1156.2324658339203 0 1156.2324658339203 -0.80495159410929773 0 0 0 0 1229.8635733653136 655.6445941345919 0 655.6445941345919 -21.724401665662299 0 0 0 0 1871.9952831419796 1162.5351536048402 0 1162.5351536048402 2.9389490925095743 0 0 0 0 881.21862411187249 956.04444310708277 0 956.04444310708277 64.660461977589875 0 0 0 0 1885.9524597678974 482.10049639479985 0 482.10049639479985 -401.71180673654089 0 0 0 0 3394.0479731224259 -13.450066658471769 0 -13.450066658471769 -247.6578564798765 0 0 0 0 2615.4772159035401 -1499.8146562931888 0 -1499.8146562931888 977.6990997394023 0 0 0 0 -7.5542454664828256 18.743741976300953 0 18.743741976300953 -0.0092469681549118832 0 0 0 0 11.489677437474484 3.2152082281234584 0 3.2152082281234584 2.9748322105747889 0 0 0 0 569.84155941598874 -500.94283477963472 0 -500.94283477963472 514.34826636821526 0 0 0 0 1341.4319047207755 -705.79517129969463 0 -705.79517129969463 127.87372272054927 0 0 0 0 818.74133002373856 -293.93826696016913 0 -293.93826696016913 -193.75170184877061 0 0 0 0 241.81118196166244 -597.69176603687265 0 -597.69176603687265 -253.96592161087028 0 0 0 0 1523.2835962366335 400.91727076428651 0 400.91727076428651 -354.25808399223024 0 0 0 0 862.38786701427307 407.4569268541818 0 407.4569268541818 -326.2647565779298 0 0 0 0 961.19805376313525 306.44495887251105 0 306.44495887251105 -297.15632817648293 0 0 0 0 854.45013598781952 230.52233386465377 0 230.52233386465377 125.02552598571856 0 0 0 0 698.76666493157973 -265.87922768556746 0 -265.87922768556746 49.018344577867538 0 0 0 0 300.05104738514638 -123.25599645313923 0 -123.25599645313923 330.76144284673683 0 0 0 0 200.12401389118168 -400.15457827491628 0 -400.15457827491628 563.76773082526051 0 0 0 0 311.25056076287001 -26.225668349667103 0 -26.225668349667103 734.90476254056557 0 0 0 0 515.0951471790213 -552.5975291693394 0 -552.5975291693394 -363.34284436174494 0 0 0 0 228.54939074516005 -51.445163952208532 0 -51.445163952208532 -49.286185042619763 0 0 0 0 187.6584674331898 -52.224180587611045 0 -52.224180587611045 49.311783194105374 0 0 0 0 15.81825372685995 7.248024266553152 0 7.248024266553152 -3.5835257725666452 0 0 0 0 2.5010350821966369 -0.81886770882162097 0 -0.81886770882162097 -1.3317087699588797 0 0 0 0 29.038898498611502 12.431766438496055 0 12.431766438496055 5.4167355252091909 0 0 0 0 324.4254922429318 -294.32354836427112 0 -294.32354836427112 260.47102914369316 0 0 0 0 606.13135709190101 -349.4639016219171 0 -349.4639016219171 268.01711180353595 0 0 0 0 28.590515482399496 24.468164210135001 0 24.468164210135001 -0.028724589181365445 0 0 0 0 -40.16248625604203 83.905615777664934 0 83.905615777664934 -17.061038464220474 0 0 0 0 6.8253805009444477 9.027110251110571 0 9.027110251110571 -7.7162969785713358 0 0 0 0 121.69350789129385 -2.0577699468994979 0 -2.0577699468994979 -6.6519532908860128 0 0 0 0 42.619679686405334 20.86765071335563 0 20.86765071335563 6.1946845124587071 0 0 0 0 178.01717960222595 66.133837686793413 0 66.133837686793413 -128.64143780346785 0 0 0 0 -67.861838884626195 -7.2777681844054314 0 -7.2777681844054314 117.95337776577799 0 0 0 0 37.65585034590913 22.797646105020249 0 22.797646105020249 4.0448156648199074 0 0 0 0 26.61940384497575 -9.1124938834618661 0 -9.1124938834618661 -13.351979889706854 0 0 0 0 20.792155994239437 5.3130774530325979 0 5.3130774530325979 -9.5049678454114428 0 0 0 0 3.2128612432944408 4.3136957851235138 0 4.3136957851235138 -2.578390899098423 0 0 0 0 80.132817241490557 48.068781258627496 0 48.068781258627496 17.22875550739991 0 0 0 0 6.1186815307446523 11.214207972792792 0 11.214207972792792 0.0468410730267938 0 0 0 0 -62.018731159216259 31.272761767781049 0 31.272761767781049 -9.6583241317566717 0 0 0 0 -17.316348527208902 21.55358332056494 0 21.55358332056494 0.09215204648302433 0 0 0 0 1.4985217376335811 -0.65142189718175558 0 -0.65142189718175558 -1.9263223759099333 0 0 0 0 -1.9716478231074746 -2.169801345752461 0 -2.169801345752461 -0.84667969422611122 0 0 0 0 -3.6722036656574346 31.253181555672199 0 31.253181555672199 22.343244223913644 0 0 0 0 55.211853662956855 77.721685609009 0 77.721685609009 -25.262252959932084 0 0 0 0 0.50294737326086647 24.417776466867707 0 24.417776466867707 2.3417387225187554 0 0 0 0 69.289809664009368 31.761553419787447 0 31.761553419787447 6.1816196637638257 0 0 0 0 20.076510468963534 36.497736436445848 0 36.497736436445848 10.159528080672317 0 0 0 0 4.7092813701692648 67.884227389376974 0 67.884227389376974 8.4926208910765126 0 0 0 0 31.621837224756064 22.452917389173592 0 22.452917389173592 6.0105899633512649 0 0 0 0 301.28576009054814 392.9863253807307 0 392.9863253807307 -312.16735722572776 0 0 0 0 -43.271532380633289 -204.66149802504515 0 -204.66149802504515 -751.6400268925936 0 0 0 0 1267.851543157245 27.7479888311791 0 27.7479888311791 -715.91476633575076 0 0 0 0 -839.55653442200855 513.43085019214777 0 513.43085019214777 -312.02833455224027 0 0 0 0 20.642592171272931 3.3184074093086622 0 3.3184074093086622 -1.9196601950264949 0 0 0 0 7.7776885381501017 9.428946174681414 0 9.428946174681414 2.8064543886155775 0 0 0 0 -504.96202386154619 16.40943473646621 0 16.40943473646621 536.68877577391322 0 0 0 0 560.16887632233556 5.0425636737272725 0 5.0425636737272725 -9.0962269918527454 0 0 0 0 730.67494180618087 1023.2793272454437 0 1023.2793272454437 -371.53459470269445 0 0 0 0 554.99813425315369 43.6630136212043 0 43.6630136212043 380.92008289133082 0 0 0 0 77.253354154190674 61.068310837739773 0 61.068310837739773 -133.72477016295306 0 0 0 0 79.877850714779925 64.928290082672902 0 64.928290082672902 -132.47723656536982 0 0 0 0 50.866674893914023 198.54465774023993 0 198.54465774023993 -0.69198058944311924 0 0 0 0 -0.57097233005850967 5.012208071526004 0 5.012208071526004 -3.5237583331647784 0 0 0 0 -24.010430392576382 2.4750812047277577 0 2.4750812047277577 24.785348841513041 0 0 0 0 16.64037602996315 13.819477789992675 0 13.819477789992675 -18.420172512118029 0 0 0 0 305.96653343698563 -298.4116574167565 0 -298.4116574167565 201.41277828540478 0 0 0 0 560.69112608132855 33.575444562204211 0 33.575444562204211 17.959187419211958 0 0 0 0 217.25353221134719 -166.42808464023983 0 -166.42808464023983 -97.741521916985221 0 0 0 0 322.30931568331471 34.063998163371252 0 34.063998163371252 -409.89127277309308 0 0 0 0 173.6965266473926 -58.35427876857284 0 -58.35427876857284 -19.303306687113945 0 0 0 0 291.02372164381086 -132.39546880598209 0 -132.39546880598209 -88.405259820305218 0 0 0 0 0.86176084164114286 -0.37358065279322972 0 -0.37358065279322972 0.28502686143764322 0 0 0 0 240.54574299544765 -42.134635209549742 0 -42.134635209549742 -219.26937370216183 0 0 0 0 64.27114607601834 -98.028096976864617 0 -98.028096976864617 -222.05616832527448 0 0 0 0 389.44884481906593 229.62967593997928 0 229.62967593997928 13.615547533903737 0 0 0 0 220.49858068453614 118.75100835209014 0 118.75100835209014 60.308485237310379 0 0 0 0 86.79175603515182 114.15592372986271 0 114.15592372986271 42.371766478208883 0 0 0 0 -0.0074728527398235656 1.4854612464111376 0 1.4854612464111376 -3.8501668860902214 0 0 0 0 280.93390718234878 246.27226386475377 0 246.27226386475377 -185.59507177989872 0 0 0 0 192.83180316918151 5.0335534989280859 0 5.0335534989280859 8.5702278959179239 0 0 0 0 196.0995471086062 211.20393340138253 0 211.20393340138253 -77.195451200868774 0 0 0 0 275.74198807956054 29.174941149558435 0 29.174941149558435 -55.991507159691537 0 0 0 0 310.4442861986754 -67.140782604925334 0 -67.140782604925334 -323.03490671009786 0 0 0 0 384.10642477679357 95.139554914276232 0 95.139554914276232 -392.92279483550374 0 0 0 0 246.47892446860669 250.20461992249261 0 250.20461992249261 -56.948641968716402 0 0 0 0 436.13744429128565 48.011755251493014 0 48.011755251493014 23.743868333825958 0 0 0 0 342.15668644379184 -17.72906096369843 0 -17.72906096369843 363.50186470295012 0 0 0 0 326.68121221430192 112.55917486271937 0 112.55917486271937 299.81362966709639 0 0 0 0 295.07009922596626 170.81917346128466 0 170.81917346128466 118.67493368704527 0 0 0 0 340.36951635900914 155.47713751986521 0 155.47713751986521 -43.660683679874637 0 0 0 0 4.3113932488850679 -0.54432187388364639 0 -0.54432187388364639 -3.5701269695463793 0 0 0 0 747.06201094614516 340.01351009200698 0 340.01351009200698 -90.18827006702486 0 0 0 0 708.04503208051756 229.19159382450016 0 229.19159382450016 -307.26948711046407 0 0 0 0 2.0316394944559875 0.34533341380916482 0 0.34533341380916482 -2.2595538252271012 0 0 0 0 215.43567525534763 -15.982362965255106 0 -15.982362965255106 -492.90071718832769 0 0 0 0 217.53863479472784 8.7099819690411096 0 8.7099819690411096 -207.55564487204538 0 0 0 0 313.38697693083304 143.49959133432094 0 143.49959133432094 -41.475055337214144 0 0 0 0 187.65530984803627 178.41417770517 0 178.41417770517 -307.60463606756821 0 0 0 0 146.00647586211744 173.55343468739375 0 173.55343468739375 -104.89363266756118 0 0 0 0 -125.58061321067362 317.55969360729796 0 317.55969360729796 -102.57890132246689 0 0 0 0 103.64620299972739 329.91533264461759 0 329.91533264461759 -346.07448347546597 0 0 0 0 98.717257110665741 570.37592942850449 0 570.37592942850449 -127.62459903440322 0 0 0 0 -127.15309017928666 526.49222397428821 0 526.49222397428821 -92.560879035343532 0 0 0 0 -71.051393465902947 613.75376281385252 0 613.75376281385252 -137.84120221214107 0 0 0 0 502.88141892752355 670.06217234605174 0 670.06217234605174 -199.75490439805435 0 0 0 0 488.17678389865614 696.68987254781314 0 696.68987254781314 211.59291248521185 0 0 0 0 162.58520727989162 689.53266008584251 0 689.53266008584251 -18.042241370560077 0 0 0 0 -540.59194309053782 1013.5887051130667 0 1013.5887051130667 -735.19207102924702 0 0 0 0 -925.59838961487185 801.77764880084578 0 801.77764880084578 -243.53621879481943 0 0 0 0 -675.15723856421755 586.14019925043976 0 586.14019925043976 -353.60148161633697 0 0 0 0 -1411.2939564451226 812.35343263114919 0 812.35343263114919 -423.11054903834156 0 0 0 0 -537.93508880501759 676.50087090304442 0 676.50087090304442 -218.76551399845994 0 0 0 0 -668.83927377022337 574.84327738916909 0 574.84327738916909 -1.0420113792642951 0 0 0 0 -610.95369467691125 739.57746251578283 0 739.57746251578283 -141.24198166602582 0 0 0 0 -484.08601412861753 697.63485519506139 0 697.63485519506139 -63.479138308030088 0 0 0 0 -387.0188997098594 649.22485054962453 0 649.22485054962453 -110.32664497249061 0 0 0 0 -232.62986530945636 639.78252098662415 0 639.78252098662415 -59.98991866853612 0 0 0 0 -89.566429726073693 376.17557645171473 0 376.17557645171473 -22.261846153312945 0 0 0 0 -302.357234163268 576.51625176995731 0 576.51625176995731 -106.82571275704322 0 0 0 0 -432.01074905498081 491.56105448322796 0 491.56105448322796 -13.53914848693239 0 0 0 0 -390.73681383587245 489.5467271642774 0 489.5467271642774 -35.237140160726995 0 0 0 0 -287.40037893604858 233.50479289732175 0 233.50479289732175 95.224119476682972 0 0 0 0 -501.26069334684871 387.30152720605838 0 387.30152720605838 13.634859751997283 0 0 0 0 91.260361219763581 119.47362964557396 0 119.47362964557396 38.55862301318848 0 0 0 0 69.208807044928108 105.13530618924051 0 105.13530618924051 99.60707835649373 0 0 0 0 -27.924466160176962 246.7962094741597 0 246.7962094741597 -21.150809697137447 0 0 0 0 293.18404189822468 235.12754372101335 0 235.12754372101335 -41.483291097261827 0 0 0 0 -642.99509738638881 196.23836727158778 0 196.23836727158778 84.949822739926276 0 0 0 0 -53.18913244891155 2.0655323900246003 0 2.0655323900246003 59.712617293436779 0 0 0 0 -496.13262020693583 390.89188317883236 0 390.89188317883236 15.708825174675439 0 0 0 0 -804.5652752779788 669.71788897324586 0 669.71788897324586 -155.63812675065856 0 0 0 0 -0.98523416962819255 1.7619142230194846 0 1.7619142230194846 -4.5390845588647153 0 0 0 0 -151.45548026526012 -388.34740643372061 0 -388.34740643372061 -500.5235149989021 0 0 0 0 -370.89819422356959 395.5813422584979 0 395.5813422584979 -301.19753136386134 0 0 0 0 280.00708452529079 -296.40219266289796 0 -296.40219266289796 -1013.5309041262663 0 0 0 0 301.94742441608832 -146.56351225383696 0 -146.56351225383696 -556.15787978462049 0 0 0 0 104.4313441618724 -223.01315015465661 0 -223.01315015465661 -660.63835569847652 0 0 0 0 164.06169602154841 -22.458879041179898 0 -22.458879041179898 -428.52100355163566 0 0 0 0 176.54397685534786 -67.25635288804915 0 -67.25635288804915 -539.21934209156461 0 0 0 0 157.11143517725941 -35.261108731549029 0 -35.261108731549029 -232.72567037757835 0 0 0 0 190.66744023034698 -197.43679329242877 0 -197.43679329242877 -238.35903282465006 0 0 0 0 258.53897477425198 136.20623305053596 0 136.20623305053596 162.6783545667422 0 0 0 0 -0.43723627353298156 3.5927895820102904 0 3.5927895820102904 -9.8518977412423396 0 0 0 0 497.67278018990419 201.04108578333853 0 201.04108578333853 72.470987309949123 0 0 0 0 523.29926039036218 125.28040001233603 0 125.28040001233603 -106.56761709842249 0 0 0 0 450.42085631041118 106.38217944862117 0 106.38217944862117 -60.875733357606805 0 0 0 0 -0.14306492990496622 3.3002042914932659 0 3.3002042914932659 -9.0839185409431593 0 0 0 0 351.49865682644668 246.23509203317371 0 246.23509203317371 66.143523821476265 0 0 0 0 1.2404787369896013 -0.40742507785312654 0 -0.40742507785312654 0.11714142659863569 0 0 0 0 22.059611980512273 -38.751923445393913 0 -38.751923445393913 -214.00308839765785 0 0 0 0 36.719197057806014 -67.643337072862778 0 -67.643337072862778 -176.15215911022278 0 0 0 0 203.3803161274991 102.85249316357658 0 102.85249316357658 -210.60718885477399 0 0 0 0 39.640482560973396 27.262669929290496 0 27.262669929290496 -2.8465435674443142 0 0 0 0 167.54229786849464 43.855258134579344 0 43.855258134579344 -14.672832131633186 0 0 0 0 2.3563471607443489 -0.87974534197738308 0 -0.87974534197738308 -0.059068383135809199 0 0 0 0 198.73893014624264 99.378533806120686 0 99.378533806120686 46.458109067578334 0 0 0 0 162.89847048237243 67.437302110134624 0 67.437302110134624 65.841630864364561 0 0 0 0 276.12671002484421 80.854380398108333 0 80.854380398108333 26.268279896816239 0 0 0 0 436.6131607809657 296.09451500483556 0 296.09451500483556 36.481058404078908 0 0 0 0 1.3919387894933237 0.078770141548567096 0 0.078770141548567096 -1.9047151864167517 0 0 0 0 219.48933480804408 46.893719609804975 0 46.893719609804975 37.859935894841328 0 0 0 0 176.10303084037196 53.21118641512976 0 53.21118641512976 -429.4705060410779 0 0 0 0 -15.426477442153555 -247.05327639018651 0 -247.05327639018651 -555.07745911275561 0 0 0 0 275.67314333105242 2.7491486376566172 0 2.7491486376566172 -393.29928177667898 0 0 0 0 178.66928531137819 25.389693167322548 0 25.389693167322548 -398.33570333060197 0 0 0 0 179.05043982988741 -61.421569847677574 0 -61.421569847677574 -530.04760597893619 0 0 0 0 249.99315177441895 -22.302683628251543 0 -22.302683628251543 -599.54543665151868 0 0 0 0 182.19896255782805 23.803499589383136 0 23.803499589383136 -509.2238483436231 0 0 0 0 957.31770802432584 -190.34091358081059 0 -190.34091358081059 -1359.3854930111847 0 0 0 0 -0.91132533030103247 4.2696501470373249 0 4.2696501470373249 -4.4897436107230533 0 0 0 0 414.48252507656071 163.87656644003437 0 163.87656644003437 -584.95646857426618 0 0 0 0 327.34916226760834 -30.034035728138406 0 -30.034035728138406 -1009.8167710913513 0 0 0 0 266.42121024918742 169.0069801498139 0 169.0069801498139 704.71766480514634 0 0 0 0 -5.4251548431217884 4.0819349800987368 0 4.0819349800987368 -3.0622113962270419 0 0 0 0 188.95569809519657 -284.1566224885064 0 -284.1566224885064 -966.58247063576709 0 0 0 0 306.22747074565268 -300.24404293332191 0 -300.24404293332191 -1100.9395757953589 0 0 0 0 134.78804437019426 106.50838113532518 0 106.50838113532518 134.62171003122057 0 0 0 0 -1.4128655481979777 7.103590117728956 0 7.103590117728956 -7.3945341458423854 0 0 0 0 442.29259698877649 467.78243497804669 0 467.78243497804669 492.26773518092523 0 0 0 0 692.22224531415486 249.31681825171472 0 249.31681825171472 -74.562382945063291 0 0 0 0 724.37730617735542 126.49216378952588 0 126.49216378952588 -151.04887602830422 0 0 0 0 -0.99084762309405505 4.2926412361123099 0 4.2926412361123099 -2.2229601885318857 0 0 0 0 473.14128151947079 283.6109414531129 0 283.6109414531129 -247.18877893854369 0 0 0 0 156.88325208226888 322.90624202401523 0 322.90624202401523 -237.15668370278581 0 0 0 0 26.929194152788114 356.47182159064414 0 356.47182159064414 -78.376354404477752 0 0 0 0 -4.8613254773954395 99.449672106133221 0 99.449672106133221 -14.16738157216605 0 0 0 0 -71.790392946306383 538.44862923425535 0 538.44862923425535 -241.69330181724217 0 0 0 0 142.25348650499654 489.28262115190955 0 489.28262115190955 -574.22476431768155 0 0 0 0 -257.44354422736797 1152.7560817637495 0 1152.7560817637495 -1194.1256419974961 0 0 0 0 304.21191471768543 213.63379183931465 0 213.63379183931465 -816.83269687619759 0 0 0 0 525.40758290790109 469.69954650659201 0 469.69954650659201 -270.73051021285937 0 0 0 0 890.69891154991819 -291.73391491565962 0 -291.73391491565962 -769.35622203306411 0 0 0 0 -14.419868916164859 12.927252217184375 0 12.927252217184375 -9.1907187924679761 0 0 0 0 141.55409295787103 431.83924197906526 0 431.83924197906526 279.19374133010206 0 0 0 0 171.23309744451035 -57.817543920986282 0 -57.817543920986282 -555.02205227572995 0 0 0 0 -698.23258866326069 -571.22304583758523 0 -571.22304583758523 -558.05929783558531 0 0 0 0 -548.36671484883846 54.450037646078272 0 54.450037646078272 -697.3190582995594 0 0 0 0 -1381.8648858183328 852.54527694910894 0 852.54527694910894 -586.70749392331345 0 0 0 0 -1394.5189117769914 -164.62716421436926 0 -164.62716421436926 -596.44001324717829 0 0 0 0 -1969.4636410772 603.6601221525998 0 603.6601221525998 -527.90198345749036 0 0 0 0 -1909.2957199482735 346.15722342675144 0 346.15722342675144 -2999.9707625494339 0 0 0 0 -958.95558936426823 -447.51436906494928 0 -447.51436906494928 527.50173589193582 0 0 0 0 -1903.2248342411622 2148.6809141281992 0 2148.6809141281992 -95.296090393094346 0 0 0 0 146.83552639129266 805.60259433047759 0 805.60259433047759 -1954.8820974969422 0 0 0 0 -11.340710791538527 7.5050775039591002 0 7.5050775039591002 -4.1262901573418844 0 0 0 0 -396.84646733704722 1367.8296043309892 0 1367.8296043309892 -2423.3101602575189 0 0 0 0 -1355.3145222148451 1230.4641984711052 0 1230.4641984711052 -874.7622558816438 0 0 0 0 -1412.3953119645448 1740.8490388220162 0 1740.8490388220162 -812.61690671263204 0 0 0 0 -565.09709153992299 675.52834316201915 0 675.52834316201915 -359.39937545836074 0 0 0 0 -3171.2424686889281 594.99335856526886 0 594.99335856526886 221.24658878515038 0 0 0 0 -3339.7681480240572 1988.6664711241174 0 1988.6664711241174 -1109.7411304048146 0 0 0 0 -2212.2887611704573 -225.39144396866322 0 -225.39144396866322 1280.6101049506105 0 0 0 0 1.3052471214380148 3.3715808469580253 0 3.3715808469580253 -8.6966290586271668 0 0 0 0 -4106.5943162576441 2112.8686097474856 0 2112.8686097474856 -1101.4425514429095 0 0 0 0 -3007.9340194002434 1528.6079118029083 0 1528.6079118029083 -1864.7546632165322 0 0 0 0 -1851.0210631004156 1899.0847486162966 0 1899.0847486162966 -1750.3123160464602 0 0 0 0 -2890.4778213288882 2996.9797919926277 0 2996.9797919926277 -2356.4670331258676 0 0 0 0 -358.36038966869091 -442.68785582537384 0 -442.68785582537384 -403.52566763528739 0 0 0 0 392.17095009723562 -460.76593642148509 0 -460.76593642148509 -2460.8286799593188 0 0 0 0 -2.5674555209927661 11.44908055255739 0 11.44908055255739 -20.193551052981661 0 0 0 0 -10.23483514989617 18.892480874426681 0 18.892480874426681 -15.074786205844873 0 0 0 0 -11.570833037867487 30.008634120234092 0 30.008634120234092 -23.037004158737545 0 0 0 0 327.8868590843922 9.6085250027026632 0 9.6085250027026632 -673.71503612740344 0 0 0 0 -342.29958277757396 184.35561168959248 0 184.35561168959248 4.3692349809134612 0 0 0 0 -11.342610229338874 23.382935767217205 0 23.382935767217205 -17.198739520511253 0 0 0 0 138.32507550442097 89.274979639616504 0 89.274979639616504 -669.86763554441131 0 0 0 0 62.137186271393148 245.45054796089244 0 245.45054796089244 -1917.7176081106736 0 0 0 0 -33.715117210340395 268.12408872349624 0 268.12408872349624 -596.05297525337664 0 0 0 0 -158.98041763812353 684.65230870803271 0 684.65230870803271 -927.86566689157917 0 0 0 0 -181.81083439094255 890.07127591879134 0 890.07127591879134 -1544.4523370425159 0 0 0 0 -389.53553183895565 855.65432842078008 0 855.65432842078008 -1405.4930693458155 0 0 0 0 -3700.7175417634353 1171.099997331512 0 1171.099997331512 -901.18476237870345 0 0 0 0 -631.64809599454748 1964.7651974376349 0 1964.7651974376349 -3425.5808930342719 0 0 0 0 -1284.8073580457058 709.34695841846406 0 709.34695841846406 -603.96573094255291 0 0 0 0 -1276.7661199787544 774.38236621272517 0 774.38236621272517 -851.75655546871349 0 0 0 0 -526.73190908038669 925.00642244422488 0 925.00642244422488 -685.40301122858364 0 0 0 0 -165.69701309785523 994.71791511533229 0 994.71791511533229 -1241.4083560463478 0 0 0 0 -904.78431285870101 1429.9044697921418 0 1429.9044697921418 -1240.1273998529068 0 0 0 0 -110.37228744932509 378.0541934136636 0 378.0541934136636 7.3331654163339408 0 0 0 0 -21.953986574488226 408.06378622900593 0 408.06378622900593 10.080060895066708 0 0 0 0 87.654468416287273 312.73406779347715 0 312.73406779347715 -69.404569196514785 0 0 0 0 -30.787178138882155 297.96609193904442 0 297.96609193904442 -52.82862165971892 0 0 0 0 193.43234987299093 228.1597107078378 0 228.1597107078378 -133.89659914227377 0 0 0 0 182.62595867077471 344.47328016599567 0 344.47328016599567 -65.376349188223685 0 0 0 0 139.56665411976428 438.02115809863608 0 438.02115809863608 -8.0682669172310852 0 0 0 0 114.32277688977774 392.04644445254598 0 392.04644445254598 -83.474624393209524 0 0 0 0 23.737864577225992 528.96200693763603 0 528.96200693763603 7.5245212358931894 0 0 0 0 46.384025309089338 571.09823341953597 0 571.09823341953597 55.314164267339947 0 0 0 0 0.097081792978302842 592.93103117080125 0 592.93103117080125 54.811314054211834 0 0 0 0 -87.077194815501571 542.31898117670789 0 542.31898117670789 50.800316642306825 0 0 0 0 -51.720796229623375 502.84339292730147 0 502.84339292730147 94.575546037274762 0 0 0 0 -279.89895605202037 383.01164961086579 0 383.01164961086579 41.758327383926371 0 0 0 0 -0.43028374339337461 612.23167057339015 0 612.23167057339015 98.778654762507358 0 0 0 0 -171.80569177601137 594.80532747080724 0 594.80532747080724 255.99187034819624 0 0 0 0 -387.15866304539668 345.57919993444375 0 345.57919993444375 238.95899890831788 0 0 0 0 -0.33525171789605718 240.814200036952 0 240.814200036952 -426.18801162199816 0 0 0 0 3.7103794035848523 1.630338943802883 0 1.630338943802883 -1.9661583773154234 0 0 0 0 -254.59517423287252 192.03770803448424 0 192.03770803448424 -219.88496478587331 0 0 0 0 -196.57627808851248 385.3211632137245 0 385.3211632137245 1.383467530591588 0 0 0 0 -231.48781100644555 239.67668779285304 0 239.67668779285304 -43.399698385663214 0 0 0 0 -100.04076345627254 220.63330149614922 0 220.63330149614922 -140.97004680636746 0 0 0 0 -209.03365566175489 289.61764722544103 0 289.61764722544103 -156.68206260461011 0 0 0 0 -132.11385381373111 299.75955540330324 0 299.75955540330324 -7.421389969473239 0 0 0 0 -23.363699598776293 318.70277105064088 0 318.70277105064088 -12.681724114750978 0 0 0 0 80.074352018506033 217.43166765652859 0 217.43166765652859 -74.238971891114488 0 0 0 0 -10.925129916868173 218.3495439561666 0 218.3495439561666 -71.167446965693671 0 0 0 0 -54.700426382056321 208.35287049346152 0 208.35287049346152 -66.588606606601388 0 0 0 0 64.454134088417049 173.44927574267786 0 173.44927574267786 -94.213142521781265 0 0 0 0 -27.578012039040914 172.5476719197577 0 172.5476719197577 -60.440755043004174 0 0 0 0 -94.335174763633404 251.73687465448165 0 251.73687465448165 -87.122904450901842 0 0 0 0 -82.990620515140336 238.01642188205471 0 238.01642188205471 -106.53675959256361 0 0 0 0 -22.216873044730164 257.24446717424144 0 257.24446717424144 -112.82562055838935 0 0 0 0 45.279501269891625 193.51889494417264 0 193.51889494417264 -102.39339357693279 0 0 0 0 266.594598986645 243.11195914550626 0 243.11195914550626 -45.235091036833182 0 0 0 0 34.948164564484614 181.93939860292085 0 181.93939860292085 -24.357762108673342 0 0 0 0 186.31396542917355 204.20303668265115 0 204.20303668265115 -109.64694578819035 0 0 0 0 121.14409266457369 34.034890926595835 0 34.034890926595835 -35.45824303603149 0 0 0 0 -336.05750032202923 194.00604818835927 0 194.00604818835927 -124.24912784126354 0 0 0 0 406.16864379812614 -14.58122462042229 0 -14.58122462042229 -81.819220050107106 0 0 0 0 4.9726660538597116 3.2692880582874864 0 3.2692880582874864 -3.9294536443779293 0 0 0 0 -94.435783073990024 188.40984928042963 0 188.40984928042963 -72.325397505817818 0 0 0 0 47.711182228851229 105.41453308940491 0 105.41453308940491 -89.678168705677564 0 0 0 0 156.84075713680431 275.03812132475105 0 275.03812132475105 -116.12878621260461 0 0 0 0 93.384156800981145 129.30247746447276 0 129.30247746447276 -118.16132245941117 0 0 0 0 57.561421761565725 164.95348076787559 0 164.95348076787559 -56.148611382493982 0 0 0 0 86.34793960769457 111.73487542436487 0 111.73487542436487 -50.350547109614126 0 0 0 0 50.943262353626778 150.11134421307361 0 150.11134421307361 13.323815196934447 0 0 0 0 -3.699754580644381 1.6693340069888762 0 1.6693340069888762 -0.73126133741550348 0 0 0 0 118.39145530568203 15.792544004783849 0 15.792544004783849 82.829162714770064 0 0 0 0 272.14744844192728 138.51834654213508 0 138.51834654213508 51.310196115315193 0 0 0 0 129.97901420397102 99.042688529239967 0 99.042688529239967 40.399296013158164 0 0 0 0 109.53920837138685 -27.622438826887446 0 -27.622438826887446 -99.604007720685331 0 0 0 0 33.392511581995265 111.61237389811224 0 111.61237389811224 -77.654381324404739 0 0 0 0 187.05995756581979 142.63190525220853 0 142.63190525220853 14.412780624144943 0 0 0 0 286.62339833938313 -32.506263528928685 0 -32.506263528928685 -342.33643966625095 0 0 0 0 -341.1321186569985 198.60437352152076 0 198.60437352152076 -115.03456275358621 0 0 0 0 3.1846816120671875 4.6436748828494387 0 4.6436748828494387 -3.7269621948873919 0 0 0 0 1496.2018883175497 -690.72967391324073 0 -690.72967391324073 -570.61889505594445 0 0 0 0 11.424041003854654 271.22996427056205 0 271.22996427056205 -479.18505583296064 0 0 0 0 -67.8598872730945 589.28229918688157 0 589.28229918688157 -1053.9453455768089 0 0 0 0 -329.96365587892069 274.45260408601462 0 274.45260408601462 447.18221209452895 0 0 0 0 -994.15272316394839 773.78189657680196 0 773.78189657680196 33.770503401814494 0 0 0 0 -0.33146061081060907 -176.13801347185654 0 -176.13801347185654 -227.69856558562606 0 0 0 0 1262.6538690353773 196.79132007144653 0 196.79132007144653 -357.19259647805302 0 0 0 0 866.13317519610428 -553.56924322613486 0 -553.56924322613486 -716.29491919834982 0 0 0 0 788.95593977923272 -732.47409300058825 0 -732.47409300058825 114.07931231780094 0 0 0 0 605.15332724153996 319.35405883112981 0 319.35405883112981 -746.85027958039154 0 0 0 0 -883.79954674490455 -306.30491398939785 0 -306.30491398939785 -61.142550675111124 0 0 0 0 528.9152509081614 131.79882513862685 0 131.79882513862685 464.28493859637092 0 0 0 0 13.094735716662768 9.9090326554744337 0 9.9090326554744337 -7.2783536932550987 0 0 0 0 757.80329158965378 175.27085616339809 0 175.27085616339809 -118.53924253881269 0 0 0 0 575.55417696002405 41.791134680286632 0 41.791134680286632 -89.661780845490284 0 0 0 0 642.01457976202801 247.56573887358536 0 247.56573887358536 -82.095947325520683 0 0 0 0 694.22022779741201 407.39460773846258 0 407.39460773846258 11.740158082277048 0 0 0 0 466.39925452038733 341.17137024086696 0 341.17137024086696 0.95146502676652744 0 0 0 0 -48.596362628464703 297.1264491690381 0 297.1264491690381 87.737561600632034 0 0 0 0 119.13996832919656 565.5013212383783 0 565.5013212383783 -119.01942431398493 0 0 0 0 263.59316687085084 348.69094449088152 0 348.69094449088152 9.6979338969249511 0 0 0 0 462.58466113196482 324.75226018768444 0 324.75226018768444 -57.017215741012478 0 0 0 0 165.36366723466199 168.82367937498202 0 168.82367937498202 -143.26749303007091 0 0 0 0 156.48715291210101 226.46945359370147 0 226.46945359370147 -105.36765808174459 0 0 0 0 127.71511157718487 165.48722275658656 0 165.48722275658656 -131.68991069286858 0 0 0 0 73.155958154951804 201.34030988912491 0 201.34030988912491 -108.52654964379326 0 0 0 0 119.63889165088767 162.70276555567398 0 162.70276555567398 -130.44610744001693 0 0 0 0 124.57881644606823 139.76024937791954 0 139.76024937791954 -151.45160301576834 0 0 0 0 137.5131754258764 160.50731378667842 0 160.50731378667842 -146.71358748436978 0 0 0 0 90.082919128835783 147.80604682497142 0 147.80604682497142 -108.7621619503916 0 0 0 0 46.175394111175692 105.56357293360723 0 105.56357293360723 -95.340923938529215 0 0 0 0 -847.21271200772026 206.51513613243151 0 206.51513613243151 57.967650277132634 0 0 0 0 -274.96470163221966 524.49752820100912 0 524.49752820100912 -241.18849819690513 0 0 0 0 118.47129750854219 99.537634169217199 0 99.537634169217199 -109.66876929254795 0 0 0 0 195.6805649096932 165.83859657080757 0 165.83859657080757 -136.90010206696752 0 0 0 0 227.58932429700508 147.14197571494879 0 147.14197571494879 -148.94419502235542 0 0 0 0 137.40446843905011 159.9956753031156 0 159.9956753031156 -134.36979962291662 0 0 0 0 235.47321226619533 246.28113808715716 0 246.28113808715716 -129.35971087578218 0 0 0 0 358.60034801531583 267.34679300290736 0 267.34679300290736 -138.9517811113401 0 0 0 0 465.26275747793261 123.77824948133639 0 123.77824948133639 -133.10944001436292 0 0 0 0 482.8867595484935 309.92153696875994 0 309.92153696875994 -126.35488129287842 0 0 0 0 319.60875980259152 181.27244959303789 0 181.27244959303789 -123.43464804846735 0 0 0 0 308.86678580212174 161.43963854520916 0 161.43963854520916 -141.00940954868565 0 0 0 0 265.322444737365 179.68555547269352 0 179.68555547269352 -131.65466630268202 0 0 0 0 280.68720746651525 114.61764152059914 0 114.61764152059914 -84.733190246217418 0 0 0 0 -257.5044174085815 354.09936859222216 0 354.09936859222216 -239.81541205713802 0 0 0 0 217.7006221080519 81.724136255128542 0 81.724136255128542 -144.50262980662228 0 0 0 0 320.56816900921353 109.00627029848829 0 109.00627029848829 -140.81495288814767 0 0 0 0 -213.74144688186971 165.39240929090147 0 165.39240929090147 64.641538853233214 0 0 0 0 -17.400444705526326 25.475653272911657 0 25.475653272911657 -16.236816629855753 0 0 0 0 44.199131065161204 105.29506323790386 0 105.29506323790386 -94.535716232345749 0 0 0 0 -478.27777486166451 196.40937593205308 0 196.40937593205308 -50.221975375083275 0 0 0 0 -200.85173139903054 187.70440149000206 0 187.70440149000206 -12.017891157767735 0 0 0 0 226.11836200245307 68.888396545822616 0 68.888396545822616 -30.855351108708419 0 0 0 0 -216.77125824543145 59.739263956617378 0 59.739263956617378 82.836011538340244 0 0 0 0 -15.518756240460789 136.66929018788505 0 136.66929018788505 -76.751572691900947 0 0 0 0 -104.41144197447284 207.01656616199762 0 207.01656616199762 -55.79153499158565 0 0 0 0 272.32655348270782 -23.577385001379298 0 -23.577385001379298 -99.03684047068964 0 0 0 0 276.65957602858543 -5.0333732636281638 0 -5.0333732636281638 -25.55305171906366 0 0 0 0 539.88691646637744 -163.5670151691229 0 -163.5670151691229 -160.97390233031183 0 0 0 0 859.86269036837621 15.697799789901183 0 15.697799789901183 -232.67590006886167 0 0 0 0 787.53619874455762 423.56351287878806 0 423.56351287878806 -71.400201087701134 0 0 0 0 479.76837747040554 134.56826953887139 0 134.56826953887139 -125.81562682197546 0 0 0 0 390.71829954933492 -1.6396396087366156 0 -1.6396396087366156 -65.278420600196114 0 0 0 0 535.37426390303881 92.096184008369164 0 92.096184008369164 39.971392777752044 0 0 0 0 399.00902523153127 256.45253899462841 0 256.45253899462841 -15.935130398895126 0 0 0 0 258.47633445846441 171.02907278992643 0 171.02907278992643 55.291028033650946 0 0 0 0 386.98883760758326 293.90344356781861 0 293.90344356781861 17.635799844836583 0 0 0 0 376.85651831234281 222.51114698259335 0 222.51114698259335 -1.9251277325747651 0 0 0 0 377.15017441909731 234.92647571415 0 234.92647571415 -52.445295901590725 0 0 0 0 402.85443102639692 119.65473266223125 0 119.65473266223125 -75.599972220836207 0 0 0 0 303.39958976003982 192.48987263120944 0 192.48987263120944 -31.234933297731914 0 0 0 0 394.85463823822101 242.54510130865401 0 242.54510130865401 -36.079053854249651 0 0 0 0 404.01405983860604 229.13845150830457 0 229.13845150830457 -73.304056725784903 0 0 0 0 438.31105909962207 5.3100962924363557 0 5.3100962924363557 -65.658580820047064 0 0 0 0 115.38273105496773 -49.382125401636586 0 -49.382125401636586 -74.316444146403228 0 0 0 0 -38.574868114184937 -88.231046742919716 0 -88.231046742919716 -1.2361167494818801 0 0 0 0 124.35330925849848 72.255140511639183 0 72.255140511639183 -55.753438982712396 0 0 0 0 62.274666678880749 119.9928890773881 0 119.9928890773881 -19.547335384879261 0 0 0 0 49.687515815006918 74.476104890025454 0 74.476104890025454 -14.695224453762421 0 0 0 0 -23.679667649674229 161.47232832381269 0 161.47232832381269 2.5871847056550905 0 0 0 0 88.572980911856575 186.81465521513746 0 186.81465521513746 -57.381560458816239 0 0 0 0 -22.888684200981515 128.6364930839045 0 128.6364930839045 5.0451378553989343 0 0 0 0 177.38527117627382 113.6035929958307 0 113.6035929958307 -39.662827120904694 0 0 0 0 291.11672676570743 151.85392317533115 0 151.85392317533115 -77.1245950460725 0 0 0 0 269.45143298128096 189.66455905257317 0 189.66455905257317 -2.2835379487078171 0 0 0 0 106.45464914601689 170.50142373260678 0 170.50142373260678 -13.807802173658274 0 0 0 0 531.69622264530335 297.30926054045267 0 297.30926054045267 42.150283521521487 0 0 0 0 389.92983946226741 216.10181437053689 0 216.10181437053689 -59.369241384702036 0 0 0 0 220.81509805936366 202.58833624944236 0 202.58833624944236 15.155189608864021 0 0 0 0 413.83098933019937 163.30599695366982 0 163.30599695366982 15.671133911819197 0 0 0 0 394.65257313412769 107.17071093229276 0 107.17071093229276 -78.475439148314763 0 0 0 0 394.3164347286438 122.45096884543455 0 122.45096884543455 108.80080394209472 0 0 0 0 16.220011091936613 111.25626044789533 0 111.25626044789533 -20.210771253707208 0 0 0 0 57.537362836685134 52.883032907418965 0 52.883032907418965 -137.44835916506418 0 0 0 0 222.50608419933269 183.47038514211454 0 183.47038514211454 -65.469307542269235 0 0 0 0 -4.5503105220996076 176.10123215820931 0 176.10123215820931 -33.718981112091569 0 0 0 0 64.390499991393881 77.056484323824407 0 77.056484323824407 -70.261426223056333 0 0 0 0 34.212451578830951 130.77142457859009 0 130.77142457859009 -163.85015587782254 0 0 0 0 43.609790424336097 21.639057027219678 0 21.639057027219678 -313.95959050406964 0 0 0 0 -39.472158100060767 39.453852527581105 0 39.453852527581105 -37.16649894801364 0 0 0 0 466.25901090158368 278.93875921617655 0 278.93875921617655 10.793345108206267 0 0 0 0 3.3544200914986249 41.807457844257755 0 41.807457844257755 -11.578880366383402 0 0 0 0 784.5638341044978 184.67970008589691 0 184.67970008589691 7.8501500679994933 0 0 0 0 -105.29720407233981 62.717663739254931 0 62.717663739254931 -25.919264318697969 0 0 0 0 974.0878969259611 284.58806134081715 0 284.58806134081715 27.816754541199771 0 0 0 0 986.85807674971875 249.48692399749416 0 249.48692399749416 -147.3882550336275 0 0 0 0 960.45337578092585 239.89570595412079 0 239.89570595412079 -71.776751704062917 0 0 0 0 969.0318064186722 224.20414113157312 0 224.20414113157312 -113.88503856744501 0 0 0 0 1012.8011444298754 326.60500059455626 0 326.60500059455626 -67.12688189354958 0 0 0 0 203.46320578031009 -113.17942473407311 0 -113.17942473407311 -163.93342698350443 0 0 0 0 31.837658581582787 14.426920142141434 0 14.426920142141434 -14.147823988698008 0 0 0 0 998.48549068134889 382.41629548690798 0 382.41629548690798 56.736209211143432 0 0 0 0 45.696288592832715 66.533204731170656 0 66.533204731170656 -58.293955876598545 0 0 0 0 -39.867418192892174 84.55179045434906 0 84.55179045434906 -47.265677693008001 0 0 0 0 -229.98708944972896 110.5469196855629 0 110.5469196855629 92.815603768682195 0 0 0 0 52.833942263852805 95.34357750309573 0 95.34357750309573 -144.09828617568564 0 0 0 0 -110.30107422274887 134.6891220039106 0 134.6891220039106 -138.93855167228321 0 0 0 0 75.030525098336511 46.162468899419764 0 46.162468899419764 -46.14300922100665 0 0 0 0 -160.56501301031676 127.17617022353807 0 127.17617022353807 -208.78287124232156 0 0 0 0 -279.22418636568182 40.561193976114737 0 40.561193976114737 -256.13031338219298 0 0 0 0 -296.9769682995975 59.145258221658878 0 59.145258221658878 -159.51070320686995 0 0 0 0 -29.267015061299958 88.130997078850925 0 88.130997078850925 -49.231297434065596 0 0 0 0 -373.69606781180482 -43.35000186949037 0 -43.35000186949037 -230.84722632190824 0 0 0 0 28.560113642859505 70.807354705422767 0 70.807354705422767 -21.52739646070404 0 0 0 0 -104.41850398067879 105.71848303201443 0 105.71848303201443 -52.148120338174635 0 0 0 0 77.439992270374205 59.683203304477502 0 59.683203304477502 -39.013485366391251 0 0 0 0 83.936732250741386 86.136159071857293 0 86.136159071857293 -37.900251311364428 0 0 0 0 -124.10334730212344 183.48882750008488 0 183.48882750008488 -93.826187626546016 0 0 0 0 -122.69253723777365 195.64445882655127 0 195.64445882655127 -181.06871221255278 0 0 0 0 -173.26611213099386 167.67516440498002 0 167.67516440498002 -146.36498494300758 0 0 0 0 13.584596528465937 93.084072200644101 0 93.084072200644101 -57.842935843777482 0 0 0 0 -106.50889197507058 185.5036358992802 0 185.5036358992802 -103.68379291804013 0 0 0 0 -36.22235961941783 58.495707343103355 0 58.495707343103355 -59.290413098641807 0 0 0 0 -44.015074354662374 64.387410024508625 0 64.387410024508625 -54.266730306652704 0 0 0 0 -66.568033247407584 187.04122331858889 0 187.04122331858889 -159.89513433274988 0 0 0 0 -34.098277768527623 429.0871765304546 0 429.0871765304546 12.337238689113292 0 0 0 0 -606.9766600531002 133.61714221303555 0 133.61714221303555 208.60058021694567 0 0 0 0 -36.535435343723805 35.155216158807661 0 35.155216158807661 34.337366323179083 0 0 0 0 1639.4705488694453 55.194991135038435 0 55.194991135038435 -77.793792961558211 0 0 0 0 -21.757005173650356 -6.1008761884675096 0 -6.1008761884675096 7.6972167726590044 0 0 0 0 1041.3966459794028 29.592998426844133 0 29.592998426844133 -77.123317811114248 0 0 0 0 1218.6424506980256 257.37329774041791 0 257.37329774041791 -159.86488689857651 0 0 0 0 1337.1833363955466 296.95285754711995 0 296.95285754711995 -117.69254732251284 0 0 0 0 1312.8918581360485 47.319959744534572 0 47.319959744534572 123.03960936976364 0 0 0 0 1237.2808815867174 221.3961511935413 0 221.3961511935413 -20.042251457547536 0 0 0 0 1256.7676460492949 437.89863210310432 0 437.89863210310432 -194.52250719617587 0 0 0 0 921.32184674034943 539.50020105580188 0 539.50020105580188 -119.71398402030536 0 0 0 0 1081.0758173635986 318.37541460952343 0 318.37541460952343 -77.249248577478284 0 0 0 0 1125.8725746944401 370.17649343960511 0 370.17649343960511 -150.68361580173951 0 0 0 0 543.77621469137375 697.9122548272353 0 697.9122548272353 -154.52138252194163 0 0 0 0 643.66432304825867 612.67653577519377 0 612.67653577519377 -149.06061288772617 0 0 0 0 859.67962282088411 486.99526793740006 0 486.99526793740006 -122.14814276806283 0 0 0 0 517.0688276079527 612.73819632891173 0 612.73819632891173 -184.69628242589533 0 0 0 0 462.71318149089348 585.14000602578017 0 585.14000602578017 -49.963794787785446 0 0 0 0 279.73736867507978 719.69736252713119 0 719.69736252713119 -51.171693889627932 0 0 0 0 551.28905159170972 616.17695528180775 0 616.17695528180775 -68.901276799755578 0 0 0 0 977.14359747135313 255.69127935054712 0 255.69127935054712 -111.47129263677925 0 0 0 0 900.00485715764808 418.25174137028807 0 418.25174137028807 -106.86147625165904 0 0 0 0 914.0498664615734 436.48326799386996 0 436.48326799386996 -98.604136901878519 0 0 0 0 707.38582572638688 478.8792613926073 0 478.8792613926073 -77.351610070443712 0 0 0 0 542.58663546081516 507.85431686489756 0 507.85431686489756 -38.378976159288868 0 0 0 0 414.6324671566399 479.72697779280861 0 479.72697779280861 -3.9970545862743165 0 0 0 0 717.66061708837515 266.54054771403025 0 266.54054771403025 93.186551942795631 0 0 0 0 535.17697319108993 297.40759027880995 0 297.40759027880995 -132.72146520936076 0 0 0 0 567.61440640299043 445.07368945627331 0 445.07368945627331 -103.76352256398241 0 0 0 0 431.88338281249162 545.63432748080959 0 545.63432748080959 -37.976255004097766 0 0 0 0 244.29289588785696 603.33176816483399 0 603.33176816483399 12.145126883217017 0 0 0 0 184.08382876520773 535.84761237552812 0 535.84761237552812 -33.761716806548066 0 0 0 0 347.11270271182002 433.51560212697223 0 433.51560212697223 -79.872755027010044 0 0 0 0 333.2542935376332 413.46686199038868 0 413.46686199038868 -105.59177102749527 0 0 0 0 379.32661446993006 261.19877189374529 0 261.19877189374529 -147.81324526946992 0 0 0 0 68.230628551071277 611.91449152347923 0 611.91449152347923 53.922980859202653 0 0 0 0 71.276050320804643 620.98105983525238 0 620.98105983525238 36.163158164374181 0 0 0 0 191.2518404156217 554.16421033692313 0 554.16421033692313 11.051418276649201 0 0 0 0 244.97116651545184 631.7896077298044 0 631.7896077298044 -4.7678400428703753 0 0 0 0 0.15188058243802516 641.76850333116272 0 641.76850333116272 52.676280138006405 0 0 0 0 60.869804166330141 614.34506812290419 0 614.34506812290419 -63.592334294080501 0 0 0 0 45.703845757714589 684.37132586891312 0 684.37132586891312 31.278330877226836 0 0 0 0 268.43389442487751 676.50559464690468 0 676.50559464690468 -116.0893510919559 0 0 0 0 33.585432162843063 730.15680955851712 0 730.15680955851712 -313.15105180829414 0 0 0 0 71.718808453239035 635.97495981664542 0 635.97495981664542 -81.92193463516378 0 0 0 0 310.1523804483586 800.47603601355877 0 800.47603601355877 -281.49858111314825 0 0 0 0 -0.83890223062189762 585.87988252568539 0 585.87988252568539 -382.81334153315402 0 0 0 0 -146.98084522195859 605.96276364551522 0 605.96276364551522 -27.944788146945939 0 0 0 0 -309.59080747907865 187.30708208849683 0 187.30708208849683 -818.10862620109037 0 0 0 0 -192.63994438176451 682.83952017811498 0 682.83952017811498 -689.56178836134495 0 0 0 0 -115.22753938959795 486.3858514016174 0 486.3858514016174 -309.34613985888166 0 0 0 0 407.86849115611403 503.8117661364995 0 503.8117661364995 -310.96756060687676 0 0 0 0 196.17234193849436 766.59058367401485 0 766.59058367401485 -608.83089690899942 0 0 0 0 -156.87939742462981 502.58818141864776 0 502.58818141864776 -476.96695521246875 0 0 0 0 -160.59236359252827 171.16952152084559 0 171.16952152084559 -1053.856867785631 0 0 0 0 463.98319961255766 242.99154083867325 0 242.99154083867325 -1031.4897183446628 0 0 0 0 -348.02845873151091 37.240353788587527 0 37.240353788587527 -463.68991180416197 0 0 0 0 -419.7486199158302 -717.11889073503335 0 -717.11889073503335 -2144.2752790945615 0 0 0 0 -0.17537029233790236 -699.83008209321088 0 -699.83008209321088 -2235.9000635393022 0 0 0 0 -842.77181271879817 343.24826264823787 0 343.24826264823787 -858.16197460889816 0 0 0 0 -341.92096643068362 597.91573702196547 0 597.91573702196547 -1597.0318393551861 0 0 0 0 1559.962429731082 32.546984343812255 0 32.546984343812255 -7.0067099159641657 0 0 0 0 977.0664483103028 442.39183423404029 0 442.39183423404029 -79.239165087084984 0 0 0 0 1073.3905280226645 381.157757075267 0 381.157757075267 -24.579639651550679 0 0 0 0 1540.1255502914719 341.03545733361898 0 341.03545733361898 -267.18799436163681 0 0 0 0 1090.0542728786531 368.52401030022156 0 368.52401030022156 -526.73003708028045 0 0 0 0 989.0081715080596 488.50876227564004 0 488.50876227564004 -256.76258428649453 0 0 0 0 516.78559663241322 679.48055854060294 0 679.48055854060294 -248.66549551799108 0 0 0 0 1185.0312288687419 402.46021941146319 0 402.46021941146319 -473.83954825792171 0 0 0 0 460.47277910442608 256.60905549673043 0 256.60905549673043 -219.39431979125948 0 0 0 0 2029.6107442224529 348.45297547867995 0 348.45297547867995 -51.182094387870166 0 0 0 0 1561.2961490338785 -109.29662858059964 0 -109.29662858059964 -233.96420474930892 0 0 0 0 1700.963227858977 -383.98628636314879 0 -383.98628636314879 377.19306018019415 0 0 0 0 250.11236071716849 79.249079143160998 0 79.249079143160998 -69.356790847377852 0 0 0 0 664.70890059013618 -304.79830683101318 0 -304.79830683101318 -221.62174675364076 0 0 0 0 1648.6714921284874 154.77208660570977 0 154.77208660570977 -235.52523489229497 0 0 0 0 311.58882206631461 -574.54265143623161 0 -574.54265143623161 -420.80539540872269 0 0 0 0 46.114710388588719 -722.10318038762489 0 -722.10318038762489 -182.13677966846808 0 0 0 0 939.04751690928242 -574.08052253242931 0 -574.08052253242931 -142.33653809679527 0 0 0 0 145.33919279597467 -335.7315049077506 0 -335.7315049077506 -24.836578946153168 0 0 0 0 436.0967597033341 -134.47912582859135 0 -134.47912582859135 438.52323089439597 0 0 0 0 3947.7233196722227 -176.45657119057068 0 -176.45657119057068 -382.92528500750996 0 0 0 0 1189.6157479605172 567.18748895956378 0 567.18748895956378 693.12774063650431 0 0 0 0 -2005.9564410339372 -1198.5680663438907 0 -1198.5680663438907 -708.73778134773602 0 0 0 0 -1.0815037214352827 1.0493310623131151 0 1.0493310623131151 -14.521521467396951 0 0 0 0 335.52351409568655 140.83138807234081 0 140.83138807234081 -318.59586029024649 0 0 0 0 -198.50695552609977 -629.46735186957085 0 -629.46735186957085 -939.46738975994958 0 0 0 0 -1172.4874451691721 -144.29826709347981 0 -144.29826709347981 -152.3954115533852 0 0 0 0 -820.14376638802059 -715.2804027940474 0 -715.2804027940474 -38.445847696562851 0 0 0 0 0.064548944482552884 5.1908887868218585 0 5.1908887868218585 -45.68099869755109 0 0 0 0 -470.10442705865194 -534.21833637386453 0 -534.21833637386453 -437.17723140557064 0 0 0 0 -469.80191917534103 -511.58037865247024 0 -511.58037865247024 48.433279236509406 0 0 0 0 0.38248030348768225 -24.317424510019919 0 -24.317424510019919 137.8215173579265 0 0 0 0 164.93648384554399 84.513451815677399 0 84.513451815677399 51.811765136953909 0 0 0 0 103.24150543702126 4.6883609875985712 0 4.6883609875985712 93.449263350434194 0 0 0 0 -0.080359560983197298 188.07494757392487 0 188.07494757392487 -215.38781763248335 0 0 0 0 254.43196158549108 -86.732004631692689 0 -86.732004631692689 -680.42334468337867 0 0 0 0 1.4568198606433356 9.144461249550659 0 9.144461249550659 -78.74663014679453 0 0 0 0 339.42959189466637 247.46872313658241 0 247.46872313658241 -403.07074848871707 0 0 0 0 58.664257742071641 -387.006373319251 0 -387.006373319251 -216.24080642575791 0 0 0 0 -540.90883902031783 -386.94024530820207 0 -386.94024530820207 -147.87121421931079 0 0 0 0 313.00573352137872 -684.19263399071497 0 -684.19263399071497 -359.20947249471647 0 0 0 0 64.251098554363125 -326.67011974343768 0 -326.67011974343768 -797.02064982509182 0 0 0 0 695.41522305720719 -147.15588607125028 0 -147.15588607125028 -1156.5695281393782 0 0 0 0 345.70496233539598 53.2973331232497 0 53.2973331232497 -610.12166962265474 0 0 0 0 619.74677840390359 -511.12841384123021 0 -511.12841384123021 27.963151304687926 0 0 0 0 277.03688475376111 104.32255100438124 0 104.32255100438124 -1736.932144684215 0 0 0 0 -592.5550548323663 218.56806368887555 0 218.56806368887555 -1210.9855921285416 0 0 0 0 -81.084915505489334 -130.15419918943371 0 -130.15419918943371 -698.9929590089705 0 0 0 0 184.43877058601356 -231.21428486579316 0 -231.21428486579316 -976.85181487103546 0 0 0 0 48.860272482314031 416.58799477820867 0 416.58799477820867 -577.14854469792044 0 0 0 0 -9.5047670988788013 225.829323060143 0 225.829323060143 -1193.8992652659363 0 0 0 0 -1174.5808004956634 1122.7836202409744 0 1122.7836202409744 -1621.4626100173782 0 0 0 0 -285.88154588933685 637.38045846927162 0 637.38045846927162 -578.30181107896351 0 0 0 0 -49.878470738483486 103.93992942539859 0 103.93992942539859 27.579993437173275 0 0 0 0 246.60899216985854 643.13232785412765 0 643.13232785412765 -1205.6047289547473 0 0 0 0 265.10381371878248 707.41759658240517 0 707.41759658240517 -1004.0098958132876 0 0 0 0 0.091202422946651041 4.7639392457381433 0 4.7639392457381433 -1.2192268925005632 0 0 0 0 -179.62773890595417 -328.82538216272587 0 -328.82538216272587 -623.09150766213952 0 0 0 0 -1.8295254468890505 3.1569186403354905 0 3.1569186403354905 0.39488568650904199 0 0 0 0 342.42968224380456 524.47353626479889 0 524.47353626479889 -1698.7793445160951 0 0 0 0 -3.2799637379460762 31.345386783842969 0 31.345386783842969 -89.883177917656795 0 0 0 0 -279.18101924951043 534.89008341735644 0 534.89008341735644 -999.15371071514892 0 0 0 0 0.30390376374998596 195.6370214673525 0 195.6370214673525 -901.46795612849564 0 0 0 0 164.92369303911255 150.16736594777103 0 150.16736594777103 -1540.4460644429055 0 0 0 0 12.170807124377461 -80.037149624804442 0 -80.037149624804442 -585.55582139985927 0 0 0 0 -117.99617806571769 -79.789725433400235 0 -79.789725433400235 -644.82189951272085 0 0 0 0 74.445530482482354 288.25638478750807 0 288.25638478750807 -313.13884871827031 0 0 0 0 -127.90143921208801 85.683126839598117 0 85.683126839598117 584.52926093880887 0 0 0 0 -19.149480100692017 128.26350274269134 0 128.26350274269134 324.71530305407214 0 0 0 0 -63.601457306618613 28.090820655073657 0 28.090820655073657 8.2770950543401227 0 0 0 0 -69.344638744267286 210.46611987417418 0 210.46611987417418 486.32485407519926 0 0 0 0 7.9638886894390453 -6.8344173395857979 0 -6.8344173395857979 553.97236442869553 0 0 0 0 -27.200306556725991 -186.4631888696108 0 -186.4631888696108 865.38596618371696 0 0 0 0 -64.825699067350172 110.67871843024614 0 110.67871843024614 32.555183030882262 0 0 0 0 67.239590557201154 -28.843654628122749 0 -28.843654628122749 328.70198750124837 0 0 0 0 -56.101518322540983 109.91793199959575 0 109.91793199959575 32.200613572206265 0 0 0 0 -13.798057438878459 -93.485612599550905 0 -93.485612599550905 498.4612324795383 0 0 0 0 236.04085161340481 -121.12616660790081 0 -121.12616660790081 203.59865985019132 0 0 0 0 -51.688596450605928 110.62102637541096 0 110.62102637541096 32.117744763753976 0 0 0 0 -442.45058575907024 164.044454887342 0 164.044454887342 1357.0133897955602 0 0 0 0 -17.937765707989456 13.489491083575331 0 13.489491083575331 390.88458347806994 0 0 0 0 374.49802199380792 1010.9319625464414 0 1010.9319625464414 -3925.5234458371342 0 0 0 0 -10.406332584180575 9.8774646503263739 0 9.8774646503263739 0.37199132670390966 0 0 0 0 -33.667522728028018 23.064433454723641 0 23.064433454723641 3.7149795008272228 0 0 0 0 -203.24818675592542 217.06916738988366 0 217.06916738988366 930.80790116640856 0 0 0 0 350.45565115740465 640.71720059667132 0 640.71720059667132 -3254.8024041536828 0 0 0 0 -395.15084526532155 849.2741545868812 0 849.2741545868812 -2171.2279397064776 0 0 0 0 103.81246334781463 272.12313640220964 0 272.12313640220964 -1873.1050319954265 0 0 0 0 110.18969022689271 876.19251863395039 0 876.19251863395039 -1836.1184648390554 0 0 0 0 -428.33603679931548 -26.28163267547643 0 -26.28163267547643 -2577.6915098392601 0 0 0 0 -187.40960607687884 228.88210180601527 0 228.88210180601527 -1463.6506753658596 0 0 0 0 -347.89660424697649 373.03378252615221 0 373.03378252615221 -482.15516881964868 0 0 0 0 1002.3280087561543 592.38964435436083 0 592.38964435436083 -453.2240776194667 0 0 0 0 -350.79825571503534 606.60808510105107 0 606.60808510105107 -932.43306578710326 0 0 0 0 -146.58211043696792 86.310305448554573 0 86.310305448554573 -343.16350658456213 0 0 0 0 -110.98681930343264 449.21502228658392 0 449.21502228658392 -396.21390279011393 0 0 0 0 947.1856677524047 470.02131068965537 0 470.02131068965537 -550.25437024887424 0 0 0 0 513.59542302851514 684.82540478081137 0 684.82540478081137 -1350.4137596182409 0 0 0 0 593.94358577919775 299.77084207892767 0 299.77084207892767 -546.31312117922062 0 0 0 0 408.7591356621997 141.10737268907542 0 141.10737268907542 -1208.3086719128914 0 0 0 0 288.87055092010996 563.14634171331272 0 563.14634171331272 -2086.2546272668405 0 0 0 0 -53.783683448895317 541.05728376511797 0 541.05728376511797 -1309.5288522797782 0 0 0 0 14.558886592858471 616.01561587968536 0 616.01561587968536 -1348.4066407944338 0 0 0 0 -32.566001782688545 92.352893166098511 0 92.352893166098511 -2295.2629180364893 0 0 0 0 -0.3681104841089109 1284.7124259365337 0 1284.7124259365337 -1161.9600869981077 0 0 0 0 -236.86404602613766 837.67644352221669 0 837.67644352221669 -1846.8834580604744 0 0 0 0 633.47904079887303 898.87301620236849 0 898.87301620236849 -1699.9192333549727 0 0 0 0 634.21483909912058 976.81845590767625 0 976.81845590767625 -1833.5683884600021 0 0 0 0 825.90616145354579 772.72984750897012 0 772.72984750897012 -1824.7727903160558 0 0 0 0 671.20607890751853 81.262384471137921 0 81.262384471137921 -497.44259480772598 0 0 0 0 -29.468172688353349 51.527861998839086 0 51.527861998839086 -64.170429635076033 0 0 0 0 171.65506605738483 735.3345595150422 0 735.3345595150422 1072.5993132404365 0 0 0 0 845.88471521154861 875.40507812014403 0 875.40507812014403 -36.99951834147214 0 0 0 0 962.87711689373009 90.158551072383943 0 90.158551072383943 -301.72146039076324 0 0 0 0 558.06413359758153 864.53583018380596 0 864.53583018380596 884.22820206794859 0 0 0 0 370.97566074646602 373.08785138312487 0 373.08785138312487 865.51339418740827 0 0 0 0 531.51372621383052 295.42182998507997 0 295.42182998507997 -361.03018485909161 0 0 0 0 -9.2705549705574271 6.3016549954001562 0 6.3016549954001562 10.157770662227591 0 0 0 0 1811.8309336301754 1370.6054971642407 0 1370.6054971642407 557.5913290405806 0 0 0 0 800.32058705470263 485.78983138152398 0 485.78983138152398 537.52872881100484 0 0 0 0 1061.7165889656462 1246.6970561386515 0 1246.6970561386515 603.08403898093184 0 0 0 0 24.379904286222057 0.77850947792243375 0 0.77850947792243375 -20.198143378138894 0 0 0 0 311.76698548647983 83.894496187022014 0 83.894496187022014 41.221659767474193 0 0 0 0 330.63245364095201 459.44740358526178 0 459.44740358526178 249.09829311526846 0 0 0 0 355.25848462678277 -145.01367546191614 0 -145.01367546191614 -470.1245323541807 0 0 0 0 626.95915400284139 416.7104337885612 0 416.7104337885612 -483.12238863881794 0 0 0 0 -774.08324553188868 688.40034957558601 0 688.40034957558601 52.456428259174572 0 0 0 0 -2372.6957218851021 482.00937525294648 0 482.00937525294648 579.42993421783103 0 0 0 0 2.8832192657202427 5.5972658185038995 0 5.5972658185038995 8.7419901232699431 0 0 0 0 -812.13129433212271 105.84254819203079 0 105.84254819203079 293.76349140153616 0 0 0 0 127.24165525009448 121.37976474641619 0 121.37976474641619 -107.95992900439524 0 0 0 0 -139.89504087148816 272.71545726439217 0 272.71545726439217 -286.14289205459681 0 0 0 0 -10.302465207132627 -5.2467737420010963 0 -5.2467737420010963 268.29616781623918 0 0 0 0 490.68233257872635 776.76653339922268 0 776.76653339922268 464.24298654506492 0 0 0 0 -561.4759426995588 689.82456352026202 0 689.82456352026202 557.21655114244641 0 0 0 0 714.34014762725565 143.67083594309952 0 143.67083594309952 392.28735983915976 0 0 0 0 -658.59445353513001 164.18112424985884 0 164.18112424985884 -737.98849495109607 0 0 0 0 2696.7279423549917 -401.98717005000617 0 -401.98717005000617 -156.70746647805208 0 0 0 0 -1734.7383918133128 1031.7870831804357 0 1031.7870831804357 606.82770228636946 0 0 0 0 9.3144626101173316 22.580250791037059 0 22.580250791037059 21.06472700769703 0 0 0 0 -461.04780939189732 127.02625773891123 0 127.02625773891123 -465.86432357782178 0 0 0 0 83.303588736336678 1541.9251697378058 0 1541.9251697378058 654.48202944909826 0 0 0 0 1.9298605853565505 1.1137972382795027 0 1.1137972382795027 -2.7812296254210196 0 0 0 0 82.143926205717435 -187.72863605315979 0 -187.72863605315979 -1366.1357442311564 0 0 0 0 -70.154820690018823 -88.755417848047728 0 -88.755417848047728 380.45501549659821 0 0 0 0 -24.376510884917579 51.596284162281506 0 51.596284162281506 -74.056688862639163 0 0 0 0 605.89821512394337 623.80130484036636 0 623.80130484036636 -1127.2598788912292 0 0 0 0 556.95348932046181 215.8180763861883 0 215.8180763861883 -622.15352269809227 0 0 0 0 -325.97626463336928 423.74934569414108 0 423.74934569414108 -324.93161331882584 0 0 0 0 -94.671765926061198 -0.63482228783686878 0 -0.63482228783686878 153.50169621371242 0 0 0 0 -297.34027963748667 324.49858616154961 0 324.49858616154961 -286.72817376750754 0 0 0 0 98.054562511868426 701.82188753681112 0 701.82188753681112 -987.69115600334771 0 0 0 0 -789.78148472202156 478.10825579043376 0 478.10825579043376 -79.563241593023122 0 0 0 0 1921.9266035140317 -214.49850924094062 0 -214.49850924094062 82.141787523927633 0 0 0 0 12.472679198402034 36.584341891142714 0 36.584341891142714 30.003457808491987 0 0 0 0 1982.5961769556452 -27.757610586129886 0 -27.757610586129886 -121.27462457081128 0 0 0 0 -370.42438348750147 499.50398792206397 0 499.50398792206397 -528.40741177137534 0 0 0 0 1620.800729552866 230.25926822001202 0 230.25926822001202 -152.5505964972981 0 0 0 0 1572.2316315886856 -145.60003370988125 0 -145.60003370988125 79.06095252888008 0 0 0 0 1645.6768521970371 136.13626641761221 0 136.13626641761221 111.0446107024618 0 0 0 0 159.83019797989255 50.039174643130536 0 50.039174643130536 -413.12823146444862 0 0 0 0 -149.7298609981226 -348.29300746405352 0 -348.29300746405352 -541.28087587791379 0 0 0 0 27.532228418946033 -16.675321887902101 0 -16.675321887902101 -414.00052624661839 0 0 0 0 311.04486492306751 98.211172720682953 0 98.211172720682953 -298.83578283004317 0 0 0 0 98.067816265131114 61.747844525991241 0 61.747844525991241 -314.24927391020901 0 0 0 0 611.99578781794844 132.61934390892566 0 132.61934390892566 -429.91884628355911 0 0 0 0 -33.645784916886512 58.16486776441262 0 58.16486776441262 -68.666505515460869 0 0 0 0 91.218590252785361 8.7643062178030959 0 8.7643062178030959 -348.60519680504876 0 0 0 0 132.18290020839777 54.58457067076597 0 54.58457067076597 -391.69541227114678 0 0 0 0 31.198520215731151 -112.26358233509518 0 -112.26358233509518 -474.90449779840856 0 0 0 0 147.30269770268933 -2.4568611481026892 0 -2.4568611481026892 -476.53839525474177 0 0 0 0 -24.329646959612035 28.243513719296153 0 28.243513719296153 -28.093817626575316 0 0 0 0 306.80375748506412 738.77185006202126 0 738.77185006202126 476.43578792960034 0 0 0 0 -313.30711655873893 -270.57575027452549 0 -270.57575027452549 -664.59389708600611 0 0 0 0 -95.291791068240855 -405.74121743302385 0 -405.74121743302385 -712.34981578154839 0 0 0 0 -11.317925917733248 10.099716029980335 0 10.099716029980335 -9.3995552583598396 0 0 0 0 376.1157899824525 323.93355974260385 0 323.93355974260385 -280.66052132814366 0 0 0 0 -241.58046105102403 299.48360151716406 0 299.48360151716406 473.3222801183656 0 0 0 0 -835.11705257622089 987.5799347153079 0 987.5799347153079 -246.47972372565016 0 0 0 0 -737.44847076833867 1344.5626639285201 0 1344.5626639285201 -475.41924961273617 0 0 0 0 -636.737505355537 1243.3238677968766 0 1243.3238677968766 -381.85517881280975 0 0 0 0 -784.85960105170989 1339.7042268390987 0 1339.7042268390987 -241.22619172772102 0 0 0 0 -777.49358084129926 1738.3991472247108 0 1738.3991472247108 -898.62070386038249 0 0 0 0 -1385.3307547169097 1310.9317583685406 0 1310.9317583685406 706.92876524366056 0 0 0 0 -1449.88032781941 300.43188769917469 0 300.43188769917469 -631.91610788865364 0 0 0 0 -458.66476158420483 728.50082860174552 0 728.50082860174552 -581.43580316794396 0 0 0 0 -512.19675280076626 485.14966131155234 0 485.14966131155234 -1543.838948849876 0 0 0 0 -399.30499278568459 25.498930516452674 0 25.498930516452674 -400.82564468889905 0 0 0 0 -684.88102155386878 319.11229415246271 0 319.11229415246271 -291.43381771967688 0 0 0 0 -934.88541713426821 1251.4201923803266 0 1251.4201923803266 -548.06807134328847 0 0 0 0 -598.72039203133318 381.1367615702693 0 381.1367615702693 -670.49918876387164 0 0 0 0 -1259.7185466490046 742.78050719040948 0 742.78050719040948 -458.46235350792995 0 0 0 0 -996.7963465455905 681.13302627192024 0 681.13302627192024 61.39776485292532 0 0 0 0 -1037.8318216638145 870.98778670332467 0 870.98778670332467 -810.13597234905319 0 0 0 0 -1518.8721660250449 1234.5629175978611 0 1234.5629175978611 -345.97617181270471 0 0 0 0 -844.07182140959776 130.68662804325868 0 130.68662804325868 769.28097376379446 0 0 0 0 -302.97282713422101 644.16260006481025 0 644.16260006481025 -1028.3017392223119 0 0 0 0 -16.680862233608423 -309.37844058014889 0 -309.37844058014889 -900.39849620024324 0 0 0 0 -47.725160197878722 166.65929514853633 0 166.65929514853633 -166.48368376992585 0 0 0 0 -303.42049491927901 -353.77151751646306 0 -353.77151751646306 -2317.5011223190377 0 0 0 0 -1735.1073493371396 1660.1699364947322 0 1660.1699364947322 -1539.866676704165 0 0 0 0 -18.256242164919968 16.360508254561864 0 16.360508254561864 29.904040759070995 0 0 0 0 -9.3912365099474755 28.001378184971529 0 28.001378184971529 -22.823909655349453 0 0 0 0 -13.550137785844754 26.927638384166208 0 26.927638384166208 -14.841776789069826 0 0 0 0 -26.786651111064202 30.443097986120847 0 30.443097986120847 -32.721118409841438 0 0 0 0 -4.363286123611033 27.028527920789202 0 27.028527920789202 3.014473459275905 0 0 0 0 -25.583666746317249 34.037437624656377 0 34.037437624656377 -31.463661706598941 0 0 0 0 -21.475682903266716 28.927727403093741 0 28.927727403093741 -19.017388250635122 0 0 0 0 -1.1983440726752548 11.690926764283148 0 11.690926764283148 -9.6161887870583485 0 0 0 0 -22.71952221540414 32.528985825374548 0 32.528985825374548 -31.864998849781841 0 0 0 0 -4.3668086296355568 17.474079394681105 0 17.474079394681105 -19.801830896829927 0 0 0 0 -5.2452447985723296 21.237612724706821 0 21.237612724706821 -7.7485749861189106 0 0 0 0 8.8285716159443837 17.961086592651554 0 17.961086592651554 -10.587220624089241 0 0 0 0 -153.06279784842627 -264.25100498453685 0 -264.25100498453685 -44.344803866333677 0 0 0 0 426.40621163725154 61.535202004219173 0 61.535202004219173 67.437000056059333 0 0 0 0 -6.6648757474613376 -4.9225672463944647 0 -4.9225672463944647 18.518191483133705 0 0 0 0 99.636486798677652 -244.80750741537486 0 -244.80750741537486 11.177560207223905 0 0 0 0 2.252809249329573 7.8933073387446484 0 7.8933073387446484 -1.6513381388128607 0 0 0 0 -9.0092593337115972 35.033267390339404 0 35.033267390339404 1.7099736932472354 0 0 0 0 -3.7236301166703925 27.061776643036865 0 27.061776643036865 -3.4749126870301552 0 0 0 0 -14.495744716837976 30.939740634533393 0 30.939740634533393 -17.191597286842978 0 0 0 0 32.122321760514751 32.189795335085364 0 32.189795335085364 -2.5187897039577365 0 0 0 0 0.39127834332657585 1.4332798827411466 0 1.4332798827411466 1.2521338035311018 0 0 0 0 -14.610927445071866 -93.280207581956347 0 -93.280207581956347 -218.37953076665872 0 0 0 0 41.015438423768501 200.59559163206723 0 200.59559163206723 394.35059766969061 0 0 0 0 -166.89028130271618 960.1444340520502 0 960.1444340520502 210.65734110726044 0 0 0 0 334.33030758811219 115.93960493495979 0 115.93960493495979 -32.298525714593779 0 0 0 0 -839.9312332906411 297.8053946748696 0 297.8053946748696 -0.81845750584579946 0 0 0 0 -1326.2695523378206 -47.538106279549538 0 -47.538106279549538 -59.231217787310015 0 0 0 0 -1902.8858546596966 792.75163124522442 0 792.75163124522442 -59.043217494792771 0 0 0 0 -6.131579247634761 3.6809055083727742 0 3.6809055083727742 -0.56144163967854865 0 0 0 0 -1614.593865372568 1462.6816495088769 0 1462.6816495088769 -493.39274565080996 0 0 0 0 -1077.7278391652762 1084.0601947878058 0 1084.0601947878058 -81.471952425563359 0 0 0 0 -688.4001505027918 450.13023198788142 0 450.13023198788142 35.337817020452349 0 0 0 0 -1073.2442870790692 1042.2383880046764 0 1042.2383880046764 -173.85414011473767 0 0 0 0 -732.8618268293576 1356.5571078646135 0 1356.5571078646135 -648.46499408736418 0 0 0 0 -1086.0806632730528 1458.7140537868036 0 1458.7140537868036 -307.38391546106141 0 0 0 0 -607.98647654689557 1218.4084677152277 0 1218.4084677152277 -359.89556071179686 0 0 0 0 -475.57990202841029 681.65202477174171 0 681.65202477174171 78.088959657110536 0 0 0 0 -799.02350402059528 1235.3778387539401 0 1235.3778387539401 -153.90494096110342 0 0 0 0 -311.35714511861443 442.81842295326351 0 442.81842295326351 -32.725869881282051 0 0 0 0 -212.47377747336213 503.37752143414764 0 503.37752143414764 -266.97410148629569 0 0 0 0 -196.49052491589828 -1.096596436946129 0 -1.096596436946129 64.31171772315065 0 0 0 0 -198.98354516785912 153.32821276072355 0 153.32821276072355 -360.23131891789671 0 0 0 0 371.93378984145966 357.01780640302968 0 357.01780640302968 -36.508975014003227 0 0 0 0 105.55486016666691 48.002162811935705 0 48.002162811935705 7.5615857234943178 0 0 0 0 -5.0566345534716675 37.115420370970241 0 37.115420370970241 453.10550781639176 0 0 0 0 75.951580629785894 142.69796639801643 0 142.69796639801643 325.5785296496033 0 0 0 0 -2.6820341216191821 1.0189579479970376 0 1.0189579479970376 30.102302677809888 0 0 0 0 330.63353877933696 388.111251463808 0 388.111251463808 206.78482859081851 0 0 0 0 161.04373406311788 305.16762964315421 0 305.16762964315421 422.33848203433081 0 0 0 0 142.11792931405671 133.98146827403843 0 133.98146827403843 186.92627996184456 0 0 0 0 341.00383947746013 352.36123837813648 0 352.36123837813648 56.550705894449493 0 0 0 0 585.8919630961318 168.0185398827598 0 168.0185398827598 28.105200295321993 0 0 0 0 557.95110744118574 306.08854546844668 0 306.08854546844668 16.710692493677925 0 0 0 0 401.29576466093204 187.2176173851949 0 187.2176173851949 107.42190651429701 0 0 0 0 181.52008575963555 15.918144225164724 0 15.918144225164724 -642.68474805747974 0 0 0 0 -40.036139216434094 -275.42166684277981 0 -275.42166684277981 635.3135152580362 0 0 0 0 -145.45380216409103 -72.480311941093532 0 -72.480311941093532 377.10115132388455 0 0 0 0 0.67210782468588093 -0.6500217157050372 0 -0.6500217157050372 10.787261234717789 0 0 0 0 -131.82750113208022 -10.586245114718622 0 -10.586245114718622 343.72728017208283 0 0 0 0 -186.39914242327723 102.0837283914334 0 102.0837283914334 45.228446117558633 0 0 0 0 86.472922084201855 -88.912903769562035 0 -88.912903769562035 4.9413538603694178 0 0 0 0 -0.94438347778520892 4.0868977309900743 0 4.0868977309900743 1.1896324512194383 0 0 0 0 -52.576956675706242 135.87113523489825 0 135.87113523489825 5.0327374884218443 0 0 0 0 -1225.2491976395395 -289.24937712909013 0 -289.24937712909013 1057.4326692743816 0 0 0 0 -0.41264183103979235 3.2401917104336064 0 3.2401917104336064 0.7604830285459343 0 0 0 0 950.0501880510601 370.00291347565144 0 370.00291347565144 -1121.1306546429696 0 0 0 0 -90.555604417684663 -36.06958540825508 0 -36.06958540825508 132.3406945685565 0 0 0 0 -64.424888793346327 7.8819751136766172 0 7.8819751136766172 205.33482030910091 0 0 0 0 922.20127871941077 541.70637210446148 0 541.70637210446148 57.444072267477168 0 0 0 0 308.31082472717389 566.04531231160217 0 566.04531231160217 499.30706026707776 0 0 0 0 239.61950926698046 320.25839978254953 0 320.25839978254953 306.34506625226641 0 0 0 0 155.71309402807674 163.58504626978538 0 163.58504626978538 156.77701106296445 0 0 0 0 137.53044174693787 171.11481271318189 0 171.11481271318189 183.85655212659913 0 0 0 0 -125.32805651149829 16.01765172501473 0 16.01765172501473 227.37513200864487 0 0 0 0 -62.734203129351954 149.50759365319391 0 149.50759365319391 400.70347491432403 0 0 0 0 -138.37300307129044 167.972675521567 0 167.972675521567 -67.632633136210643 0 0 0 0 80.17047753326915 55.833045126684738 0 55.833045126684738 -17.196862376134959 0 0 0 0 -162.14190628386859 -154.76368553400971 0 -154.76368553400971 8.5304171934367332 0 0 0 0 -295.4060323008307 -47.6292465065344 0 -47.6292465065344 80.652749686927564 0 0 0 0 -42.999557342991466 -43.822443676115654 0 -43.822443676115654 69.640121807919058 0 0 0 0 2.3380008571330109 85.039594655088877 0 85.039594655088877 132.32696775095246 0 0 0 0 260.49989691830706 177.00735531297687 0 177.00735531297687 74.3777982974716 0 0 0 0 -0.79544335450918879 100.55648271196696 0 100.55648271196696 207.38254288355529 0 0 0 0 22.967060229215349 34.172275636690756 0 34.172275636690756 29.908761887840228 0 0 0 0 -140.25343877197884 -78.64284659014811 0 -78.64284659014811 119.54646384365333 0 0 0 0 -151.4857547308784 -111.1642291667813 0 -111.1642291667813 61.875159058130521 0 0 0 0 -11.943001685740455 10.143330862655603 0 10.143330862655603 -100.15841433867172 0 0 0 0 -115.53126676217653 -104.52743391368676 0 -104.52743391368676 29.453433558010147 0 0 0 0 -148.56250169367559 -24.265360029225121 0 -24.265360029225121 -103.7213381141446 0 0 0 0 -51.316765306744827 62.846194071916997 0 62.846194071916997 -9.9865920638417904 0 0 0 0 -28.753025300010023 78.721422270754175 0 78.721422270754175 7.1805109055275835 0 0 0 0 -33.409921110112919 58.308521131903035 0 58.308521131903035 -150.70124188827185 0 0 0 0 63.004676935670432 96.260750467225762 0 96.260750467225762 -137.80672809051441 0 0 0 0 -19.09046381787266 87.322952338428649 0 87.322952338428649 107.29352295664648 0 0 0 0 -11.444327034229758 72.88341034285699 0 72.88341034285699 22.389191228997596 0 0 0 0 -21.265962965711878 76.576321816150539 0 76.576321816150539 54.291700572823174 0 0 0 0 1005.156059201021 636.61640410382097 0 636.61640410382097 114.06848929949774 0 0 0 0 21.361062636962743 54.716070119435244 0 54.716070119435244 63.631541650609506 0 0 0 0 34.345455043876427 128.51559295674815 0 128.51559295674815 77.881288486661106 0 0 0 0 -24.28308046038029 48.843118285607076 0 48.843118285607076 -46.057072060835559 0 0 0 0 34.719143423528294 -36.794091964158042 0 -36.794091964158042 -171.1064466883106 0 0 0 0 68.770429623698874 116.83044418601003 0 116.83044418601003 -48.594489356721169 0 0 0 0 0.99253683189454023 8.8198393007860432 0 8.8198393007860432 -13.078123198694811 0 0 0 0 -10.788618841208518 -264.07554026055732 0 -264.07554026055732 1120.6783700923843 0 0 0 0 -80.426518871250408 29.391721486035294 0 29.391721486035294 2.2393276418037686 0 0 0 0 -1660.9518911972627 -365.69187905902072 0 -365.69187905902072 1181.397463555164 0 0 0 0 -184.12701895112696 870.86602106909413 0 870.86602106909413 -3324.9247453004136 0 0 0 0 -322.20517093334638 916.91866181332443 0 916.91866181332443 -583.80698076655608 0 0 0 0 1161.5954914127797 628.86330248322338 0 628.86330248322338 -780.36131023549387 0 0 0 0 -514.18327995939762 2126.3909951850001 0 2126.3909951850001 -2057.5688109234143 0 0 0 0 -1998.8111443320304 -1340.7768687750722 0 -1340.7768687750722 -337.70443125388556 0 0 0 0 696.40659641246748 1348.8776896843701 0 1348.8776896843701 -2750.8636427903548 0 0 0 0 709.08967821168881 416.1556370018593 0 416.1556370018593 -2210.6885634573118 0 0 0 0 -1905.359327452461 1188.2616415921148 0 1188.2616415921148 287.57941873693198 0 0 0 0 -14.26455106063537 19.256397446249764 0 19.256397446249764 -25.552196172979706 0 0 0 0 -981.3218980906604 1447.5010435143486 0 1447.5010435143486 -286.51256441250734 0 0 0 0 -1975.426931721368 2501.2176157718177 0 2501.2176157718177 -1308.0678995882627 0 0 0 0 -928.33489642634413 1284.4195979842489 0 1284.4195979842489 -589.24381786471349 0 0 0 0 74.981490138612571 450.03782008352573 0 450.03782008352573 -586.68099728681955 0 0 0 0 -505.25693565002439 1151.1659210467842 0 1151.1659210467842 -1066.6555234985135 0 0 0 0 657.79853371321951 332.19517357267614 0 332.19517357267614 -783.24936868183431 0 0 0 0 -116.69655968474581 7.737545379733092 0 7.737545379733092 38.265253198289429 0 0 0 0 -318.7354881586798 -80.749248648680805 0 -80.749248648680805 2.7700965983458445 0 0 0 0 -217.6614438950055 100.74133039615117 0 100.74133039615117 -435.82447181842508 0 0 0 0 -30.776598460739478 -82.087225671537453 0 -82.087225671537453 -129.69733174624707 0 0 0 0 -419.46953539818787 112.16594627461018 0 112.16594627461018 -71.13264256597904 0 0 0 0 -259.11416300445853 -226.98407696602226 0 -226.98407696602226 619.20552652126571 0 0 0 0 -0.43597441793164649 4.4016308959668606 0 4.4016308959668606 -0.68552196489587658 0 0 0 0 -348.04648760044074 17.802907987927028 0 17.802907987927028 478.52829727243807 0 0 0 0 417.56811388686765 411.19503793929471 0 411.19503793929471 -594.59060822699394 0 0 0 0 1470.9239949055191 -497.58326047346054 0 -497.58326047346054 -92.087042997009121 0 0 0 0 -65.809238661604468 -278.0719751689212 0 -278.0719751689212 288.66327493506833 0 0 0 0 226.47941246970731 -168.79916861245874 0 -168.79916861245874 311.6308909725376 0 0 0 0 230.33037637740927 -94.315776042928519 0 -94.315776042928519 1751.7796519554395 0 0 0 0 -7.2011239488075773 -9.7205286938285838 0 -9.7205286938285838 9.4775517732621779 0 0 0 0 -63.237566985744706 124.77924783276922 0 124.77924783276922 292.54579851255403 0 0 0 0 -82.838441666441213 15.152664300703918 0 15.152664300703918 265.37012892263738 0 0 0 0 -53.226605995965656 180.06836921845388 0 180.06836921845388 -104.81083991703417 0 0 0 0 -60.640692939000985 31.332719508008886 0 31.332719508008886 22.80684563389174 0 0 0 0 -65.394298128064378 118.83321423869545 0 118.83321423869545 16.893271989084734 0 0 0 0 -128.97515992344415 72.772892807493918 0 72.772892807493918 -244.78989851351508 0 0 0 0 -121.44572368497029 120.45612357646041 0 120.45612357646041 -74.310569478553589 0 0 0 0 -532.16017762084084 427.43960752231624 0 427.43960752231624 1370.9080521138949 0 0 0 0 814.45402950004791 -230.68680043757104 0 -230.68680043757104 -605.63138256795719 0 0 0 0 -2.4428734077036438 8.4577332477642813 0 8.4577332477642813 -6.447525394491695 0 0 0 0 -568.93677172432945 573.85359296860338 0 573.85359296860338 854.6338362520205 0 0 0 0 -172.37515402059944 753.11043262039948 0 753.11043262039948 236.92584406404058 0 0 0 0 -68.85207047293585 109.90808650756142 0 109.90808650756142 33.838468716706657 0 0 0 0 -1973.4065168329398 625.95624849033084 0 625.95624849033084 238.98673119227533 0 0 0 0 -40.196733825330739 82.840193353025825 0 82.840193353025825 228.41753940819763 0 0 0 0 -94.9919451741589 61.500431536027463 0 61.500431536027463 354.31550322591647 0 0 0 0 -74.48351569577062 19.593421807170671 0 19.593421807170671 284.12662152061239 0 0 0 0 -72.311606534916791 0.46280413386557484 0 0.46280413386557484 434.73690222213918 0 0 0 0 376.17822988549597 111.35484466537912 0 111.35484466537912 584.45270665492853 0 0 0 0 -522.22181973770785 44.824952548457532 0 44.824952548457532 593.42547470956958 0 0 0 0 -71.663184312259546 -99.326000068413009 0 -99.326000068413009 475.50283600173418 0 0 0 0 -590.31473540763545 -272.63121214861928 0 -272.63121214861928 449.71334677716595 0 0 0 0 -1152.4861486156806 235.28700950843785 0 235.28700950843785 746.54373202452985 0 0 0 0 -570.02410457272345 -262.93165368702523 0 -262.93165368702523 346.76974685679284 0 0 0 0 -510.74201732912979 329.66442880445737 0 329.66442880445737 1048.9113725411362 0 0 0 0 -515.69443167110148 116.93755399009319 0 116.93755399009319 748.55384736194787 0 0 0 0 -598.58152179821627 293.75403010017328 0 293.75403010017328 1100.62157667662 0 0 0 0 13.906554863227939 140.06952271068894 0 140.06952271068894 1103.7194600747989 0 0 0 0 537.51987153812661 592.3441067216379 0 592.3441067216379 765.03924781493879 0 0 0 0 181.39056128320954 613.6229454456668 0 613.6229454456668 446.88495331341426 0 0 0 0 -119.76711573744251 391.83426925669187 0 391.83426925669187 965.17108566655315 0 0 0 0 -8.46536587576702 345.31692921891567 0 345.31692921891567 422.21069111321549 0 0 0 0 -422.21880419256922 170.62100155483927 0 170.62100155483927 241.08816609701785 0 0 0 0 -565.32922072672227 451.42539245763737 0 451.42539245763737 456.55025913519296 0 0 0 0 106.27563386077964 129.1114124830612 0 129.1114124830612 290.14030805436175 0 0 0 0 157.88474059588771 200.1642476472291 0 200.1642476472291 -353.43692865920411 0 0 0 0 -83.233741373027442 -0.32348412597184506 0 -0.32348412597184506 -89.413515986868333 0 0 0 0 -12.725017702743116 9.2085817216313899 0 9.2085817216313899 -10.085078232069897 0 0 0 0 -112.52643282576173 173.29258253307808 0 173.29258253307808 -946.15585620458569 0 0 0 0 -1837.0315900174328 -524.13953202301616 0 -524.13953202301616 -19.384767798253506 0 0 0 0 -1774.2815003978758 771.24468255523993 0 771.24468255523993 193.10159240732617 0 0 0 0 -113.99605973300277 -86.799444273123413 0 -86.799444273123413 -33.399172064159302 0 0 0 0 -307.55323508933361 -619.47111319142448 0 -619.47111319142448 -1046.9727912739381 0 0 0 0 -1697.7468685700733 805.19558940733077 0 805.19558940733077 -49.07775725621741 0 0 0 0 -1725.3025510860532 -618.50132235311685 0 -618.50132235311685 240.30099038721983 0 0 0 0 -71.362805823519011 51.750113227641577 0 51.750113227641577 -35.323889029792554 0 0 0 0 -95.561219442926813 87.379721746106952 0 87.379721746106952 111.94112534760461 0 0 0 0 2.5475983644502662 21.959617318234166 0 21.959617318234166 -17.06393458829152 0 0 0 0 -73.440631947858492 10.284034982955745 0 10.284034982955745 154.40983846159361 0 0 0 0 -6.1460477088181449 39.853450817957793 0 39.853450817957793 -26.903115106554971 0 0 0 0 -120.51486442337045 101.15522330204112 0 101.15522330204112 127.98598242267508 0 0 0 0 -31.766502397131262 -55.629110686055014 0 -55.629110686055014 -48.472948783297852 0 0 0 0 -93.561796081074135 84.566391790216557 0 84.566391790216557 -22.5240886010547 0 0 0 0 133.97607123803755 22.394471076246191 0 22.394471076246191 -8.3830787458755367 0 0 0 0 -28.186678671358095 145.50667197541924 0 145.50667197541924 105.1036569952405 0 0 0 0 128.13660634786356 740.03471699075556 0 740.03471699075556 1213.3485394374572 0 0 0 0 353.28090466900903 657.48968389598178 0 657.48968389598178 878.98892840765416 0 0 0 0 -5.0891703456532014 22.575514963374602 0 22.575514963374602 -18.42057487866537 0 0 0 0 282.02398159004588 752.98943932389329 0 752.98943932389329 925.63511396828801 0 0 0 0 -60.698522209488146 -34.584906980326423 0 -34.584906980326423 66.103851709402079 0 0 0 0 -7.9866841458422186 18.668867912670486 0 18.668867912670486 -13.410126792561945 0 0 0 0 -28.136760412235162 155.66122641186439 0 155.66122641186439 -63.598468376988535 0 0 0 0 140.48774693114683 899.27285052667821 0 899.27285052667821 1481.4454930838137 0 0 0 0 153.68379015181563 355.02048634457083 0 355.02048634457083 1187.7837514410651 0 0 0 0 426.68583319475874 417.71455780859333 0 417.71455780859333 541.68027858026028 0 0 0 0 72.826616407866823 284.70880798170822 0 284.70880798170822 751.48183191341025 0 0 0 0 223.92295603813545 264.87291578501504 0 264.87291578501504 31.886257026815656 0 0 0 0 33.114292629266856 -11.592815185255859 0 -11.592815185255859 -0.12130763525294697 0 0 0 0 -23.354200038622366 310.93769881590651 0 310.93769881590651 -0.055040684291725483 0 0 0 0 154.83416431489604 275.54722978778136 0 275.54722978778136 6.4089394843485934 0 0 0 0 21.182823149561926 17.551869244998272 0 17.551869244998272 14.221060786896995 0 0 0 0 -37.738826094806427 162.60777672209542 0 162.60777672209542 652.87390333929216 0 0 0 0 -120.40051356756885 456.65700721523262 0 456.65700721523262 1069.9329402444032 0 0 0 0 108.20762439282407 799.32358970813175 0 799.32358970813175 1549.1966347639363 0 0 0 0 5.2632936197267099 8.982060774092659 0 8.982060774092659 8.2375856016801308 0 0 0 0 960.44677140793647 625.45025124497056 0 625.45025124497056 -223.69005121192077 0 0 0 0 307.19742878591933 50.230458012157669 0 50.230458012157669 -211.36234503692324 0 0 0 0 389.01783205237734 1044.89687960417 0 1044.89687960417 1676.5913255218184 0 0 0 0 451.48365424587973 467.51196972921491 0 467.51196972921491 432.90367696879616 0 0 0 0 473.28137285875346 422.68913594705606 0 422.68913594705606 499.64167784638801 0 0 0 0 93.921094446341158 -21.160854132842246 0 -21.160854132842246 1647.0609928036961 0 0 0 0 1526.4268368421763 798.35148027799414 0 798.35148027799414 372.78842921342203 0 0 0 0 72.130197140417295 99.88748780075548 0 99.88748780075548 -16.379036692764203 0 0 0 0 223.48391226852254 221.16543442237526 0 221.16543442237526 -12.566050996906597 0 0 0 0 219.81607173907832 222.40831640125407 0 222.40831640125407 -1.6046629402007966 0 0 0 0 284.50584700594482 157.6822036418364 0 157.6822036418364 -47.850210374578637 0 0 0 0 239.01225051758229 211.96717744493162 0 211.96717744493162 0.24151164049817453 0 0 0 0 708.4081162744551 374.03266200468761 0 374.03266200468761 -91.764667709649075 0 0 0 0 -76.467644658434438 67.26146856364403 0 67.26146856364403 -7.8430508680903586 0 0 0 0 -35.803678785745433 116.63392874917395 0 116.63392874917395 -25.837353608905687 0 0 0 0 -19.12835860184714 158.79446282229719 0 158.79446282229719 15.518141447833841 0 0 0 0 -92.147086185621447 105.14812921907696 0 105.14812921907696 -6.7365299203847826 0 0 0 0 -77.426865502813598 120.67883033372618 0 120.67883033372618 9.3959468499199943 0 0 0 0 -66.593737138508004 94.018987657055277 0 94.018987657055277 -39.57313343761507 0 0 0 0 -113.56770908503768 253.16856711995842 0 253.16856711995842 -172.53506061741336 0 0 0 0 19.903116067218036 35.370874328458569 0 35.370874328458569 6.8139708472968135 0 0 0 0 30.793298933902406 106.13855054167198 0 106.13855054167198 -186.75964527808264 0 0 0 0 -54.999122986968473 55.157336429728176 0 55.157336429728176 -31.717437841310357 0 0 0 0 -120.57147129796067 430.88158095549989 0 430.88158095549989 141.29907880705559 0 0 0 0 -85.596512279856142 150.97310970660067 0 150.97310970660067 -36.345862850308549 0 0 0 0 197.45196039251095 77.409275791968867 0 77.409275791968867 -641.92034897708709 0 0 0 0 2.1333758787092734 4.4023434843717126 0 4.4023434843717126 -0.45636779742948708 0 0 0 0 -364.20992400588875 497.07152330636427 0 497.07152330636427 1144.9657228628753 0 0 0 0 446.5517820801324 -77.504898733052755 0 -77.504898733052755 -361.61230275267121 0 0 0 0 -34.042994789146178 339.93591020851864 0 339.93591020851864 155.68543383484121 0 0 0 0 -59.326342396608027 48.862894650329011 0 48.862894650329011 -41.42455210182284 0 0 0 0 -88.861637636349769 96.173794720467413 0 96.173794720467413 7.9250194345511318 0 0 0 0 -23.786371188012708 63.878815356274572 0 63.878815356274572 -40.99322840785635 0 0 0 0 -70.176251799843158 154.01553398705255 0 154.01553398705255 10.676632155937114 0 0 0 0 -2.3477448589837877 108.69809234775494 0 108.69809234775494 19.96252810251417 0 0 0 0 118.08366003508127 140.00602513928266 0 140.00602513928266 -269.03670147914124 0 0 0 0 -97.294963345353608 454.92873739393792 0 454.92873739393792 43.873936695585968 0 0 0 0 10.822367332256931 13.552906267064628 0 13.552906267064628 -10.346139584819216 0 0 0 0 -60.581294450131423 48.391624324963274 0 48.391624324963274 -32.562652869548963 0 0 0 0 -268.3697499508271 522.28156490629272 0 522.28156490629272 -1191.3257994845294 0 0 0 0 -45.735417270322785 44.208996115967764 0 44.208996115967764 -20.070494718379642 0 0 0 0 -2.8011504447761126 2.0176864046696181 0 2.0176864046696181 5.3982975458207703 0 0 0 0 10.062860121906851 212.20550195501619 0 212.20550195501619 127.79364721248203 0 0 0 0 81.827652737367316 196.47245338590801 0 196.47245338590801 56.170854479002855 0 0 0 0 -60.81323853120557 100.64520538699981 0 100.64520538699981 60.077988601624384 0 0 0 0 63.734794430340116 199.31562735685748 0 199.31562735685748 20.3179460168285 0 0 0 0 99.572549114876892 172.91440952412813 0 172.91440952412813 1.5045233542441565 0 0 0 0 210.70516868699633 279.5428521534941 0 279.5428521534941 44.930300989701209 0 0 0 0 -788.66916391729319 1343.8152699268189 0 1343.8152699268189 -549.3746484926362 0 0 0 0 -1120.8763801752721 364.43636485397951 0 364.43636485397951 402.17425016358209 0 0 0 0 -847.34605671846202 811.62840024650757 0 811.62840024650757 395.77586414465884 0 0 0 0 306.35117046488449 1185.4986070766229 0 1185.4986070766229 312.93705316389969 0 0 0 0 -607.523080521667 85.963159065640639 0 85.963159065640639 1691.4923049162085 0 0 0 0 -693.54409972870417 453.50069649004183 0 453.50069649004183 122.73509463553182 0 0 0 0 -600.69327292570961 -103.29069673701449 0 -103.29069673701449 116.82749429654419 0 0 0 0 -436.50930138875265 206.84312545187407 0 206.84312545187407 -55.798093605834424 0 0 0 0 -31.241356872019367 33.723825801799833 0 33.723825801799833 -17.084393796257181 0 0 0 0 26.960744692951266 -36.432018379958208 0 -36.432018379958208 -169.78007348355914 0 0 0 0 5.4851938610543129 26.814985042454296 0 26.814985042454296 8.825915619274511 0 0 0 0 -205.24830889014993 121.05123017184724 0 121.05123017184724 691.07320400958793 0 0 0 0 -130.75832403083768 452.29029056647505 0 452.29029056647505 149.36031825937425 0 0 0 0 -82.880430893506855 278.42196078951611 0 278.42196078951611 -19.921158715095316 0 0 0 0 16.060303169346298 882.73622309464895 0 882.73622309464895 -23.779789870792683 0 0 0 0 3.8744207629410994 4.9209900001693825 0 4.9209900001693825 7.386216879774425 0 0 0 0 -501.99582211458983 -389.17522877562385 0 -389.17522877562385 1866.3031358906651 0 0 0 0 -595.69800776607008 1018.845745883212 0 1018.845745883212 -90.63205855539627 0 0 0 0 -1260.6799055130396 -590.3692635859652 0 -590.3692635859652 202.33347044243249 0 0 0 0 -30.679983591118571 458.93703162761051 0 458.93703162761051 -498.30103648295972 0 0 0 0 -17.64087085617939 -45.312180799246335 0 -45.312180799246335 -195.09491159270237 0 0 0 0 -6.1807716091781799 3.812228950645931 0 3.812228950645931 -3.3999312271265332 0 0 0 0 -21.581482641369803 107.4763590560774 0 107.4763590560774 -240.7202684086401 0 0 0 0 -98.99140789232024 45.560302540933151 0 45.560302540933151 132.39677893988392 0 0 0 0 -90.720248201560025 -37.321867327809684 0 -37.321867327809684 86.864474175488795 0 0 0 0 -1.5209690616425178 8.2270515378829856 0 8.2270515378829856 96.122987821486277 0 0 0 0 7.4187461759088649 20.575018765293493 0 20.575018765293493 19.930839197255054 0 0 0 0 -5.0401735726045445 86.443490857023335 0 86.443490857023335 131.90395249635742 0 0 0 0 -384.49415417861746 131.08551559998867 0 131.08551559998867 11.164909003861624 0 0 0 0 -237.20904551834974 451.43595289555913 0 451.43595289555913 444.11866170583949 0 0 0 0 -11.09553240201862 17.500098612020821 0 17.500098612020821 -4.4302673976011251 0 0 0 0 1.3969928571133323 12.181732057659133 0 12.181732057659133 9.7144620809489446 0 0 0 0 717.67244380875491 181.68952112101465 0 181.68952112101465 9.6220884666121975 0 0 0 0 48.772526300293976 -201.49890024043452 0 -201.49890024043452 924.81604481112754 0 0 0 0 -8.7963011406283727 17.014857971105897 0 17.014857971105897 -1.0974540664349046 0 0 0 0 50.290733588219155 645.59420604760226 0 645.59420604760226 1373.4270737430929 0 0 0 0 -48.490519058308564 528.58522389193604 0 528.58522389193604 1234.867371041857 0 0 0 0 828.56522441803827 -384.13150971558207 0 -384.13150971558207 664.36556509890124 0 0 0 0 276.73073533992283 -142.92020879776283 0 -142.92020879776283 2059.1366834785267 0 0 0 0 1.490483992791269 1154.1823032905679 0 1154.1823032905679 1287.2048050688209 0 0 0 0 -1358.2073429776356 -628.15679930589454 0 -628.15679930589454 270.4669875523241 0 0 0 0 18.393048063997412 823.90809288258788 0 823.90809288258788 1657.3621211051759 0 0 0 0 -4.2268316296225521 3.2994831137997664 0 3.2994831137997664 -1.5248250604311231 0 0 0 0 -466.56231227477838 19.75954224818588 0 19.75954224818588 47.465419243749693 0 0 0 0 -161.29396293392347 270.45830213277168 0 270.45830213277168 125.51151145622703 0 0 0 0 -23.707017889646522 85.598289853565461 0 85.598289853565461 122.797228701309 0 0 0 0 415.93827228507143 385.34532428279726 0 385.34532428279726 265.66975943212742 0 0 0 0 175.5399817499565 339.35853865853755 0 339.35853865853755 72.212565121719763 0 0 0 0 -107.14030405337689 92.152676337893126 0 92.152676337893126 -89.670835609730034 0 0 0 0 -252.65474241507764 219.95613848597463 0 219.95613848597463 77.416683119336568 0 0 0 0 2.0082494928010419 -41.10701369770544 0 -41.10701369770544 11.893141705947528 0 0 0 0 10.198248725767542 11.478608384140898 0 11.478608384140898 13.453117564506101 0 0 0 0 177.14870667618379 29.567353541345312 0 29.567353541345312 -135.26213774107464 0 0 0 0 -79.83615454818937 295.38852829042162 0 295.38852829042162 -62.99253219060644 0 0 0 0 432.95263506523042 229.96626370418073 0 229.96626370418073 -114.02097711323958 0 0 0 0 -86.638396241003647 1.9510674222535727 0 1.9510674222535727 -23.553685878236791 0 0 0 0 326.32521923452441 159.58834679100801 0 159.58834679100801 -4.3589260755034047 0 0 0 0 301.66286017609673 157.87228095889009 0 157.87228095889009 112.10680072066407 0 0 0 0 329.5806985709205 90.134050097893351 0 90.134050097893351 -140.51552245080336 0 0 0 0 158.48628277370881 333.86286826594005 0 333.86286826594005 341.03665072270792 0 0 0 0 -2.5408002358211945 1.8507708988193201 0 1.8507708988193201 4.1101755175330137 0 0 0 0 -42.44892477546091 -95.969665081244784 0 -95.969665081244784 54.213427957973636 0 0 0 0 -3.4399537619232774 3.1616037693103181 0 3.1616037693103181 6.7143487671096747 0 0 0 0 2.9751810876751108 1.76599688971001 0 1.76599688971001 -1.6071502575661825 0 0 0 0 0.60352376196533442 30.441736174462676 0 30.441736174462676 393.36618945330332 0 0 0 0 -0.0024990960664581507 5.1626846763947469 0 5.1626846763947469 2.9085494634728093 0 0 0 0 0.0030036076059332117 5.1659906502518425 0 5.1659906502518425 2.9065085788215583 0 0 0 0 0.3896073456708109 0.16701100312138806 0 0.16701100312138806 845.7699895626647 0 0 0 0 -2.610787529870862 3.0079112887243298 0 3.0079112887243298 2.6951728840150864 0 0 0 0 297.60849365691683 228.19176696124237 0 228.19176696124237 96.712704203174781 0 0 0 0 3.4350155983744912 2.7548212333349227 0 2.7548212333349227 0.58472491867908616 0 0 0 0 78.671111707211821 359.97595611882389 0 359.97595611882389 849.43605485087642 0 0 0 0 470.77083597685851 148.05255059085084 0 148.05255059085084 108.86387532674541 0 0 0 0 351.5973912652662 -54.73282062359965 0 -54.73282062359965 795.35842141720423 0 0 0 0 222.31065278027381 217.23133293096339 0 217.23133293096339 854.04556213990236 0 0 0 0 288.53988130486687 61.105392925197521 0 61.105392925197521 925.32369132982922 0 0 0 0 195.55585952349065 112.34656972415723 0 112.34656972415723 1427.2356414633086 0 0 0 0 338.91849685384659 72.757894514380496 0 72.757894514380496 831.37488642532799 0 0 0 0 261.90965148573741 605.4393476203395 0 605.4393476203395 1851.1646024155184 0 0 0 0 266.61049172414641 575.58949140704499 0 575.58949140704499 1460.8335112325367 0 0 0 0 525.12977222903282 449.17938458479875 0 449.17938458479875 1289.3413792385254 0 0 0 0 218.48158525108011 179.72579436247452 0 179.72579436247452 1191.6369688980376 0 0 0 0 316.73050575407979 381.54719748769367 0 381.54719748769367 1401.2331279726968 0 0 0 0 337.24881125919637 352.24767255165716 0 352.24767255165716 788.9330992465766 0 0 0 0 757.89376434971928 690.22938441389488 0 690.22938441389488 762.31775663345798 0 0 0 0 274.65399553714087 408.57477565374938 0 408.57477565374938 833.51378550908248 0 0 0 0 581.49253759640851 328.14842823465005 0 328.14842823465005 51.343364127314999 0 0 0 0 317.79061669332441 70.371963861636686 0 70.371963861636686 -304.20585770070466 0 0 0 0 -2.237640812020345 3.9791230605580665 0 3.9791230605580665 6.8035343682525919 0 0 0 0 -312.58066887355744 112.17337248731317 0 112.17337248731317 80.993557554746531 0 0 0 0 0.059071725876179072 281.52239686712619 0 281.52239686712619 780.0781981509881 0 0 0 0 234.25646758462972 243.47316908580876 0 243.47316908580876 803.70980167572998 0 0 0 0 278.88439966314763 378.06214269896782 0 378.06214269896782 379.80499384295763 0 0 0 0 112.79601074225502 369.70951025185241 0 369.70951025185241 818.60137379638854 0 0 0 0 -0.025165414685034193 281.13578099624374 0 281.13578099624374 780.08345802545989 0 0 0 0 114.92401003045961 321.46098010863807 0 321.46098010863807 462.19485735985654 0 0 0 0 86.000083289822214 296.82606117031355 0 296.82606117031355 475.7503110797843 0 0 0 0 165.87546403766464 232.52115381342992 0 232.52115381342992 230.23522571224748 0 0 0 0 138.64891872263979 242.28389988111849 0 242.28389988111849 383.7097751804219 0 0 0 0 27.733878174583424 130.20065314264764 0 130.20065314264764 290.63241473633752 0 0 0 0 0.13598446217895344 -0.31219389320867208 0 -0.31219389320867208 -2.3470927492843057 0 0 0 0 80.255561964666413 171.76482726406357 0 171.76482726406357 312.93458974561872 0 0 0 0 0.064512891956837848 176.1666182703193 0 176.1666182703193 347.40200200296567 0 0 0 0 -90.996736844215775 -78.96738365626527 0 -78.96738365626527 32.639974632810663 0 0 0 0 -13.182019084080821 -128.5382144269297 0 -128.5382144269297 29.239893246667634 0 0 0 0 11.171107047303366 -22.302373665242101 0 -22.302373665242101 42.033498041347741 0 0 0 0 -340.99746067167325 -163.17312820918193 0 -163.17312820918193 105.31445969192731 0 0 0 0 -193.32740077701601 25.299271772384031 0 25.299271772384031 220.91737469856764 0 0 0 0 5.864529646516047 -7.6789174727539944 0 -7.6789174727539944 6.6646959133439196 0 0 0 0 134.50806603890669 100.6339358902278 0 100.6339358902278 214.11807416489592 0 0 0 0 252.379082455358 202.47980748353712 0 202.47980748353712 105.16050273102155 0 0 0 0 -7.0356938427867135 20.563767496946639 0 20.563767496946639 15.389676964378623 0 0 0 0 -9.3478255906561287 3.3516675138027097 0 3.3516675138027097 25.518080153838675 0 0 0 0 -105.95985740898323 32.680127122581894 0 32.680127122581894 198.0478028130151 0 0 0 0 34.37134475166431 -19.767811785354013 0 -19.767811785354013 124.00841289672826 0 0 0 0 -3.7134024618245292 -10.688352199620084 0 -10.688352199620084 76.611148756973023 0 0 0 0 -116.63152134482516 -34.310467427023582 0 -34.310467427023582 288.78568841971264 0 0 0 0 -9.8792105283937417 42.790493553695114 0 42.790493553695114 179.25029046226689 0 0 0 0 -57.564223083616525 96.114186566962303 0 96.114186566962303 301.52091004686235 0 0 0 0 -45.319108530384256 35.226950992825891 0 35.226950992825891 184.55708725803311 0 0 0 0 -34.855561962584034 4.5237642575867767 0 4.5237642575867767 78.810704236853553 0 0 0 0 56.334110863812384 27.536938951425554 0 27.536938951425554 161.45244419914047 0 0 0 0 188.72292598008062 -45.318227298249667 0 -45.318227298249667 158.15100986054529 0 0 0 0 63.472390464361524 -3.4872719881106917 0 -3.4872719881106917 275.16102862362527 0 0 0 0 13.691248988710868 27.577150856816075 0 27.577150856816075 256.91198856557935 0 0 0 0 82.027219346753554 -139.48919171118223 0 -139.48919171118223 230.4491428792405 0 0 0 0 38.638839162340446 -35.398782122736407 0 -35.398782122736407 415.15994042209832 0 0 0 0 82.308821242171689 -175.73409421171905 0 -175.73409421171905 243.14989806930035 0 0 0 0 -140.80896229474456 -202.6416011164016 0 -202.6416011164016 484.64206891108989 0 0 0 0 6.7364037230581744 -434.54202283837742 0 -434.54202283837742 -93.018033278538724 0 0 0 0 90.498268145049224 -208.6126661482582 0 -208.6126661482582 214.4887967389335 0 0 0 0 218.4359051699721 -130.2924460331875 0 -130.2924460331875 174.22824124237138 0 0 0 0 241.50817224665661 2.8402669010370118 0 2.8402669010370118 281.56588390847901 0 0 0 0 155.65675768470101 -208.63495741182521 0 -208.63495741182521 77.131436862411874 0 0 0 0 228.43401917213123 115.98416758751515 0 115.98416758751515 575.58435496271431 0 0 0 0 350.96687943505822 47.806236898186853 0 47.806236898186853 69.205842898360999 0 0 0 0 891.17418441055634 269.43070971340899 0 269.43070971340899 -260.30984753366147 0 0 0 0 638.75980655780586 825.68920965488758 0 825.68920965488758 950.92666401914676 0 0 0 0 184.53363563884341 -325.93183178723734 0 -325.93183178723734 23.490221005415151 0 0 0 0 374.63170331552101 417.28473756756352 0 417.28473756756352 342.79367259938863 0 0 0 0 25.034327955567278 304.27778596208918 0 304.27778596208918 818.63491585280826 0 0 0 0 118.36788527978933 502.48635107053406 0 502.48635107053406 1232.9828716729871 0 0 0 0 -430.67856910492992 377.94209733830576 0 377.94209733830576 1591.9405135433856 0 0 0 0 -81.700796392748998 43.052809619354207 0 43.052809619354207 1023.9320247670621 0 0 0 0 -79.311135950090829 70.557903499579425 0 70.557903499579425 666.43150909700034 0 0 0 0 -865.75733890233096 -30.817946622440559 0 -30.817946622440559 1213.4303063197531 0 0 0 0 19.911220370660885 -590.25006668045194 0 -590.25006668045194 137.07764883308118 0 0 0 0 -810.89266975020291 -721.19016794464324 0 -721.19016794464324 2160.8533433538432 0 0 0 0 28.750729178922484 -750.6030840980427 0 -750.6030840980427 985.14949080917722 0 0 0 0 5.120591788234492 -8.8125471362116343 0 -8.8125471362116343 15.984040696867503 0 0 0 0 93.448542116981116 -197.49934003663031 0 -197.49934003663031 242.61609695859761 0 0 0 0 49.356075059942668 -37.087104559627505 0 -37.087104559627505 -258.22923073306663 0 0 0 0 148.58813558674592 -10.458318964501359 0 -10.458318964501359 44.002934850046131 0 0 0 0 173.9845616666571 -61.378645121649015 0 -61.378645121649015 208.60895746072538 0 0 0 0 150.05234596936498 -68.100946295135145 0 -68.100946295135145 206.88065539694412 0 0 0 0 14.448440549211227 -255.58416699916711 0 -255.58416699916711 200.28836995484062 0 0 0 0 26.28754601298715 -171.56582655394845 0 -171.56582655394845 744.4355660037354 0 0 0 0 157.09201858388406 315.81763011219277 0 315.81763011219277 -183.12234582077099 0 0 0 0 151.30477869938113 291.2896522785561 0 291.2896522785561 -120.52077833360784 0 0 0 0 169.2086055177715 400.52237996921781 0 400.52237996921781 -200.97707178773817 0 0 0 0 194.28597935308244 367.6802103785713 0 367.6802103785713 -157.96607605909958 0 0 0 0 122.13039299259981 392.03507376701032 0 392.03507376701032 -149.77495236474033 0 0 0 0 134.88965546107829 420.62966837380355 0 420.62966837380355 -87.273598575192295 0 0 0 0 74.619378223393142 393.0288228462158 0 393.0288228462158 24.59553806497388 0 0 0 0 97.559682319551939 431.07978729149863 0 431.07978729149863 -81.758338007243765 0 0 0 0 64.632299589204194 358.96791045585587 0 358.96791045585587 -78.316655942570833 0 0 0 0 70.166680370362883 306.35739951089994 0 306.35739951089994 -112.51961880242482 0 0 0 0 13.660627461147669 306.63189055996213 0 306.63189055996213 -62.646334087926789 0 0 0 0 106.5573121684647 366.37612428511352 0 366.37612428511352 -77.522113386737374 0 0 0 0 -11.5751097339853 228.62760088371533 0 228.62760088371533 -34.27617743632095 0 0 0 0 74.52544315439809 222.67220766721505 0 222.67220766721505 -105.53377698064878 0 0 0 0 -173.63226457434575 257.30760582546793 0 257.30760582546793 -102.43213456746116 0 0 0 0 38.980198515182565 190.94576497513731 0 190.94576497513731 -62.501124575607491 0 0 0 0 93.038090388743512 202.68851043155826 0 202.68851043155826 -153.84219612223387 0 0 0 0 171.16233452389497 216.40754743195748 0 216.40754743195748 -151.74092266593368 0 0 0 0 79.538811224785604 106.09030281323157 0 106.09030281323157 -155.81817334499283 0 0 0 0 -248.20899444566749 238.93475814732574 0 238.93475814732574 -107.50811827271991 0 0 0 0 -259.40287782538871 368.99437707031984 0 368.99437707031984 -229.23183256176787 0 0 0 0 152.81560556705153 284.75834061804744 0 284.75834061804744 35.368534146244201 0 0 0 0 164.19305651445939 36.175000936471932 0 36.175000936471932 -201.11945827207091 0 0 0 0 321.05115631807303 316.57240259771345 0 316.57240259771345 -101.61212356458418 0 0 0 0 313.0525895334722 414.72536490304719 0 414.72536490304719 199.23124110508252 0 0 0 0 409.84858905411238 243.59246779000296 0 243.59246779000296 284.99534573664278 0 0 0 0 449.84771119471407 301.33975149376874 0 301.33975149376874 -60.011025461977624 0 0 0 0 300.13369226054056 264.29984926493444 0 264.29984926493444 -30.90278337017503 0 0 0 0 312.64480164923589 285.50383836792798 0 285.50383836792798 -210.44793366362865 0 0 0 0 274.76436449122411 303.13113729631959 0 303.13113729631959 -184.82879789623416 0 0 0 0 393.49685797723214 353.46045865544056 0 353.46045865544056 -180.78424002464271 0 0 0 0 191.61595628245777 209.78728977023638 0 209.78728977023638 -180.9356971252746 0 0 0 0 188.24578533375461 365.37042192071885 0 365.37042192071885 -195.60206644427717 0 0 0 0 259.1044919008018 396.07469900234082 0 396.07469900234082 -199.04365853922445 0 0 0 0 247.73424696707298 320.22560426218297 0 320.22560426218297 -188.13841358516675 0 0 0 0 165.43464233403574 389.54710421305572 0 389.54710421305572 -123.19540113460607 0 0 0 0 152.07048391690296 359.36392259869422 0 359.36392259869422 -178.78252397808319 0 0 0 0 105.99362410561662 375.86770162472931 0 375.86770162472931 133.87397832315764 0 0 0 0 119.70060264287167 314.60190632870217 0 314.60190632870217 62.458219754822494 0 0 0 0 296.8500774584536 418.55172202719132 0 418.55172202719132 -119.49899762264795 0 0 0 0 3.458148712869864 67.58686594573085 0 67.58686594573085 -114.77422436131494 0 0 0 0 281.99377798406567 382.05902568222518 0 382.05902568222518 -27.51047661391749 0 0 0 0 593.59917081015737 400.83289848203458 0 400.83289848203458 -39.378046047767384 0 0 0 0 112.25580315936531 472.15998660334662 0 472.15998660334662 503.42874344150187 0 0 0 0 129.91763597463432 289.85941645723142 0 289.85941645723142 27.34217434882521 0 0 0 0 -70.03972952242475 144.89852732652798 0 144.89852732652798 -185.31988165808434 0 0 0 0 -95.326074776952737 337.06610379646872 0 337.06610379646872 -41.866499138516701 0 0 0 0 103.18315244461564 404.30654311629871 0 404.30654311629871 -37.739703740302502 0 0 0 0 -86.588998131081098 177.48086621324001 0 177.48086621324001 -242.67787701881025 0 0 0 0 -99.608095612580655 140.48396697426142 0 140.48396697426142 -343.93098424497657 0 0 0 0 -176.41575488672788 379.68827676385627 0 379.68827676385627 -257.69078826740952 0 0 0 0 -41.489935832651099 346.81163340918738 0 346.81163340918738 -221.97919792426978 0 0 0 0 0.4623828228074629 70.090819144135253 0 70.090819144135253 -101.84123881968908 0 0 0 0 -67.575321285650716 253.11416271678991 0 253.11416271678991 -201.87468166099552 0 0 0 0 -230.25788387473949 321.22005733257811 0 321.22005733257811 -182.39444698805391 0 0 0 0 -43.757005872954323 342.44046496759756 0 342.44046496759756 -154.58093337376704 0 0 0 0 132.35232677257591 408.59303795690084 0 408.59303795690084 -173.44788474889452 0 0 0 0 104.65245072037123 353.73884774452551 0 353.73884774452551 -234.14409277894538 0 0 0 0 103.18097802091506 400.12263450325827 0 400.12263450325827 -141.08825277145661 0 0 0 0 -114.408739707942 314.78526375537331 0 314.78526375537331 -155.99434124307299 0 0 0 0 -117.24332884978139 517.62568052428105 0 517.62568052428105 -654.8142805528405 0 0 0 0 -526.18627099604055 514.32944078005676 0 514.32944078005676 -54.450614482222591 0 0 0 0 -67.22915370037299 493.15410038599657 0 493.15410038599657 -287.93796232778186 0 0 0 0 -92.399019693606533 359.51733584496833 0 359.51733584496833 -235.19887481343721 0 0 0 0 -52.842790023291279 71.751128243991317 0 71.751128243991317 -35.081833950910578 0 0 0 0 -275.94184880760076 247.60351175021378 0 247.60351175021378 -221.12728359881521 0 0 0 0 -253.75607793683957 358.95623434712616 0 358.95623434712616 -499.48309573336155 0 0 0 0 17.596640619262299 87.614097904043973 0 87.614097904043973 -86.468751021980111 0 0 0 0 -163.1080443372266 529.86618952726712 0 529.86618952726712 -222.04657465423952 0 0 0 0 -254.85951904831472 272.73188616841526 0 272.73188616841526 -54.986890548432712 0 0 0 0 -31.628220895447274 90.820937679490498 0 90.820937679490498 83.108384465078828 0 0 0 0 13.2070413658912 238.06543163283641 0 238.06543163283641 258.72095562957111 0 0 0 0 -18.902232996800414 37.896959179115015 0 37.896959179115015 13.963956539457882 0 0 0 0 26.78328087850241 201.72835947679005 0 201.72835947679005 69.559161870577555 0 0 0 0 -23.486427121609211 64.191962758391398 0 64.191962758391398 37.998887025525704 0 0 0 0 -181.82850762388625 368.17060335169663 0 368.17060335169663 -187.28584201526246 0 0 0 0 -32.932532064929546 93.88583709220984 0 93.88583709220984 -0.11296167852196959 0 0 0 0 35.443067590540323 93.200679307742107 0 93.200679307742107 44.708552761793534 0 0 0 0 32.41413366895722 142.93492253952263 0 142.93492253952263 88.178801056932571 0 0 0 0 -30.114063558684265 44.064080691816265 0 44.064080691816265 -5.7562062043623978 0 0 0 0 61.455191183762508 213.10880915879807 0 213.10880915879807 123.75806489787055 0 0 0 0 -32.947937062510981 169.11274623271652 0 169.11274623271652 31.280789388473536 0 0 0 0 -30.944127172195863 67.088523264897006 0 67.088523264897006 35.704063269245765 0 0 0 0 21.040775304606925 68.623158288615372 0 68.623158288615372 -8.3683618234823545 0 0 0 0 30.577632946435187 70.761339044391207 0 70.761339044391207 19.994609728055366 0 0 0 0 -18.515714763483629 64.20410377948383 0 64.20410377948383 0.49153459273566114 0 0 0 0 -13.549252988859735 71.775195931258168 0 71.775195931258168 2.0519114498820272 0 0 0 0 13.336742094019058 26.897560446201432 0 26.897560446201432 -19.355510964208079 0 0 0 0 44.697563184108731 171.61481146870938 0 171.61481146870938 201.72099291146151 0 0 0 0 -295.47347985141096 285.3512774764904 0 285.3512774764904 -227.05390319245032 0 0 0 0 -364.74619121871365 292.15340660049094 0 292.15340660049094 -198.97165873208462 0 0 0 0 -40.168522535124794 84.046076202107542 0 84.046076202107542 -84.798360413089767 0 0 0 0 -45.290680565834023 40.847605059811549 0 40.847605059811549 -7.8793562389086675 0 0 0 0 -9.4350274905082188 70.978412664742791 0 70.978412664742791 1.1207254006303629 0 0 0 0 -57.193043601285694 37.506688929920941 0 37.506688929920941 45.89220537343499 0 0 0 0 -24.761429547310399 85.277255811134182 0 85.277255811134182 98.054187035342693 0 0 0 0 -2.4763665261270944 70.26569649011617 0 70.26569649011617 0.16529530606840126 0 0 0 0 -35.743544119699884 27.126631168714443 0 27.126631168714443 9.0338250157647728 0 0 0 0 141.9816223737871 397.24533420887963 0 397.24533420887963 -231.00180828405743 0 0 0 0 145.12418326317857 374.48084838365139 0 374.48084838365139 -209.60955720984452 0 0 0 0 163.6298326170654 443.86230610730848 0 443.86230610730848 -184.91129480502923 0 0 0 0 101.61887261887387 401.64758035945397 0 401.64758035945397 -211.01979865217572 0 0 0 0 14.129656340206566 312.20200423639733 0 312.20200423639733 -244.97305122672515 0 0 0 0 4.4963117515580961 323.25647826339014 0 323.25647826339014 -234.48887331454762 0 0 0 0 -262.20570648655485 226.24271560385625 0 226.24271560385625 -197.42720958764676 0 0 0 0 -300.20899637077764 265.83295932853849 0 265.83295932853849 -172.89998261093751 0 0 0 0 -182.65191695492831 222.63433564188381 0 222.63433564188381 -213.37991507588731 0 0 0 0 -308.78244422131684 231.30846903775523 0 231.30846903775523 -212.32007072677558 0 0 0 0 -193.95583078989876 233.28057204596655 0 233.28057204596655 -258.75104829142265 0 0 0 0 22.383534527871234 297.67999800183048 0 297.67999800183048 -262.29920502339326 0 0 0 0 -191.80150903611093 277.18466984438288 0 277.18466984438288 -227.07970944112549 0 0 0 0 23.252164929202991 298.97069499854047 0 298.97069499854047 -277.65027814389248 0 0 0 0 -48.986926916733864 112.89444862157757 0 112.89444862157757 366.80047734924119 0 0 0 0 156.24622096803068 375.39295092261887 0 375.39295092261887 -363.43837029830638 0 0 0 0 -3.0060026423247876 5.0149955765054059 0 5.0149955765054059 1.265384390845592 0 0 0 0 70.759498375558906 308.37822237752857 0 308.37822237752857 -364.58324553184423 0 0 0 0 -60.222240399969451 313.29611752690812 0 313.29611752690812 -217.47113965018974 0 0 0 0 -203.37757411677012 149.97166461752283 0 149.97166461752283 -367.39319084723832 0 0 0 0 -374.80700574353978 185.04370115505796 0 185.04370115505796 -231.92725413758126 0 0 0 0 -336.18722844493459 159.52727823434338 0 159.52727823434338 -295.99236999128243 0 0 0 0 -120.76405368452106 194.76496675071667 0 194.76496675071667 -348.06238136377374 0 0 0 0 203.63434465015598 491.42680722917748 0 491.42680722917748 -222.83103624263106 0 0 0 0 82.961935587314656 461.92844490986863 0 461.92844490986863 156.24656536076645 0 0 0 0 157.3219780923755 546.74389372084261 0 546.74389372084261 -47.790391660005525 0 0 0 0 134.53194288555824 397.31844991525656 0 397.31844991525656 -206.54369629341738 0 0 0 0 90.228602137365669 273.37524527669166 0 273.37524527669166 150.75496615877137 0 0 0 0 293.25780453432253 247.10205766794854 0 247.10205766794854 -57.656110286446165 0 0 0 0 81.828536633617659 243.12594908052915 0 243.12594908052915 -14.611442262254059 0 0 0 0 204.00252081518374 398.9842398674773 0 398.9842398674773 181.68318435367178 0 0 0 0 122.77323528259876 291.2079701763987 0 291.2079701763987 -11.183910370148737 0 0 0 0 180.0008797869159 229.31188428921678 0 229.31188428921678 -48.399375758375754 0 0 0 0 -131.3819919830089 144.49127841427122 0 144.49127841427122 14.925596735798081 0 0 0 0 -42.281312039565819 158.01891012001397 0 158.01891012001397 -57.45752213934702 0 0 0 0 -10.469664226076929 252.46937801639206 0 252.46937801639206 128.47955270716943 0 0 0 0 -60.624154521144192 214.21914046017264 0 214.21914046017264 4.8557619545363195 0 0 0 0 32.461831587028428 248.55436604212809 0 248.55436604212809 -51.311831636725401 0 0 0 0 -56.239343411383715 163.91871176821874 0 163.91871176821874 -152.9106636013239 0 0 0 0 -52.577962727339127 201.23638454673483 0 201.23638454673483 2.6299415746107115 0 0 0 0 134.55581261213956 215.21954732712584 0 215.21954732712584 -28.757193628895038 0 0 0 0 38.881625336209709 229.28260145548256 0 229.28260145548256 -23.973437798569648 0 0 0 0 37.408217967943528 214.2473917344978 0 214.2473917344978 13.564415977334647 0 0 0 0 20.58691803291822 185.51962674842525 0 185.51962674842525 57.801102406638165 0 0 0 0 -21.189555469190964 238.49098604693518 0 238.49098604693518 4.9549379932362854 0 0 0 0 133.87500994357288 209.23033448711158 0 209.23033448711158 -81.258012376999659 0 0 0 0 193.72887506570987 231.4662325659674 0 231.4662325659674 -75.571327282399579 0 0 0 0 168.26090436642698 156.10217606775495 0 156.10217606775495 -11.203138983881217 0 0 0 0 174.69866711896157 182.70595329240109 0 182.70595329240109 -94.375237213833316 0 0 0 0 114.95582188354456 159.75468310504948 0 159.75468310504948 -12.684690236459573 0 0 0 0 125.27959735362128 171.78929739857995 0 171.78929739857995 -546.65709347897882 0 0 0 0 116.62951555719701 132.41834701697644 0 132.41834701697644 -69.898013922816972 0 0 0 0 1.4888309835849896 2.7916373552579792 0 2.7916373552579792 -5.2775003476494504 0 0 0 0 161.08562104266093 132.03278534754827 0 132.03278534754827 -151.62991254533608 0 0 0 0 168.21639916582171 276.77630159167666 0 276.77630159167666 -216.21074756763448 0 0 0 0 37.637687543247011 284.95036551168801 0 284.95036551168801 -60.094359066769357 0 0 0 0 34.812105334907756 303.31031463343589 0 303.31031463343589 -167.34240677586058 0 0 0 0 22.092873015137684 303.99390063671063 0 303.99390063671063 -68.233476866266756 0 0 0 0 19.360110274259569 336.61388749791945 0 336.61388749791945 -32.059672395441339 0 0 0 0 76.163446724051028 331.52224549031826 0 331.52224549031826 -78.289521579371581 0 0 0 0 94.265985901456588 300.4932922051629 0 300.4932922051629 -27.826243301573413 0 0 0 0 -48.181651119422895 253.44800853109518 0 253.44800853109518 -51.010243454618831 0 0 0 0 -58.616789112836159 85.442471293551989 0 85.442471293551989 -7.9652342611707354 0 0 0 0 -80.620332032449369 324.44623718560388 0 324.44623718560388 -61.908802070748607 0 0 0 0 -96.234695867705796 211.87059258804729 0 211.87059258804729 -85.037254126219523 0 0 0 0 -155.73991107500478 264.39669016217795 0 264.39669016217795 -124.20054730383754 0 0 0 0 -137.83044338876425 234.11638769649653 0 234.11638769649653 -388.07262785559851 0 0 0 0 -183.88574348812108 372.73120768960689 0 372.73120768960689 -185.48383353156487 0 0 0 0 -235.79431422376365 153.20895232675866 0 153.20895232675866 -234.38934093896842 0 0 0 0 -90.075874166559515 234.94442591152711 0 234.94442591152711 -389.39555279225715 0 0 0 0 10.355063594004605 380.1429805667849 0 380.1429805667849 -512.95374448616167 0 0 0 0 -571.47116329477649 486.48097396266894 0 486.48097396266894 -301.75750193526255 0 0 0 0 -258.51387016872104 221.00936309562053 0 221.00936309562053 -180.64209527238108 0 0 0 0 -0.77918692203621731 -1.1380250028045111 0 -1.1380250028045111 -0.21269272785712445 0 0 0 0 620.5074728664822 69.484798847835236 0 69.484798847835236 -377.69207302211635 0 0 0 0 -89.934694671734178 303.57144324301998 0 303.57144324301998 -91.96921999469464 0 0 0 0 -21.09152101843938 386.35396114732976 0 386.35396114732976 -333.46737964055137 0 0 0 0 -21.766485912514327 400.25902085778034 0 400.25902085778034 -331.91963278841831 0 0 0 0 -473.02298846697522 570.62222518924909 0 570.62222518924909 -364.39444843992169 0 0 0 0 -338.98431758656443 238.13073952365858 0 238.13073952365858 -338.36422943372872 0 0 0 0 -124.72617621213067 200.30238567554431 0 200.30238567554431 -392.65967916944464 0 0 0 0 -163.77508863387629 480.76854857677699 0 480.76854857677699 -310.99500694695689 0 0 0 0 1.1730985040582596 8.1310865955143043 0 8.1310865955143043 12.9810932880942 0 0 0 0 -813.71335920845786 -234.39826041627217 0 -234.39826041627217 285.07171386292339 0 0 0 0 -838.5928288225532 286.26942306443459 0 286.26942306443459 72.192312897090233 0 0 0 0 -432.81367698645045 604.62036485235012 0 604.62036485235012 308.79949651190691 0 0 0 0 72.198211398135754 517.20732281889946 0 517.20732281889946 -400.35554810410093 0 0 0 0 -256.26374008473795 253.60621657796219 0 253.60621657796219 44.464212012001553 0 0 0 0 -1.4366669912806458 3.3717433921223545 0 3.3717433921223545 7.6119989135271249 0 0 0 0 60.138514558355382 665.98816688069883 0 665.98816688069883 -11.026838268786832 0 0 0 0 -489.79000508013269 181.58218537597131 0 181.58218537597131 -181.94914908343623 0 0 0 0 -156.73649523308632 450.18028597145576 0 450.18028597145576 3.1008636746087177 0 0 0 0 -401.11404396637226 568.20296129811584 0 568.20296129811584 530.59035299408015 0 0 0 0 -134.44206943434256 167.24537152520952 0 167.24537152520952 -87.226199794660943 0 0 0 0 -0.32495547842566808 0.55616978935221084 0 0.55616978935221084 -0.38943846665893389 0 0 0 0 -175.15070634662561 110.84556686165561 0 110.84556686165561 -140.37802681468656 0 0 0 0 -130.95414914713911 443.53736590771064 0 443.53736590771064 -265.41473061649049 0 0 0 0 217.47673943595146 285.18397089418795 0 285.18397089418795 -12.475652796763598 0 0 0 0 312.59160583696212 374.28023325147933 0 374.28023325147933 69.390275349522199 0 0 0 0 148.0719231540279 303.6301537350846 0 303.6301537350846 123.71187583408755 0 0 0 0 73.492228984614485 184.01223787904564 0 184.01223787904564 92.152523530795406 0 0 0 0 146.06012724371249 289.87003547944551 0 289.87003547944551 172.46864182934951 0 0 0 0 63.719993329286808 151.60729100525532 0 151.60729100525532 160.90353944238086 0 0 0 0 50.198066018656391 199.32200163872676 0 199.32200163872676 411.01200732244251 0 0 0 0 224.98996548814466 410.51653970622647 0 410.51653970622647 247.59490535148689 0 0 0 0 37.448448189279588 334.95367579151571 0 334.95367579151571 760.77527396798178 0 0 0 0 17.263452408282319 476.07946186349363 0 476.07946186349363 814.18185744125094 0 0 0 0 207.40755027654814 599.27616792990011 0 599.27616792990011 469.68451279053625 0 0 0 0 -26.476954839327391 30.369197036070737 0 30.369197036070737 -11.461302852327993 0 0 0 0 230.40801897508209 390.31471333254922 0 390.31471333254922 309.45708803841626 0 0 0 0 361.33989522430056 587.71136376690902 0 587.71136376690902 268.71420330178807 0 0 0 0 192.75886698079557 660.73770194826557 0 660.73770194826557 246.01167141697078 0 0 0 0 340.65758079034276 530.968722369425 0 530.968722369425 113.2974598040164 0 0 0 0 311.66064253024524 381.67528603696337 0 381.67528603696337 13.952952984258445 0 0 0 0 386.0537221837003 409.56323567799973 0 409.56323567799973 -69.233715614798712 0 0 0 0 332.15691875156335 413.26635055574889 0 413.26635055574889 -89.468916564787833 0 0 0 0 280.66315905813826 124.7074729952019 0 124.7074729952019 -578.77963945159991 0 0 0 0 389.23195312335156 378.68838060180769 0 378.68838060180769 -216.69448930254293 0 0 0 0 467.51308775696089 511.51809942124783 0 511.51809942124783 -213.54962907592744 0 0 0 0 459.9352869509521 675.1265087079712 0 675.1265087079712 -243.59893314372675 0 0 0 0 497.08608799769718 912.36890742327159 0 912.36890742327159 301.75524985043376 0 0 0 0 -0.39866341806022376 4.2168762937669442 0 4.2168762937669442 8.4951078771628161 0 0 0 0 -243.77965393377235 165.65429969432444 0 165.65429969432444 1719.8445578731553 0 0 0 0 248.14583873650554 926.73974210746201 0 926.73974210746201 957.40800461223989 0 0 0 0 -571.10825624004792 497.41372134791709 0 497.41372134791709 1187.8349673983203 0 0 0 0 -602.49010125874338 173.83274656073309 0 173.83274656073309 316.35395751320897 0 0 0 0 -353.12775804994453 1283.4366357402178 0 1283.4366357402178 227.42015172487493 0 0 0 0 -500.27205847971345 692.35272683671656 0 692.35272683671656 -218.03365897286312 0 0 0 0 -533.83208229041975 207.30686610977213 0 207.30686610977213 -95.332068963358324 0 0 0 0 116.85217666131211 184.60174604640906 0 184.60174604640906 -169.24277735834221 0 0 0 0 -304.37526580012491 437.04676056106609 0 437.04676056106609 -39.191713020458337 0 0 0 0 -14.248249464988476 611.67908981491064 0 611.67908981491064 284.43516028815907 0 0 0 0 64.586752633942524 196.28898166059707 0 196.28898166059707 -34.279337489375393 0 0 0 0 281.80407623326755 46.454950862033456 0 46.454950862033456 300.13464517730563 0 0 0 0 100.89503016773961 319.46977419514315 0 319.46977419514315 142.54312389647839 0 0 0 0 191.43981676429394 189.92492497762987 0 189.92492497762987 28.741160100020352 0 0 0 0 181.33677494950825 225.26858212024376 0 225.26858212024376 394.90706836214224 0 0 0 0 72.444608912027434 103.10793836576607 0 103.10793836576607 444.77213869380739 0 0 0 0 178.79769827820564 298.28443707205088 0 298.28443707205088 413.13157283455985 0 0 0 0 176.75409089217646 158.76646169756702 0 158.76646169756702 186.39061308864984 0 0 0 0 163.0274654632849 157.70877888129189 0 157.70877888129189 -53.778466877729443 0 0 0 0 271.0124516938813 261.6130090513916 0 261.6130090513916 40.4749492188148 0 0 0 0 123.30291046925413 254.7605875397694 0 254.7605875397694 45.085219093638443 0 0 0 0 339.75068678151001 225.97821896647565 0 225.97821896647565 -249.56653127975642 0 0 0 0 370.24236502783606 302.24199461828357 0 302.24199461828357 -59.006102466466473 0 0 0 0 356.95146002483671 327.50463994859183 0 327.50463994859183 -45.652332881858456 0 0 0 0 375.43030073793489 314.20830287509489 0 314.20830287509489 -93.685989723131115 0 0 0 0 349.23302569240695 285.69568173060384 0 285.69568173060384 27.241910438040577 0 0 0 0 351.63729875217541 283.59503309863067 0 283.59503309863067 -68.869286347234265 0 0 0 0 273.98022253737145 218.44815250667398 0 218.44815250667398 47.245940764884836 0 0 0 0 289.99791664497752 307.20888282590477 0 307.20888282590477 172.81916481678672 0 0 0 0 227.38789800836821 291.9054718908792 0 291.9054718908792 185.82104188858534 0 0 0 0 246.65003501521278 374.86190796710298 0 374.86190796710298 418.7603322858231 0 0 0 0 331.23394694014132 303.8854161925874 0 303.8854161925874 34.799684844072544 0 0 0 0 332.04868949265801 323.20174314289216 0 323.20174314289216 123.75899444576362 0 0 0 0 330.64105697958439 406.63401068731218 0 406.63401068731218 126.93005455196446 0 0 0 0 390.52181581503828 237.9090087167242 0 237.9090087167242 -34.608106564850459 0 0 0 0 390.68555908272748 348.15279038684253 0 348.15279038684253 10.452963138639461 0 0 0 0 355.90514203469502 294.01800294746681 0 294.01800294746681 -22.424355542256308 0 0 0 0 334.84690209232213 302.88639355061332 0 302.88639355061332 -16.21064757924978 0 0 0 0 -4.703210519214224 4.2397605155208069 0 4.2397605155208069 -4.5510379931607776 0 0 0 0 2.3133902460613172 287.76828665806818 0 287.76828665806818 790.68590701909989 0 0 0 0 5.3928249892342137 329.48711229589503 0 329.48711229589503 1284.5927587386959 0 0 0 0 124.94799777297885 187.80089345368174 0 187.80089345368174 808.72531060779909 0 0 0 0 280.02120701256354 715.16925814915567 0 715.16925814915567 692.05086097019603 0 0 0 0 378.17160092759877 522.10154260966374 0 522.10154260966374 393.2594843417437 0 0 0 0 271.72431001350924 515.22580137124305 0 515.22580137124305 402.5846015516122 0 0 0 0 214.0028169340294 499.02986831687258 0 499.02986831687258 726.07898553407995 0 0 0 0 166.28500421452918 375.87322406763349 0 375.87322406763349 419.39914627925555 0 0 0 0 144.71125214373023 299.59453361468616 0 299.59453361468616 641.33367537300524 0 0 0 0 -0.48487571597902956 19.168149977663131 0 19.168149977663131 6.7785063144572808 0 0 0 0 -4.1227054295139283 8.1552114334788257 0 8.1552114334788257 -1.7058714017796031 0 0 0 0 1.7093773072774638 18.856792596793372 0 18.856792596793372 10.898410398160333 0 0 0 0 73.0837032993295 269.67875851311692 0 269.67875851311692 629.5375925527685 0 0 0 0 35.676848005794454 14.96016432081268 0 14.96016432081268 15.760085608415238 0 0 0 0 -5.4084366269656101 8.3610364164921691 0 8.3610364164921691 4.504335313118343 0 0 0 0 -1.267718244518619 8.9807941022430366 0 8.9807941022430366 13.351339946797586 0 0 0 0 5.4586977969593136 22.108246107115065 0 22.108246107115065 19.01982781681977 0 0 0 0 0.93497569518686419 8.170335799460652 0 8.170335799460652 -5.5365586783188867 0 0 0 0 89.925871068051492 300.40241666382923 0 300.40241666382923 611.47510532489741 0 0 0 0 160.23656820862379 288.56880402533289 0 288.56880402533289 421.01159829510385 0 0 0 0 -9.271095235786305 4.0612280313696942 0 4.0612280313696942 3.7017877725737658 0 0 0 0 65.371801969631633 76.873392009384617 0 76.873392009384617 8.7652254933792051 0 0 0 0 16.915429703512928 128.36727335116939 0 128.36727335116939 498.32602357898759 0 0 0 0 -4.4431870057782419 6.4696869707621758 0 6.4696869707621758 -1.8323566969802756 0 0 0 0 -11.335031617552886 -31.490334229947734 0 -31.490334229947734 -7.5164891833355796 0 0 0 0 215.57573662652794 433.31848981869513 0 433.31848981869513 1009.0504789500555 0 0 0 0 -1.0068136029848063 -0.41120463249481531 0 -0.41120463249481531 2.0828267289871727 0 0 0 0 -7.0103531166005268 39.356650813081906 0 39.356650813081906 -28.93388248538912 0 0 0 0 9.3649443346512271 -12.433036329294168 0 -12.433036329294168 -7.8647128436419393 0 0 0 0 8.6862723294038915 20.953300352593963 0 20.953300352593963 144.72297646856248 0 0 0 0 7.102073683801791 8.5227840022114947 0 8.5227840022114947 88.854588654037343 0 0 0 0 14.171112023213936 28.962099910134384 0 28.962099910134384 104.90179645609305 0 0 0 0 16.382005939543888 16.773433235558798 0 16.773433235558798 68.259667377378832 0 0 0 0 11.683559849610873 8.7402989513140028 0 8.7402989513140028 6.4791244051567629 0 0 0 0 -3.2595437370400759 3.2392447533679842 0 3.2392447533679842 54.027001698512322 0 0 0 0 9.8956503223380423 8.4272738395831084 0 8.4272738395831084 75.53832203066213 0 0 0 0 5.7056755192752462 -5.9086780406651087 0 -5.9086780406651087 58.89905174327987 0 0 0 0 8.3567218125732126 -2.4961550868629416 0 -2.4961550868629416 20.895013735300505 0 0 0 0 11.925785565006663 -21.127009326055486 0 -21.127009326055486 -9.5627786364093481 0 0 0 0 4.3654590530359201 40.495565250439043 0 40.495565250439043 67.308399299193184 0 0 0 0 14.763355033064727 15.235688547768859 0 15.235688547768859 93.981144382595858 0 0 0 0 17.089004503795877 34.180942492244412 0 34.180942492244412 89.616573585419701 0 0 0 0 1.242364296142398 9.2009099889595909 0 9.2009099889595909 8.1032686351704584 0 0 0 0 -0.19546831813931931 17.728491828365804 0 17.728491828365804 17.047146626617177 0 0 0 0 -3.4555711770388484 3.1647625975583935 0 3.1647625975583935 45.868026578978501 0 0 0 0 -5.601530211741192 4.927991185171777 0 4.927991185171777 53.487935395296518 0 0 0 0 -0.049530670215233386 34.459239338514365 0 34.459239338514365 14.307624114353736 0 0 0 0 76.912865502672503 63.32651157244527 0 63.32651157244527 63.443612078390288 0 0 0 0 -4.6907200035579422 3.7894981803969614 0 3.7894981803969614 -2.8107084008227776 0 0 0 0 -0.21377456605841871 29.052579699300622 0 29.052579699300622 55.574195936545038 0 0 0 0 -591.56095345791255 223.28991427212912 0 223.28991427212912 -331.7708800174986 0 0 0 0 2.526059179666845 8.1784622308248061 0 8.1784622308248061 13.504091490979375 0 0 0 0 -468.76022766284586 405.16333986847621 0 405.16333986847621 -248.91703944813185 0 0 0 0 -1.3015081515926319 -1.1062495617423451 0 -1.1062495617423451 1.2817467016159614 0 0 0 0 -944.63225153895837 222.84736956554951 0 222.84736956554951 68.543586209927525 0 0 0 0 238.04600048510838 94.885277917795975 0 94.885277917795975 -88.47115315527185 0 0 0 0 -531.82678297929669 60.159400994722205 0 60.159400994722205 101.35157915014315 0 0 0 0 1.778393319589668 822.45316411745216 0 822.45316411745216 462.91435697966517 0 0 0 0 175.82667130700429 382.8283705981338 0 382.8283705981338 -251.63159561773773 0 0 0 0 -0.61427702585794464 2.9946266151821135 0 2.9946266151821135 7.119894765767814 0 0 0 0 -481.32049237542378 -71.511302250787594 0 -71.511302250787594 17.196015630220245 0 0 0 0 -850.32236901185388 388.26672333928991 0 388.26672333928991 126.59135966655072 0 0 0 0 -79.061913293975522 1110.3046634193356 0 1110.3046634193356 300.55978811951371 0 0 0 0 -94.435597234594752 378.97349093522109 0 378.97349093522109 87.189087328588641 0 0 0 0 -241.8192004150842 44.898731458170772 0 44.898731458170772 28.275304549452585 0 0 0 0 -179.92279203219914 227.56403554460724 0 227.56403554460724 -59.879972817444468 0 0 0 0 -86.815787034312962 208.77691887127486 0 208.77691887127486 -90.992877170753673 0 0 0 0 -83.116969587979838 303.06343795790792 0 303.06343795790792 -254.6650499280521 0 0 0 0 -110.92666823627951 140.76685055643509 0 140.76685055643509 -269.13473426993716 0 0 0 0 0.82380873159925727 3.8741174650091619 0 3.8741174650091619 1.7915430741421232 0 0 0 0 -235.94047798688553 120.76654427388439 0 120.76654427388439 -150.71356242456068 0 0 0 0 -140.12986080045812 175.01275113107067 0 175.01275113107067 -180.64524093255477 0 0 0 0 6.1916127534026657 5.6197984575676312 0 5.6197984575676312 2.143687832124392 0 0 0 0 -66.345134313429298 29.166558390605132 0 29.166558390605132 8.8844683041929784 0 0 0 0 2.4208337864256464 85.562686454195045 0 85.562686454195045 -160.38360950167782 0 0 0 0 28.247422853775788 37.79431054279803 0 37.79431054279803 107.37523910389473 0 0 0 0 -23.873934101218765 83.518684758175255 0 83.518684758175255 344.99705219792895 0 0 0 0 28.484718553052517 35.975039531639595 0 35.975039531639595 116.71931337730257 0 0 0 0 -253.96155860858562 -21.8214838291874 0 -21.8214838291874 3.5581468613424931 0 0 0 0 -17.223884753922903 161.24073622242872 0 161.24073622242872 11.290300482510247 0 0 0 0 -289.01269405328594 538.54385276044968 0 538.54385276044968 -228.48566494871466 0 0 0 0 -262.25482016185197 162.17639020439492 0 162.17639020439492 -184.75458618863559 0 0 0 0 -519.64922325952102 349.49301153803219 0 349.49301153803219 -45.827465093937462 0 0 0 0 2.6087668106575848 8.3625559312264812 0 8.3625559312264812 14.645576119787325 0 0 0 0 -128.90338098078882 94.130669919318052 0 94.130669919318052 -113.50797114871693 0 0 0 0 -15.667624677254935 100.35380865485513 0 100.35380865485513 171.50678923596843 0 0 0 0 -183.50145622640048 19.343273022039284 0 19.343273022039284 132.59436037827436 0 0 0 0 13.400577382308256 1.8427648662373031 0 1.8427648662373031 -25.217075525294376 0 0 0 0 42.347276914188114 37.516045459935413 0 37.516045459935413 76.879163796971625 0 0 0 0 37.787441010766997 60.357366064040889 0 60.357366064040889 99.241002307212511 0 0 0 0 43.793120675496539 49.747345149622618 0 49.747345149622618 93.313877518334266 0 0 0 0 37.074903982853357 29.728708684303683 0 29.728708684303683 97.217762373284131 0 0 0 0 -8.8177195774769643 14.742235704082304 0 14.742235704082304 116.19388877639813 0 0 0 0 17.50961350943092 144.33452205902952 0 144.33452205902952 49.527528729193065 0 0 0 0 -19.35150513386543 66.167366495692477 0 66.167366495692477 272.73289687910801 0 0 0 0 51.322270084136107 93.727464437902199 0 93.727464437902199 181.21862848043565 0 0 0 0 104.00261387342471 281.07555400949059 0 281.07555400949059 -152.48816090484615 0 0 0 0 -36.364109871501569 92.483852171979379 0 92.483852171979379 -324.96957626647782 0 0 0 0 15.708334364226516 30.979866799836458 0 30.979866799836458 -112.54356145196283 0 0 0 0 -1.4367963602422833 5.0636243849946112 0 5.0636243849946112 -4.9764402320292831 0 0 0 0 -12.129820014932193 32.57602069998029 0 32.57602069998029 314.81104955835326 0 0 0 0 -5.4329097061155949 11.380818127875386 0 11.380818127875386 8.3561559079348271 0 0 0 0 187.25562541180989 -33.43930644413922 0 -33.43930644413922 325.50362366321133 0 0 0 0 17.623886810400251 68.396218990235866 0 68.396218990235866 45.438670700746002 0 0 0 0 -2.1934670880291378 19.302176327408233 0 19.302176327408233 232.31326191061089 0 0 0 0 -10.731169344969203 75.114723132104885 0 75.114723132104885 33.788943672328259 0 0 0 0 -26.733658807388565 115.13426977909694 0 115.13426977909694 -50.40816072502821 0 0 0 0 -31.086328968725866 39.488746723654913 0 39.488746723654913 252.4542965291912 0 0 0 0 -20.07835966948187 17.281480704972637 0 17.281480704972637 206.83477438206319 0 0 0 0 -10.063363055756781 88.411327170164441 0 88.411327170164441 232.16892915825156 0 0 0 0 -15.008510002509865 84.617223238921724 0 84.617223238921724 281.17101587943034 0 0 0 0 10.12197393461247 142.05323092297476 0 142.05323092297476 176.67186451060115 0 0 0 0 16.246849604911404 167.39761839015409 0 167.39761839015409 280.35598441081675 0 0 0 0 -14.892182220282848 86.697709904387011 0 86.697709904387011 233.08483481837902 0 0 0 0 -18.495017642115272 101.18555566650321 0 101.18555566650321 177.64189513985184 0 0 0 0 245.772383916119 391.34330875788874 0 391.34330875788874 604.13543874732568 0 0 0 0 -45.43777525308542 -51.953433181290166 0 -51.953433181290166 868.21787225632579 0 0 0 0 -1.3556427653062428 6.1434939014750398 0 6.1434939014750398 -8.3013654940095591 0 0 0 0 -21.694749509682879 44.09668898046948 0 44.09668898046948 -74.504413577611558 0 0 0 0 10.462685541366227 -63.872217353025917 0 -63.872217353025917 298.13223478739383 0 0 0 0 -46.799895801523235 -77.161873620512779 0 -77.161873620512779 474.43382251233561 0 0 0 0 -22.045341784862103 118.33128629207204 0 118.33128629207204 373.28254166499391 0 0 0 0 -35.712194969004486 150.92697661372949 0 150.92697661372949 607.66397170219716 0 0 0 0 82.350607655047497 163.71627836987682 0 163.71627836987682 171.74336746586778 0 0 0 0 157.29997215716867 220.11203633063269 0 220.11203633063269 281.48949662783707 0 0 0 0 65.587840943248011 158.65560828115849 0 158.65560828115849 251.80874400417815 0 0 0 0 333.93235146275219 77.65594924346442 0 77.65594924346442 162.86233870744763 0 0 0 0 53.968003299683915 49.496312146991841 0 49.496312146991841 186.39707602159251 0 0 0 0 66.275717288532178 77.186158880773291 0 77.186158880773291 56.033180249411089 0 0 0 0 -58.681204884211184 193.24003676525172 0 193.24003676525172 165.14282446669677 0 0 0 0 -25.932155236077961 93.517458234506194 0 93.517458234506194 280.10465037057293 0 0 0 0 473.493071158151 488.25036900526538 0 488.25036900526538 -220.19604355645424 0 0 0 0 -128.04270691033162 143.26118494456932 0 143.26118494456932 203.15688071004115 0 0 0 0 26.854174201864225 91.031693270997494 0 91.031693270997494 -10.312418968107522 0 0 0 0 1.9852542313442285 20.455809475050373 0 20.455809475050373 42.369338964651348 0 0 0 0 -88.221678802658062 172.6696926053437 0 172.6696926053437 287.93165871511701 0 0 0 0 38.742409867794777 291.60592634934937 0 291.60592634934937 312.21067159904669 0 0 0 0 30.899510310493014 146.60147438510907 0 146.60147438510907 17.566275817374986 0 0 0 0 29.220405040847254 71.175608370826922 0 71.175608370826922 186.08618051438134 0 0 0 0 -79.63372093975704 98.463825764255944 0 98.463825764255944 88.772161112108734 0 0 0 0 10.80259816373291 92.855001666947828 0 92.855001666947828 -13.570460078701899 0 0 0 0 20.485386840933643 76.538289875926239 0 76.538289875926239 -10.145660132191551 0 0 0 0 0.91802275460258898 8.813563934690464 0 8.813563934690464 9.6559703837757667 0 0 0 0 16.894681295700138 67.398114421709352 0 67.398114421709352 11.317947971307149 0 0 0 0 11.650039761203516 98.798227388056148 0 98.798227388056148 9.3941817282902775 0 0 0 0 -15.728880548831512 116.11180554868724 0 116.11180554868724 -3.3443654379079817 0 0 0 0 -27.700154018675676 84.16981687567386 0 84.16981687567386 7.2535717814680538 0 0 0 0 21.546888023185602 33.532039867580352 0 33.532039867580352 94.379614463130565 0 0 0 0 22.085706544999994 36.625369444277567 0 36.625369444277567 107.89360436375864 0 0 0 0 -5.8294721018028213 84.588084168664864 0 84.588084168664864 -7.2691779434508135 0 0 0 0 10.154889183350122 46.601413676810921 0 46.601413676810921 76.792521687834608 0 0 0 0 -316.59773001560825 10.034122551354812 0 10.034122551354812 614.47702572044363 0 0 0 0 -11.912903428066784 20.74715456604099 0 20.74715456604099 110.64206275439938 0 0 0 0 -20.020964182753232 92.898333255885518 0 92.898333255885518 160.79742959619034 0 0 0 0 -35.626379591674777 117.91255903320416 0 117.91255903320416 123.92312798975036 0 0 0 0 -48.457210974254849 105.18508311945334 0 105.18508311945334 119.95825108468125 0 0 0 0 -51.847534783570154 122.74253601967939 0 122.74253601967939 83.060675812543195 0 0 0 0 -8.180987082698266 43.750344263746229 0 43.750344263746229 24.868285337885027 0 0 0 0 -126.46935348568877 151.8606434643425 0 151.8606434643425 108.55853659826971 0 0 0 0 -50.842868350664503 123.63856092161586 0 123.63856092161586 -1.963204489871714 0 0 0 0 -66.129369491623947 82.534281079329958 0 82.534281079329958 30.395963416685845 0 0 0 0 -21.014530846990965 87.749649098836016 0 87.749649098836016 32.762643244645005 0 0 0 0 425.3264629652549 -31.020402837195434 0 -31.020402837195434 609.27299015141398 0 0 0 0 -30.382557629200164 76.468558274391398 0 76.468558274391398 0.55044909128628206 0 0 0 0 -5.2137434026827236 73.175791138898774 0 73.175791138898774 19.157577865943445 0 0 0 0 -5.9760200936984802 12.407296571870063 0 12.407296571870063 3.0452451676245786 0 0 0 0 -76.549210453216801 293.8941658086369 0 293.8941658086369 -441.49141938623507 0 0 0 0 -3.2502908412255351 9.2182469952604436 0 9.2182469952604436 2.7085950265029304 0 0 0 0 -669.89125863793015 -89.436974389085663 0 -89.436974389085663 924.6119775090483 0 0 0 0 -63.851441246370996 77.39253606938837 0 77.39253606938837 -185.19551508591394 0 0 0 0 -102.65196188045957 136.52876610956446 0 136.52876610956446 49.644097557502391 0 0 0 0 -208.09165205346653 234.7697233885192 0 234.7697233885192 0.61522658180911094 0 0 0 0 -179.75238393347536 106.46819976565621 0 106.46819976565621 45.79652598730172 0 0 0 0 -221.38647173080244 149.59335050847585 0 149.59335050847585 111.25564539006882 0 0 0 0 -234.62386806865106 -18.575921477822703 0 -18.575921477822703 223.61944677645806 0 0 0 0 -5.1640588644239074 75.942147486625274 0 75.942147486625274 21.721673523426276 0 0 0 0 -398.3750140179327 60.204302833153633 0 60.204302833153633 171.07488442506292 0 0 0 0 757.51909493879066 6.4206467859039549 0 6.4206467859039549 797.7240625219456 0 0 0 0 -380.28999152504548 359.0257865434105 0 359.0257865434105 -81.790862202466087 0 0 0 0 -13.441387950860133 38.380303562390139 0 38.380303562390139 -1.3516468533213981 0 0 0 0 37.414754363209795 29.308292109313697 0 29.308292109313697 267.03850465203868 0 0 0 0 -0.98866698451450929 1.2415267700900259 0 1.2415267700900259 4.7295715697820526 0 0 0 0 -0.44681152421981096 -151.39871515001869 0 -151.39871515001869 328.33209681525477 0 0 0 0 -107.14306987092277 -2.0992147476972605 0 -2.0992147476972605 216.65975715723471 0 0 0 0 -94.342044168792199 -84.465593511937186 0 -84.465593511937186 290.5288307918745 0 0 0 0 -98.726928233551462 55.947059513883687 0 55.947059513883687 205.8392952819413 0 0 0 0 -141.63919028092641 40.473149576893775 0 40.473149576893775 202.00824719661614 0 0 0 0 -115.46066693040484 9.9061768492902047 0 9.9061768492902047 274.28567258708063 0 0 0 0 -69.759842544866842 67.673299877707905 0 67.673299877707905 178.34215246602253 0 0 0 0 -185.93586488102665 144.40812913367699 0 144.40812913367699 158.17762375914026 0 0 0 0 -116.05911627299793 103.35557253330626 0 103.35557253330626 182.47200443336624 0 0 0 0 -36.15407146904181 7.303256882714777 0 7.303256882714777 36.619267965266772 0 0 0 0 -39.849432441587851 52.835885667253024 0 52.835885667253024 171.26270209836002 0 0 0 0 -61.87288876769162 83.052287868242274 0 83.052287868242274 131.01466340700063 0 0 0 0 -50.324926065462932 96.803976637314918 0 96.803976637314918 145.20747633852443 0 0 0 0 -24.100941834864756 70.035680775065444 0 70.035680775065444 -20.508327893087269 0 0 0 0 -75.881199667430337 126.06923515796734 0 126.06923515796734 114.67999151427648 0 0 0 0 -26.326980339406873 139.62354800993489 0 139.62354800993489 97.30302391809164 0 0 0 0 -33.620536278467625 147.286061901832 0 147.286061901832 104.18704756829538 0 0 0 0 -2.5423244356861687 145.54199714210336 0 145.54199714210336 69.501700002620055 0 0 0 0 -17.396674829559913 68.939008939126069 0 68.939008939126069 -26.976386208355905 0 0 0 0 -14.037912350179795 49.874352649523416 0 49.874352649523416 -164.55524313083151 0 0 0 0 -6.5213201950173243 23.297943186007615 0 23.297943186007615 -176.58400237842579 0 0 0 0 39.193461403374386 134.02069638839748 0 134.02069638839748 285.84513141902789 0 0 0 0 -6.3755286794551012 6.498646086414567 0 6.498646086414567 -5.609792823933148 0 0 0 0 -51.924347384148859 226.39005867701781 0 226.39005867701781 439.84473040635385 0 0 0 0 -31.274004650382267 212.7974872282648 0 212.7974872282648 280.36725323193241 0 0 0 0 -25.282555305020651 164.16040429961868 0 164.16040429961868 434.32110482617281 0 0 0 0 141.19735974731157 327.34512513951631 0 327.34512513951631 353.94257017494238 0 0 0 0 -8.9637223480240209 163.18032037149533 0 163.18032037149533 160.84488147528464 0 0 0 0 -33.271028656279668 130.46746700362564 0 130.46746700362564 529.09679891512496 0 0 0 0 -2.9407451752802842 4.5848143150840599 0 4.5848143150840599 -4.9047651194990749 0 0 0 0 -8.8727427392323079 24.208653967089958 0 24.208653967089958 -118.91976430740033 0 0 0 0 -16.830910193613818 44.691134828222857 0 44.691134828222857 -105.99617080244934 0 0 0 0 -9.5318263384506281 19.748375529918121 0 19.748375529918121 -148.99548971938202 0 0 0 0 -14.319471738665015 52.36496099831129 0 52.36496099831129 -129.68868674529949 0 0 0 0 3.1677565622443637 0.2709292824919487 0 0.2709292824919487 -32.434581762025175 0 0 0 0 -17.65351584040036 33.025698937843117 0 33.025698937843117 -46.481523263726558 0 0 0 0 -21.576454854279802 23.755140885376406 0 23.755140885376406 -17.73051172041167 0 0 0 0 -22.793398324130976 36.581555507902522 0 36.581555507902522 -20.403957291673578 0 0 0 0 -21.029273055093654 35.443451164137514 0 35.443451164137514 -31.521333336923135 0 0 0 0 -18.219693475235545 29.106984245979675 0 29.106984245979675 -32.547868506720988 0 0 0 0 -17.729664340324234 32.524567313834268 0 32.524567313834268 -42.774048663777648 0 0 0 0 -6.9883631861812319 31.125578057697567 0 31.125578057697567 -20.73476146342 0 0 0 0 -14.149964324458267 27.456324322944866 0 27.456324322944866 -13.165949454953648 0 0 0 0 -12.361209428145884 24.837397260083236 0 24.837397260083236 -17.66890286774381 0 0 0 0 54.077865698098321 79.611010309359699 0 79.611010309359699 -82.565853823849466 0 0 0 0 53.389862293725855 73.405881924913047 0 73.405881924913047 -29.126425919515896 0 0 0 0 -44.4683514276403 111.81004098497579 0 111.81004098497579 127.64955479400669 0 0 0 0 -1.2673842832111291 64.632528370595423 0 64.632528370595423 -24.13647539080948 0 0 0 0 -70.232816493506107 75.292243289616636 0 75.292243289616636 6.1615581079822732 0 0 0 0 -55.618175552892353 39.811444911716535 0 39.811444911716535 91.787052601372125 0 0 0 0 97.711490010893613 112.74790332921475 0 112.74790332921475 6.175129065697547 0 0 0 0 260.27295723398856 144.74995325081545 0 144.74995325081545 92.821815652045188 0 0 0 0 96.332654398414888 55.847033235702838 0 55.847033235702838 61.161612040559703 0 0 0 0 55.19448669252597 182.66446521934449 0 182.66446521934449 170.36626903359138 0 0 0 0 -53.825175854668487 136.16534894730285 0 136.16534894730285 104.39630951731533 0 0 0 0 51.792997551303415 148.9778070519169 0 148.9778070519169 103.71095469756256 0 0 0 0 -27.062482790264767 151.45279536258022 0 151.45279536258022 149.83115926251867 0 0 0 0 -15.935962430048676 127.58658733986522 0 127.58658733986522 168.64248335309094 0 0 0 0 89.65985532515333 38.8293969930819 0 38.8293969930819 -43.941288904512476 0 0 0 0 -9.8688937134154457 67.199157857037846 0 67.199157857037846 -25.716818707579279 0 0 0 0 -132.34078677606885 136.0366777002564 0 136.0366777002564 87.506384789732692 0 0 0 0 53.513054326496786 170.13787137300824 0 170.13787137300824 423.18534222876042 0 0 0 0 109.18222653921475 23.473015185500117 0 23.473015185500117 -494.47049742948002 0 0 0 0 -1.9185876339766992 1.9184005526074657 0 1.9184005526074657 -0.77991753256210927 0 0 0 0 -20.058852695365204 69.322663642407861 0 69.322663642407861 -118.55075288869739 0 0 0 0 134.45410546146013 297.94451850924816 0 297.94451850924816 498.86900554008025 0 0 0 0 27.352886860004219 66.33000823603652 0 66.33000823603652 466.38206240249565 0 0 0 0 1.4545879291278823 1.704504994455192 0 1.704504994455192 1.2597696243316534 0 0 0 0 -38.401896772120381 -1.9577273337708903 0 -1.9577273337708903 719.19065751432208 0 0 0 0 -45.488527913596045 282.3575304656224 0 282.3575304656224 349.33156799808785 0 0 0 0 19.894115039962344 -59.982472086128837 0 -59.982472086128837 345.27892827619223 0 0 0 0 -11.860472531519918 38.122815283724776 0 38.122815283724776 119.07810876422081 0 0 0 0 23.710214769529557 220.66947105674262 0 220.66947105674262 -143.19000300046173 0 0 0 0 22.115178453565022 163.32025144757426 0 163.32025144757426 84.311139256082242 0 0 0 0 10.766928541670495 127.20125562885369 0 127.20125562885369 -23.219126877559574 0 0 0 0 -15.115529108668852 103.55922619719786 0 103.55922619719786 74.579559118821635 0 0 0 0 -11.808914180714055 37.865233113174327 0 37.865233113174327 -0.29932801336690318 0 0 0 0 -36.405932979221689 49.48719002737198 0 49.48719002737198 55.078591199198854 0 0 0 0 -153.15515897509613 202.52639567900587 0 202.52639567900587 6.1404090928845108 0 0 0 0 -115.35407017200487 2.4006653483520495 0 2.4006653483520495 33.231532909470843 0 0 0 0 87.122048844474193 74.399460930144414 0 74.399460930144414 44.502440721465973 0 0 0 0 67.477944059777656 149.13263430411462 0 149.13263430411462 -35.783705888723489 0 0 0 0 118.34212312157615 103.76344049506588 0 103.76344049506588 58.780516948201694 0 0 0 0 -33.020267684154803 32.490573080469467 0 32.490573080469467 -4.1177459180480582 0 0 0 0 19.689228050102827 20.589185436558481 0 20.589185436558481 -48.53091170278293 0 0 0 0 111.72990414271771 190.1898628746203 0 190.1898628746203 -35.087924695224501 0 0 0 0 109.9416872883703 144.16643738330822 0 144.16643738330822 27.035931505903136 0 0 0 0 80.507459912958439 204.92759012476017 0 204.92759012476017 -56.815691899872036 0 0 0 0 0.5294829144941815 -1.0767965547987544 0 -1.0767965547987544 -3.9937847848997308 0 0 0 0 137.20342973015795 123.34385089182615 0 123.34385089182615 -6.5905235856334912 0 0 0 0 146.11840396173648 81.125545439339476 0 81.125545439339476 38.783219027320229 0 0 0 0 -16.144493196177564 82.237219118715757 0 82.237219118715757 -94.482494266412687 0 0 0 0 -207.63815661310218 57.916875383121805 0 57.916875383121805 36.073016380680201 0 0 0 0 200.92183373404259 -207.42896367941285 0 -207.42896367941285 -601.417708359877 0 0 0 0 98.608429641415569 189.99556052476692 0 189.99556052476692 255.62440616184949 0 0 0 0 0.0056720729159422945 2.7724729386711147 0 2.7724729386711147 -2.4108499329314697 0 0 0 0 -323.85475706045872 -147.58288673925199 0 -147.58288673925199 -0.34699664817890152 0 0 0 0 139.00952127566234 126.24064721309696 0 126.24064721309696 11.560778880884754 0 0 0 0 172.30430164118297 210.14925518981181 0 210.14925518981181 255.48034027223184 0 0 0 0 169.74260486024059 150.18183776637488 0 150.18183776637488 -266.64663908121292 0 0 0 0 64.683941058190612 68.039010289769067 0 68.039010289769067 50.200749380441266 0 0 0 0 144.13503024683087 93.743948852381436 0 93.743948852381436 23.780063979123952 0 0 0 0 134.99743728351677 73.641506432177266 0 73.641506432177266 52.343231836261111 0 0 0 0 -32.245617224538542 30.498494063737269 0 30.498494063737269 -9.3447613366117253 0 0 0 0 61.110234056424815 90.961834284778888 0 90.961834284778888 68.32315230864333 0 0 0 0 3.0942781725499913 24.679967209007927 0 24.679967209007927 -49.851202616305045 0 0 0 0 -18.290650273454958 229.28010582667775 0 229.28010582667775 -8.4029683929011298 0 0 0 0 70.307025883979804 39.59476204701059 0 39.59476204701059 3.3703297842148459 0 0 0 0 91.048323548198823 109.21319146804308 0 109.21319146804308 39.468104146115365 0 0 0 0 85.402420337253716 103.25742873522904 0 103.25742873522904 39.395480991486693 0 0 0 0 -28.667634362621797 42.80826605046682 0 42.80826605046682 1.9584818028752693 0 0 0 0 38.429783655107698 54.50013126143736 0 54.50013126143736 -26.182337960773111 0 0 0 0 99.353981508567813 185.88229578412574 0 185.88229578412574 -7.3530509156989865 0 0 0 0 10.283111417726104 76.974244156241184 0 76.974244156241184 96.417564491013763 0 0 0 0 18.693012485202061 66.390394237083001 0 66.390394237083001 1.502428664313527 0 0 0 0 24.30793168580567 48.335434045598959 0 48.335434045598959 21.517562914363225 0 0 0 0 0.51862921734525003 14.161991922710079 0 14.161991922710079 7.9551012906350138 0 0 0 0 -42.682027266073419 65.229323454303085 0 65.229323454303085 113.32383288093843 0 0 0 0 9.0542895938042989 62.661786412529068 0 62.661786412529068 -30.60644760058922 0 0 0 0 25.707276893765084 70.97453360862346 0 70.97453360862346 -23.503347257757923 0 0 0 0 17.314109604001715 73.143775766689942 0 73.143775766689942 -10.582946661801543 0 0 0 0 27.915815182881488 61.325864725132377 0 61.325864725132377 -2.7822268828217425 0 0 0 0 16.765640419382038 80.951506375262142 0 80.951506375262142 -69.327587843402625 0 0 0 0 35.116078083105094 108.27319948882723 0 108.27319948882723 -37.146993632206431 0 0 0 0 -53.061695412390691 485.76462431372329 0 485.76462431372329 174.80381180125187 0 0 0 0 15.227930148297673 75.170648677597455 0 75.170648677597455 -50.388437514586258 0 0 0 0 33.580348481402325 87.571130614021968 0 87.571130614021968 -97.645162533012808 0 0 0 0 13.788673241659126 95.184149351363885 0 95.184149351363885 28.33908975428858 0 0 0 0 16.972533077802211 60.549370860808885 0 60.549370860808885 8.4275674418390203 0 0 0 0 3.4034581114283355 72.020198778209306 0 72.020198778209306 13.41608639061451 0 0 0 0 0.055060624039910522 52.16608634891621 0 52.16608634891621 2.9615904096544341 0 0 0 0 -5.632548490902991 61.499717179569416 0 61.499717179569416 -5.8335710076862597 0 0 0 0 25.495839109156805 85.258995276715723 0 85.258995276715723 2.2477256934216712 0 0 0 0 19.434261884279152 57.395128435271346 0 57.395128435271346 -17.479403580027672 0 0 0 0 24.548029406658316 94.426589721166238 0 94.426589721166238 36.852034658193588 0 0 0 0 5.4964537639173585 66.559338115155583 0 66.559338115155583 25.904851514972421 0 0 0 0 -8.1666200643783924 45.204087412227381 0 45.204087412227381 -43.853669173904464 0 0 0 0 10.367070012629483 68.209774493434452 0 68.209774493434452 -55.473530812450917 0 0 0 0 -1.9404607699633836 45.447566306967602 0 45.447566306967602 -0.56692238168611198 0 0 0 0 15.360021995151328 71.452449678385165 0 71.452449678385165 -9.4465926615448552 0 0 0 0 34.464288357550686 64.949448178385865 0 64.949448178385865 -50.241573616774986 0 0 0 0 53.789851043286035 76.618155916414253 0 76.618155916414253 -44.789001278495562 0 0 0 0 36.725715434353333 54.028225586680492 0 54.028225586680492 -42.62210431737185 0 0 0 0 32.443160371873745 44.036966815071025 0 44.036966815071025 -100.64710073394866 0 0 0 0 -108.41946693186765 976.87066381885234 0 976.87066381885234 -206.03348739174544 0 0 0 0 36.463506225409219 65.098856267761221 0 65.098856267761221 -55.484224050549528 0 0 0 0 11.777504566065545 33.483746066363892 0 33.483746066363892 -31.82314837762533 0 0 0 0 6.6861576618800456 30.681358291173339 0 30.681358291173339 -22.579134463350584 0 0 0 0 16.731302883868921 67.787510829006351 0 67.787510829006351 -45.54419364927162 0 0 0 0 -2.3010318656160962 27.036367976135807 0 27.036367976135807 -174.1771138542772 0 0 0 0 23.697390554836602 59.134918776144332 0 59.134918776144332 -194.54025827895384 0 0 0 0 14.294903748350848 18.375286440769543 0 18.375286440769543 -27.462594267667992 0 0 0 0 49.848091004256275 54.744898965793254 0 54.744898965793254 -206.22804953067134 0 0 0 0 27.070881042994671 40.362736454339611 0 40.362736454339611 -100.45432741534742 0 0 0 0 30.537215689406366 46.662179930587627 0 46.662179930587627 -53.161620868071623 0 0 0 0 41.514479946479696 69.489913038501982 0 69.489913038501982 -209.13589113451599 0 0 0 0 37.605778281185223 32.654666252946491 0 32.654666252946491 -52.686599395292461 0 0 0 0 861.2533404280548 436.00161477630718 0 436.00161477630718 155.4887967290997 0 0 0 0 -161.93138028512476 125.13297305739434 0 125.13297305739434 67.019714281770575 0 0 0 0 9.7590131060430991 26.528174502327552 0 26.528174502327552 -15.570588420960881 0 0 0 0 85.535086981486529 70.11352642030397 0 70.11352642030397 -231.83931109600235 0 0 0 0 10.817007219294894 77.310927272463545 0 77.310927272463545 -102.04271073346223 0 0 0 0 -8.3320892437186558 59.278893200076709 0 59.278893200076709 -160.29240067167848 0 0 0 0 -5.0614700835204118 9.9279113145067512 0 9.9279113145067512 29.79549715571217 0 0 0 0 62.437655460598762 44.207366195128998 0 44.207366195128998 -204.43732176166486 0 0 0 0 410.57440597950335 561.91527410234721 0 561.91527410234721 104.44380246740548 0 0 0 0 348.14927691072808 547.4327842308594 0 547.4327842308594 160.56307512108287 0 0 0 0 471.84830483396945 449.11018943787531 0 449.11018943787531 170.63562987094701 0 0 0 0 208.80008937965613 -614.30962429990177 0 -614.30962429990177 -256.43190642475383 0 0 0 0 20.017331286595919 43.400452121141242 0 43.400452121141242 -43.541013054750685 0 0 0 0 6.0580555899327067 -5.4153063086010533 0 -5.4153063086010533 -33.097087761506586 0 0 0 0 441.62507977776113 537.3976110854328 0 537.3976110854328 351.52255092255746 0 0 0 0 373.02049770280246 386.07168577386483 0 386.07168577386483 179.45289746837443 0 0 0 0 585.08655071157409 458.84309481695436 0 458.84309481695436 -144.3818580147281 0 0 0 0 404.29255501931038 492.64165692825918 0 492.64165692825918 89.851825366333287 0 0 0 0 424.81644801333368 261.47147189579545 0 261.47147189579545 -288.78397609008789 0 0 0 0 349.18305943907808 561.28357644437938 0 561.28357644437938 31.85555407090942 0 0 0 0 -0.37590076450609899 3.1127655599834512 0 3.1127655599834512 8.2763468714623301 0 0 0 0 -336.32192489747445 303.28613346461998 0 303.28613346461998 646.29242598177734 0 0 0 0 -361.00005443210102 65.814953456887451 0 65.814953456887451 243.25710962488301 0 0 0 0 -27.827481053041993 832.1414039326628 0 832.1414039326628 606.06298591894665 0 0 0 0 52.208345450235356 106.72030822292436 0 106.72030822292436 -44.77682853692022 0 0 0 0 24.700799780281173 49.411464785229214 0 49.411464785229214 -107.59246402769855 0 0 0 0 844.26571545060142 2.5736523811137886 0 2.5736523811137886 902.63500653676601 0 0 0 0 525.08054966897907 732.41317881515533 0 732.41317881515533 194.58848505257447 0 0 0 0 -37.002229534750235 26.016918655997628 0 26.016918655997628 9.1124524954402659 0 0 0 0 60.707239775524613 95.433268638469599 0 95.433268638469599 -1.0642742912891663 0 0 0 0 51.741415186219065 37.648772907990846 0 37.648772907990846 -8.0350206304623768 0 0 0 0 78.503236611257307 158.01187854452655 0 158.01187854452655 112.02993064696784 0 0 0 0 92.103455786233098 150.33132507187656 0 150.33132507187656 69.42106500488444 0 0 0 0 68.546364839523449 147.5936837223162 0 147.5936837223162 196.45566754079482 0 0 0 0 -9.3189388083236082 12.429830821788784 0 12.429830821788784 7.3608096863117183 0 0 0 0 28.41562853990763 189.8732442799519 0 189.8732442799519 296.86758707001718 0 0 0 0 -688.91695744719254 680.60067947279458 0 680.60067947279458 -698.63463201266131 0 0 0 0 128.73601884402888 -92.03064173095845 0 -92.03064173095845 -1227.0281275324232 0 0 0 0 1.5239817834866969 7.8354492111406273 0 7.8354492111406273 5.7735392893420681 0 0 0 0 -18.697261428496859 541.73563217085757 0 541.73563217085757 -1356.3602504883966 0 0 0 0 -561.68148596659375 675.37609378389243 0 675.37609378389243 -720.08235108329973 0 0 0 0 -49.917731944777188 317.9008446369844 0 317.9008446369844 -1302.3410538073513 0 0 0 0 163.48025387520647 366.15968428379165 0 366.15968428379165 -591.0794217923285 0 0 0 0 89.673713951691752 165.68630439503977 0 165.68630439503977 -373.6474068923344 0 0 0 0 -56.186973777565662 68.367686022588231 0 68.367686022588231 -37.80070181035731 0 0 0 0 -167.94850043522456 89.901363545424829 0 89.901363545424829 -285.30545055829862 0 0 0 0 -72.523468747673178 119.97838094041072 0 119.97838094041072 -288.86536592497578 0 0 0 0 -20.519722068133454 41.431440766438186 0 41.431440766438186 -11.409394388563406 0 0 0 0 -60.246631500188414 121.84289451646418 0 121.84289451646418 -271.52249831937661 0 0 0 0 -57.383330390417541 108.27984489111986 0 108.27984489111986 -208.65668839681166 0 0 0 0 -114.81813126152701 129.20156589255021 0 129.20156589255021 -282.54019272836013 0 0 0 0 -74.452648673475778 88.535576325804868 0 88.535576325804868 -244.31945327138965 0 0 0 0 -4.811066180273663 4.5168217354389633 0 4.5168217354389633 6.5048989593954047 0 0 0 0 50.315494856222358 -23.546370887797821 0 -23.546370887797821 -299.64733371257898 0 0 0 0 -58.775387464189407 104.54010944980473 0 104.54010944980473 -252.789773163473 0 0 0 0 -7.5265513407648541 46.476383025001269 0 46.476383025001269 -188.10731664464765 0 0 0 0 5.3966029614921354 30.522909456563866 0 30.522909456563866 -28.548057087420602 0 0 0 0 44.439925222133752 82.782384694455686 0 82.782384694455686 -29.541803719120708 0 0 0 0 -8.6481728044549371 32.903284482233332 0 32.903284482233332 -34.498868702781422 0 0 0 0 -24.89867823888444 42.590054176469096 0 42.590054176469096 -28.116628093357917 0 0 0 0 3.8085964493525353 54.251680935145487 0 54.251680935145487 26.22812720703223 0 0 0 0 26.962060880984382 116.43059138399713 0 116.43059138399713 50.93848021607846 0 0 0 0 -9.2946840040866139 39.343265943593209 0 39.343265943593209 -21.460965046251033 0 0 0 0 22.622499754561431 97.857708474170067 0 97.857708474170067 26.927388767886441 0 0 0 0 18.160408327150435 95.297747521526617 0 95.297747521526617 -8.8935031804821847 0 0 0 0 49.572212781835333 98.429451626638183 0 98.429451626638183 25.570748171743617 0 0 0 0 21.297094721016634 74.434992857634995 0 74.434992857634995 -3.9054034960813908 0 0 0 0 3.7263446857259908 73.134482166385197 0 73.134482166385197 20.51286763933291 0 0 0 0 19.475900625005579 65.257111970644473 0 65.257111970644473 -16.156527330167592 0 0 0 0 41.647149639071358 112.16758888751428 0 112.16758888751428 8.1814839523649425 0 0 0 0 28.071442728865698 66.947966639733977 0 66.947966639733977 -3.3718685806547342 0 0 0 0 19.175894486145516 53.139345061679293 0 53.139345061679293 18.159542350334235 0 0 0 0 30.01975190369135 65.496600102489595 0 65.496600102489595 -11.729583365887947 0 0 0 0 25.132596304189065 87.501289774780162 0 87.501289774780162 23.272897712886333 0 0 0 0 4.9515372249443317 63.199372772003699 0 63.199372772003699 7.5939321137266234 0 0 0 0 6.6182451877606852 70.665747292084291 0 70.665747292084291 9.6122806053335168 0 0 0 0 -34.881734186205527 47.900327594701707 0 47.900327594701707 22.344443186949121 0 0 0 0 52.157025217251885 128.49076441157376 0 128.49076441157376 32.130456399027025 0 0 0 0 133.52587812566344 176.88778578491474 0 176.88778578491474 128.99230116313993 0 0 0 0 70.629859802877036 39.217005276237614 0 39.217005276237614 -131.31009707425255 0 0 0 0 74.214597343883341 155.59148311998894 0 155.59148311998894 -83.955031054357079 0 0 0 0 82.695322381609003 122.08207504704478 0 122.08207504704478 210.83034944724568 0 0 0 0 38.618379878069874 3.8323294625752169 0 3.8323294625752169 -44.91930178383366 0 0 0 0 60.505898011258978 97.225348676904105 0 97.225348676904105 -24.860945740831085 0 0 0 0 114.48502693991759 162.05324916883546 0 162.05324916883546 141.35561061546468 0 0 0 0 58.579227048033275 79.218669503744906 0 79.218669503744906 -23.52913045915858 0 0 0 0 9.7564072274617502 35.487128313776338 0 35.487128313776338 -336.80649593347334 0 0 0 0 -38.652625435126538 56.136875916738063 0 56.136875916738063 -340.37460487286444 0 0 0 0 3.1993584558448802 10.265332223937207 0 10.265332223937207 -0.0019391390718368484 0 0 0 0 58.90933815050812 137.16442771015863 0 137.16442771015863 131.35870463462561 0 0 0 0 59.586343432034369 84.826886569047531 0 84.826886569047531 53.752629593960592 0 0 0 0 141.78660382460657 152.95459737119381 0 152.95459737119381 89.61231293156743 0 0 0 0 73.35699225411372 146.10290159273427 0 146.10290159273427 114.03043578735378 0 0 0 0 83.288242254857323 164.25283554373891 0 164.25283554373891 78.201558572181966 0 0 0 0 92.729269733606088 148.49338090378751 0 148.49338090378751 3.421216811024351 0 0 0 0 100.52530511554505 102.25070680407589 0 102.25070680407589 -21.754381123304483 0 0 0 0 145.45590898024602 -54.995715738055878 0 -54.995715738055878 -206.9356765864577 0 0 0 0 67.179648422794656 67.473388060166258 0 67.473388060166258 -29.913487678095265 0 0 0 0 206.96445740126728 -35.135727250162745 0 -35.135727250162745 -324.03997255668219 0 0 0 0 -36.188475877948804 34.157109830077388 0 34.157109830077388 -244.48097695461183 0 0 0 0 3.2934093991152977 1.462087517997702 0 1.462087517997702 0.72905601577297574 0 0 0 0 617.87031372195634 575.96999863995006 0 575.96999863995006 1712.8244564316992 0 0 0 0 884.86528626326253 -161.27415606497379 0 -161.27415606497379 2303.2769911662108 0 0 0 0 48.082585656273295 587.88829727642587 0 587.88829727642587 1968.4291434538609 0 0 0 0 -1356.0716482801072 -227.66228322379902 0 -227.66228322379902 5199.6583615329873 0 0 0 0 -470.40453480409269 -208.69906615888613 0 -208.69906615888613 2922.4440036539454 0 0 0 0 -51.934709361255955 -80.625955286115641 0 -80.625955286115641 566.72723091557418 0 0 0 0 -94.928486243503357 159.46256789847394 0 159.46256789847394 3420.7809217716567 0 0 0 0 425.99324845315277 -980.95842067603371 0 -980.95842067603371 3265.2985520412549 0 0 0 0 18.920833528099216 10.260327244533642 0 10.260327244533642 2.8707439333434479 0 0 0 0 814.58231282421548 -722.45352413131332 0 -722.45352413131332 -3545.757264134445 0 0 0 0 311.63424649095759 -165.71495620379574 0 -165.71495620379574 -1972.6187079574884 0 0 0 0 256.23307896342749 -1211.0283452736476 0 -1211.0283452736476 -2780.1986647645172 0 0 0 0 37.410983516507926 40.043898924335991 0 40.043898924335991 9.6122919729393104 0 0 0 0 645.06840820728166 2375.9232298889438 0 2375.9232298889438 -45.045194493315648 0 0 0 0 364.00464160108186 343.08749141381122 0 343.08749141381122 2273.6783668263088 0 0 0 0 -1420.9582778018548 -1032.6518307998049 0 -1032.6518307998049 -963.5446212941024 0 0 0 0 -85.638025236519752 60.080439601888429 0 60.080439601888429 58.027633914432954 0 0 0 0 7.3472987284511335 63.438614238623778 0 63.438614238623778 48.083855220185683 0 0 0 0 24.784534659011115 77.900355954989209 0 77.900355954989209 52.45207646547351 0 0 0 0 46.485202355479487 94.16786393798975 0 94.16786393798975 53.783360364508553 0 0 0 0 49.411088876022404 80.38353029746213 0 80.38353029746213 27.180578848347068 0 0 0 0 13.3754902007841 57.687231677807674 0 57.687231677807674 -3.5287316337665402 0 0 0 0 73.877495325946256 110.32723064087622 0 110.32723064087622 8.8316284008251387 0 0 0 0 11.371539667009472 72.393234505692135 0 72.393234505692135 10.616464427860421 0 0 0 0 -2550.4093755853246 3374.4079032068548 0 3374.4079032068548 4047.3311346087867 0 0 0 0 -13.390475798916142 55.541976585062059 0 55.541976585062059 -12.744729049742205 0 0 0 0 57.936596031453519 118.15446908591548 0 118.15446908591548 62.879948265068379 0 0 0 0 7299.4478033828782 -423.27130391437095 0 -423.27130391437095 734.59669431613293 0 0 0 0 43.232035941955473 97.660073167855444 0 97.660073167855444 2.7894736498710699 0 0 0 0 54.408081284297623 107.67878375925648 0 107.67878375925648 -36.86201140988851 0 0 0 0 43.612525300277412 73.833651161432499 0 73.833651161432499 48.417339974861534 0 0 0 0 54.806021557691565 82.136905973668036 0 82.136905973668036 -2.264734543277882 0 0 0 0 -27.188699317835386 21.336788917969074 0 21.336788917969074 -4.2949547636575574 0 0 0 0 53.647706530096912 86.401353224995546 0 86.401353224995546 -17.186341374297626 0 0 0 0 55.615006851359794 93.748235547158401 0 93.748235547158401 -24.069542164630548 0 0 0 0 54.496706494581304 96.470824771415209 0 96.470824771415209 -7.3226045038318262 0 0 0 0 1235.7093233355336 952.35898676897341 0 952.35898676897341 -4291.2822613606695 0 0 0 0 435.68213907581958 568.59042992681498 0 568.59042992681498 -2553.5140184068587 0 0 0 0 270.05537374316191 66.562898483287427 0 66.562898483287427 -1453.9077529839124 0 0 0 0 473.86223887491724 -420.41858458440402 0 -420.41858458440402 -1941.5760227336868 0 0 0 0 345.62472293660358 432.36374997624807 0 432.36374997624807 -962.98677830846282 0 0 0 0 459.07845761889257 494.45542365415895 0 494.45542365415895 -970.32957922320929 0 0 0 0 918.57146600500528 2257.531296252313 0 2257.531296252313 531.42422758365865 0 0 0 0 684.85120643663686 1460.0823379743379 0 1460.0823379743379 -1947.6295439545647 0 0 0 0 -54.183425257182535 187.49289257622149 0 187.49289257622149 -43.24494559734012 0 0 0 0 52.015526290368143 120.67524534286349 0 120.67524534286349 84.812215075042332 0 0 0 0 15.848042736539846 43.926055265465152 0 43.926055265465152 -53.290323060943024 0 0 0 0 22.905629664359502 11.519983153692536 0 11.519983153692536 2.8875734689933665 0 0 0 0 113.72239040557542 26.100474864317221 0 26.100474864317221 9.1183471372642089 0 0 0 0 65.103488593627844 95.983886523608817 0 95.983886523608817 45.899682997347554 0 0 0 0 53.764095254407948 119.29350635988158 0 119.29350635988158 69.228230054228334 0 0 0 0 39.772161634371173 75.80579617364026 0 75.80579617364026 8.5552904581455209 0 0 0 0 55.054229533430771 105.22882136299449 0 105.22882136299449 86.358162806573091 0 0 0 0 56.840547805541064 110.7531431291136 0 110.7531431291136 52.497443239437416 0 0 0 0 9.93919559144706 396.67432812022162 0 396.67432812022162 -595.95155817896011 0 0 0 0 506.9947563860278 1786.4526906037936 0 1786.4526906037936 1466.4435213066899 0 0 0 0 -257.37159819356384 118.25044378223538 0 118.25044378223538 504.72985210441402 0 0 0 0 76.861120414549063 -4.9710575152199112 0 -4.9710575152199112 -2.1410932792058475 0 0 0 0 144.95105913276711 115.50645507346053 0 115.50645507346053 -883.98683333606459 0 0 0 0 96.096667062742199 -192.17036622110754 0 -192.17036622110754 -727.10028800819418 0 0 0 0 -4.1125946899228438 238.690022440147 0 238.690022440147 141.4160534508992 0 0 0 0 -3.4956655433654982 9.2310026252378634 0 9.2310026252378634 -12.070394728526367 0 0 0 0 2120.8049812479439 1813.4655599222169 0 1813.4655599222169 853.50361960224109 0 0 0 0 3450.6787572247067 1313.2295108081598 0 1313.2295108081598 214.1513957491261 0 0 0 0 1697.13524894331 1456.2781218149285 0 1456.2781218149285 1445.7929974049621 0 0 0 0 1030.6605471765906 361.86500539492408 0 361.86500539492408 842.68447409750661 0 0 0 0 2290.6538999499026 829.60975815696293 0 829.60975815696293 270.66652793320827 0 0 0 0 14.926445700388442 -2.1648245054700936 0 -2.1648245054700936 0.3520930654831318 0 0 0 0 -410.86295168534343 1022.2939912999209 0 1022.2939912999209 858.97323355416302 0 0 0 0 479.01636283037806 -29.503149673953885 0 -29.503149673953885 -371.74991788312036 0 0 0 0 1.179973984391772 18.74288796230752 0 18.74288796230752 -6.743638888115612 0 0 0 0 179.26481575743674 -148.47669560778013 0 -148.47669560778013 210.79199364472879 0 0 0 0 768.81099349096621 710.57885355089093 0 710.57885355089093 471.31481173415523 0 0 0 0 376.09647868733009 243.14738323621714 0 243.14738323621714 265.34291571236099 0 0 0 0 68.96240179403685 494.28120976882929 0 494.28120976882929 62.601284152158769 0 0 0 0 1318.4616659678197 -209.15307911393575 0 -209.15307911393575 -353.92114313936327 0 0 0 0 1592.4725727479117 1709.8581875136006 0 1709.8581875136006 1341.0930598611303 0 0 0 0 -170.80857306752296 530.70363430891302 0 530.70363430891302 68.263644212274812 0 0 0 0 -173.14060991115957 1489.2562800068699 0 1489.2562800068699 3819.1496667439351 0 0 0 0 -476.92818919037018 207.5134197101288 0 207.5134197101288 22.240995160624152 0 0 0 0 17.280697576411391 -4.4904453820883532 0 -4.4904453820883532 4.282991866136598 0 0 0 0 -30.87477439439499 -482.683435387793 0 -482.683435387793 233.35658926574979 0 0 0 0 -378.77667236125262 -722.2904561241694 0 -722.2904561241694 -911.03562817088095 0 0 0 0 630.8701908561743 -178.0884831204603 0 -178.0884831204603 -786.20718692020455 0 0 0 0 820.85860126710133 -641.60233581057764 0 -641.60233581057764 1272.6196448024129 0 0 0 0 -1714.5088585723267 -90.901916014922108 0 -90.901916014922108 524.7742279455706 0 0 0 0 177.01690449674288 1707.646922794549 0 1707.646922794549 443.83492206745723 0 0 0 0 -1686.7368613007579 943.00196350571059 0 943.00196350571059 684.76706215288141 0 0 0 0 -181.63789698214896 388.84374846135324 0 388.84374846135324 105.75571080995724 0 0 0 0 -261.59292455973218 572.683627346094 0 572.683627346094 234.73527944457601 0 0 0 0 360.75245958849405 241.12687257186371 0 241.12687257186371 515.41153325821506 0 0 0 0 401.9810343193941 616.50880177483486 0 616.50880177483486 88.418150159093784 0 0 0 0 602.60410602144361 -45.039496169081758 0 -45.039496169081758 107.57099352739169 0 0 0 0 49.468540356233007 135.17028393904184 0 135.17028393904184 49.860690813700785 0 0 0 0 -90.485726528533064 497.10481109488319 0 497.10481109488319 43.384954492241377 0 0 0 0 109.02137955754705 210.84049071991831 0 210.84049071991831 145.38820334029151 0 0 0 0 -206.37038615599454 319.27359981306654 0 319.27359981306654 148.61165036825787 0 0 0 0 -739.24504834762024 -249.08912268929998 0 -249.08912268929998 -70.947920651815366 0 0 0 0 -1127.6360708947457 351.52612219117873 0 351.52612219117873 241.28383516008034 0 0 0 0 -328.03908841800558 349.05572580656735 0 349.05572580656735 -15.764059406428714 0 0 0 0 -373.17762199159188 383.098507957322 0 383.098507957322 201.65395730987075 0 0 0 0 -190.5106164129607 373.00775737970253 0 373.00775737970253 174.49486959922069 0 0 0 0 -408.55235722791508 311.68659701768775 0 311.68659701768775 214.15487148734974 0 0 0 0 -412.61298757338608 545.58426142630924 0 545.58426142630924 289.77013821280707 0 0 0 0 -228.62222685825213 361.87269626851776 0 361.87269626851776 150.53984310926171 0 0 0 0 -262.06067561778718 484.43266684649097 0 484.43266684649097 314.21754148908076 0 0 0 0 -382.86233469278375 372.82786692312857 0 372.82786692312857 437.47528893932758 0 0 0 0 -47.473507366553122 119.06114716185402 0 119.06114716185402 395.91752680799982 0 0 0 0 -5.8474670185223472 4.0631023023086925 0 4.0631023023086925 0.95029432870575903 0 0 0 0 -256.33365806067559 590.2393896724825 0 590.2393896724825 -592.83124069156474 0 0 0 0 -136.92238611989228 615.6453036822204 0 615.6453036822204 129.97131580860878 0 0 0 0 122.18646360941466 357.05539081080497 0 357.05539081080497 79.071887450714712 0 0 0 0 -405.26149914623193 336.56188083155575 0 336.56188083155575 350.09739460473793 0 0 0 0 -581.23927130046695 685.88766419043895 0 685.88766419043895 180.96174791530939 0 0 0 0 393.36775543812109 -32.766545431077247 0 -32.766545431077247 208.63054856605595 0 0 0 0 -3.958725826582203 10.465835348882969 0 10.465835348882969 -13.51079085888864 0 0 0 0 491.34379871158035 500.41965918151982 0 500.41965918151982 358.36738545130356 0 0 0 0 451.30900143985718 379.44817854669236 0 379.44817854669236 138.96288305595226 0 0 0 0 131.48446753578173 589.87612296876614 0 589.87612296876614 315.98503296033596 0 0 0 0 128.7358493551742 470.17448943876661 0 470.17448943876661 294.22451363514847 0 0 0 0 646.53307016541703 224.40019069367554 0 224.40019069367554 141.21366418550315 0 0 0 0 105.48643094324279 325.58823811005277 0 325.58823811005277 288.45486744277878 0 0 0 0 823.05440113299255 603.44912552279129 0 603.44912552279129 109.43348607966618 0 0 0 0 1302.7215974371393 394.57480674700491 0 394.57480674700491 432.00810265535256 0 0 0 0 96.880136410709383 552.21828755953175 0 552.21828755953175 -222.43705260811839 0 0 0 0 -15.542848737636056 26.173310444254838 0 26.173310444254838 -27.946642438734557 0 0 0 0 1678.9199554879197 660.96559869565681 0 660.96559869565681 169.11887857390684 0 0 0 0 928.71293664559562 -230.8178681746067 0 -230.8178681746067 379.04864235586138 0 0 0 0 1.5203040871772373 2.8228790348384365 0 2.8228790348384365 -6.5544439968863912 0 0 0 0 1662.6666946392315 1149.7426392309249 0 1149.7426392309249 135.79331373787136 0 0 0 0 995.95962283331755 1283.2402097974409 0 1283.2402097974409 322.15201321968925 0 0 0 0 1207.2005377514906 964.2363538051286 0 964.2363538051286 224.92833536662511 0 0 0 0 992.26347548142439 905.28597587638069 0 905.28597587638069 293.23431984451599 0 0 0 0 -14.56219649001175 24.2390428139107 0 24.2390428139107 -23.328512155013755 0 0 0 0 159.10147371895164 270.73530990428117 0 270.73530990428117 -38.368363082758151 0 0 0 0 190.38440906007372 430.58563774881623 0 430.58563774881623 100.78708332273527 0 0 0 0 -64.96200211490941 1581.4939093404973 0 1581.4939093404973 29.93476039217785 0 0 0 0 117.1885039345525 443.33992040905287 0 443.33992040905287 146.97039090833277 0 0 0 0 -121.4465979079705 486.25954782310873 0 486.25954782310873 184.71631598260865 0 0 0 0 -192.05438992133736 -50.211945859562547 0 -50.211945859562547 -270.93685404473217 0 0 0 0 164.87998666771819 721.78330304252449 0 721.78330304252449 1623.7258036109852 0 0 0 0 554.73481799739238 1395.9510582695657 0 1395.9510582695657 398.24611916398862 0 0 0 0 940.40011591273651 835.14208510863682 0 835.14208510863682 686.63218734957627 0 0 0 0 1657.6423748837697 -130.8140975945571 0 -130.8140975945571 1408.3803518690365 0 0 0 0 567.13820338615915 846.77119663648773 0 846.77119663648773 417.34518040002877 0 0 0 0 692.03349360390348 906.27890338441648 0 906.27890338441648 1079.9808064354875 0 0 0 0 697.36439846669191 897.74869769780616 0 897.74869769780616 381.51531097374391 0 0 0 0 251.60054961981223 307.32937703796779 0 307.32937703796779 66.340505064035824 0 0 0 0 521.56811027438948 330.77494176146502 0 330.77494176146502 -79.276297215285012 0 0 0 0 37.971013151476654 -56.564616184612532 0 -56.564616184612532 -65.722363248001784 0 0 0 0 70.750162732889294 206.17278323649953 0 206.17278323649953 -364.54777034027211 0 0 0 0 1.5807164903817466 39.877242083341116 0 39.877242083341116 -35.728431847528554 0 0 0 0 -27.284048025121592 62.065893760751351 0 62.065893760751351 -47.970954257878475 0 0 0 0 -37.391884575969016 82.827048221603036 0 82.827048221603036 -53.787812748341821 0 0 0 0 -8.6475902548845625 70.216004618036095 0 70.216004618036095 -73.324087392538786 0 0 0 0 8.8891531264343939 33.553997761504434 0 33.553997761504434 -36.308208349277265 0 0 0 0 15.663345197375747 32.983003799337894 0 32.983003799337894 -40.190381586668082 0 0 0 0 12.688556388427969 12.126729561481625 0 12.126729561481625 -14.266073114646133 0 0 0 0 21.436635199366719 32.371623513172381 0 32.371623513172381 -53.38762015318207 0 0 0 0 2.3844813613250153 11.75980950036319 0 11.75980950036319 -8.9443793451355305 0 0 0 0 20.346222801788826 25.609326677491481 0 25.609326677491481 -27.184088473615702 0 0 0 0 195.16852935830684 223.87781565843034 0 223.87781565843034 12.64458052603004 0 0 0 0 183.72997040821065 -85.299197469721548 0 -85.299197469721548 -267.57057544578129 0 0 0 0 376.14222687000074 -4.7948264360820758 0 -4.7948264360820758 -233.8910198945523 0 0 0 0 106.96147524251137 79.01863715791842 0 79.01863715791842 -13.365638645947911 0 0 0 0 3.2013752617444879 3.9570183138038146 0 3.9570183138038146 -0.26785104044590469 0 0 0 0 35.691589941445272 -15.476937694103981 0 -15.476937694103981 -70.984218008845346 0 0 0 0 -37.946453107448178 11.340861485106871 0 11.340861485106871 -7.8764264685451053 0 0 0 0 -121.24145754610072 -80.117863763385685 0 -80.117863763385685 -82.544756428324035 0 0 0 0 599.09415650097435 174.22446120929817 0 174.22446120929817 -218.09546245241654 0 0 0 0 584.22247327226432 619.31365352153807 0 619.31365352153807 366.16824191481282 0 0 0 0 1000.16762923191 447.32724071994744 0 447.32724071994744 305.82243147000554 0 0 0 0 -8.7183246185741154 61.928713382098067 0 61.928713382098067 37.372684735964867 0 0 0 0 -13.81771852458769 78.1955787086481 0 78.1955787086481 29.808889529525914 0 0 0 0 -7.9752818383969881 35.857927329703493 0 35.857927329703493 -49.327015085682206 0 0 0 0 -23.289228324223586 63.208783334004693 0 63.208783334004693 43.609249458473641 0 0 0 0 -55.945492905302672 63.878413277037907 0 63.878413277037907 45.270777918864042 0 0 0 0 81.046145425973464 40.854426671179681 0 40.854426671179681 -53.335711974243168 0 0 0 0 78.239017008889277 12.619272701835143 0 12.619272701835143 3.8303016138961539 0 0 0 0 -45.973914539204998 107.75016019070972 0 107.75016019070972 102.82586107880343 0 0 0 0 94.920335611968767 180.45768146635965 0 180.45768146635965 -9.8912290981970727 0 0 0 0 -50.137889617335389 45.35648176348311 0 45.35648176348311 17.599596659924714 0 0 0 0 24.234758753504138 41.506882316200063 0 41.506882316200063 44.710520094638923 0 0 0 0 19.219077868867316 50.153145150485216 0 50.153145150485216 32.458359973621555 0 0 0 0 28.194809822103707 54.130742662935518 0 54.130742662935518 -43.809655934135662 0 0 0 0 -5.8783220478362637 23.304812421352835 0 23.304812421352835 0.26909537147730589 0 0 0 0 16.212925575739064 42.808604564808775 0 42.808604564808775 -2.437633793160785 0 0 0 0 64.193256742277299 34.869262824737234 0 34.869262824737234 -30.591457681439351 0 0 0 0 32.192268144499394 46.747056926338701 0 46.747056926338701 -34.599113175005186 0 0 0 0 34.922417333713383 40.880025599399232 0 40.880025599399232 -25.017434077628423 0 0 0 0 137.8990782211913 64.419659206498181 0 64.419659206498181 -172.68175866192905 0 0 0 0 -17.527272994342638 57.822326073794102 0 57.822326073794102 -29.67555554700084 0 0 0 0 5.1040855689352611 56.171900160930818 0 56.171900160930818 -38.015127400140045 0 0 0 0 17.161242632835638 102.98552353981722 0 102.98552353981722 -70.927135109144729 0 0 0 0 -199.52953485455873 72.094079797898303 0 72.094079797898303 -7.2129837701795623 0 0 0 0 -31.960145937031484 210.16673875048582 0 210.16673875048582 -83.824141833814792 0 0 0 0 138.71525624795322 7.0465285752034106 0 7.0465285752034106 -50.992155790620018 0 0 0 0 164.26051602212829 99.175049323384883 0 99.175049323384883 -110.39846922131255 0 0 0 0 -9.3010072940332549 13.535548029842005 0 13.535548029842005 -8.7869861114455716 0 0 0 0 88.820118810064741 60.839987015759107 0 60.839987015759107 -58.095423728809692 0 0 0 0 88.670266517903229 42.736723360159772 0 42.736723360159772 -65.305369525653077 0 0 0 0 -5.2255836473377713 57.651794820398209 0 57.651794820398209 -73.925275535526453 0 0 0 0 -39.921801102311292 8.0156201417994453 0 8.0156201417994453 -119.52432402917475 0 0 0 0 -18.624026762536232 51.900711436403071 0 51.900711436403071 37.891857361406437 0 0 0 0 -23.91560787763116 27.272109865516526 0 27.272109865516526 -28.44461094666633 0 0 0 0 -72.632775389891322 6.5124363381019066 0 6.5124363381019066 83.980311935549253 0 0 0 0 57.122296818321047 115.8922788228665 0 115.8922788228665 -22.962010117480531 0 0 0 0 -22.106580083345762 118.53033021107694 0 118.53033021107694 54.979090442939196 0 0 0 0 14.950747593742562 66.584806266764645 0 66.584806266764645 125.48305595791317 0 0 0 0 120.91180815528787 -10.213990447344258 0 -10.213990447344258 -93.265258263098076 0 0 0 0 4.0971642795970951 9.3382619960620161 0 9.3382619960620161 -7.9715955969689674 0 0 0 0 45.608083301091028 142.3126392129343 0 142.3126392129343 289.04662657424342 0 0 0 0 108.25411365608306 60.864773734603659 0 60.864773734603659 16.94880320460652 0 0 0 0 -61.862356018224091 -71.448284558166051 0 -71.448284558166051 134.82258025811461 0 0 0 0 100.31364680991101 198.0125207355668 0 198.0125207355668 229.21892064223357 0 0 0 0 405.24690787793224 295.8664328037994 0 295.8664328037994 135.01639124290523 0 0 0 0 314.90585435015964 233.4350210991397 0 233.4350210991397 175.08692855993286 0 0 0 0 72.806199828613899 38.577630980622416 0 38.577630980622416 -5.6423767334053991 0 0 0 0 145.06676549019176 189.62250891765871 0 189.62250891765871 116.19665340093798 0 0 0 0 1033.2264437535705 596.18998109354288 0 596.18998109354288 496.54640281431784 0 0 0 0 1028.0588184063163 500.24693002032291 0 500.24693002032291 280.04923756016069 0 0 0 0 676.61341636830184 520.5867362387944 0 520.5867362387944 434.42393474559503 0 0 0 0 951.03620441633393 612.15195309979026 0 612.15195309979026 370.8539419059598 0 0 0 0 908.71245354892471 458.61922327423417 0 458.61922327423417 408.65720916428836 0 0 0 0 547.22784802511887 529.28893673185667 0 529.28893673185667 601.38791751044118 0 0 0 0 13.263699819215617 313.1002267294416 0 313.1002267294416 517.4740178467473 0 0 0 0 672.00904464817722 459.33061334874947 0 459.33061334874947 324.47871546729584 0 0 0 0 364.22582068720658 377.92750696882285 0 377.92750696882285 259.84961878882314 0 0 0 0 246.35335628854955 398.48862422593083 0 398.48862422593083 354.85752964412677 0 0 0 0 721.96075064555043 467.31259924623737 0 467.31259924623737 225.78432211991458 0 0 0 0 1152.7988343928209 433.77307667943023 0 433.77307667943023 201.13159872726828 0 0 0 0 1277.7888510970261 687.57671416975063 0 687.57671416975063 258.10021535109263 0 0 0 0 712.47256516865309 525.64759135353961 0 525.64759135353961 342.03482511980837 0 0 0 0 161.75295791092503 254.02324558365217 0 254.02324558365217 -122.78045085672056 0 0 0 0 -12.9489340717634 23.677800552678541 0 23.677800552678541 -28.76257248494187 0 0 0 0 843.36452565222862 551.03994641973259 0 551.03994641973259 312.37220624356269 0 0 0 0 699.49532730466672 535.45867132311832 0 535.45867132311832 187.28883292598766 0 0 0 0 795.01805305210655 445.26617550852097 0 445.26617550852097 145.66066563027562 0 0 0 0 744.2117101235508 497.31797449370424 0 497.31797449370424 212.65525497417548 0 0 0 0 1022.9155854404999 462.3457460521895 0 462.3457460521895 86.628130478478852 0 0 0 0 705.76945483751115 410.23676934533069 0 410.23676934533069 128.56413147575222 0 0 0 0 650.74754131544614 528.83048336736101 0 528.83048336736101 177.87856743068551 0 0 0 0 816.70132976810055 364.98925454877826 0 364.98925454877826 178.29545111424522 0 0 0 0 -8.0225825570828349 15.635501248225886 0 15.635501248225886 -18.137823866799636 0 0 0 0 261.73955966097856 45.660337815483217 0 45.660337815483217 106.15762622811599 0 0 0 0 1371.7279858301167 500.7942426015361 0 500.7942426015361 204.10942483649706 0 0 0 0 1041.004636287671 589.12635408008646 0 589.12635408008646 116.97972066269722 0 0 0 0 151.60457090139607 242.04065416235244 0 242.04065416235244 141.36886081667035 0 0 0 0 191.13356438287519 203.47444646678559 0 203.47444646678559 44.603477710581501 0 0 0 0 451.66974434485746 399.60801826251554 0 399.60801826251554 -68.64758670739684 0 0 0 0 527.24705408808222 508.96838522354665 0 508.96838522354665 228.35301381433965 0 0 0 0 445.58722459494311 363.27697750835432 0 363.27697750835432 123.81732782415929 0 0 0 0 485.9505171679848 550.76568312505697 0 550.76568312505697 140.58539577582269 0 0 0 0 580.30525499960277 462.53834721077874 0 462.53834721077874 179.30423892338877 0 0 0 0 391.88431498751015 460.85937697818736 0 460.85937697818736 118.5732727284776 0 0 0 0 279.1363243337928 380.20437923043028 0 380.20437923043028 -73.015250841053785 0 0 0 0 333.24998168275488 513.4152835887362 0 513.4152835887362 91.823747656264459 0 0 0 0 278.76172191716614 625.23564520616492 0 625.23564520616492 338.9616551851941 0 0 0 0 260.21063358622632 713.61398595030187 0 713.61398595030187 55.965471352290479 0 0 0 0 437.71823337265232 604.71429331385298 0 604.71429331385298 94.488692787012042 0 0 0 0 461.64621118946161 547.03112394786149 0 547.03112394786149 232.23662651513587 0 0 0 0 537.76477873959811 559.40350093484449 0 559.40350093484449 164.20633422394894 0 0 0 0 512.4597013921375 510.52871529763797 0 510.52871529763797 249.59216065527289 0 0 0 0 441.69029083082569 440.1147651786232 0 440.1147651786232 430.11050344846444 0 0 0 0 314.05875543922593 520.18056870743021 0 520.18056870743021 486.18033133977224 0 0 0 0 333.22842880160897 545.21344954890083 0 545.21344954890083 352.08241108672519 0 0 0 0 332.62404596599981 538.27892075052114 0 538.27892075052114 400.60328953457065 0 0 0 0 286.38722679549392 567.1365927918232 0 567.1365927918232 416.94753761318134 0 0 0 0 1518.9328378451446 826.21541467116913 0 826.21541467116913 165.89852495709783 0 0 0 0 -8.2768684007053785 18.004388532925759 0 18.004388532925759 -25.64455825680227 0 0 0 0 172.56125216701912 167.4968484347919 0 167.4968484347919 -48.160756430355832 0 0 0 0 1191.8845164294435 794.24124827959167 0 794.24124827959167 322.11543003362021 0 0 0 0 1207.3856752511363 750.69387201554855 0 750.69387201554855 266.15977824645233 0 0 0 0 219.88332590815844 70.285210462650866 0 70.285210462650866 53.667186365404632 0 0 0 0 -12.964677916456015 20.332480992967177 0 20.332480992967177 -19.778570479995778 0 0 0 0 518.1813116170888 464.26830751179659 0 464.26830751179659 209.39816346997395 0 0 0 0 638.92976266550249 426.49782207830867 0 426.49782207830867 220.55645041393291 0 0 0 0 2051.3653851116546 1195.6970674803561 0 1195.6970674803561 474.02844937596819 0 0 0 0 2108.8179479628125 929.84162129203651 0 929.84162129203651 1052.6260669744224 0 0 0 0 -1.6775912504106856 10.972124044056194 0 10.972124044056194 -19.54734311516421 0 0 0 0 190.49956079971162 109.81674114466296 0 109.81674114466296 9.0275195545982569 0 0 0 0 491.10313596329797 444.05510868768033 0 444.05510868768033 275.86282651571673 0 0 0 0 1253.6689747213713 1041.3119425619516 0 1041.3119425619516 1012.8005956928246 0 0 0 0 1572.9055686262182 763.95211488311179 0 763.95211488311179 290.80788494716398 0 0 0 0 988.15700121051486 1022.5380272683906 0 1022.5380272683906 736.24157864108565 0 0 0 0 1205.9912898543444 832.4471932551678 0 832.4471932551678 583.57298750187329 0 0 0 0 625.19027777519523 550.37574351378498 0 550.37574351378498 457.37030372738081 0 0 0 0 445.40672040541403 643.78890603623222 0 643.78890603623222 721.47595524333883 0 0 0 0 828.11905365977509 707.12709330495272 0 707.12709330495272 337.63487910685944 0 0 0 0 745.30840574986996 479.64672627294203 0 479.64672627294203 204.58732817220152 0 0 0 0 428.54133643400951 664.92107168550137 0 664.92107168550137 208.51558023424877 0 0 0 0 67.780197512408677 239.81295928548752 0 239.81295928548752 182.71189890074311 0 0 0 0 122.65408348265646 166.03681455605692 0 166.03681455605692 275.97206100179665 0 0 0 0 43.437899177990346 139.01792209999257 0 139.01792209999257 -234.09403138558991 0 0 0 0 -2.425891635735081 2.8231875937545539 0 2.8231875937545539 -8.6933082713689487 0 0 0 0 -1049.9462992754861 160.91315773129463 0 160.91315773129463 20.687612714144052 0 0 0 0 -874.68926911074368 202.59704293280083 0 202.59704293280083 243.16236895103066 0 0 0 0 -607.40746445130799 775.15921197129501 0 775.15921197129501 103.53582852321415 0 0 0 0 -25.187128971275797 431.81746685918188 0 431.81746685918188 228.5864392627409 0 0 0 0 -340.61625866270799 624.65154488627377 0 624.65154488627377 391.04762704734458 0 0 0 0 -537.96377812473429 438.03547506511677 0 438.03547506511677 360.06433547432243 0 0 0 0 -474.53123523424642 394.69968095111471 0 394.69968095111471 388.68277946235321 0 0 0 0 -538.11194582156395 427.58498588028306 0 427.58498588028306 422.70326791417756 0 0 0 0 321.56615483592282 633.40980001501885 0 633.40980001501885 362.49978556435963 0 0 0 0 159.44854523990034 390.9117920648132 0 390.9117920648132 271.83610429189685 0 0 0 0 872.26344896678529 380.30407377907977 0 380.30407377907977 208.53202892234549 0 0 0 0 1128.6508560506477 721.66284053932759 0 721.66284053932759 205.93731046683388 0 0 0 0 691.67345980086702 709.33717559352954 0 709.33717559352954 346.95075009448919 0 0 0 0 850.14355988302123 507.0921395393234 0 507.0921395393234 375.41635124701861 0 0 0 0 39.996702978378835 635.69580210597633 0 635.69580210597633 426.14681556208234 0 0 0 0 463.14597089159042 438.3143557120784 0 438.3143557120784 222.0433605434082 0 0 0 0 20.540661467166501 676.30878119014233 0 676.30878119014233 -831.59027421467727 0 0 0 0 -156.49412143856171 509.0864951658732 0 509.0864951658732 -771.72715906917074 0 0 0 0 197.11703072499949 461.69937731178288 0 461.69937731178288 -770.68069374523475 0 0 0 0 32.649211903972173 690.34817905276213 0 690.34817905276213 -818.32120688575378 0 0 0 0 439.68520522749168 549.72931781271473 0 549.72931781271473 -900.57571982344234 0 0 0 0 249.49475341352809 209.11507091594467 0 209.11507091594467 -416.1016646916687 0 0 0 0 145.425181584651 350.18529587962257 0 350.18529587962257 -1169.3684396457902 0 0 0 0 41.076428209787991 373.6783449032373 0 373.6783449032373 -667.19819486903725 0 0 0 0 40.573610658073449 362.83239567492819 0 362.83239567492819 -496.6940925467643 0 0 0 0 143.00758852499712 -184.11397671835584 0 -184.11397671835584 -104.99461059019814 0 0 0 0 -1.2919523700470137 11.138980496080279 0 11.138980496080279 -4.8998746671064737 0 0 0 0 40.772047181933885 69.049338975939463 0 69.049338975939463 -5.7398804667900549 0 0 0 0 -21.750063524368557 25.535800742171546 0 25.535800742171546 -12.381545966021264 0 0 0 0 89.383765888689595 184.12922102557059 0 184.12922102557059 163.24028601868486 0 0 0 0 48.003513895055221 75.349908705997223 0 75.349908705997223 -57.569540629774565 0 0 0 0 136.58137230180728 261.1052461582367 0 261.1052461582367 -10.26900237382506 0 0 0 0 339.42036233730323 372.58436963448912 0 372.58436963448912 -220.57692015875364 0 0 0 0 486.66784358798031 10.369148435944226 0 10.369148435944226 -54.282526729497476 0 0 0 0 0.35769243684772789 1.3805908884899623 0 1.3805908884899623 1.4736311807355378 0 0 0 0 165.46531105006579 476.46823610478168 0 476.46823610478168 -280.26778906788968 0 0 0 0 -69.86368870644219 342.7147380176757 0 342.7147380176757 23.954903371020919 0 0 0 0 -43.577572720510943 375.48903750696627 0 375.48903750696627 -79.050294811924687 0 0 0 0 -17.086355358049332 278.27072365210188 0 278.27072365210188 -129.90752535988577 0 0 0 0 35.616064079033094 299.36287657287903 0 299.36287657287903 8.0484217745615751 0 0 0 0 5.1322480916933273 232.60195357100019 0 232.60195357100019 170.34073655847169 0 0 0 0 106.83301873393248 282.31790351092786 0 282.31790351092786 193.29737405048218 0 0 0 0 9.5029206867184257 162.90886944240629 0 162.90886944240629 131.78481436456423 0 0 0 0 74.279100578976795 68.694572879203406 0 68.694572879203406 288.151842696534 0 0 0 0 71.738875708324485 114.72892908967333 0 114.72892908967333 156.52675685529539 0 0 0 0 -417.50472653211 263.39019678241493 0 263.39019678241493 -6.5303008772607427 0 0 0 0 -87.949369494938765 80.419060366856002 0 80.419060366856002 62.234015459907823 0 0 0 0 36.822622706262337 284.41581831357325 0 284.41581831357325 -831.34257799795159 0 0 0 0 42.54652993594209 463.52409973920294 0 463.52409973920294 -670.80939929861051 0 0 0 0 -234.00074644359484 540.89281482534352 0 540.89281482534352 -410.90649685062817 0 0 0 0 -462.07718075378216 245.72942078660708 0 245.72942078660708 -653.16021956983604 0 0 0 0 -449.32479884210625 565.3735338972765 0 565.3735338972765 -628.97117418139533 0 0 0 0 -77.271480547737156 416.35752018329367 0 416.35752018329367 -1068.8422899379657 0 0 0 0 28.800201031604956 184.73994827219576 0 184.73994827219576 -585.00497035946319 0 0 0 0 -17.125182057386326 5.0023817747628527 0 5.0023817747628527 -0.56133587112844907 0 0 0 0 -58.697156712460128 71.782286463738274 0 71.782286463738274 119.25614852925355 0 0 0 0 -185.42085589901399 145.30700819841149 0 145.30700819841149 -133.67628014822549 0 0 0 0 -186.33408761019382 -27.671869428246282 0 -27.671869428246282 141.06841824718867 0 0 0 0 -6.3419598361862484 2.8062488538867569 0 2.8062488538867569 -1.2641518748579728 0 0 0 0 19.694292378197133 30.735269224169315 0 30.735269224169315 -24.32654377585277 0 0 0 0 -30.506245927219425 25.397245509248023 0 25.397245509248023 -24.678621465267497 0 0 0 0 -32.803361498328741 20.396889730343901 0 20.396889730343901 -11.288940037542488 0 0 0 0 20.173027818058472 172.36060021818412 0 172.36060021818412 -217.77077519068553 0 0 0 0 32.719598506540933 266.82031234692113 0 266.82031234692113 141.30718790301762 0 0 0 0 -20.866038273212325 -4.1900002188122016 0 -4.1900002188122016 -93.177873179818562 0 0 0 0 6.162165328496485 10.168013312839321 0 10.168013312839321 -40.353808293944894 0 0 0 0 4.7218011258957233 3.5940908202258868 0 3.5940908202258868 3.6785339526058749 0 0 0 0 -50.863626937159097 108.64321953468607 0 108.64321953468607 -102.10830989042006 0 0 0 0 -29.622526801838831 37.729753327026629 0 37.729753327026629 157.63549180525297 0 0 0 0 -28.076705268834303 47.362180160744174 0 47.362180160744174 38.238389068414108 0 0 0 0 -36.930233947605302 46.147985553277977 0 46.147985553277977 41.777431932350737 0 0 0 0 2.9373149977972162 11.922173858759294 0 11.922173858759294 -4.5252426230365757 0 0 0 0 -44.374165790992265 69.953361001647863 0 69.953361001647863 8.106619746729848 0 0 0 0 -22.970854281181175 9.8684514554542488 0 9.8684514554542488 -6.9784521332500304 0 0 0 0 -32.008561254457163 18.643321133546124 0 18.643321133546124 -30.174331084024743 0 0 0 0 -6.1651440215950117 8.17489201230525 0 8.17489201230525 -16.636973004503716 0 0 0 0 -33.133960209321231 -0.40202678865171038 0 -0.40202678865171038 -81.602691748586949 0 0 0 0 -0.0026060679868038505 2.1947314628689369 0 2.1947314628689369 -7.3955817656434419 0 0 0 0 99.040983540184243 18.254503686897806 0 18.254503686897806 -303.92050948769611 0 0 0 0 -493.20084509752633 348.34962368517881 0 348.34962368517881 -185.16014811757304 0 0 0 0 -118.14518588726787 418.95087680117285 0 418.95087680117285 -565.35721764831396 0 0 0 0 -462.30057376085097 593.94544178254728 0 593.94544178254728 82.677187282461091 0 0 0 0 -251.18467077025343 109.30334484815103 0 109.30334484815103 -447.957500222823 0 0 0 0 159.35272673593863 597.72178858423285 0 597.72178858423285 -451.91713301258642 0 0 0 0 65.934679092481019 407.47833395047564 0 407.47833395047564 143.85975584437256 0 0 0 0 72.472736036150309 681.91252461799013 0 681.91252461799013 444.49634129849437 0 0 0 0 -78.481896131551366 189.58097814255416 0 189.58097814255416 325.47722800580959 0 0 0 0 -184.03970591711186 384.4635995889621 0 384.4635995889621 37.569370397592138 0 0 0 0 -387.89291186077389 402.10863640388561 0 402.10863640388561 779.41884813934303 0 0 0 0 -383.67035320352443 506.45209884482756 0 506.45209884482756 311.10927843648642 0 0 0 0 -408.39997372633661 485.98359179235558 0 485.98359179235558 -37.81113418116729 0 0 0 0 -436.58898449861226 453.93587924162784 0 453.93587924162784 -11.328682402905542 0 0 0 0 -413.05858028880903 336.98643054143758 0 336.98643054143758 375.44983300418608 0 0 0 0 -255.70638933954251 344.82429411242811 0 344.82429411242811 -219.32851604674943 0 0 0 0 -221.7348924633261 389.88194681094319 0 389.88194681094319 -406.56620998815924 0 0 0 0 -273.76859873455396 251.68950210729236 0 251.68950210729236 -3.4709825555910356 0 0 0 0 -115.59743506003178 399.21188000354687 0 399.21188000354687 -418.29730850944179 0 0 0 0 -204.74009879860387 468.49410976153013 0 468.49410976153013 -471.65173515460992 0 0 0 0 -222.7311042722813 388.81431827145843 0 388.81431827145843 -518.25745434800046 0 0 0 0 -315.40776678136172 486.51741527271952 0 486.51741527271952 -374.17799193076644 0 0 0 0 -329.96747339629655 395.6652031152189 0 395.6652031152189 -450.87465251233516 0 0 0 0 -138.18373826653988 440.98860712907481 0 440.98860712907481 -537.35352595137374 0 0 0 0 -361.14303279584419 563.03781817304116 0 563.03781817304116 -280.80149720967893 0 0 0 0 -411.53452109110094 466.66565421569612 0 466.66565421569612 -87.060583296217374 0 0 0 0 -518.68899223575863 505.61525323185924 0 505.61525323185924 291.94778036912612 0 0 0 0 -756.61385357568361 723.16147003070364 0 723.16147003070364 235.53756344114117 0 0 0 0 -507.49239221177959 694.42395193207994 0 694.42395193207994 -27.969220928935101 0 0 0 0 -542.73626136697931 623.84232611217885 0 623.84232611217885 12.449797523557208 0 0 0 0 -429.00958855355566 719.70300961876637 0 719.70300961876637 -185.63524999372748 0 0 0 0 -445.50524443805261 726.60277497974312 0 726.60277497974312 -59.773265671363333 0 0 0 0 -452.79582121533895 828.34931282115576 0 828.34931282115576 84.737468235100096 0 0 0 0 -417.08180683774845 767.88683782322914 0 767.88683782322914 -66.258548608315323 0 0 0 0 -406.53117960434611 745.02109406142699 0 745.02109406142699 -230.05207173849931 0 0 0 0 -395.96489323260175 722.05510054994375 0 722.05510054994375 -229.48015312211442 0 0 0 0 -449.63144536199252 835.41244461256429 0 835.41244461256429 -463.6384998489084 0 0 0 0 -338.25823884359306 611.78055680413127 0 611.78055680413127 -229.12834084466158 0 0 0 0 -338.05088995482583 709.57455244455559 0 709.57455244455559 -534.66945907787886 0 0 0 0 -107.83465106402946 639.1060698490146 0 639.1060698490146 -527.38540619163541 0 0 0 0 -252.16009021355421 867.19017272780911 0 867.19017272780911 -860.23835878607315 0 0 0 0 -437.1238528791946 834.89130054220004 0 834.89130054220004 -463.89052943640854 0 0 0 0 154.50216470629312 898.278490388715 0 898.278490388715 -112.82511291374976 0 0 0 0 -297.15508938223502 1008.9905239426607 0 1008.9905239426607 -12.108620708400849 0 0 0 0 -131.64544269222279 761.85599563907999 0 761.85599563907999 -45.817380554493866 0 0 0 0 -275.60714928661764 923.24593307084433 0 923.24593307084433 -88.432923788188418 0 0 0 0 29.272805953343777 729.68856869680349 0 729.68856869680349 -113.76416215826612 0 0 0 0 -429.7303178370239 753.03211749508409 0 753.03211749508409 -72.618489109117945 0 0 0 0 -193.03097670698298 764.58914556711079 0 764.58914556711079 -117.74877521768212 0 0 0 0 -281.69394569148699 901.19882121385217 0 901.19882121385217 -53.127897842947277 0 0 0 0 -525.97467451942066 947.33212142646516 0 947.33212142646516 -270.23953310761863 0 0 0 0 -596.06946022432749 860.10363811599746 0 860.10363811599746 331.23935511494346 0 0 0 0 -613.96011863232707 942.36129605861788 0 942.36129605861788 6.2217124922462972 0 0 0 0 -878.60130296263378 1214.6070256062885 0 1214.6070256062885 -40.953747358405963 0 0 0 0 -720.56869428664413 695.58892931309128 0 695.58892931309128 -829.67536982893944 0 0 0 0 -707.34057588048745 928.73046105232061 0 928.73046105232061 -118.58813198840653 0 0 0 0 -512.44359183697816 1014.1881421494982 0 1014.1881421494982 -56.458934015172417 0 0 0 0 -478.99065336083731 829.1960360910598 0 829.1960360910598 -100.81324103032784 0 0 0 0 -501.7597950117015 912.08396729898232 0 912.08396729898232 -199.22943452454638 0 0 0 0 -1012.3192412350122 878.84881988838242 0 878.84881988838242 170.6183476052538 0 0 0 0 -991.45070690634748 984.7439896068463 0 984.7439896068463 252.62276322954858 0 0 0 0 -257.33966669238725 696.54265640889207 0 696.54265640889207 130.7712511409336 0 0 0 0 101.73063993845062 474.76217981036461 0 474.76217981036461 -1623.9044213505258 0 0 0 0 -1049.6455135639408 1402.6876688421744 0 1402.6876688421744 -471.23667511255189 0 0 0 0 -1551.2608080777281 707.96344866404252 0 707.96344866404252 116.0044195710725 0 0 0 0 -1286.3640961824167 1439.2814597132237 0 1439.2814597132237 35.326800732684205 0 0 0 0 -955.20267762681215 893.62465675921158 0 893.62465675921158 704.86496175751381 0 0 0 0 -574.85850769504395 449.43233222785057 0 449.43233222785057 646.26373834128026 0 0 0 0 383.5915612891331 435.55199227705452 0 435.55199227705452 623.9877100034646 0 0 0 0 -916.39596964257908 519.72757918433126 0 519.72757918433126 1767.1322434031317 0 0 0 0 -9.4685755014783837 9.0811149642739792 0 9.0811149642739792 -4.9327540929926954 0 0 0 0 140.57180821011571 331.93973875796655 0 331.93973875796655 -61.173570959748758 0 0 0 0 -24.203913429654378 21.701470684404825 0 21.701470684404825 -11.234700093088634 0 0 0 0 -7.3567636496063642 685.61337141112017 0 685.61337141112017 1582.5317349984398 0 0 0 0 319.63595613387588 535.90571041013754 0 535.90571041013754 529.92214849405718 0 0 0 0 141.74925462625595 357.07599799516947 0 357.07599799516947 415.50625827084878 0 0 0 0 261.48693926694341 535.11363860788333 0 535.11363860788333 17.338576062727952 0 0 0 0 47.1288590730328 353.23910139091458 0 353.23910139091458 -16.087716938294761 0 0 0 0 251.29073270624212 590.49438415233453 0 590.49438415233453 -272.19862466306949 0 0 0 0 -117.76430230044207 900.5697237987406 0 900.5697237987406 -39.880408930435806 0 0 0 0 94.837502279358887 631.08540706323038 0 631.08540706323038 300.16963138831488 0 0 0 0 241.39284451067579 730.41011542831984 0 730.41011542831984 27.180313160599326 0 0 0 0 191.93058887847837 653.10877689285553 0 653.10877689285553 296.73373495573469 0 0 0 0 152.43292491735338 656.98051311407471 0 656.98051311407471 520.04921076731989 0 0 0 0 -179.65270539083349 527.71531042084098 0 527.71531042084098 797.0908016981266 0 0 0 0 -209.95989961452869 707.91955399847211 0 707.91955399847211 901.31837276920851 0 0 0 0 -4.7801054436250183 7.7643763139158182 0 7.7643763139158182 2.8031891728994225 0 0 0 0 -762.94408664289222 296.22383394203644 0 296.22383394203644 2541.3623120995471 0 0 0 0 267.70530516367216 377.4296555692772 0 377.4296555692772 590.01119782816386 0 0 0 0 227.16517548025149 61.677532980611431 0 61.677532980611431 1147.5620592764244 0 0 0 0 205.58336005887395 410.3647133864215 0 410.3647133864215 705.03023583430331 0 0 0 0 -3.370629327320728 5.2912064278116588 0 5.2912064278116588 -2.8006037700121098 0 0 0 0 -62.908891836490511 -17.605034039494058 0 -17.605034039494058 23.280683574354043 0 0 0 0 -124.97275276442929 573.62807360771785 0 573.62807360771785 -1326.4729553571815 0 0 0 0 -454.38069348081262 450.09148543497577 0 450.09148543497577 -0.49033943736867514 0 0 0 0 -1038.3250005590617 1113.5127077495781 0 1113.5127077495781 -677.77492422104115 0 0 0 0 -1571.8496074277991 882.87249489781971 0 882.87249489781971 -0.3331646471779095 0 0 0 0 -1131.8403530876494 1320.1150116628414 0 1320.1150116628414 -1394.1292843701158 0 0 0 0 -1374.7068494704436 1567.5170028134889 0 1567.5170028134889 -747.55340865314793 0 0 0 0 -1380.6256849277088 868.4660945732976 0 868.4660945732976 -434.94315373014251 0 0 0 0 -840.1126100535439 1094.6852360701341 0 1094.6852360701341 -266.49457148901274 0 0 0 0 -1238.4777974158496 1121.7377580593438 0 1121.7377580593438 0.058375928187160753 0 0 0 0 -1277.9160749555303 1279.0213100309338 0 1279.0213100309338 106.92454805013404 0 0 0 0 -983.28527166670756 1192.4272783677261 0 1192.4272783677261 307.45233878640283 0 0 0 0 -994.05778472519705 1247.1399021475554 0 1247.1399021475554 85.230506056585 0 0 0 0 -1211.23509043167 1425.4711929655605 0 1425.4711929655605 522.44817588670412 0 0 0 0 -1166.508905944931 1187.9878209648523 0 1187.9878209648523 1514.2224342120317 0 0 0 0 -830.21687350543652 1050.7884749991572 0 1050.7884749991572 386.94135153113166 0 0 0 0 -1107.1913473048444 891.85281158454745 0 891.85281158454745 791.88815880168113 0 0 0 0 -1104.3701500962688 982.95594892182999 0 982.95594892182999 273.67709747311892 0 0 0 0 -949.63483419009572 1105.3609395456006 0 1105.3609395456006 354.25947329541668 0 0 0 0 -792.46411805416574 941.25615095065587 0 941.25615095065587 182.50151979551629 0 0 0 0 -521.37428846358671 1109.4007761968314 0 1109.4007761968314 90.119727403231082 0 0 0 0 -502.33256203726296 988.71298074849165 0 988.71298074849165 138.14731043489883 0 0 0 0 -707.47367009753361 1246.8914813511474 0 1246.8914813511474 -36.956934613379417 0 0 0 0 -841.20362839009567 1083.6721143819168 0 1083.6721143819168 108.29474569733429 0 0 0 0 -545.43182545398304 1208.1874275997252 0 1208.1874275997252 -0.21762880546391281 0 0 0 0 -340.1671082009816 1002.2292330789605 0 1002.2292330789605 45.027687762689311 0 0 0 0 -601.06074273613194 1046.1413688592147 0 1046.1413688592147 156.63301383777434 0 0 0 0 -389.73559902634588 1182.6769249815479 0 1182.6769249815479 30.88021866849158 0 0 0 0 -104.3972732815746 1057.2512533607514 0 1057.2512533607514 137.28898310168734 0 0 0 0 -89.086655866893125 1181.3510424250853 0 1181.3510424250853 0.44119267846690491 0 0 0 0 245.99929024332596 943.3528506875009 0 943.3528506875009 142.16912139856868 0 0 0 0 259.29603576614318 1006.1323554776645 0 1006.1323554776645 -98.199551513505867 0 0 0 0 333.62913399808531 910.75527463346953 0 910.75527463346953 -96.43022474416648 0 0 0 0 -116.32512839658739 1006.5806333239198 0 1006.5806333239198 2.8219033838540781 0 0 0 0 -102.74059348438459 906.35598498833133 0 906.35598498833133 -75.569897714554827 0 0 0 0 -107.60337106508996 903.40815179124729 0 903.40815179124729 28.252895691301092 0 0 0 0 -28.089550699366555 -33.561956276083947 0 -33.561956276083947 28.725555847355281 0 0 0 0 -2.582337968588309 21.619287485852851 0 21.619287485852851 -27.001988521577914 0 0 0 0 -21.052991319902503 -73.761177851658431 0 -73.761177851658431 -7.47521220886847 0 0 0 0 90.641901227743801 30.531607253354196 0 30.531607253354196 -22.494226818816969 0 0 0 0 19.55954800348627 -29.037012893066276 0 -29.037012893066276 66.377919644430222 0 0 0 0 -35.968150065935333 143.80710882436688 0 143.80710882436688 -58.864435721887276 0 0 0 0 -226.89458613143142 -38.144357327284524 0 -38.144357327284524 77.05587431334061 0 0 0 0 13.422680341356681 -288.70285311932275 0 -288.70285311932275 -129.62981677532662 0 0 0 0 -130.48429484322332 257.95805377700162 0 257.95805377700162 19.430480438006271 0 0 0 0 -17.833103053723448 66.448364920190897 0 66.448364920190897 125.49828473982052 0 0 0 0 -9.5888597010037238 14.47613052985281 0 14.47613052985281 -24.136019198548524 0 0 0 0 -15.202805490080209 146.99501339350536 0 146.99501339350536 114.26352923619561 0 0 0 0 -21.988973753421305 140.34557527107245 0 140.34557527107245 331.74468241908471 0 0 0 0 1.3733787605051475 116.76971538506768 0 116.76971538506768 150.12063128442969 0 0 0 0 33.429673229724358 16.111109432124067 0 16.111109432124067 -100.3708193575585 0 0 0 0 10.738823798752264 63.389388938046977 0 63.389388938046977 147.33174272158067 0 0 0 0 37.825463047185622 101.50682541407878 0 101.50682541407878 116.93683001484897 0 0 0 0 21.439342235665208 187.54160109050281 0 187.54160109050281 524.64780496220919 0 0 0 0 64.892291961449246 -233.40682450291206 0 -233.40682450291206 103.59579534127261 0 0 0 0 -20.587564810273761 89.31694816856907 0 89.31694816856907 360.99260737479199 0 0 0 0 -93.363645415912131 -156.51485600971137 0 -156.51485600971137 713.60187905901694 0 0 0 0 420.15114969900719 675.54289558464916 0 675.54289558464916 1147.0926169809827 0 0 0 0 -170.67712465648401 146.73682927526897 0 146.73682927526897 -75.530345826991834 0 0 0 0 -136.86992005837681 99.74886578103542 0 99.74886578103542 -38.541368973397766 0 0 0 0 20.437928068715241 20.529601379657663 0 20.529601379657663 6.0095764755803884 0 0 0 0 81.084962862451903 70.498272662647651 0 70.498272662647651 -189.74479906424676 0 0 0 0 -139.8481440727561 82.24491756000134 0 82.24491756000134 -29.581907184168813 0 0 0 0 -0.30807391158307995 15.567654611386104 0 15.567654611386104 -19.674653917705484 0 0 0 0 -139.88190263157367 98.945390968903666 0 98.945390968903666 -19.588240167780896 0 0 0 0 -142.12092216763403 80.717176254715014 0 80.717176254715014 -9.1213023512464133 0 0 0 0 -306.21003721106524 54.275160385817117 0 54.275160385817117 23.744273605581839 0 0 0 0 14.027162832985596 -95.372042738410528 0 -95.372042738410528 19.169896896266437 0 0 0 0 -189.83693315477649 27.09219258189114 0 27.09219258189114 179.19115596695337 0 0 0 0 22.568526795849621 21.290008249559548 0 21.290008249559548 4.853701690562815 0 0 0 0 -66.547691980747913 98.471171952376608 0 98.471171952376608 -51.794951279072848 0 0 0 0 102.01649641282529 53.880750933114541 0 53.880750933114541 -173.72143672581296 0 0 0 0 -71.937145479852006 -85.672567327790603 0 -85.672567327790603 332.711470412778 0 0 0 0 682.32350231004966 985.40335764170595 0 985.40335764170595 1107.238189427153 0 0 0 0 1361.1096664913202 -81.335821319618844 0 -81.335821319618844 -18.640365648723673 0 0 0 0 9.5337295457535163 7.463660070141259 0 7.463660070141259 7.1822376921958835 0 0 0 0 115.30128721113624 661.79023437955948 0 661.79023437955948 1190.1541137238964 0 0 0 0 2417.3884127705969 1032.4756401045888 0 1032.4756401045888 863.67665271049191 0 0 0 0 1995.5967400399713 995.16681571947629 0 995.16681571947629 376.06781808455708 0 0 0 0 2268.3050109987389 158.86417912538309 0 158.86417912538309 2155.9314997008187 0 0 0 0 1585.0491013701248 712.90505095882691 0 712.90505095882691 2299.1601455383643 0 0 0 0 -12.736253348913486 -2.8636166498215161 0 -2.8636166498215161 22.656779866711645 0 0 0 0 1880.521623525543 550.72683546310873 0 550.72683546310873 1975.9649941649986 0 0 0 0 -370.30714139588417 1.8776199224594166 0 1.8776199224594166 1523.7532819493208 0 0 0 0 1124.5642193511012 1417.9072287573654 0 1417.9072287573654 1453.5822132762987 0 0 0 0 1030.7636085067643 1317.4578541732335 0 1317.4578541732335 1263.3241726830383 0 0 0 0 429.99309051738965 1020.0890018593927 0 1020.0890018593927 1280.9064342341153 0 0 0 0 1365.6328863808631 1030.88751077294 0 1030.88751077294 669.49364559852984 0 0 0 0 625.26884403818985 864.02297054705559 0 864.02297054705559 790.9800993744866 0 0 0 0 1609.2248382682665 1444.8271948855254 0 1444.8271948855254 1367.9419632478384 0 0 0 0 1693.6055451323391 669.44737584744144 0 669.44737584744144 31.644623350410257 0 0 0 0 1106.0187474550221 1090.1869364579979 0 1090.1869364579979 628.89985717594391 0 0 0 0 1065.1004633558841 1020.2719872449816 0 1020.2719872449816 671.98734672230057 0 0 0 0 1041.4592911731124 806.75161665296764 0 806.75161665296764 258.70805191892578 0 0 0 0 864.13092919997143 295.71495565734222 0 295.71495565734222 -59.07911499482725 0 0 0 0 536.51848814403638 -211.21511442160408 0 -211.21511442160408 11.411200504910084 0 0 0 0 942.5169407749836 256.28866991661198 0 256.28866991661198 -70.16444187000161 0 0 0 0 79.094046343365335 -230.65991424437743 0 -230.65991424437743 132.78102428240527 0 0 0 0 -31.268018603526968 27.942510494734591 0 27.942510494734591 -15.181573649775487 0 0 0 0 150.11235591656623 705.30955392509713 0 705.30955392509713 1047.4644131515088 0 0 0 0 119.28372983683585 425.57478584162163 0 425.57478584162163 486.27298920564499 0 0 0 0 -36.894466732651296 31.743356629274444 0 31.743356629274444 -15.053232018323968 0 0 0 0 143.44353196308657 179.80351311093546 0 179.80351311093546 701.37331833993085 0 0 0 0 169.87976778580196 655.25477245554794 0 655.25477245554794 909.62770865187485 0 0 0 0 442.26218599645654 989.85917664665612 0 989.85917664665612 1195.0152137720215 0 0 0 0 198.23230291395885 663.98772663671116 0 663.98772663671116 773.58959538821364 0 0 0 0 528.80259777394531 977.44843673282594 0 977.44843673282594 1187.424584456312 0 0 0 0 528.65100023613923 868.66135102500994 0 868.66135102500994 747.55016286895261 0 0 0 0 709.75652642491332 744.96033064626681 0 744.96033064626681 343.86254004390503 0 0 0 0 545.66524890079745 744.34388648797176 0 744.34388648797176 401.19427517737302 0 0 0 0 355.59895904496079 618.27963410098164 0 618.27963410098164 400.14451383127016 0 0 0 0 76.490230390842044 530.76235085402732 0 530.76235085402732 746.17350896525022 0 0 0 0 311.33550060999551 607.53135955955076 0 607.53135955955076 122.51375291764271 0 0 0 0 362.47176226517695 553.70837099442724 0 553.70837099442724 94.502376842341619 0 0 0 0 364.10376091741773 539.34890495339641 0 539.34890495339641 178.18783039526897 0 0 0 0 506.75057313397201 461.88487342796725 0 461.88487342796725 19.065821960568428 0 0 0 0 472.24300797021715 624.39268895229907 0 624.39268895229907 119.43879199348157 0 0 0 0 629.90388034760508 528.96340297708048 0 528.96340297708048 73.16234926909965 0 0 0 0 324.69730210404305 375.71709416917292 0 375.71709416917292 3.9188479594304226 0 0 0 0 356.3581919841381 416.38478722686705 0 416.38478722686705 52.674425941513618 0 0 0 0 352.43987146286963 527.39045041202917 0 527.39045041202917 182.70624588042847 0 0 0 0 392.02519971625952 559.93491986732261 0 559.93491986732261 72.714560907130362 0 0 0 0 321.22142854529375 597.82341658032965 0 597.82341658032965 79.828451511371895 0 0 0 0 304.72643241491824 619.29147075601941 0 619.29147075601941 216.32143057959911 0 0 0 0 268.58593619060412 52.653329427092103 0 52.653329427092103 -92.427327083261844 0 0 0 0 420.26272979651185 158.23349089697876 0 158.23349089697876 -80.17543147993274 0 0 0 0 252.91792243434247 -32.267948518230696 0 -32.267948518230696 3.9785563297627959 0 0 0 0 67.171625749309896 34.094805734617694 0 34.094805734617694 47.767759929207386 0 0 0 0 521.26986159978696 123.50521256112552 0 123.50521256112552 -105.83834750432288 0 0 0 0 603.46312867021334 536.64921053955914 0 536.64921053955914 71.058555075338518 0 0 0 0 820.28359859476041 360.1238977851317 0 360.1238977851317 -84.307797354034847 0 0 0 0 444.95479398407042 244.81605849966581 0 244.81605849966581 -106.53719767698567 0 0 0 0 443.90026774233775 225.14384935611452 0 225.14384935611452 -61.204193975165254 0 0 0 0 558.39690226690072 450.39375798410038 0 450.39375798410038 -0.76888336721458472 0 0 0 0 398.79086089201883 321.86943896838784 0 321.86943896838784 24.369175935338717 0 0 0 0 291.76020740737476 155.26884661792428 0 155.26884661792428 -66.836697076621931 0 0 0 0 205.28783986378403 171.17095106375928 0 171.17095106375928 -20.638204311071604 0 0 0 0 53.015624459036189 -27.639322912291391 0 -27.639322912291391 -44.263053022892564 0 0 0 0 0.2504347339840578 1.5848244130758644 0 1.5848244130758644 -5.6213586785751772 0 0 0 0 250.25809568563272 95.491390967115876 0 95.491390967115876 -179.5268076659122 0 0 0 0 197.07756824514217 -12.558270447174436 0 -12.558270447174436 -134.05262453106116 0 0 0 0 -8.1082798064437611 48.203176590286603 0 48.203176590286603 -5.090999003383331 0 0 0 0 -4.2808924080818542 -44.037499803496758 0 -44.037499803496758 8.815373642166378 0 0 0 0 105.4863757966823 149.08553019188184 0 149.08553019188184 9.5964081378479023 0 0 0 0 175.20180221592454 119.64829244284192 0 119.64829244284192 -10.653358562060021 0 0 0 0 219.64979863656481 228.9262998704362 0 228.9262998704362 63.041989366640337 0 0 0 0 224.93065242790908 252.97762759901525 0 252.97762759901525 11.037565101658402 0 0 0 0 92.432487522630254 149.53744916338474 0 149.53744916338474 84.80808284905288 0 0 0 0 158.65434767957049 101.53455669760297 0 101.53455669760297 1.1745399646297301 0 0 0 0 39.997595550212282 62.511095057954662 0 62.511095057954662 91.225130202452419 0 0 0 0 -4.27954626763362 8.4821771617602479 0 8.4821771617602479 -10.507052860411079 0 0 0 0 142.82396449242879 194.23133752871217 0 194.23133752871217 121.39247189271555 0 0 0 0 26.035525954617242 141.65569857053106 0 141.65569857053106 176.39237009882345 0 0 0 0 -5.6282272278058656 14.48313650143686 0 14.48313650143686 -11.48865889620825 0 0 0 0 -13.535057020286331 -7.6856140005984344 0 -7.6856140005984344 109.61713873440021 0 0 0 0 -7.7518853736688129 12.286825709051932 0 12.286825709051932 -17.046637741310008 0 0 0 0 -6.2323101857218717 12.069930363126332 0 12.069930363126332 -1.7809169736574404 0 0 0 0 207.2188835470879 145.76910405408125 0 145.76910405408125 110.94635017965629 0 0 0 0 3.0288931612867032 4.6950482735464334 0 4.6950482735464334 -4.2020774348966938 0 0 0 0 394.37758955696336 520.90469981415663 0 520.90469981415663 608.61711432010634 0 0 0 0 637.45053148004808 170.6974817069713 0 170.6974817069713 -133.01095375457953 0 0 0 0 216.69885828316546 544.83380683205178 0 544.83380683205178 390.8415192966786 0 0 0 0 162.93118181569298 449.03014958986023 0 449.03014958986023 360.44460760467337 0 0 0 0 244.65029217581105 623.08494553429045 0 623.08494553429045 216.78510950056079 0 0 0 0 258.46583216150611 387.80180140369339 0 387.80180140369339 172.19321758500882 0 0 0 0 192.42891070990299 455.97384540762869 0 455.97384540762869 169.50729033537209 0 0 0 0 236.58479264371863 355.65614157310029 0 355.65614157310029 137.71743034245446 0 0 0 0 74.0657619722042 259.99310127161152 0 259.99310127161152 241.02521761085518 0 0 0 0 77.236522392780898 80.366437636999763 0 80.366437636999763 45.075755446727271 0 0 0 0 8.8638641419893247 62.573831472182064 0 62.573831472182064 285.26975246875736 0 0 0 0 90.282427804297186 283.5927761796338 0 283.5927761796338 271.44703983940417 0 0 0 0 101.31234628473976 373.73666348080224 0 373.73666348080224 804.7424345870968 0 0 0 0 19.051902948649513 251.05654954281636 0 251.05654954281636 699.47026887105312 0 0 0 0 98.922594018843938 368.88630268261204 0 368.88630268261204 525.05470977848745 0 0 0 0 29.541995436644356 144.77934957681282 0 144.77934957681282 444.04537422935027 0 0 0 0 158.95196242516067 512.85601007901278 0 512.85601007901278 574.13458303682273 0 0 0 0 -6.2494339732987356 16.618800048646847 0 16.618800048646847 1.2230354108008541 0 0 0 0 -10.31327331279671 6.8648086266300652 0 6.8648086266300652 2.6570463083379536 0 0 0 0 -159.73428826249801 80.670892310874478 0 80.670892310874478 41.289894005632959 0 0 0 0 9.0417476765396714 20.975126641453244 0 20.975126641453244 34.189094355257112 0 0 0 0 -44.15028818626979 -23.578201384491877 0 -23.578201384491877 -166.4762141314277 0 0 0 0 -4.9584401453903411 12.32340470989584 0 12.32340470989584 10.433163941997918 0 0 0 0 -7.7321441213251489 15.964727867713066 0 15.964727867713066 -2.5763132509937918 0 0 0 0 26.97395267588945 -19.828983075582073 0 -19.828983075582073 -61.673679232262657 0 0 0 0 -7.3136713395059019 13.027369235964613 0 13.027369235964613 -4.3129316300293965 0 0 0 0 19.734091043465014 -16.187277997658384 0 -16.187277997658384 22.129782536940183 0 0 0 0 1.0281967331370652 0.80084542780024037 0 0.80084542780024037 -1.5495753952432096 0 0 0 0 -276.34910593935274 123.41573510364105 0 123.41573510364105 -11.046239721330494 0 0 0 0 233.95921897366134 158.5965470755873 0 158.5965470755873 0.26415641524363309 0 0 0 0 2.8252104235827247 -0.55056098859675728 0 -0.55056098859675728 -3.2832571844781455 0 0 0 0 -155.89569176752047 294.02481529469514 0 294.02481529469514 -334.41209006309509 0 0 0 0 445.173957787978 343.44767970121757 0 343.44767970121757 140.6284315501689 0 0 0 0 222.00816866211608 274.00200502248481 0 274.00200502248481 370.00295982818352 0 0 0 0 326.0519646645771 397.28829541929008 0 397.28829541929008 400.60341039329069 0 0 0 0 -1.6253423066713566 1.184808476788163 0 1.184808476788163 2.5847963347036398 0 0 0 0 220.67330572415131 290.50754246869928 0 290.50754246869928 178.58154692989774 0 0 0 0 6.1504108417138923 160.8916093048756 0 160.8916093048756 230.04439241118962 0 0 0 0 -9.181014754755239 12.134480781563425 0 12.134480781563425 0.3262942850943773 0 0 0 0 -34.789147640742158 46.305715334645356 0 46.305715334645356 -39.71192068757955 0 0 0 0 -0.85719457983854852 3.5949751989306264 0 3.5949751989306264 -1.5193325345553035 0 0 0 0 137.48297709013787 173.73502584706875 0 173.73502584706875 184.21314701448136 0 0 0 0 123.26233840045825 136.43422167601238 0 136.43422167601238 117.75013839610619 0 0 0 0 101.25142450812928 224.17343075101235 0 224.17343075101235 174.10544126655441 0 0 0 0 217.03695308454917 212.36552924090211 0 212.36552924090211 84.806415369526803 0 0 0 0 273.94397400459638 289.80016719919513 0 289.80016719919513 134.47938366257222 0 0 0 0 384.8139151540181 306.89794257556787 0 306.89794257556787 0.026448754690261839 0 0 0 0 283.19693568019011 271.49511427559264 0 271.49511427559264 125.76118055965344 0 0 0 0 342.98504214441073 299.46342400333378 0 299.46342400333378 133.17714751545282 0 0 0 0 256.73764837402632 364.87847982359381 0 364.87847982359381 0.047341425088234246 0 0 0 0 319.34854464438104 359.95701102102612 0 359.95701102102612 -13.947800564317731 0 0 0 0 192.36442253489599 429.20461528846636 0 429.20461528846636 192.65870812430512 0 0 0 0 195.2202893796748 398.85379598746658 0 398.85379598746658 298.75869149714708 0 0 0 0 187.33156780828403 442.70043277904188 0 442.70043277904188 182.91928316035774 0 0 0 0 327.94859438323329 346.07465987057367 0 346.07465987057367 116.76668095180867 0 0 0 0 338.11408313684478 282.91102293540462 0 282.91102293540462 280.37572549573088 0 0 0 0 546.23458918894994 322.04245242823526 0 322.04245242823526 262.3474780995748 0 0 0 0 181.6465855577917 300.77902958318009 0 300.77902958318009 412.8160809482797 0 0 0 0 229.40789134228726 377.03771816447261 0 377.03771816447261 236.91783585742814 0 0 0 0 207.85931828890898 395.70475999053451 0 395.70475999053451 372.48275355475926 0 0 0 0 98.350185665651225 309.36732464499073 0 309.36732464499073 236.21171920340612 0 0 0 0 111.98644874909951 393.00222566549928 0 393.00222566549928 326.65624664112693 0 0 0 0 231.0870087440494 372.48815513017689 0 372.48815513017689 317.75671709721792 0 0 0 0 166.93275028057906 531.41679143623332 0 531.41679143623332 289.31612833097461 0 0 0 0 71.221264292209753 435.28660527312604 0 435.28660527312604 413.71263158568763 0 0 0 0 100.65534694838971 374.01007398802903 0 374.01007398802903 299.19956740000634 0 0 0 0 110.73548423761531 364.96082485445368 0 364.96082485445368 306.30780461331597 0 0 0 0 19.681386229351119 226.90738778567174 0 226.90738778567174 243.70248904381879 0 0 0 0 73.375862500007315 439.65710205085634 0 439.65710205085634 419.69871925509506 0 0 0 0 -35.64396234067226 292.96013254747595 0 292.96013254747595 559.71454292238923 0 0 0 0 30.55521118602428 243.70963444195513 0 243.70963444195513 265.2923214098555 0 0 0 0 101.8021487910155 109.53690617057146 0 109.53690617057146 22.043944252160145 0 0 0 0 52.812370082714551 214.96144772911794 0 214.96144772911794 242.80577232220094 0 0 0 0 258.65612182543782 296.10093097182835 0 296.10093097182835 76.437653250090079 0 0 0 0 257.5961501030979 815.07353214808973 0 815.07353214808973 1010.9339808896802 0 0 0 0 -201.55969364354496 154.43607353069092 0 154.43607353069092 1168.2308622640703 0 0 0 0 37.449911473729117 474.51018563437538 0 474.51018563437538 499.60248987481464 0 0 0 0 395.79233736681272 419.80409499066445 0 419.80409499066445 76.917135770985624 0 0 0 0 217.30507754217797 623.1574427045125 0 623.1574427045125 442.16732600386968 0 0 0 0 852.01987685913343 791.49588412573939 0 791.49588412573939 374.08159806131152 0 0 0 0 251.30151768614746 169.9708398342882 0 169.9708398342882 55.387478106276831 0 0 0 0 392.54243737273146 169.8814086626262 0 169.8814086626262 44.566881144506624 0 0 0 0 278.79481402466627 374.94722664466644 0 374.94722664466644 138.96573996625375 0 0 0 0 26.309134354541584 344.31564806319511 0 344.31564806319511 143.23032625953056 0 0 0 0 220.45620798825644 479.75870766154912 0 479.75870766154912 -82.754444679318112 0 0 0 0 125.9011259846211 234.1167999265308 0 234.1167999265308 -94.546902386736747 0 0 0 0 -24.068889292222138 298.52273425885869 0 298.52273425885869 -0.26840899125818396 0 0 0 0 -8.2669708717992307 76.113789952047227 0 76.113789952047227 -254.92172379410476 0 0 0 0 -0.99590750705550724 3.0290506550328757 0 3.0290506550328757 -1.9663719618189361 0 0 0 0 -5.3709505370266015 41.199950699920009 0 41.199950699920009 -18.744334232833353 0 0 0 0 -10.390730003172393 28.504541428315861 0 28.504541428315861 -0.077149490010924637 0 0 0 0 0.64624266861756041 21.641637809989334 0 21.641637809989334 -34.320763065181382 0 0 0 0 -4.982276555842807 7.5002770226754762 0 7.5002770226754762 -0.69751954379806591 0 0 0 0 -8.2143227859784247 34.847747638661531 0 34.847747638661531 14.536302149950643 0 0 0 0 -8.3047259820332329 16.439889018227404 0 16.439889018227404 -0.00070509910437976941 0 0 0 0 1039.8028553603799 -34.35770534225594 0 -34.35770534225594 -69.197422238372383 0 0 0 0 0.51576872258872442 2.0462311282005174 0 2.0462311282005174 3.9141232764033589 0 0 0 0 -9.6569345970674476 24.273469431718695 0 24.273469431718695 -12.329771570163416 0 0 0 0 1.9572116650027596 7.9076867951656595 0 7.9076867951656595 -1.2446911339755786 0 0 0 0 130.02166930963176 55.579275015959865 0 55.579275015959865 15.011882742008311 0 0 0 0 -0.98344837390868634 13.760584664691123 0 13.760584664691123 -12.444257598283457 0 0 0 0 3.0994530343870714 6.8178624928699207 0 6.8178624928699207 5.1227404265791563 0 0 0 0 125.15214092272436 73.827953462674486 0 73.827953462674486 -53.370404929170036 0 0 0 0 85.115876484732325 58.45705137614641 0 58.45705137614641 -1003.6569991695869 0 0 0 0 1.1529872326331301 2.6990887156855479 0 2.6990887156855479 -1.9733726894029218 0 0 0 0 -11.599484939700687 85.706016342501243 0 85.706016342501243 -295.76579034169845 0 0 0 0 49.536911731436703 86.915949737667688 0 86.915949737667688 -397.76757155109954 0 0 0 0 -51.033981561702603 154.09811661377171 0 154.09811661377171 334.45320243877359 0 0 0 0 -68.41060224589819 250.84483154553891 0 250.84483154553891 -240.9628556775715 0 0 0 0 -20.651087924950843 315.45664070208295 0 315.45664070208295 -295.83802314418585 0 0 0 0 15.657458454713606 -26.583621822832356 0 -26.583621822832356 96.229911069036461 0 0 0 0 910.49448990961878 92.881702858624294 0 92.881702858624294 -60.344850257330108 0 0 0 0 10.681338115299845 11.27487347096357 0 11.27487347096357 7.6542524765208952 0 0 0 0 -25.45391855998605 186.30094786530935 0 186.30094786530935 -253.13251737870451 0 0 0 0 44.887019157467876 176.13433463089314 0 176.13433463089314 -251.71829610331042 0 0 0 0 -17.140804659547769 -177.31510787835305 0 -177.31510787835305 723.96665514276538 0 0 0 0 140.28498879852305 1115.658884283861 0 1115.658884283861 803.34153450148006 0 0 0 0 3.6452377507409537 5.0103560484531613 0 5.0103560484531613 5.8982630371964149 0 0 0 0 7.8735145508476272 7.3576376357942763 0 7.3576376357942763 7.4408494638221896 0 0 0 0 531.38664913945922 263.11791644649202 0 263.11791644649202 -201.46116217618692 0 0 0 0 672.93454672577957 873.77716560967474 0 873.77716560967474 49.862260659181629 0 0 0 0 -73.884190043045237 868.95185593339556 0 868.95185593339556 873.20300549764943 0 0 0 0 -110.92222840736576 650.3366681853413 0 650.3366681853413 215.23370743419218 0 0 0 0 -148.1696953654573 620.57980819855584 0 620.57980819855584 321.08822030185024 0 0 0 0 -152.37067514326054 582.75388270398889 0 582.75388270398889 22.965299417133792 0 0 0 0 -182.25671326149131 679.0508867591343 0 679.0508867591343 223.90100840416926 0 0 0 0 49.432187340630662 670.66665172978537 0 670.66665172978537 -19.631595309918339 0 0 0 0 -313.72566112911682 771.24339234284434 0 771.24339234284434 100.78710892530216 0 0 0 0 -141.43873796543153 794.47689997209181 0 794.47689997209181 103.79596848264919 0 0 0 0 -213.62765735433686 499.37900166352483 0 499.37900166352483 -118.15237209534098 0 0 0 0 55.114847021854075 535.34147548495093 0 535.34147548495093 -186.07378454471836 0 0 0 0 -331.75417880060104 491.76697827118255 0 491.76697827118255 -110.98604921471269 0 0 0 0 -148.0203176400546 449.06340344314958 0 449.06340344314958 -187.90457461538608 0 0 0 0 224.94432867463911 397.9848090249543 0 397.9848090249543 -105.74223760508175 0 0 0 0 -3.377273587370837 572.46435587612359 0 572.46435587612359 8.0766098249368952 0 0 0 0 94.790045205980277 420.96431954882792 0 420.96431954882792 69.287288185660145 0 0 0 0 -232.16720511637322 225.26567601058196 0 225.26567601058196 80.348257886967986 0 0 0 0 -71.313016222811711 359.37691706899204 0 359.37691706899204 103.77653283915424 0 0 0 0 1168.3910529897803 692.92606898261874 0 692.92606898261874 -71.358291821969033 0 0 0 0 421.61820021950007 558.24486311910005 0 558.24486311910005 -40.131360316059727 0 0 0 0 0.17093072973079559 2.2265208725583037 0 2.2265208725583037 3.4112392511193548 0 0 0 0 -1057.5105988876767 322.5851981168089 0 322.5851981168089 48.275320593079414 0 0 0 0 -30.118746179412483 675.07101580715971 0 675.07101580715971 329.17556650040933 0 0 0 0 132.18136809871794 490.43655039942678 0 490.43655039942678 22.139651923367637 0 0 0 0 94.642894383530802 720.24576146541949 0 720.24576146541949 86.083429554608301 0 0 0 0 12.504122455004108 529.10515845356713 0 529.10515845356713 23.176339985278901 0 0 0 0 -15.94077187676703 433.50623449533305 0 433.50623449533305 -179.97363260123529 0 0 0 0 -71.236192242795369 563.3032009679664 0 563.3032009679664 -2.3804393878162955 0 0 0 0 -22.820149521604435 500.96786051215167 0 500.96786051215167 -241.16027553004096 0 0 0 0 -458.16192158761078 450.6579151788319 0 450.6579151788319 90.252679645040189 0 0 0 0 -325.1816533031697 210.81896234628039 0 210.81896234628039 135.05798411089927 0 0 0 0 -1143.5855674308623 413.84044708091824 0 413.84044708091824 85.322288933897653 0 0 0 0 -375.48040150988527 729.21949234935892 0 729.21949234935892 -640.49003188071219 0 0 0 0 -164.47767990733519 409.15850361326011 0 409.15850361326011 -216.01840226936474 0 0 0 0 -207.06013051006084 542.20672936052142 0 542.20672936052142 -32.763709076083614 0 0 0 0 -1014.9822405979558 1033.2611788657823 0 1033.2611788657823 194.7143744896166 0 0 0 0 -681.86789019006392 151.73131168591499 0 151.73131168591499 -305.24218181582182 0 0 0 0 -59.647855281376906 515.62915753752895 0 515.62915753752895 -310.16566258463718 0 0 0 0 120.94763070566478 467.5353053042345 0 467.5353053042345 -383.64912117884523 0 0 0 0 27.824740613110407 411.55059368703223 0 411.55059368703223 -317.52122722324566 0 0 0 0 135.47458658306641 413.82499314487359 0 413.82499314487359 -455.09239343681111 0 0 0 0 325.02240880901627 681.06485073461954 0 681.06485073461954 -76.661989065658418 0 0 0 0 465.52377173515561 404.45347557144851 0 404.45347557144851 266.34523991891183 0 0 0 0 -181.755587656633 581.11570828290496 0 581.11570828290496 -37.773349047143711 0 0 0 0 128.78297419962257 656.52116108386235 0 656.52116108386235 -30.05799748582649 0 0 0 0 694.62735371125473 762.48122366006646 0 762.48122366006646 0.26565154173295014 0 0 0 0 120.34227243562782 502.14988591244764 0 502.14988591244764 16.598532747175341 0 0 0 0 -514.02433932435451 532.11142081295566 0 532.11142081295566 55.235097846845747 0 0 0 0 -608.88318979789801 882.38377290696189 0 882.38377290696189 331.20523872373451 0 0 0 0 -228.92677998973159 691.9930366542394 0 691.9930366542394 131.45054527636967 0 0 0 0 -158.68522885987477 558.56691381944984 0 558.56691381944984 -26.844499636121327 0 0 0 0 -100.49819089848097 758.66771036785212 0 758.66771036785212 -0.81589285565763414 0 0 0 0 -207.72218789448198 735.90955174335613 0 735.90955174335613 111.25851645477815 0 0 0 0 -257.97879187396575 822.51451119287231 0 822.51451119287231 3.8890258644387359 0 0 0 0 -105.27193504784009 967.57999343367555 0 967.57999343367555 141.46378702718357 0 0 0 0 86.716048928792588 696.86865167464566 0 696.86865167464566 332.15812321410738 0 0 0 0 -103.65805119998276 1075.3694691049134 0 1075.3694691049134 325.13889907041448 0 0 0 0 343.47984044651457 634.20185083320757 0 634.20185083320757 -55.936358487597317 0 0 0 0 564.848702832649 859.77674423487042 0 859.77674423487042 -128.00320520921377 0 0 0 0 180.1615082634089 219.57277443054772 0 219.57277443054772 0.28206659651186783 0 0 0 0 2.8549349069842975 4.5445424683472879 0 4.5445424683472879 -2.3394617741914203 0 0 0 0 17.739845684478496 729.06041573523908 0 729.06041573523908 1102.6422239307867 0 0 0 0 326.52831717477056 585.98925074931503 0 585.98925074931503 896.7191743039366 0 0 0 0 2.7655183555038434 4.316212644453401 0 4.316212644453401 -2.8834748098061311 0 0 0 0 699.03263347075699 729.24493984864603 0 729.24493984864603 -93.265947374835378 0 0 0 0 764.20869111077263 839.44226640342822 0 839.44226640342822 0.73815798400755739 0 0 0 0 641.96164177552964 715.29039578459742 0 715.29039578459742 -7.4937706388009246 0 0 0 0 682.64107795229938 908.89670127775753 0 908.89670127775753 -286.51919259654824 0 0 0 0 613.1548853385757 523.81135667128547 0 523.81135667128547 -599.6786333077107 0 0 0 0 470.84413861566827 794.36792333655103 0 794.36792333655103 143.97382310983085 0 0 0 0 701.28847407959256 817.83299380430981 0 817.83299380430981 143.03450076151989 0 0 0 0 734.75595217604132 826.14472694780125 0 826.14472694780125 77.660957438347396 0 0 0 0 774.93638882290179 666.78789627098377 0 666.78789627098377 251.27313129408867 0 0 0 0 851.18181980598456 904.90839785644494 0 904.90839785644494 525.48057106010674 0 0 0 0 638.84725128341415 836.69790224065218 0 836.69790224065218 601.18264495843323 0 0 0 0 814.62841844441573 967.19127395312535 0 967.19127395312535 625.55064741591923 0 0 0 0 486.75710821400935 808.10698736876657 0 808.10698736876657 710.89279963509762 0 0 0 0 480.26030022850318 717.12029774927942 0 717.12029774927942 740.82438922547226 0 0 0 0 349.40123483311982 509.36396208378574 0 509.36396208378574 638.93450642541575 0 0 0 0 -8.1750462675420863 5.9154916831790274 0 5.9154916831790274 -3.4749219366422608 0 0 0 0 296.8579579901816 858.86573974318162 0 858.86573974318162 -292.0362363028471 0 0 0 0 -90.592689315322787 943.23858821949398 0 943.23858821949398 136.27126063344622 0 0 0 0 539.70066184264397 829.08353172613351 0 829.08353172613351 16.049159607326146 0 0 0 0 340.21663829590761 932.7285343790245 0 932.7285343790245 47.253003298363183 0 0 0 0 -358.15408398773434 715.7482619574148 0 715.7482619574148 -141.67105885026103 0 0 0 0 -417.50827262871098 359.27427261595221 0 359.27427261595221 -174.53469257826509 0 0 0 0 -37.412319730668969 695.76117573040028 0 695.76117573040028 -0.12133521477517206 0 0 0 0 59.143837972718757 697.01952460149914 0 697.01952460149914 26.480545085534686 0 0 0 0 0.72881030831103999 499.58252947544315 0 499.58252947544315 -95.830617064726539 0 0 0 0 361.82613284590298 709.02662037391474 0 709.02662037391474 14.108789573627291 0 0 0 0 337.05541893872214 573.27424623761181 0 573.27424623761181 -188.05071256051451 0 0 0 0 538.16656597032124 782.82188116053294 0 782.82188116053294 -0.35683176435534553 0 0 0 0 600.96767496859684 643.91886757943576 0 643.91886757943576 -104.79528911519446 0 0 0 0 655.14742598094745 752.15978611459286 0 752.15978611459286 -75.673219375792542 0 0 0 0 595.68366132399387 760.07891197522986 0 760.07891197522986 -43.988948814934702 0 0 0 0 720.35201306605859 640.22880017374655 0 640.22880017374655 69.677875917317579 0 0 0 0 739.23006278117464 701.51299387292238 0 701.51299387292238 593.77629391558003 0 0 0 0 619.21699728968815 840.05464834750455 0 840.05464834750455 588.31237328390125 0 0 0 0 823.9706705571698 687.47840310994798 0 687.47840310994798 310.07960770980571 0 0 0 0 570.89052035978966 726.3283679253509 0 726.3283679253509 309.51389559504605 0 0 0 0 534.74184365805559 622.50613870676898 0 622.50613870676898 628.08154840258067 0 0 0 0 416.68922672110784 816.1300900997885 0 816.1300900997885 331.39050539283198 0 0 0 0 339.86869341769489 605.71584038075525 0 605.71584038075525 356.51985415164381 0 0 0 0 434.11593790484949 632.62559689574482 0 632.62559689574482 -37.784614877426066 0 0 0 0 417.79700571082867 643.79647912214932 0 643.79647912214932 121.31961034814594 0 0 0 0 609.21909945711377 684.72893185992871 0 684.72893185992871 89.969380704162177 0 0 0 0 123.84462072485439 583.43520393846484 0 583.43520393846484 89.81380821519997 0 0 0 0 195.89291849334404 768.75524723322451 0 768.75524723322451 186.84404687168717 0 0 0 0 -64.103307613477227 813.67290663678432 0 813.67290663678432 382.44114408083988 0 0 0 0 132.71967363358272 635.22165147470514 0 635.22165147470514 524.05815264528792 0 0 0 0 -352.77346813081385 742.25011562813597 0 742.25011562813597 152.27224075030244 0 0 0 0 -110.49935210361582 640.49527353425947 0 640.49527353425947 136.17078412948467 0 0 0 0 -129.59788438120449 765.34525789355393 0 765.34525789355393 25.361798807920422 0 0 0 0 -425.28144775323744 528.08460244808521 0 528.08460244808521 85.82715742806613 0 0 0 0 91.936186819126306 926.83226782701968 0 926.83226782701968 135.11171015097352 0 0 0 0 188.96723353974812 1266.1044836989167 0 1266.1044836989167 188.68151810123527 0 0 0 0 -71.283370046345226 1154.9793817058599 0 1154.9793817058599 452.16050918126712 0 0 0 0 -119.1703133466599 810.06803408579799 0 810.06803408579799 119.57627565320581 0 0 0 0 -15.534165518722148 966.5739879679677 0 966.5739879679677 358.32305086005363 0 0 0 0 -403.07901002563085 625.69349646898991 0 625.69349646898991 263.20306925228215 0 0 0 0 -315.03363021140831 820.3605833199108 0 820.3605833199108 425.54591621432337 0 0 0 0 -64.47604956872965 1014.5049228157677 0 1014.5049228157677 322.72108739041141 0 0 0 0 5.9418441823290777 1089.4590132400626 0 1089.4590132400626 751.75334490025125 0 0 0 0 142.01231243909569 972.3882032108595 0 972.3882032108595 458.2165776318725 0 0 0 0 98.307475272216834 1176.2643998040585 0 1176.2643998040585 414.17770735407248 0 0 0 0 165.53980714764475 1406.7732083999581 0 1406.7732083999581 620.57741340919893 0 0 0 0 443.08665375284909 1980.1720678564743 0 1980.1720678564743 816.35097127206973 0 0 0 0 380.01618230668464 1682.4000293875579 0 1682.4000293875579 2732.2476521218487 0 0 0 0 249.93349860480521 919.50979095681396 0 919.50979095681396 1608.5870281519456 0 0 0 0 107.41205127199464 1247.182256927772 0 1247.182256927772 888.85932435284485 0 0 0 0 273.08695736460504 724.69888721831376 0 724.69888721831376 892.02287402679872 0 0 0 0 473.17465178040948 961.46455865684402 0 961.46455865684402 836.92767951101996 0 0 0 0 680.18470243358024 936.25326103816769 0 936.25326103816769 777.65805697726319 0 0 0 0 633.87901055119619 1044.5820802011604 0 1044.5820802011604 1363.5917745731422 0 0 0 0 843.64576048597519 794.8057578386215 0 794.8057578386215 829.07807461416087 0 0 0 0 691.54544403159525 691.65309267707926 0 691.65309267707926 864.43294677446829 0 0 0 0 980.27115251759824 756.22895829932531 0 756.22895829932531 894.64550797433913 0 0 0 0 775.69843493498774 902.30888908647103 0 902.30888908647103 836.10357879608637 0 0 0 0 874.06238025537914 978.83248654980889 0 978.83248654980889 1236.6150810422841 0 0 0 0 1140.1475178366527 864.94344379557879 0 864.94344379557879 1280.1890388134925 0 0 0 0 2.1726142232215295 21.687518335465938 0 21.687518335465938 -10.332903305727228 0 0 0 0 1028.2513719891431 1476.3866385237779 0 1476.3866385237779 1702.0028083298821 0 0 0 0 853.37461751699448 1240.9952169505632 0 1240.9952169505632 1822.3312972994172 0 0 0 0 804.52589165369864 1152.656886767305 0 1152.656886767305 2327.9240075161797 0 0 0 0 775.15044083475368 1011.8018063333002 0 1011.8018063333002 1340.884661785909 0 0 0 0 1060.52476203884 1496.2607340905233 0 1496.2607340905233 1451.5136849204246 0 0 0 0 170.93243526288006 453.20993935467959 0 453.20993935467959 -630.90009656407346 0 0 0 0 158.7389689387328 304.83939919762452 0 304.83939919762452 -2341.1262713170872 0 0 0 0 -248.02852815477763 1119.3005845528751 0 1119.3005845528751 120.3781024368509 0 0 0 0 -196.13068314202246 1282.756562792747 0 1282.756562792747 -458.64435042080004 0 0 0 0 -0.76631582562418998 6.9695646154406461 0 6.9695646154406461 -5.6119074270844465 0 0 0 0 454.7375443525525 1732.4071831941328 0 1732.4071831941328 -326.62626604631077 0 0 0 0 443.86661690067558 935.47082590695209 0 935.47082590695209 -537.05593077351296 0 0 0 0 636.56604147191683 995.69777696044912 0 995.69777696044912 115.12714166749356 0 0 0 0 436.69809647072907 952.44483214568027 0 952.44483214568027 126.92672507677344 0 0 0 0 287.93028932442394 1101.1764083898888 0 1101.1764083898888 10.431429594085785 0 0 0 0 -29.9611283174454 43.117131185019389 0 43.117131185019389 -5.1524844256528013 0 0 0 0 0.5473578127566725 59.92677992816607 0 59.92677992816607 -1.0562696720444364 0 0 0 0 -471.03166975488421 98.748639496512624 0 98.748639496512624 108.34760131681105 0 0 0 0 -791.12412995654176 -265.32138971439963 0 -265.32138971439963 46.061994620162295 0 0 0 0 -104.00195793322928 -17.627992418383656 0 -17.627992418383656 -20.296805868507363 0 0 0 0 -111.3386558074734 71.217414229007545 0 71.217414229007545 101.41112154467555 0 0 0 0 -25.836305667163913 12.44499245062795 0 12.44499245062795 -4.7665781837852421 0 0 0 0 359.82042818213449 860.10381989916641 0 860.10381989916641 992.50725323623192 0 0 0 0 472.68302929519632 907.40361913243396 0 907.40361913243396 1419.5165773636254 0 0 0 0 426.49270984480245 856.48621545240167 0 856.48621545240167 1413.1741738172404 0 0 0 0 769.85357418376225 833.23006981656363 0 833.23006981656363 872.26026468348573 0 0 0 0 1060.1373345571483 1063.1689225611917 0 1063.1689225611917 938.44187921722187 0 0 0 0 539.86137849236547 853.84022147659562 0 853.84022147659562 1022.0488056110917 0 0 0 0 298.63920483282709 833.46251653657237 0 833.46251653657237 1872.1374064016854 0 0 0 0 800.41941319638863 1220.4948999236658 0 1220.4948999236658 1475.9195921598875 0 0 0 0 1495.8300072608108 1195.1418917928531 0 1195.1418917928531 1385.4505610800989 0 0 0 0 878.43945336265824 947.52227600595143 0 947.52227600595143 1286.1367918336182 0 0 0 0 1109.8732071067934 731.46148547146004 0 731.46148547146004 1897.7003075163811 0 0 0 0 1658.0605520923855 1761.5839871879434 0 1761.5839871879434 1693.7098477819818 0 0 0 0 389.06393246223161 1536.9253681736736 0 1536.9253681736736 3298.0159778951784 0 0 0 0 -5.438243926937929 5.7166597594941067 0 5.7166597594941067 0.088174580096648469 0 0 0 0 30.170466119273826 33.06683409815443 0 33.06683409815443 20.298381602145326 0 0 0 0 -35.339508851568098 20.48518923124135 0 20.48518923124135 0.10379874952778323 0 0 0 0 -31.892499140809377 89.034448336606147 0 89.034448336606147 20.648765262365487 0 0 0 0 -2.5657146578887478 105.73274182686873 0 105.73274182686873 24.97399508379749 0 0 0 0 -10.295590947353048 329.36675210094108 0 329.36675210094108 -492.23607662020368 0 0 0 0 -14.650511696410831 214.83658859052957 0 214.83658859052957 -865.72346746623225 0 0 0 0 -75.308769604260306 454.63761931937188 0 454.63761931937188 -409.59542617359693 0 0 0 0 -146.92786738286668 368.44132415901549 0 368.44132415901549 -500.83975493077196 0 0 0 0 -250.2392165441961 557.90637970366151 0 557.90637970366151 -423.57530337997014 0 0 0 0 27.61749080920638 24.59254389516768 0 24.59254389516768 21.53004367143555 0 0 0 0 -167.86154991276635 103.88409880438121 0 103.88409880438121 -29.817154515832954 0 0 0 0 -171.92095120167505 159.11788371377406 0 159.11788371377406 113.81121638203331 0 0 0 0 -168.29817358996297 118.37614370681695 0 118.37614370681695 22.341074627052876 0 0 0 0 -78.543638166687742 269.49889715822792 0 269.49889715822792 -144.84147167457559 0 0 0 0 -303.12056654468989 575.40846978786453 0 575.40846978786453 -221.99508702455205 0 0 0 0 17.803692393312161 18.968477370995373 0 18.968477370995373 17.405258830392228 0 0 0 0 -322.87134421490191 139.16260668684117 0 139.16260668684117 100.55645972881757 0 0 0 0 -348.34985072683435 513.42793428208324 0 513.42793428208324 685.43439500957902 0 0 0 0 -373.21579246324109 249.72569512031623 0 249.72569512031623 328.65422964242316 0 0 0 0 -291.20752322325461 255.10967599201763 0 255.10967599201763 -257.84895142176538 0 0 0 0 -207.34003646995552 581.7328747814754 0 581.7328747814754 -327.93166174647195 0 0 0 0 -326.3480866850623 279.27498699273201 0 279.27498699273201 451.05443613891839 0 0 0 0 -214.6299505460629 397.22032704667799 0 397.22032704667799 252.63132199906977 0 0 0 0 -291.6140052132796 357.05179003505691 0 357.05179003505691 231.67384748448967 0 0 0 0 -234.55598221773471 476.65416039900447 0 476.65416039900447 20.042196904854791 0 0 0 0 -330.07836145382316 317.98457723731553 0 317.98457723731553 458.18752625973138 0 0 0 0 -201.9647015597584 287.21947587587056 0 287.21947587587056 424.10683533996053 0 0 0 0 -138.38544718494177 228.50217597017399 0 228.50217597017399 458.20243859839684 0 0 0 0 -63.875712990215106 300.00585005598987 0 300.00585005598987 525.81189838542196 0 0 0 0 -118.89982396013511 391.67280237838713 0 391.67280237838713 476.45717427317868 0 0 0 0 -173.59245090556578 385.53354247826337 0 385.53354247826337 547.38752228731755 0 0 0 0 -48.50919379088009 461.3184057133185 0 461.3184057133185 550.34595770209671 0 0 0 0 -162.00599226888698 473.84423963378049 0 473.84423963378049 505.13054804345302 0 0 0 0 -210.11308694959735 478.72501271772489 0 478.72501271772489 548.56350655121969 0 0 0 0 3.6685869809953147 608.85001201217528 0 608.85001201217528 531.8233376887074 0 0 0 0 -182.38965693556906 594.58235667671761 0 594.58235667671761 537.14968697339646 0 0 0 0 -20.10995978615756 683.08481940462661 0 683.08481940462661 575.72902163757681 0 0 0 0 -221.25888868316542 477.1073045754747 0 477.1073045754747 508.95234332565451 0 0 0 0 331.67834722848056 843.48752661871549 0 843.48752661871549 1936.311628230018 0 0 0 0 582.71720015658502 439.50535919167305 0 439.50535919167305 736.21817070986435 0 0 0 0 384.36850740209775 1048.3499447283029 0 1048.3499447283029 668.03735521026829 0 0 0 0 -405.25044069323849 291.28037512730953 0 291.28037512730953 500.64001706344425 0 0 0 0 -425.3899997756962 335.75982445288537 0 335.75982445288537 1417.2798638054592 0 0 0 0 -69.566610628644412 718.1180695360672 0 718.1180695360672 -349.1702390419905 0 0 0 0 -131.03021459341835 561.90729226846452 0 561.90729226846452 218.15547572138712 0 0 0 0 -323.89992191457168 609.00221004291961 0 609.00221004291961 431.51667683357664 0 0 0 0 -260.75598705328593 307.78990606807929 0 307.78990606807929 293.42549789392433 0 0 0 0 -248.15497145757217 113.16669940536667 0 113.16669940536667 567.38275374674413 0 0 0 0 -74.443663645732158 153.44569174633943 0 153.44569174633943 388.99421323989372 0 0 0 0 -79.283019563634298 96.813389587150596 0 96.813389587150596 457.53575808870664 0 0 0 0 -637.52383665726302 -486.36807229477563 0 -486.36807229477563 625.42832354592974 0 0 0 0 -75.974498982761759 -44.76680828084227 0 -44.76680828084227 52.174672053173708 0 0 0 0 -100.8496930121546 284.38238559185265 0 284.38238559185265 255.58623448966318 0 0 0 0 0.27074054751067678 -2.2762801201350555 0 -2.2762801201350555 14.258903142882673 0 0 0 0 460.48359456277831 1399.8804557835538 0 1399.8804557835538 1665.3399091585452 0 0 0 0 111.64132329860149 838.75986867300162 0 838.75986867300162 1488.5081869333226 0 0 0 0 137.88093644332184 592.15123736685564 0 592.15123736685564 401.15851893168292 0 0 0 0 -0.532788642588649 -5.7741110642132298 0 -5.7741110642132298 29.183809854448782 0 0 0 0 -546.91094044123565 -145.96815499998047 0 -145.96815499998047 235.88002221725765 0 0 0 0 -189.99779833153298 366.34844281199912 0 366.34844281199912 1018.1496998164221 0 0 0 0 -177.40054805490945 248.32487199212483 0 248.32487199212483 1335.5075127861492 0 0 0 0 47.36565543233155 282.78072600190353 0 282.78072600190353 573.41868518306001 0 0 0 0 -42.556754767905659 278.81080031013698 0 278.81080031013698 919.8183301196259 0 0 0 0 -108.16728046106437 165.70601583345706 0 165.70601583345706 590.57386964537727 0 0 0 0 -38.146485261051566 232.60165980015881 0 232.60165980015881 651.79152368380164 0 0 0 0 -2.0600125557466527 310.32476493179274 0 310.32476493179274 514.41825567974593 0 0 0 0 58.035425861417025 337.9475587632769 0 337.9475587632769 714.50265241684247 0 0 0 0 -16.445419727526314 256.44458372102963 0 256.44458372102963 939.22979882794607 0 0 0 0 51.926827644969308 319.1170627031388 0 319.1170627031388 977.77636700731819 0 0 0 0 -7.1846795906676562 237.94582622027519 0 237.94582622027519 1104.8484484397341 0 0 0 0 126.71657865626185 305.29163177208102 0 305.29163177208102 1131.3722846578166 0 0 0 0 23.304983880392683 210.71350409234583 0 210.71350409234583 1136.5344731445657 0 0 0 0 -27.475421641996945 243.06401776455459 0 243.06401776455459 1345.1844896540279 0 0 0 0 -2.3462543716887012 216.04055392829468 0 216.04055392829468 1139.6487594338541 0 0 0 0 40.74785654638751 65.423211007443612 0 65.423211007443612 1.6521994215864382 0 0 0 0 27.687093813645305 18.420063766078357 0 18.420063766078357 12.597247606932854 0 0 0 0 -61.002934412863397 164.22071651869919 0 164.22071651869919 1432.3186113436532 0 0 0 0 77.982893320026051 204.93753661696974 0 204.93753661696974 1331.3779162864957 0 0 0 0 213.09762087790295 351.68857206369285 0 351.68857206369285 1051.4183335461421 0 0 0 0 78.562496053063569 70.761038866998803 0 70.761038866998803 4.5784490653424221 0 0 0 0 4.8174545146808896 -10.53683870962675 0 -10.53683870962675 -24.248149868510055 0 0 0 0 28.976275206294304 48.021959929576042 0 48.021959929576042 1934.2244615580421 0 0 0 0 135.31033766502514 26.806931960093607 0 26.806931960093607 1320.0942064369447 0 0 0 0 165.72703320907749 317.68557290658646 0 317.68557290658646 1417.9319417324587 0 0 0 0 45.742718971014256 123.42573066242039 0 123.42573066242039 1292.5880148931901 0 0 0 0 93.25181075182627 258.25031178505742 0 258.25031178505742 920.9937257705069 0 0 0 0 -14.518051021508654 110.38237675486016 0 110.38237675486016 1208.6790971204755 0 0 0 0 -68.010838834603419 276.087656337113 0 276.087656337113 1150.2870836398506 0 0 0 0 -209.07895240386142 46.444697546868156 0 46.444697546868156 1507.404717588317 0 0 0 0 -196.91620613287523 122.19936363720626 0 122.19936363720626 1304.703408193207 0 0 0 0 -117.78950438674656 -103.59469191060634 0 -103.59469191060634 1261.3972990342882 0 0 0 0 -194.07752795787383 -68.603169337842701 0 -68.603169337842701 1485.5740504723362 0 0 0 0 237.56866666166752 -162.0713325125289 0 -162.0713325125289 643.14616404926346 0 0 0 0 88.241926582314591 63.697155143165986 0 63.697155143165986 -14.610131382693254 0 0 0 0 -322.83508194041497 208.66890654894087 0 208.66890654894087 1327.8494192618964 0 0 0 0 -318.59941647483629 137.77167224089771 0 137.77167224089771 2406.253037408751 0 0 0 0 -15.817842286547602 389.25372720298401 0 389.25372720298401 630.06834810113651 0 0 0 0 -29.964087075699354 481.48030536803708 0 481.48030536803708 570.19267889434559 0 0 0 0 29.360395430136123 316.22221824560256 0 316.22221824560256 712.0847586229138 0 0 0 0 22.816213506019267 375.55169696372468 0 375.55169696372468 633.40444033856329 0 0 0 0 37.165217653145191 401.7216274997063 0 401.7216274997063 446.70852235530037 0 0 0 0 8.1621137810871005 494.04448430395132 0 494.04448430395132 500.70373021603154 0 0 0 0 -103.64182910532327 554.77599192757771 0 554.77599192757771 523.97615358803887 0 0 0 0 19.917884720809525 477.30993436578865 0 477.30993436578865 524.28271960734855 0 0 0 0 -81.46515509006349 471.43969582987484 0 471.43969582987484 594.27665792262997 0 0 0 0 -56.466173784567218 349.06852342695493 0 349.06852342695493 555.40168358121809 0 0 0 0 14.752142842935427 360.83588236600917 0 360.83588236600917 640.04203853945364 0 0 0 0 -48.908482920400274 267.90117991968873 0 267.90117991968873 552.99948357437097 0 0 0 0 -65.953282875438163 384.7683934258821 0 384.7683934258821 649.16818092454923 0 0 0 0 -33.772827330984001 295.41374026831909 0 295.41374026831909 769.78704559938342 0 0 0 0 41.007621733464475 349.3451438107877 0 349.3451438107877 801.52881322315079 0 0 0 0 -1.8220967094021034 420.80715325183701 0 420.80715325183701 667.91346907919797 0 0 0 0 -35.845123122468067 350.67926340870326 0 350.67926340870326 783.45627606019843 0 0 0 0 26.17216087388806 359.27688525883423 0 359.27688525883423 645.9466387920711 0 0 0 0 41.162896693691437 299.19361533847405 0 299.19361533847405 775.42297127804704 0 0 0 0 -1.0604131484251411 342.3420362672623 0 342.3420362672623 838.70490624796366 0 0 0 0 31.206526656387723 243.09935798717197 0 243.09935798717197 871.13414455280872 0 0 0 0 -2.766024878488679 332.74982949373953 0 332.74982949373953 912.12121255224338 0 0 0 0 31.117914978720364 207.35502654236916 0 207.35502654236916 989.00299665938655 0 0 0 0 13.029068673543406 285.75066112657078 0 285.75066112657078 950.96823323256103 0 0 0 0 24.248770540987607 245.64905575242301 0 245.64905575242301 952.41219967845245 0 0 0 0 27.905639152133517 252.72055360390368 0 252.72055360390368 1050.3530138725473 0 0 0 0 75.634710012513096 158.69894540449604 0 158.69894540449604 1088.5158423941175 0 0 0 0 15.223189835844096 291.55539985538053 0 291.55539985538053 1018.6871626698703 0 0 0 0 55.172206772695063 30.82527485198807 0 30.82527485198807 226.08824562521113 0 0 0 0 15.97087069186091 50.666706245945534 0 50.666706245945534 1315.2376736683364 0 0 0 0 -11.982918959140079 212.29107077111257 0 212.29107077111257 1250.3364357652026 0 0 0 0 145.61131127365297 113.19954911684908 0 113.19954911684908 1074.2702561828482 0 0 0 0 31.782403443881776 36.046705726970686 0 36.046705726970686 242.38180853280937 0 0 0 0 -33.771378329664003 99.112058498023544 0 99.112058498023544 310.66193781226139 0 0 0 0 -7.2437885253202694 206.38973798715597 0 206.38973798715597 1086.5688979826664 0 0 0 0 9.1300600648215635 18.987970539121648 0 18.987970539121648 -2.8101768106969836 0 0 0 0 -40.250537932428415 152.30235103549785 0 152.30235103549785 1050.1215386004624 0 0 0 0 24.453070533445498 355.2347191360841 0 355.2347191360841 610.45630081623676 0 0 0 0 20.949441635559197 296.70198787073605 0 296.70198787073605 768.69909938026103 0 0 0 0 42.754204299366393 116.29519895932754 0 116.29519895932754 889.77642327459762 0 0 0 0 2.3748986961945775 311.80532302196298 0 311.80532302196298 787.24109893591958 0 0 0 0 20.86275061301842 268.5529362178986 0 268.5529362178986 476.40410558588337 0 0 0 0 19.950874890164414 248.69919215881964 0 248.69919215881964 719.98989256864297 0 0 0 0 -5.598337893421558 185.56711281226308 0 185.56711281226308 689.60176676935225 0 0 0 0 -5.1415700701327012 21.671494127431146 0 21.671494127431146 -1.0692908097349196 0 0 0 0 -180.38658803278668 250.89316957334813 0 250.89316957334813 617.33040166823776 0 0 0 0 45.158464555849264 178.88444830138451 0 178.88444830138451 667.85336825219565 0 0 0 0 -138.86335765922558 98.010092931886902 0 98.010092931886902 486.1530224467424 0 0 0 0 111.51702203291643 320.70803706321749 0 320.70803706321749 420.28819683403708 0 0 0 0 255.71462486618475 232.59856563339417 0 232.59856563339417 366.0552168279828 0 0 0 0 211.94366455060663 117.59455152216833 0 117.59455152216833 682.2377770007879 0 0 0 0 -174.69396958655489 231.55936079387902 0 231.55936079387902 1184.5441146137528 0 0 0 0 -13.838761204160797 20.450870456036853 0 20.450870456036853 -1.0402563374697849 0 0 0 0 -54.903814749726735 182.21957952373486 0 182.21957952373486 304.87201404049119 0 0 0 0 64.696497465040011 358.07400593908096 0 358.07400593908096 217.53463294228277 0 0 0 0 12.626755386037985 122.06734826992033 0 122.06734826992033 343.35487710958114 0 0 0 0 3.9499989060204825 139.70171397164813 0 139.70171397164813 635.61837047776498 0 0 0 0 65.982745220480865 337.82591349462746 0 337.82591349462746 520.97302896512701 0 0 0 0 72.572203836141853 486.81080056332576 0 486.81080056332576 338.67464834245766 0 0 0 0 35.660782283028766 361.57137155831151 0 361.57137155831151 56.69680774542212 0 0 0 0 10.246989471354027 607.89183303040772 0 607.89183303040772 381.41561524984854 0 0 0 0 31.393936454138384 493.01988145487121 0 493.01988145487121 374.69158884322678 0 0 0 0 -147.67194486130029 362.94130363320437 0 362.94130363320437 1094.6142639066265 0 0 0 0 181.69778555254379 301.95979912725306 0 301.95979912725306 749.91423114349891 0 0 0 0 -214.25653664355195 718.03844795884652 0 718.03844795884652 349.10311924479174 0 0 0 0 -344.98628269055644 613.54612328458461 0 613.54612328458461 -30.768053530147881 0 0 0 0 6.9942125572561054 546.76236403055373 0 546.76236403055373 -909.22371180640766 0 0 0 0 -4.4885812947104995 5.7606814657357859 0 5.7606814657357859 0.83871173097968921 0 0 0 0 -189.9181750312473 322.29255097774512 0 322.29255097774512 -211.14394253183855 0 0 0 0 49.428819760094484 115.89623185038363 0 115.89623185038363 -76.7112405920534 0 0 0 0 -239.06017622255422 140.85408336491673 0 140.85408336491673 1440.7139930739449 0 0 0 0 -14.399902798198774 16.51134403007768 0 16.51134403007768 -0.77652468501322147 0 0 0 0 -509.42571339168671 288.36349254078959 0 288.36349254078959 1756.5706041479316 0 0 0 0 -6.0138795476120563 7.8580266904331211 0 7.8580266904331211 -0.56226487561507099 0 0 0 0 -105.04824171532073 790.65426619715436 0 790.65426619715436 -594.90726478546276 0 0 0 0 199.88126116178796 348.21903802935049 0 348.21903802935049 -1452.4893050971295 0 0 0 0 -48.250542479646356 295.43748514074105 0 295.43748514074105 -421.18133278899768 0 0 0 0 72.891779979649982 167.37177772370342 0 167.37177772370342 122.89695375005249 0 0 0 0 -1.775022826285749 204.91656201431761 0 204.91656201431761 109.28013618562545 0 0 0 0 -71.786976747185804 317.73633674796292 0 317.73633674796292 29.38187665008445 0 0 0 0 -361.41089171590784 474.79331909077882 0 474.79331909077882 290.45551299933868 0 0 0 0 -0.29814216718909847 73.71181301332399 0 73.71181301332399 168.72107139055515 0 0 0 0 -217.67203891321697 -82.394620993800345 0 -82.394620993800345 1172.158434527475 0 0 0 0 -13.076623966915269 7.1594103053211597 0 7.1594103053211597 1.8251817632792822 0 0 0 0 -429.95524390254536 182.55222535410212 0 182.55222535410212 746.49575933528831 0 0 0 0 -153.63970168912374 182.51614214794245 0 182.51614214794245 296.84893468025257 0 0 0 0 -100.18560203338302 212.84863685148594 0 212.84863685148594 130.42116643949703 0 0 0 0 -329.72988818448539 430.98881709041598 0 430.98881709041598 375.64196818394703 0 0 0 0 24.288332563093718 348.60152550336352 0 348.60152550336352 -425.97436330217988 0 0 0 0 -11.651044691252885 8.2731932316459904 0 8.2731932316459904 1.8289990299783589 0 0 0 0 2.1654248417080453 145.21695294377423 0 145.21695294377423 608.39527786260078 0 0 0 0 -10.220207710406612 86.443279587125289 0 86.443279587125289 341.17208075874078 0 0 0 0 96.59066446255656 74.126486936263973 0 74.126486936263973 644.58439497063955 0 0 0 0 50.847222426968074 516.24227780017645 0 516.24227780017645 919.7626998880005 0 0 0 0 -69.591791880026904 607.43279477698525 0 607.43279477698525 379.22422614144853 0 0 0 0 -21.372851722817586 304.4499027533675 0 304.4499027533675 318.23678607528564 0 0 0 0 902.69190076867562 709.12943765906675 0 709.12943765906675 254.84297249811789 0 0 0 0 -519.56257260590564 492.14809830141894 0 492.14809830141894 252.22222021386551 0 0 0 0 -260.89738578162724 351.48199524730444 0 351.48199524730444 303.62064303953957 0 0 0 0 -271.96045143176252 354.1380678176065 0 354.1380678176065 490.29662906572048 0 0 0 0 -560.27337676852994 305.99150841258233 0 305.99150841258233 312.20290113704687 0 0 0 0 -361.26883165407162 244.20962409405183 0 244.20962409405183 -422.42747087835596 0 0 0 0 -230.85351533142602 496.51140615472832 0 496.51140615472832 64.57890145752026 0 0 0 0 -158.51620247881601 410.33945042661617 0 410.33945042661617 -46.840208020803402 0 0 0 0 -18.303088448084509 603.36504045792026 0 603.36504045792026 -157.19720902085828 0 0 0 0 -534.32347083485774 603.44976797705749 0 603.44976797705749 -222.51159412707784 0 0 0 0 258.00722892124077 313.74870581220603 0 313.74870581220603 13.146646886016242 0 0 0 0 -123.16100156253106 447.35928841148416 0 447.35928841148416 -33.186025103284919 0 0 0 0 -284.55706696552249 585.99508800892136 0 585.99508800892136 259.04105771200557 0 0 0 0 -126.17576226302299 435.49853665789851 0 435.49853665789851 11.370320340593025 0 0 0 0 0.049693993961126726 4.8776351373830806 0 4.8776351373830806 8.2404886263088315 0 0 0 0 -2.5902360867476091 581.69639846694918 0 581.69639846694918 1267.7014848238759 0 0 0 0 -35.168524937640541 334.70100504679431 0 334.70100504679431 -218.88797228287149 0 0 0 0 1083.2557102881437 551.16083229770447 0 551.16083229770447 -254.26884173182088 0 0 0 0 316.07184671438517 368.38228056152911 0 368.38228056152911 -259.02704230674135 0 0 0 0 -301.19016221835773 489.62702983753843 0 489.62702983753843 1137.0321297798655 0 0 0 0 5.449822245321208 7.5762160885057028 0 7.5762160885057028 8.5970206660454664 0 0 0 0 606.53436722485276 1014.2605972606398 0 1014.2605972606398 694.83771534602056 0 0 0 0 696.87417033562588 30.974003000339508 0 30.974003000339508 324.5193092529953 0 0 0 0 -9.6342049177762874 610.62326471380766 0 610.62326471380766 508.67603777756449 0 0 0 0 35.361040077503276 674.73379391572234 0 674.73379391572234 496.89645519279293 0 0 0 0 107.75047866003979 399.39086989396401 0 399.39086989396401 601.21164274010516 0 0 0 0 -149.12822497771231 259.85551193329593 0 259.85551193329593 527.30917723849416 0 0 0 0 -143.85039153171783 331.35149054666545 0 331.35149054666545 824.27256438264158 0 0 0 0 -0.19221902483733055 1.2156725595189499 0 1.2156725595189499 4.98592954368047 0 0 0 0 -1182.6924148291068 46.383539905272755 0 46.383539905272755 933.18430272646947 0 0 0 0 -696.2644072437979 2321.4312307909568 0 2321.4312307909568 3605.9023579621826 0 0 0 0 7.690011166837678 10.511966631324981 0 10.511966631324981 12.835912123621711 0 0 0 0 -0.026564974083157722 496.03747133182696 0 496.03747133182696 -738.85402312311635 0 0 0 0 -1137.460558783001 176.75927731728734 0 176.75927731728734 4192.8682721961359 0 0 0 0 -1182.4261067250773 1469.5992996541172 0 1469.5992996541172 -660.47223406622652 0 0 0 0 -864.36123957201926 274.18822138838004 0 274.18822138838004 888.60845535527915 0 0 0 0 0.88430703665653709 560.91240197674051 0 560.91240197674051 906.29558788410304 0 0 0 0 3465.9021970311878 254.75231412790163 0 254.75231412790163 3920.2698815218173 0 0 0 0 -5.7111286836163231 3.3227751670622183 0 3.3227751670622183 6.3085709997698132 0 0 0 0 -1367.0128127966891 132.02595730612666 0 132.02595730612666 859.02757133510295 0 0 0 0 1333.7420134911663 1843.5954145662508 0 1843.5954145662508 954.23149248184018 0 0 0 0 307.13126993612968 2402.2850337277487 0 2402.2850337277487 4955.4153178508423 0 0 0 0 319.52956066824845 2126.9373166412115 0 2126.9373166412115 2432.2704502450651 0 0 0 0 1398.3572088811488 4090.904615836349 0 4090.904615836349 2003.2403926368352 0 0 0 0 709.03367704294214 1281.7871820575965 0 1281.7871820575965 1433.7410602647142 0 0 0 0 -16.242280279162202 13.603710782539366 0 13.603710782539366 0.9517007744885575 0 0 0 0 442.42905254013021 1132.8870990123596 0 1132.8870990123596 1460.7360205330842 0 0 0 0 -392.13276624213904 1674.8248164748511 0 1674.8248164748511 2243.7254338619605 0 0 0 0 -1273.7153663691861 948.5457745679596 0 948.5457745679596 2865.8922478156601 0 0 0 0 -183.5606458008333 1701.8559032398189 0 1701.8559032398189 1872.7355704193178 0 0 0 0 1296.7424338045093 1518.224319590583 0 1518.224319590583 1416.7091174171437 0 0 0 0 639.92431028052863 1719.1809227000217 0 1719.1809227000217 1472.3784257264051 0 0 0 0 637.54989906056949 1901.4006482856432 0 1901.4006482856432 1919.7691547548311 0 0 0 0 429.27497920005408 2176.0021194414949 0 2176.0021194414949 1653.2391801587291 0 0 0 0 -0.15964249583703349 2673.558601030054 0 2673.558601030054 2284.3747404904243 0 0 0 0 294.01018613713677 2507.8301893375792 0 2507.8301893375792 1492.2113204017733 0 0 0 0 646.97761686053127 2464.0105986085255 0 2464.0105986085255 1464.7168516564088 0 0 0 0 -1.7217269073007628 3044.5338487637127 0 3044.5338487637127 1042.188833577733 0 0 0 0 1160.2783773803094 2826.6827264971325 0 2826.6827264971325 -1.0588341409208626 0 0 0 0 1605.3069880212679 2235.0281289706272 0 2235.0281289706272 710.67182079230406 0 0 0 0 1468.1523106982931 2363.0293619931108 0 2363.0293619931108 675.28701616112085 0 0 0 0 651.23519683816994 2392.7728825309823 0 2392.7728825309823 1207.7198443206653 0 0 0 0 1026.3958600754922 2160.8304115344235 0 2160.8304115344235 1307.2256188945175 0 0 0 0 1178.4712166258978 1950.0140283323162 0 1950.0140283323162 1226.1376073912252 0 0 0 0 1933.2363797713479 1766.6298818930518 0 1766.6298818930518 1008.1803804174124 0 0 0 0 1553.3767271823817 2045.7104873088283 0 2045.7104873088283 889.75855323974974 0 0 0 0 1932.0050822170888 1746.9246951495297 0 1746.9246951495297 751.49913663438929 0 0 0 0 2288.0727651525813 1468.2392851525074 0 1468.2392851525074 913.34355764497013 0 0 0 0 2808.1564885992266 1558.8413919587838 0 1558.8413919587838 767.25768217191217 0 0 0 0 2499.7383062646841 1753.9653048394757 0 1753.9653048394757 652.09172463321011 0 0 0 0 1789.9477589656599 1934.2810731815262 0 1934.2810731815262 917.28391316210946 0 0 0 0 2183.2995888499499 2361.1301371667723 0 2361.1301371667723 2.1614081934094429 0 0 0 0 2189.0081392297652 2141.5827162330243 0 2141.5827162330243 501.66682792502979 0 0 0 0 2949.6262834148074 1744.907329413094 0 1744.907329413094 452.23754316202576 0 0 0 0 -2755.8042388779504 -107.86394335353179 0 -107.86394335353179 715.01770112122176 0 0 0 0 -2.8453042989204675 8.1707370078829342 0 8.1707370078829342 1.4998633700638493 0 0 0 0 4189.8314780702203 1763.4553474388595 0 1763.4553474388595 0.57757378326420661 0 0 0 0 2930.7081734143326 1583.7363283502659 0 1583.7363283502659 702.52497980160115 0 0 0 0 2978.9374875909998 1886.288900157233 0 1886.288900157233 581.5465833132439 0 0 0 0 -953.87932261169772 280.5830500120137 0 280.5830500120137 38.497095327722491 0 0 0 0 -9.1919392963250885 19.38734614795311 0 19.38734614795311 4.564222390280861 0 0 0 0 -626.8741397785052 445.34168408689948 0 445.34168408689948 -196.37534589371353 0 0 0 0 106.48175703932066 96.413309297786327 0 96.413309297786327 -43.551922578379163 0 0 0 0 -3.6454550421890985 4.4574832345943207 0 4.4574832345943207 -2.900483467515528 0 0 0 0 -585.62193825299573 1196.9061467625545 0 1196.9061467625545 1160.3000929226691 0 0 0 0 3820.859248967332 1574.8450249957459 0 1574.8450249957459 481.88418165911571 0 0 0 0 2617.6343758179355 1441.5467611502954 0 1441.5467611502954 556.48466321718297 0 0 0 0 -23.182461089945534 30.31572509332031 0 30.31572509332031 14.115064548091709 0 0 0 0 2372.0171165126085 1467.7413470159445 0 1467.7413470159445 604.53248093930597 0 0 0 0 11.835672028253612 71.882687830664509 0 71.882687830664509 93.423262619733578 0 0 0 0 4.0839874393747095 16.606672923365352 0 16.606672923365352 -7.0153321548732777 0 0 0 0 1335.2001891898544 1255.7795745794792 0 1255.7795745794792 667.87481259834021 0 0 0 0 635.27436210951419 955.79929032838845 0 955.79929032838845 1184.6479484875745 0 0 0 0 65.716283458954422 1412.4510069174285 0 1412.4510069174285 861.24638681070064 0 0 0 0 1306.9721032484522 946.44243530704989 0 946.44243530704989 517.36165127603454 0 0 0 0 783.6019609724608 1203.2830118216662 0 1203.2830118216662 673.47635361673019 0 0 0 0 636.22929271714384 925.35475253789627 0 925.35475253789627 443.55858428237843 0 0 0 0 1242.0886789297365 1075.5353024963842 0 1075.5353024963842 355.99382412490377 0 0 0 0 552.14045247726608 898.48811006259348 0 898.48811006259348 965.05341210107144 0 0 0 0 571.21843438679207 849.44572167479782 0 849.44572167479782 273.43173644490889 0 0 0 0 61.961718625447247 700.94285002959077 0 700.94285002959077 852.62978614667372 0 0 0 0 508.41030237096129 862.76395973759645 0 862.76395973759645 806.77957350011275 0 0 0 0 802.31160070910119 721.03542889744131 0 721.03542889744131 577.51058316980198 0 0 0 0 7.7936876540334197 286.88121668557142 0 286.88121668557142 1028.9667997317447 0 0 0 0 1916.6238866611893 911.15398458712298 0 911.15398458712298 687.92640769301215 0 0 0 0 3363.961565351543 2268.1592387235505 0 2268.1592387235505 1369.1718172218971 0 0 0 0 1396.4461497957964 1530.8992824977977 0 1530.8992824977977 2404.6040085781206 0 0 0 0 991.08376825909727 1337.5941869779217 0 1337.5941869779217 1558.3882086367521 0 0 0 0 590.08001797490579 375.95853836835886 0 375.95853836835886 1259.2634473813559 0 0 0 0 -10.341557999378949 4.4908979379306402 0 4.4908979379306402 37.825803476756448 0 0 0 0 1819.890997751645 1167.298965586102 0 1167.298965586102 579.91270656314737 0 0 0 0 1283.9007105299388 900.74709503123449 0 900.74709503123449 702.81565256246904 0 0 0 0 1747.2055474214867 1520.9744234352402 0 1520.9744234352402 917.97738716432423 0 0 0 0 -53.095771778942435 263.31345713883638 0 263.31345713883638 113.9014488014509 0 0 0 0 -28.663453527322361 42.572916325040836 0 42.572916325040836 -27.70101480749355 0 0 0 0 1747.0460563317611 1518.7795056849063 0 1518.7795056849063 1225.2297664242651 0 0 0 0 1355.047026032029 1798.2223039589735 0 1798.2223039589735 1331.9027289333317 0 0 0 0 1355.5082738143683 1802.2911131933361 0 1802.2911131933361 1036.4553757878639 0 0 0 0 -28.999075988175406 26.632916746722117 0 26.632916746722117 -15.731307858497189 0 0 0 0 1279.038891107688 1701.7762629223507 0 1701.7762629223507 1385.3001058281843 0 0 0 0 -402.02344731795893 -246.69960275312769 0 -246.69960275312769 331.95802773816831 0 0 0 0 2.4970557795507773 -1.5035058138541899 0 -1.5035058138541899 10.072396334581185 0 0 0 0 182.73797708611528 775.76903569485694 0 775.76903569485694 1844.3697044880246 0 0 0 0 1081.5966417978198 1525.7469594206741 0 1525.7469594206741 1508.2730526399828 0 0 0 0 1568.5767561039247 830.80883890368932 0 830.80883890368932 1056.6063935647398 0 0 0 0 579.15297035129333 638.37497423121386 0 638.37497423121386 1019.920957093389 0 0 0 0 1097.3009857337438 1435.6786301876018 0 1435.6786301876018 1217.3210553782701 0 0 0 0 793.7865020269528 1301.5973249504459 0 1301.5973249504459 1378.9161920521728 0 0 0 0 1195.9301319702136 1954.5134047614774 0 1954.5134047614774 1338.1349607915909 0 0 0 0 546.48004484531702 1542.8647303622711 0 1542.8647303622711 1399.4763246268849 0 0 0 0 248.33240192066296 711.17611430423858 0 711.17611430423858 629.53827765971073 0 0 0 0 214.21565388664021 1078.3215571682231 0 1078.3215571682231 1348.4047820532578 0 0 0 0 17.286292376527854 728.35861190401556 0 728.35861190401556 871.90984209394082 0 0 0 0 -63.37094172538491 988.54029617685592 0 988.54029617685592 1970.1182300731016 0 0 0 0 220.91607537545497 1148.2048147885944 0 1148.2048147885944 1212.9903682306176 0 0 0 0 370.04781640486908 1351.8189800936671 0 1351.8189800936671 1473.3257201136439 0 0 0 0 288.22209477196157 1701.8311564854157 0 1701.8311564854157 2164.0810161995469 0 0 0 0 505.01847292523598 1889.7633662687731 0 1889.7633662687731 1366.1771660446393 0 0 0 0 -191.63767454633489 1105.4586596626323 0 1105.4586596626323 1856.2619584251224 0 0 0 0 497.98785014004898 430.60395553608032 0 430.60395553608032 443.85621896074736 0 0 0 0 954.72932239253714 875.33882850176451 0 875.33882850176451 846.44742060208227 0 0 0 0 351.64018053904874 861.35559518702212 0 861.35559518702212 914.56519432755886 0 0 0 0 574.70907204690593 1095.0332836031848 0 1095.0332836031848 972.22100523934932 0 0 0 0 729.55621256734594 1377.4818397161143 0 1377.4818397161143 1307.8563341959816 0 0 0 0 432.43454190451666 666.72033385869872 0 666.72033385869872 528.2307423457969 0 0 0 0 336.11961479551974 1060.4402216351009 0 1060.4402216351009 1071.7871680547833 0 0 0 0 118.39095118013211 697.88167828132282 0 697.88167828132282 543.21111070612096 0 0 0 0 268.85168558137957 381.37369638802193 0 381.37369638802193 137.0481793161016 0 0 0 0 310.93285187584115 286.19763898568635 0 286.19763898568635 -25.73116472113179 0 0 0 0 15.173209785221843 381.31847580368049 0 381.31847580368049 482.38624838451506 0 0 0 0 637.67054122057743 723.09776916085684 0 723.09776916085684 803.64938864484429 0 0 0 0 454.90788917260943 129.1579698914793 0 129.1579698914793 661.28784150851425 0 0 0 0 387.33541469615011 346.59631705514767 0 346.59631705514767 340.81486217628117 0 0 0 0 100.51433785077825 -55.567761879094178 0 -55.567761879094178 77.007882998121204 0 0 0 0 113.12315029707679 78.002723300436628 0 78.002723300436628 39.125612198957242 0 0 0 0 42.368645273032598 -159.89057977069751 0 -159.89057977069751 -62.850031406080234 0 0 0 0 94.26612903451678 -110.51842658488022 0 -110.51842658488022 296.8644614709192 0 0 0 0 231.32403284456814 -141.75847437528864 0 -141.75847437528864 239.6790816669818 0 0 0 0 200.03383509424748 185.18092765985057 0 185.18092765985057 599.81945633691794 0 0 0 0 620.26401189490571 33.732607150515832 0 33.732607150515832 645.78661299314263 0 0 0 0 220.92221494908881 201.50620147532027 0 201.50620147532027 504.27562622027472 0 0 0 0 582.60685566389293 489.82789642022544 0 489.82789642022544 970.51667400427687 0 0 0 0 102.76052494072064 171.02049195146174 0 171.02049195146174 1074.8703620745364 0 0 0 0 808.11954336872441 275.57165225413337 0 275.57165225413337 1616.2894053902492 0 0 0 0 724.27764800179284 665.09586827120165 0 665.09586827120165 1021.0677199549391 0 0 0 0 -601.94913197839924 181.01911312957964 0 181.01911312957964 385.11964777485991 0 0 0 0 -802.0750141298995 359.48306067172962 0 359.48306067172962 326.54714536984102 0 0 0 0 -445.83542043037596 329.6035112159152 0 329.6035112159152 488.19230916260858 0 0 0 0 -81.994290399452439 416.79375213262392 0 416.79375213262392 843.61978921745322 0 0 0 0 -170.59441082915873 37.089592113610706 0 37.089592113610706 603.02892175784655 0 0 0 0 -341.41484885624959 28.666617910319474 0 28.666617910319474 338.36442387213538 0 0 0 0 -189.95472092862474 130.68213868009479 0 130.68213868009479 253.4776105445635 0 0 0 0 -81.035472435280099 30.996199492583401 0 30.996199492583401 205.7815703868182 0 0 0 0 -255.04360813177482 105.35468232943822 0 105.35468232943822 -54.301653188987984 0 0 0 0 -131.79589766469144 -70.593221396004083 0 -70.593221396004083 146.39154256138136 0 0 0 0 -243.51851616526255 141.0031253493944 0 141.0031253493944 36.803327677902416 0 0 0 0 -551.53047370655258 257.89240903544487 0 257.89240903544487 132.8371188785095 0 0 0 0 -679.54681114761479 171.53291977517802 0 171.53291977517802 229.62619961623568 0 0 0 0 -1030.833853214499 300.01529862244934 0 300.01529862244934 158.56515858936473 0 0 0 0 -754.24712314577482 307.85171012708452 0 307.85171012708452 114.43486102107272 0 0 0 0 -894.9321387752716 150.04542231014057 0 150.04542231014057 72.84169599451161 0 0 0 0 -1048.5078884912436 152.46512850296676 0 152.46512850296676 186.25414101561182 0 0 0 0 -1040.4158706941816 368.486312523979 0 368.486312523979 51.384713379258756 0 0 0 0 19.339276275172381 36.273314334556439 0 36.273314334556439 46.803016197201657 0 0 0 0 -955.96093682405626 448.95400367587717 0 448.95400367587717 156.2548733837757 0 0 0 0 -979.9007077043716 335.21107458882034 0 335.21107458882034 14.041354323431733 0 0 0 0 -939.47076930293861 335.38252431831734 0 335.38252431831734 39.975165050971555 0 0 0 0 -1302.5146564922907 179.83065953597543 0 179.83065953597543 11.971447661839193 0 0 0 0 -972.92020569363376 375.80251612538996 0 375.80251612538996 244.55601532231231 0 0 0 0 -819.42677230013942 306.35638807175201 0 306.35638807175201 165.30171976277779 0 0 0 0 -1012.4438234001718 527.11016780605132 0 527.11016780605132 285.42999387316377 0 0 0 0 -938.64676879082253 552.20043061624528 0 552.20043061624528 -149.04432519659167 0 0 0 0 17.238004793555987 37.003561581708844 0 37.003561581708844 42.166634223183337 0 0 0 0 -58.198877382186765 74.387432852599886 0 74.387432852599886 72.787089756253408 0 0 0 0 -25.033199334706296 34.795767049618007 0 34.795767049618007 74.304318372596754 0 0 0 0 -587.80708231688914 508.38274296079908 0 508.38274296079908 -167.37944474489996 0 0 0 0 -888.30062666016966 1031.912910599629 0 1031.912910599629 -837.5040139509947 0 0 0 0 -1321.6591119466102 409.87583638991055 0 409.87583638991055 83.366831820720108 0 0 0 0 -652.67246178224741 518.80558845799533 0 518.80558845799533 -1095.9650534584071 0 0 0 0 -558.76602880672726 840.27445605750836 0 840.27445605750836 -44.259876665106276 0 0 0 0 -749.7467233303978 234.79905924120976 0 234.79905924120976 165.82814458973007 0 0 0 0 -815.81986595153285 457.47800268945139 0 457.47800268945139 459.89719438627071 0 0 0 0 -406.94479999231407 434.78492023232684 0 434.78492023232684 204.85769832909864 0 0 0 0 -967.82011400449846 575.96793449443066 0 575.96793449443066 160.71854332130169 0 0 0 0 -863.16583034428913 365.60423240372256 0 365.60423240372256 296.0468758995703 0 0 0 0 -411.24992345979263 446.53998647905973 0 446.53998647905973 756.14463681563211 0 0 0 0 -196.32253814265277 153.21214070068163 0 153.21214070068163 373.02863963105483 0 0 0 0 77.210540392662551 542.2594034895701 0 542.2594034895701 154.31961143246735 0 0 0 0 -62.317707901442191 950.68241300454247 0 950.68241300454247 401.6227001087027 0 0 0 0 -318.59981575786514 598.36152946287984 0 598.36152946287984 -47.363344929195591 0 0 0 0 164.08940017488203 719.83792796467606 0 719.83792796467606 436.14383060122782 0 0 0 0 328.65780529630138 1277.685357126742 0 1277.685357126742 323.38009635423805 0 0 0 0 48.250214388273889 1137.9151914311151 0 1137.9151914311151 362.53128984384239 0 0 0 0 -16.653874183131848 1357.3616407632799 0 1357.3616407632799 -337.20960280449071 0 0 0 0 292.30363486544229 2046.3613206021982 0 2046.3613206021982 -2125.3307798612659 0 0 0 0 293.39330586809956 2323.7833759721689 0 2323.7833759721689 899.11884746588476 0 0 0 0 165.90267295574449 1587.3439103260062 0 1587.3439103260062 97.376246316940524 0 0 0 0 -508.00511324174295 912.7461871365158 0 912.7461871365158 -726.29934517022048 0 0 0 0 -506.3407020516097 848.86904007580961 0 848.86904007580961 -242.29646424722159 0 0 0 0 -1261.1395778084552 1273.7606517992972 0 1273.7606517992972 -481.12695421066019 0 0 0 0 -425.77338173165481 1347.7609962784991 0 1347.7609962784991 3874.5766234273615 0 0 0 0 5.141638317739563 4.3439278929164402 0 4.3439278929164402 1.6468072922803358 0 0 0 0 9.2169825758755906 1174.4257727472359 0 1174.4257727472359 2023.0130706248601 0 0 0 0 866.81107080704533 2214.6290873872349 0 2214.6290873872349 953.80954158713848 0 0 0 0 -560.31575529287466 1888.1525885169021 0 1888.1525885169021 1252.6785914838256 0 0 0 0 -21.345946886431193 421.10740625603648 0 421.10740625603648 926.65083592350334 0 0 0 0 -1256.5220414477662 827.88017179118469 0 827.88017179118469 974.66721855441574 0 0 0 0 634.29702667861056 1272.481180067105 0 1272.481180067105 201.41825141361915 0 0 0 0 681.32308484844543 664.69621851651027 0 664.69621851651027 2211.3615950637613 0 0 0 0 392.509468406628 492.68554100480105 0 492.68554100480105 760.02514172414521 0 0 0 0 687.45085773976825 1014.8979303050746 0 1014.8979303050746 384.55309250738355 0 0 0 0 -1173.5242649728025 1118.2893631463157 0 1118.2893631463157 -0.1180786257669751 0 0 0 0 349.87933364839046 723.8493644818227 0 723.8493644818227 -185.10537636477966 0 0 0 0 446.98550786314445 868.7021263289389 0 868.7021263289389 673.44816182505747 0 0 0 0 335.01929634460612 579.93587239887529 0 579.93587239887529 72.46521854949242 0 0 0 0 733.65530284648412 806.27592449950316 0 806.27592449950316 -0.31069992847092437 0 0 0 0 1159.6610770048137 917.60640379957476 0 917.60640379957476 404.51014134475918 0 0 0 0 400.8973821506188 1201.3312517174909 0 1201.3312517174909 1879.2076579831191 0 0 0 0 213.30819469247945 603.94492780174187 0 603.94492780174187 432.7585797207721 0 0 0 0 -42.799983532248007 232.72972123433283 0 232.72972123433283 1087.7865037232696 0 0 0 0 115.43649008648572 -9.0748555574500642 0 -9.0748555574500642 -56.554976496423478 0 0 0 0 -39.274007762578549 -118.95751894928981 0 -118.95751894928981 1355.1524114154781 0 0 0 0 1147.8364881812013 670.84651728696917 0 670.84651728696917 377.45986124401679 0 0 0 0 3.4352184348810226 6.9121435540764722 0 6.9121435540764722 6.9111021123362661 0 0 0 0 0.81898702117177891 26.943580107417802 0 26.943580107417802 14.77190946158953 0 0 0 0 11.362168655094649 13.983569573482413 0 13.983569573482413 8.1369485192077491 0 0 0 0 108.63626844993269 -1.60795728658195 0 -1.60795728658195 -74.225025582185481 0 0 0 0 -872.05062962428201 571.29783844442863 0 571.29783844442863 -310.79872616181092 0 0 0 0 3.0984150537923654 24.453617651388122 0 24.453617651388122 18.985062133108102 0 0 0 0 3.0467758369532589 12.135888005273813 0 12.135888005273813 6.9485348886632323 0 0 0 0 -1345.7407416493515 213.06628021053621 0 213.06628021053621 86.232052597741131 0 0 0 0 -21.053871528551099 21.913274853795883 0 21.913274853795883 37.508039358668611 0 0 0 0 -7.169478496523368 24.798729413771042 0 24.798729413771042 10.196658769467348 0 0 0 0 -16.388907642423675 19.642261756239606 0 19.642261756239606 15.338083421789719 0 0 0 0 -5.3831547647023399 47.222821718041814 0 47.222821718041814 75.637472265487304 0 0 0 0 4.7875609505790635 30.414311303691647 0 30.414311303691647 101.18388412964123 0 0 0 0 0.26112255460873257 8.4299401344131866 0 8.4299401344131866 0.77380295598931781 0 0 0 0 173.42686650627729 117.03097326257921 0 117.03097326257921 147.63538189623796 0 0 0 0 84.154185167790274 21.958551437899587 0 21.958551437899587 -63.870432551922931 0 0 0 0 275.88832234154324 197.64822126327272 0 197.64822126327272 11.860659016427235 0 0 0 0 52.646889701631153 134.25505728114513 0 134.25505728114513 326.00596152856815 0 0 0 0 1.0277300233467486 0.23288436518456024 0 0.23288436518456024 0.092314343820788736 0 0 0 0 150.12638309698559 156.37865462699665 0 156.37865462699665 91.839568773619249 0 0 0 0 11.579507983442454 70.816102165852499 0 70.816102165852499 26.819380284468934 0 0 0 0 -23.421625010911725 15.431209540401937 0 15.431209540401937 -5.5504346314722568 0 0 0 0 -23.318758013022489 117.93690233323014 0 117.93690233323014 492.46948151160905 0 0 0 0 67.951338280618074 329.77236744870606 0 329.77236744870606 638.39178244235518 0 0 0 0 -7.8915018165362198 5.8840049086572321 0 5.8840049086572321 -4.7746813277156264 0 0 0 0 190.2969779641644 283.62521651220959 0 283.62521651220959 -4.4256166131963255 0 0 0 0 -1.4482292989923735 565.99353201299891 0 565.99353201299891 -24.438976936857216 0 0 0 0 -298.15625330325929 451.74151003545921 0 451.74151003545921 -0.16472778347088024 0 0 0 0 -42.808331967666163 730.0253910152278 0 730.0253910152278 73.82324049793533 0 0 0 0 215.26156825938961 487.12831851767987 0 487.12831851767987 0.5514795749468141 0 0 0 0 -779.96788494670182 578.19677213351679 0 578.19677213351679 0.11174180828992848 0 0 0 0 -1351.6074394050988 153.77034560750553 0 153.77034560750553 -286.68828441289952 0 0 0 0 -1424.9328979543861 907.85100764480012 0 907.85100764480012 49.017855716272607 0 0 0 0 -1326.2822910743125 -69.601794446694839 0 -69.601794446694839 67.880575761184446 0 0 0 0 -1542.6008213541718 650.47341999228229 0 650.47341999228229 103.42565691516211 0 0 0 0 -845.54949809763639 783.71009963205142 0 783.71009963205142 -439.48524374854424 0 0 0 0 -616.93399056055569 465.89007320086239 0 465.89007320086239 -91.137907869720948 0 0 0 0 -818.73880269492656 748.62850485745003 0 748.62850485745003 16.82319774429925 0 0 0 0 -952.34699576448656 438.14643482694009 0 438.14643482694009 130.93523015841492 0 0 0 0 -1.3598359360369017 1.1386355724795862 0 1.1386355724795862 -0.45152081453193205 0 0 0 0 -1219.7755341878037 75.16601836400514 0 75.16601836400514 27.54113364755176 0 0 0 0 -802.74996270504562 409.53709841441378 0 409.53709841441378 99.572401853642077 0 0 0 0 -1029.2572959531972 533.61905789402954 0 533.61905789402954 194.02931280430857 0 0 0 0 -402.39565065474017 702.41510255854519 0 702.41510255854519 -7.3068985826430435 0 0 0 0 -839.74181278743163 661.67776967999453 0 661.67776967999453 198.4357424658956 0 0 0 0 -75.187382018375502 685.85466210880986 0 685.85466210880986 51.99367974074994 0 0 0 0 -225.94872287881299 901.97946540325938 0 901.97946540325938 276.65702226899157 0 0 0 0 343.81426263384492 446.48137598216999 0 446.48137598216999 119.58554547913081 0 0 0 0 -423.10419640633336 239.04449211633619 0 239.04449211633619 86.671771257533692 0 0 0 0 -1007.5873223031522 172.78521819313028 0 172.78521819313028 233.82518206469831 0 0 0 0 -1.7709564111034553 2.037508051114628 0 2.037508051114628 -1.1224882977954849 0 0 0 0 172.07315741931961 278.2994110441723 0 278.2994110441723 29.329319305635181 0 0 0 0 -29.57396927487207 -75.883809127839413 0 -75.883809127839413 72.113925370853394 0 0 0 0 -4.5424475116621608 2.858465612317076 0 2.858465612317076 -2.8350845042467085 0 0 0 0 135.24905315661454 97.091347038942331 0 97.091347038942331 61.235987369705981 0 0 0 0 134.99832743356092 90.101084106026974 0 90.101084106026974 31.892741791220033 0 0 0 0 47.149094583583064 102.3232377571403 0 102.3232377571403 109.79521360162289 0 0 0 0 72.447523203707533 48.5302010813175 0 48.5302010813175 22.300813162204577 0 0 0 0 41.430823666501965 90.820887458881771 0 90.820887458881771 29.270979817185435 0 0 0 0 -4.0531735439398489 3.6489147181311523 0 3.6489147181311523 -3.9851686936337956 0 0 0 0 128.91452134521387 181.98740756286861 0 181.98740756286861 41.083912260100988 0 0 0 0 5.4502162024914611 14.044312724756736 0 14.044312724756736 -0.95669849601847545 0 0 0 0 4.9076716992331058 9.5825889759362326 0 9.5825889759362326 65.171970019699074 0 0 0 0 -89.629620444648026 222.73517663267921 0 222.73517663267921 -148.95222018050845 0 0 0 0 18.367946063845906 41.917089306544057 0 41.917089306544057 36.607791869770836 0 0 0 0 56.110925162160129 95.011216272054298 0 95.011216272054298 44.746832339218599 0 0 0 0 13.924883352853925 12.896957481847778 0 12.896957481847778 8.4373885518024281 0 0 0 0 -898.65805528768396 56.51487933730823 0 56.51487933730823 114.67051282034663 0 0 0 0 5.3863075632201429 13.396450494499135 0 13.396450494499135 0.57330083831379852 0 0 0 0 312.46853528989595 -11.553535602946795 0 -11.553535602946795 110.94955051683064 0 0 0 0 655.6020074591288 370.69198722949659 0 370.69198722949659 69.098861786693305 0 0 0 0 465.49877920568542 514.35257487768104 0 514.35257487768104 332.02627966080036 0 0 0 0 551.51021003645201 621.59106876550504 0 621.59106876550504 413.52036747931561 0 0 0 0 671.41615188850847 681.02099518667819 0 681.02099518667819 147.72412472461292 0 0 0 0 399.31253048712824 893.31462385027407 0 893.31462385027407 121.07642931517694 0 0 0 0 97.192061113291857 611.99698410031488 0 611.99698410031488 139.49515434456407 0 0 0 0 175.92235414811512 181.99004566006988 0 181.99004566006988 18.30164022486133 0 0 0 0 494.87870057006512 1027.1468201238895 0 1027.1468201238895 1245.5077734205697 0 0 0 0 352.35667403618845 798.45082357782394 0 798.45082357782394 1121.388775559637 0 0 0 0 494.00531931572914 1118.5302835344337 0 1118.5302835344337 1576.4059487623308 0 0 0 0 766.06448685674695 1000.4706433941319 0 1000.4706433941319 760.01054245341948 0 0 0 0 772.48357304101728 637.52496457683219 0 637.52496457683219 268.98721218683932 0 0 0 0 1422.1302754285134 1271.6494711435953 0 1271.6494711435953 862.55208291181043 0 0 0 0 1159.2834201708583 13.817322966234315 0 13.817322966234315 -80.626021515214234 0 0 0 0 469.82612437217904 298.3593033714933 0 298.3593033714933 181.56613832630501 0 0 0 0 2.9184417743321234 26.228486768262997 0 26.228486768262997 -17.971837824782369 0 0 0 0 -788.04999555356335 140.81561630235956 0 140.81561630235956 78.85948965427815 0 0 0 0 1.2056548082146037 152.63732876147333 0 152.63732876147333 -14.822171852574684 0 0 0 0 7.6820743886753462 28.106072981187097 0 28.106072981187097 47.775296109241879 0 0 0 0 132.03642482837313 43.813572543782357 0 43.813572543782357 -47.521816258440595 0 0 0 0 116.06093257979228 44.295745953641017 0 44.295745953641017 26.348765207789256 0 0 0 0 -196.44231837478583 -60.706801578857267 0 -60.706801578857267 1220.4823988341086 0 0 0 0 3291.1287314761212 930.75423566000973 0 930.75423566000973 248.4577817803256 0 0 0 0 4.8043296466551766 7.6833986507536025 0 7.6833986507536025 19.94205439487547 0 0 0 0 915.19325166336057 2359.0619288920716 0 2359.0619288920716 2277.6750369381734 0 0 0 0 2736.7809963480504 1215.1920026183943 0 1215.1920026183943 1065.0789345025696 0 0 0 0 151.08579666746664 1051.3121358312637 0 1051.3121358312637 458.26477959701151 0 0 0 0 -575.15956730247126 1653.2260808300707 0 1653.2260808300707 179.11196348456724 0 0 0 0 793.13442269334337 1168.5775177892137 0 1168.5775177892137 2891.7762381163629 0 0 0 0 -289.06246148990613 2487.9901866783748 0 2487.9901866783748 1550.9282162174786 0 0 0 0 1100.9083075606904 1091.1492582107021 0 1091.1492582107021 1091.5964336925226 0 0 0 0 465.70486473565688 1069.0259762207497 0 1069.0259762207497 1350.3974295974331 0 0 0 0 1321.2408820121855 492.83557717672375 0 492.83557717672375 395.28058324223093 0 0 0 0 1443.640197989338 2025.2346519841049 0 2025.2346519841049 2291.9698644896707 0 0 0 0 1077.0948354677348 443.01362606879775 0 443.01362606879775 1977.584354994091 0 0 0 0 461.22477338396857 1319.6450266084285 0 1319.6450266084285 1249.7841873578873 0 0 0 0 -1032.0767460581083 -137.93112675700831 0 -137.93112675700831 994.20476428311667 0 0 0 0 251.62449632332573 266.32616368964227 0 266.32616368964227 260.12770115200692 0 0 0 0 191.87310444773902 393.9276332764166 0 393.9276332764166 -382.77336306257348 0 0 0 0 291.37592378956469 1.7482549813939841 0 1.7482549813939841 934.26576133972048 0 0 0 0 -616.59100610474707 -1079.6266120895307 0 -1079.6266120895307 1026.9763709966428 0 0 0 0 0.98126482384578395 -4.5676033611796925 0 -4.5676033611796925 14.082349064952894 0 0 0 0 -110.93215255958785 -437.5423707657319 0 -437.5423707657319 1830.769750903215 0 0 0 0 -120.66118164778527 -425.34560990065802 0 -425.34560990065802 1890.1374458920181 0 0 0 0 451.70655537374478 11.755488071965374 0 11.755488071965374 114.71243410509487 0 0 0 0 380.95262854864268 -667.79896123801154 0 -667.79896123801154 1377.131406615008 0 0 0 0 95.853479144483572 417.41749136753788 0 417.41749136753788 1140.2992121052157 0 0 0 0 160.49828585686919 253.30087866547547 0 253.30087866547547 42.147538228746271 0 0 0 0 -7.0053834830760024 133.73509098990326 0 133.73509098990326 270.2610445601531 0 0 0 0 -19.049486927382532 145.50398196237802 0 145.50398196237802 544.4205422467021 0 0 0 0 504.60541781600477 -470.91546579454007 0 -470.91546579454007 710.11984020958153 0 0 0 0 7.3825854586862647 -2.9486742689308301 0 -2.9486742689308301 -3.3195731591990807 0 0 0 0 208.16056419035885 -12.375898643487744 0 -12.375898643487744 161.53231780210626 0 0 0 0 196.80462538888241 66.565888864999579 0 66.565888864999579 2154.5359055386361 0 0 0 0 692.39726731417795 162.59647275725183 0 162.59647275725183 2154.4781551716296 0 0 0 0 639.83223878913122 -75.720909434661735 0 -75.720909434661735 1106.0208059757351 0 0 0 0 778.34948059439921 941.18276054180751 0 941.18276054180751 1089.7281607948971 0 0 0 0 591.83255826559616 505.93543843569205 0 505.93543843569205 1628.8185686145007 0 0 0 0 710.41929277335294 508.11111982399234 0 508.11111982399234 1782.7769277542975 0 0 0 0 374.72183943998243 1011.6379554393279 0 1011.6379554393279 3826.9025780065349 0 0 0 0 -302.14685990295402 571.33703010605313 0 571.33703010605313 3250.9490711249018 0 0 0 0 -39.906836201567785 450.99647193556302 0 450.99647193556302 2207.5694545858278 0 0 0 0 514.07312525096495 421.32458960364966 0 421.32458960364966 2203.811993668889 0 0 0 0 368.97957889763165 713.52827027173862 0 713.52827027173862 1303.1197502314462 0 0 0 0 19.631385445780325 360.79533851778251 0 360.79533851778251 1418.9697292385827 0 0 0 0 134.15390261074936 367.02352618757141 0 367.02352618757141 1417.241210836175 0 0 0 0 60.469539174725469 96.880900248224378 0 96.880900248224378 28.468732017079333 0 0 0 0 -2.8471700382651761 96.503238771852921 0 96.503238771852921 248.79696406463336 0 0 0 0 226.18357576084964 65.76591692353395 0 65.76591692353395 751.54545424310345 0 0 0 0 19.998955223648068 7.9234453978700969 0 7.9234453978700969 33.22707254224639 0 0 0 0 74.504619998217095 85.129994124923542 0 85.129994124923542 34.414844188831921 0 0 0 0 -99.62894696614967 -14.393439914583723 0 -14.393439914583723 1167.0834754245589 0 0 0 0 39.162649783242557 76.176975022147957 0 76.176975022147957 19.588510706931341 0 0 0 0 32.555672518938081 97.25335827388335 0 97.25335827388335 73.179893297739909 0 0 0 0 89.19616687297821 52.558252576556697 0 52.558252576556697 65.161702608813357 0 0 0 0 122.62935479922453 183.17016942839109 0 183.17016942839109 637.47441496546162 0 0 0 0 64.223663979945343 83.035217472827426 0 83.035217472827426 26.253144038193831 0 0 0 0 70.659513224120019 153.31202481281071 0 153.31202481281071 197.96783087378572 0 0 0 0 -112.7336859007919 118.61583340876678 0 118.61583340876678 1752.3216052724747 0 0 0 0 -440.21275973221054 183.11497434047124 0 183.11497434047124 2510.4307337764476 0 0 0 0 -335.26187418031623 253.39845507388964 0 253.39845507388964 1823.836940696634 0 0 0 0 -246.45830674117315 488.47840546996667 0 488.47840546996667 2412.8846519239014 0 0 0 0 -533.07235838846827 458.25879682138293 0 458.25879682138293 2418.5926107268388 0 0 0 0 -346.79886828146118 289.8217165807946 0 289.8217165807946 2342.210438801405 0 0 0 0 -724.2965223868523 310.44409427003848 0 310.44409427003848 2542.015199758127 0 0 0 0 -252.49040522573341 307.88053903268519 0 307.88053903268519 733.89899072307162 0 0 0 0 -232.83674175245687 -134.53844375980771 0 -134.53844375980771 2066.461139314546 0 0 0 0 34.677128351839826 45.276976443036226 0 45.276976443036226 31.556390990730392 0 0 0 0 -279.07226653277758 640.69484244644264 0 640.69484244644264 602.71699199366412 0 0 0 0 14.830532737297204 32.897106860029766 0 32.897106860029766 27.00442282759596 0 0 0 0 171.72336670674849 4.284206224110676 0 4.284206224110676 -340.51664931765845 0 0 0 0 -521.74929094454274 105.50156465052714 0 105.50156465052714 -305.11268018086412 0 0 0 0 -204.20595925563975 -54.58553673341703 0 -54.58553673341703 2289.6892841647932 0 0 0 0 191.52085084789724 -466.02257360867225 0 -466.02257360867225 2700.0392945803942 0 0 0 0 -475.79952577721997 1731.1861416626643 0 1731.1861416626643 -753.00300828940817 0 0 0 0 0.78333266285872583 13.905918873153269 0 13.905918873153269 14.28286068153227 0 0 0 0 -162.2599103729226 -617.60734381391376 0 -617.60734381391376 5387.8588326785357 0 0 0 0 -1674.094300997589 601.04694586275582 0 601.04694586275582 -58.37246482822593 0 0 0 0 -537.85496396233793 23.902705726835848 0 23.902705726835848 -553.96607227921777 0 0 0 0 -433.52001915403525 101.91033435733698 0 101.91033435733698 -337.36649671473424 0 0 0 0 -811.75090011159773 525.10518957531895 0 525.10518957531895 -657.74636943551741 0 0 0 0 -890.5986947917263 335.69288512019557 0 335.69288512019557 -96.046534061359125 0 0 0 0 -790.12118978251965 527.07891795296382 0 527.07891795296382 -6.9570824085676577 0 0 0 0 -1842.1842375194101 692.10959036573331 0 692.10959036573331 -174.69831056380644 0 0 0 0 -2490.9502670483562 -270.36700604798898 0 -270.36700604798898 43.409998996226932 0 0 0 0 -2.6436861809897039 3.6600990699357965 0 3.6600990699357965 -11.035633549888644 0 0 0 0 -921.74597978286329 -107.3691892564384 0 -107.3691892564384 46.365245943555465 0 0 0 0 -1392.3519706051957 147.88846620940603 0 147.88846620940603 197.48730669304496 0 0 0 0 -694.34403997994377 297.3017791947932 0 297.3017791947932 68.870979561921558 0 0 0 0 -1211.9096388223406 450.3421398268074 0 450.3421398268074 37.961083388887346 0 0 0 0 -640.00763265150817 363.21994800309039 0 363.21994800309039 -40.422252824573661 0 0 0 0 -396.06035484871245 302.9264857142698 0 302.9264857142698 -75.400536209446727 0 0 0 0 -57.715901356667018 556.99873974776347 0 556.99873974776347 -20.099201753124362 0 0 0 0 -23.725301635859068 -17.245710480390699 0 -17.245710480390699 -267.73751347490179 0 0 0 0 -26.795073312243403 5.3298785803845021 0 5.3298785803845021 -153.38185789171257 0 0 0 0 170.40686850294878 184.63137742476829 0 184.63137742476829 -361.86106402037331 0 0 0 0 160.03292711861286 34.726646031380369 0 34.726646031380369 -729.93476452612958 0 0 0 0 4.9431985113342307 4.9485565620118166 0 4.9485565620118166 1.3871232939800677 0 0 0 0 255.32680574749429 446.26799715678408 0 446.26799715678408 -91.459110352152493 0 0 0 0 -453.60390681275749 135.87037058881833 0 135.87037058881833 172.25742111387081 0 0 0 0 46.62152114655288 49.120119207694714 0 49.120119207694714 30.55950357335972 0 0 0 0 -54.165072976407828 -148.62921459219069 0 -148.62921459219069 169.09344847939792 0 0 0 0 -29.63195042548341 335.83375589101615 0 335.83375589101615 73.614674961077981 0 0 0 0 -198.25227162952069 1348.0230222189857 0 1348.0230222189857 -1484.426873510296 0 0 0 0 -1066.5629001342168 1138.1777897822285 0 1138.1777897822285 -926.79742597122095 0 0 0 0 -145.24627278238768 -238.5818731520485 0 -238.5818731520485 486.05476953083416 0 0 0 0 -182.81667420275335 65.934156459668884 0 65.934156459668884 -262.47345313007827 0 0 0 0 -18.287358923080319 279.24720989575508 0 279.24720989575508 -478.23507216846338 0 0 0 0 -25.316105204925407 -172.9712772221028 0 -172.9712772221028 -426.83356956313946 0 0 0 0 72.595164325233782 -142.33594885340426 0 -142.33594885340426 -134.60316079553741 0 0 0 0 16.092588144708429 10.079833592039677 0 10.079833592039677 1.3375719317065773 0 0 0 0 242.62985737921554 41.487061216357688 0 41.487061216357688 -1108.1959999451501 0 0 0 0 276.04541469609103 104.524631813616 0 104.524631813616 -489.18783549542422 0 0 0 0 -441.74039454353624 -157.37902359638247 0 -157.37902359638247 -290.7731164066754 0 0 0 0 50.871868304471718 -33.726668942937977 0 -33.726668942937977 -322.64917592075653 0 0 0 0 -130.75932166582788 455.37507289762652 0 455.37507289762652 125.54236357210902 0 0 0 0 579.86670656697243 349.7917030416429 0 349.7917030416429 -1066.5673477470118 0 0 0 0 -61.670022804843029 2263.7053884189372 0 2263.7053884189372 -2964.0872671618417 0 0 0 0 6.919536789500853 160.16919254658569 0 160.16919254658569 60.331991535407724 0 0 0 0 44.904702909008222 35.838020445307649 0 35.838020445307649 15.244876899512178 0 0 0 0 18.836776485643099 20.539790625045669 0 20.539790625045669 12.832522179859758 0 0 0 0 97.758550936996471 372.93144681156264 0 372.93144681156264 -168.42228085475654 0 0 0 0 -21.615765517293767 666.05780558773768 0 666.05780558773768 49.706730468606111 0 0 0 0 289.28336141930777 499.06522840172693 0 499.06522840172693 104.8275487589417 0 0 0 0 200.03165393024392 743.45112970050104 0 743.45112970050104 608.85542620503111 0 0 0 0 307.1720180541015 402.76641555466631 0 402.76641555466631 36.350810046249535 0 0 0 0 399.88244336025673 392.5919685025292 0 392.5919685025292 -445.81103118561441 0 0 0 0 -14.663685319537763 773.74916794018645 0 773.74916794018645 -558.82754142092017 0 0 0 0 -637.39629189102561 465.13769467340899 0 465.13769467340899 -179.30600291268274 0 0 0 0 -364.16335464052099 -289.37894225872151 0 -289.37894225872151 3307.7657097353949 0 0 0 0 -338.04053774794011 286.29359363650292 0 286.29359363650292 1376.1226607190911 0 0 0 0 -258.14897040755022 703.43818290306081 0 703.43818290306081 3028.8495633531711 0 0 0 0 -367.18322900519706 -679.18876811579685 0 -679.18876811579685 1292.899951854808 0 0 0 0 -238.04177428822732 -1129.9598832555057 0 -1129.9598832555057 338.06800878306967 0 0 0 0 -0.509646508959122 -47.836258604947943 0 -47.836258604947943 1015.0862232265645 0 0 0 0 -43.860151261797 -296.65934282450689 0 -296.65934282450689 180.70605335227447 0 0 0 0 -37.459178323537344 251.43652179806668 0 251.43652179806668 981.13406155514531 0 0 0 0 6.2810190007439815 299.75496821611887 0 299.75496821611887 893.19769149145577 0 0 0 0 206.28995563165518 244.13825106006698 0 244.13825106006698 127.41345322746201 0 0 0 0 197.17561382596614 403.88194575169473 0 403.88194575169473 440.91213310929015 0 0 0 0 400.66906491701957 198.96157601720188 0 198.96157601720188 -423.91271699222852 0 0 0 0 533.15403970133048 -528.86963455047226 0 -528.86963455047226 -819.33107483499043 0 0 0 0 -1144.7842948918842 2156.9059737029529 0 2156.9059737029529 -2268.8569099887682 0 0 0 0 -1890.8044586510514 1181.6944438681749 0 1181.6944438681749 -2305.2849286427663 0 0 0 0 -1609.2294761252051 661.91703548472833 0 661.91703548472833 -2350.3321671862504 0 0 0 0 -1370.0435544449138 1699.3257195333572 0 1699.3257195333572 -7070.1235725994338 0 0 0 0 -7.4874445310519491 15.593186858746961 0 15.593186858746961 11.208576378112781 0 0 0 0 29.833665885686059 694.92541293249087 0 694.92541293249087 -461.576979534766 0 0 0 0 -145.70695979003358 216.21796395555884 0 216.21796395555884 -2354.2695066656161 0 0 0 0 -293.31055130622735 2261.4686377899052 0 2261.4686377899052 -883.23866281975643 0 0 0 0 -534.85982140898705 1484.092760946136 0 1484.092760946136 -2241.2200178851126 0 0 0 0 -74.904426194058033 1454.2185026817315 0 1454.2185026817315 -1079.1638629241788 0 0 0 0 -275.20070453929657 2452.8444818488351 0 2452.8444818488351 -2173.644943516847 0 0 0 0 -777.45698301374796 1083.5694470923772 0 1083.5694470923772 136.66310495975631 0 0 0 0 189.31915951648261 991.86419203378318 0 991.86419203378318 -3365.4029256975991 0 0 0 0 -182.05773082735686 1781.9394589184121 0 1781.9394589184121 -1565.0508115831472 0 0 0 0 -700.36236656879191 391.43916895272559 0 391.43916895272559 -415.13157167416648 0 0 0 0 -884.63741272268817 -40.078838178960723 0 -40.078838178960723 -2026.0288004652102 0 0 0 0 -935.6589075444499 1098.1325154592632 0 1098.1325154592632 -601.8530957710318 0 0 0 0 -1463.5397678294248 469.594761361579 0 469.594761361579 -1104.0668860928272 0 0 0 0 -319.33554914779961 587.49667222460266 0 587.49667222460266 -1638.9002364763146 0 0 0 0 -240.35220050616772 1059.4475612351307 0 1059.4475612351307 -58.088137871265644 0 0 0 0 -88.328424101448036 542.42462622965832 0 542.42462622965832 -384.26360827801909 0 0 0 0 -742.9945589973795 791.25301079353812 0 791.25301079353812 1117.4608917977603 0 0 0 0 -388.11245972311008 54.421157565273461 0 54.421157565273461 1537.3614035181308 0 0 0 0 337.45108415208233 31.73589261003508 0 31.73589261003508 1365.2528581517108 0 0 0 0 -486.00401200937631 358.52655592220253 0 358.52655592220253 1814.780798040927 0 0 0 0 241.61644024369889 -630.84030435339082 0 -630.84030435339082 2472.8484772242373 0 0 0 0 204.54255901167926 465.5766171718351 0 465.5766171718351 1809.2817995771766 0 0 0 0 -39.374823310034117 -15.358116627343406 0 -15.358116627343406 2708.0343559731846 0 0 0 0 -98.157140043273102 821.85547947975283 0 821.85547947975283 2278.6856192618143 0 0 0 0 -375.34851051852456 894.92848824223529 0 894.92848824223529 1571.5687079402851 0 0 0 0 -511.24503562654718 343.19120596280118 0 343.19120596280118 1835.494645483559 0 0 0 0 -616.06607895324123 491.68395029328531 0 491.68395029328531 842.51564613019582 0 0 0 0 -115.71323844890503 847.20516791415139 0 847.20516791415139 1062.0067464035237 0 0 0 0 -262.0273908762756 972.09068351678798 0 972.09068351678798 201.40906966941839 0 0 0 0 -702.39210919523612 409.83667319365486 0 409.83667319365486 1225.6783725361893 0 0 0 0 -401.6776419349917 858.25109918164526 0 858.25109918164526 145.55182994277857 0 0 0 0 -855.44201242123381 649.40149270648544 0 649.40149270648544 -279.29626572875713 0 0 0 0 -186.95680448639905 1096.4938567417121 0 1096.4938567417121 -1010.5587423591642 0 0 0 0 -561.83223470563826 270.03676530971643 0 270.03676530971643 440.92510533763561 0 0 0 0 -64.658803815866122 387.83400839976093 0 387.83400839976093 -1342.5055733528588 0 0 0 0 -385.52998399458011 788.64061024232069 0 788.64061024232069 771.50737796334579 0 0 0 0 -500.22399988237885 313.77754363822532 0 313.77754363822532 1768.4319479791302 0 0 0 0 -649.68776644063473 352.07871610452275 0 352.07871610452275 2330.9988765893504 0 0 0 0 -639.8188391776348 679.25829371393775 0 679.25829371393775 2131.1078599047105 0 0 0 0 -710.30611551184847 281.18175558157236 0 281.18175558157236 2564.9799160145631 0 0 0 0 -752.91718751353619 337.13977508380776 0 337.13977508380776 2795.612736872994 0 0 0 0 -279.56039085972589 127.20102576506724 0 127.20102576506724 3030.0653619485383 0 0 0 0 -412.29422326864733 700.02603460711543 0 700.02603460711543 2691.5942572686909 0 0 0 0 -640.54036537287175 64.698886079335352 0 64.698886079335352 3384.0209672995989 0 0 0 0 -386.2379252234914 -514.18452199090189 0 -514.18452199090189 5598.022624134901 0 0 0 0 546.25628961017355 -1135.9568351217385 0 -1135.9568351217385 1794.093774686 0 0 0 0 -445.79428064726926 -83.28056134153212 0 -83.28056134153212 3038.9531285597186 0 0 0 0 -540.00550515396753 -295.99103132016171 0 -295.99103132016171 3359.1070150326996 0 0 0 0 -518.84805563641567 16.666411002799578 0 16.666411002799578 2158.1525464984588 0 0 0 0 -525.29868659753993 -254.78267847011739 0 -254.78267847011739 2870.4503583646438 0 0 0 0 -115.5432954969001 -277.91702096021618 0 -277.91702096021618 2062.9798690991483 0 0 0 0 177.45988576593663 -233.00217945233817 0 -233.00217945233817 1016.0215580982331 0 0 0 0 200.04600154494983 -445.00250646678978 0 -445.00250646678978 1640.9844233024196 0 0 0 0 18.369679581821003 49.582554929629012 0 49.582554929629012 47.555074724227637 0 0 0 0 -67.12595844376483 215.76435503501853 0 215.76435503501853 -37.415551465950557 0 0 0 0 -449.92721544211963 -335.79832344569149 0 -335.79832344569149 528.17546117060374 0 0 0 0 27.168598096929827 61.254093626939905 0 61.254093626939905 61.400195800256569 0 0 0 0 221.83400108409114 27.652151709575264 0 27.652151709575264 5.8297211151220836 0 0 0 0 301.07638019592196 131.46612112413095 0 131.46612112413095 13.23801294885925 0 0 0 0 3.2540173196485398 2.3496505472499223 0 2.3496505472499223 2.0383432836341058 0 0 0 0 8.2034387127959576 76.859738006482161 0 76.859738006482161 46.978502722432282 0 0 0 0 -15.63071818719618 88.428643804167223 0 88.428643804167223 21.855289378145244 0 0 0 0 10.055069777430617 60.580901845187327 0 60.580901845187327 51.607113234873395 0 0 0 0 -209.38835612872936 80.524234906527454 0 80.524234906527454 78.473931902866752 0 0 0 0 11.949363240797538 208.62767303982037 0 208.62767303982037 77.262774910354153 0 0 0 0 11.062721714908037 65.244519947054044 0 65.244519947054044 35.663537991628274 0 0 0 0 -26.789405753312167 289.90042551917577 0 289.90042551917577 131.26113428843018 0 0 0 0 -53.197192819963675 282.22557243267511 0 282.22557243267511 184.83962207912737 0 0 0 0 701.15002378575446 65.1248936579359 0 65.1248936579359 -60.364967644414719 0 0 0 0 161.24040001287358 323.20857665524818 0 323.20857665524818 135.29440093421726 0 0 0 0 308.11270828979832 221.02348431729342 0 221.02348431729342 40.273732263653073 0 0 0 0 319.1836905493401 -419.8645586097773 0 -419.8645586097773 -23.760229975698167 0 0 0 0 -130.34160391118348 -106.64251734651043 0 -106.64251734651043 -241.93612411189679 0 0 0 0 310.12575021572411 678.99162499409795 0 678.99162499409795 952.56345647877606 0 0 0 0 -180.68540902895256 392.51578492596673 0 392.51578492596673 1806.0698661771457 0 0 0 0 279.20983745309059 1974.5996713998829 0 1974.5996713998829 2923.1426937295691 0 0 0 0 -506.59815548069309 -450.39740929357504 0 -450.39740929357504 5383.167292664577 0 0 0 0 -610.83258475139883 149.95109050270548 0 149.95109050270548 3273.2587454794557 0 0 0 0 1391.9465188912727 -2754.8828674608776 0 -2754.8828674608776 4332.965539615645 0 0 0 0 1.2933831050590356 8.8313529238795354 0 8.8313529238795354 32.800576750398079 0 0 0 0 809.19892364603584 1190.7005360371113 0 1190.7005360371113 643.23453665240595 0 0 0 0 229.53829054138623 989.96018820880272 0 989.96018820880272 4231.8985034603611 0 0 0 0 1574.349050308032 465.75423472964076 0 465.75423472964076 2818.6179604487261 0 0 0 0 1434.3108465716959 -1447.9373441076916 0 -1447.9373441076916 3899.1865847988083 0 0 0 0 113.13985971534566 -259.16459856525762 0 -259.16459856525762 2829.5476854201006 0 0 0 0 119.67897317673555 -683.68934730581873 0 -683.68934730581873 3807.6241016130953 0 0 0 0 -784.58522473621997 -175.89574542167247 0 -175.89574542167247 4041.533472058898 0 0 0 0 53.014138481463306 360.85047553992263 0 360.85047553992263 3786.2395370635568 0 0 0 0 -475.98065469194262 273.33010229337378 0 273.33010229337378 3801.8149260252867 0 0 0 0 -873.43770126035088 20.226588977282518 0 20.226588977282518 4319.9182783887809 0 0 0 0 464.69377676020667 -683.9356939657082 0 -683.9356939657082 782.94106588808063 0 0 0 0 -286.32013333257055 -232.82796206743205 0 -232.82796206743205 1299.0509016533906 0 0 0 0 -145.00534148653969 -1032.6848061063356 0 -1032.6848061063356 3245.8175499665667 0 0 0 0 -615.73774200731714 -142.52835847881579 0 -142.52835847881579 3214.5929181382526 0 0 0 0 -668.38454189759796 -110.48506937658385 0 -110.48506937658385 3199.322818216031 0 0 0 0 -335.33003701682901 -652.80825726098556 0 -652.80825726098556 1617.9384975452849 0 0 0 0 -560.10844276010175 -329.63007136485976 0 -329.63007136485976 2600.9626466373884 0 0 0 0 14.105769131167108 61.480941295505161 0 61.480941295505161 13.107610931720245 0 0 0 0 364.4829901852645 -37.24667764356127 0 -37.24667764356127 48.220451196339127 0 0 0 0 1.4572386932775707 25.624071038669001 0 25.624071038669001 -2.0244169168225312 0 0 0 0 -490.09486184617163 444.82695935146739 0 444.82695935146739 164.86145352385938 0 0 0 0 -848.18158140443848 -295.9855155571131 0 -295.9855155571131 1728.1300824923674 0 0 0 0 0.9375983524217304 37.626857126667034 0 37.626857126667034 6.161940335196455 0 0 0 0 0.2156616595457308 32.236480745952576 0 32.236480745952576 -16.281903931514535 0 0 0 0 -760.92879704626466 157.3737989892943 0 157.3737989892943 1268.8161805449054 0 0 0 0 417.34430215449538 181.39933280428158 0 181.39933280428158 -162.01470872049686 0 0 0 0 -293.89354400521552 -248.71381009013476 0 -248.71381009013476 -20.670298918761546 0 0 0 0 13.70851892529754 30.044423788098356 0 30.044423788098356 -25.291788911963522 0 0 0 0 10.113855084200623 7.8412015044741565 0 7.8412015044741565 -27.117243453630181 0 0 0 0 90.523074711905792 61.09239629485819 0 61.09239629485819 -153.17025631465367 0 0 0 0 112.3104155290639 55.260510025764233 0 55.260510025764233 -69.906131766607814 0 0 0 0 -7.6670347253866566 47.303332960582793 0 47.303332960582793 -70.247597575296822 0 0 0 0 8.0422818523834039 23.807382033287297 0 23.807382033287297 -49.083462789477522 0 0 0 0 2.1709602149639977 14.10246592250769 0 14.10246592250769 4.0952419685727364 0 0 0 0 0.01374909387959633 22.768960460874951 0 22.768960460874951 -1.0313090153558733 0 0 0 0 5.5048791089174216 18.473708991976224 0 18.473708991976224 -8.547738400204679 0 0 0 0 2.2149995715444675 13.711234319900541 0 13.711234319900541 -7.1669622918270761 0 0 0 0 5.6705772548593814 20.903193423124321 0 20.903193423124321 -3.5917518163041677 0 0 0 0 3.2178698560237535 22.711296811272405 0 22.711296811272405 -4.6237686673739518 0 0 0 0 -3.1907767322160225 -1.9362800645810552 0 -1.9362800645810552 5.6219769073395476 0 0 0 0 -3.1136260314888204 -46.650732356767548 0 -46.650732356767548 4700.6792831304701 0 0 0 0 0.053831639071930226 12.463586406002008 0 12.463586406002008 29.264570556230183 0 0 0 0 747.76234934748936 -1630.2930030422067 0 -1630.2930030422067 3794.7854408951243 0 0 0 0 1105.0828381486062 1167.1767623178894 0 1167.1767623178894 1229.7543345927324 0 0 0 0 -425.56084064252991 844.74487989990666 0 844.74487989990666 5728.319178539401 0 0 0 0 1411.3782600151462 1167.4905204696515 0 1167.4905204696515 3477.7903871120725 0 0 0 0 762.58500407845713 -563.30532712923014 0 -563.30532712923014 4220.695812859678 0 0 0 0 1.3000866077427271 408.5840357560067 0 408.5840357560067 3125.3975275638659 0 0 0 0 231.98037946007389 -215.35597972360483 0 -215.35597972360483 1936.3382877314289 0 0 0 0 -15.467227469649515 83.074858754887828 0 83.074858754887828 1518.4748588861112 0 0 0 0 319.23514831566808 805.93292379975105 0 805.93292379975105 2332.0252272183861 0 0 0 0 205.70277141893166 377.25513854763631 0 377.25513854763631 2973.3892293736717 0 0 0 0 317.46499768356443 1024.3129845343865 0 1024.3129845343865 2465.3406849405874 0 0 0 0 6.13283150587813 -64.058505974815489 0 -64.058505974815489 2644.9405615119904 0 0 0 0 355.57427138590265 -285.13660475926372 0 -285.13660475926372 2480.2665449622 0 0 0 0 1403.2123338938836 76.727332458773162 0 76.727332458773162 1414.0522301632227 0 0 0 0 1067.0171204573708 744.78000120618526 0 744.78000120618526 2134.6161281469867 0 0 0 0 150.57610535791173 1343.5816787475649 0 1343.5816787475649 1743.8533547350016 0 0 0 0 -789.99093226667901 691.76254310504737 0 691.76254310504737 1630.6143051992967 0 0 0 0 15.434894911150309 13.580729386147979 0 13.580729386147979 9.1096286913837332 0 0 0 0 -147.75561281109913 226.95289391221286 0 226.95289391221286 2462.8338330246625 0 0 0 0 2515.6468510736304 863.30896652350566 0 863.30896652350566 -2976.7286231119069 0 0 0 0 2291.0601713003634 517.690725952496 0 517.690725952496 -2902.9216631440795 0 0 0 0 1416.2755942851945 1859.9519873118988 0 1859.9519873118988 -857.12483280750166 0 0 0 0 31.036308377592377 19.65148057496252 0 19.65148057496252 10.078175015689894 0 0 0 0 -357.96063236374175 936.60224723853753 0 936.60224723853753 -1927.2422032627583 0 0 0 0 -202.11548018362373 556.17549764929572 0 556.17549764929572 4661.8798592874082 0 0 0 0 2806.4120191332186 367.02405835548416 0 367.02405835548416 -3143.6839695608724 0 0 0 0 793.84710087114945 -341.48549649176857 0 -341.48549649176857 -3032.5391354424646 0 0 0 0 2602.7527415695804 737.75256726922089 0 737.75256726922089 -2891.0748320261191 0 0 0 0 2801.7058736423496 555.43145387191908 0 555.43145387191908 -2904.4222679419536 0 0 0 0 4287.6515398187912 1597.684796159745 0 1597.684796159745 -2807.0007021660858 0 0 0 0 -167.27821488589689 1584.2770407038552 0 1584.2770407038552 3845.4775880451198 0 0 0 0 -3185.729637170778 1256.7759651500965 0 1256.7759651500965 -58.363722254114691 0 0 0 0 2999.0818151455605 870.71475736949651 0 870.71475736949651 -2976.6170634573627 0 0 0 0 2315.0335865326051 3733.056140200526 0 3733.056140200526 340.28580990566115 0 0 0 0 -227.34368407462898 1024.1851392130848 0 1024.1851392130848 -784.4406506701489 0 0 0 0 -2404.3635316413711 2266.7491207799467 0 2266.7491207799467 738.5490143262432 0 0 0 0 21.170457971406961 25.306328063778359 0 25.306328063778359 21.696851344040056 0 0 0 0 -365.72939289220085 172.68331543157547 0 172.68331543157547 -93.743671593212639 0 0 0 0 224.45465036784299 161.9176055200478 0 161.9176055200478 -142.19149476103485 0 0 0 0 -0.23436377557663945 559.04809649677918 0 559.04809649677918 1263.6475936111674 0 0 0 0 -98.592613653338049 737.33094164554495 0 737.33094164554495 1097.4125250270736 0 0 0 0 40.979364519705996 -64.156726739844089 0 -64.156726739844089 -431.6465843332553 0 0 0 0 -0.22430127096595243 634.70562405416604 0 634.70562405416604 -655.13056491933003 0 0 0 0 -66.409699707306572 387.26778598988676 0 387.26778598988676 -285.16722250306702 0 0 0 0 -159.41176994947818 619.6752638701214 0 619.6752638701214 -253.00298309083882 0 0 0 0 -27.264319373731269 556.07277370768679 0 556.07277370768679 -594.9572588593328 0 0 0 0 -216.34130315271977 729.14381345015681 0 729.14381345015681 -240.6209208628643 0 0 0 0 -62.732226923995768 662.10945070593334 0 662.10945070593334 -538.27845262945721 0 0 0 0 -138.990973548498 688.16678349424183 0 688.16678349424183 -840.3285452597629 0 0 0 0 -305.07836049685284 738.48230778601373 0 738.48230778601373 -555.23708738846835 0 0 0 0 -298.94219649958541 525.65729391629611 0 525.65729391629611 -597.51509361996978 0 0 0 0 -418.01169597383705 522.57926628367932 0 522.57926628367932 -908.71686605484138 0 0 0 0 -307.37520124100047 800.89657019491324 0 800.89657019491324 -914.16665622300206 0 0 0 0 -518.24690015769374 915.7169301989934 0 915.7169301989934 -1421.0044027896947 0 0 0 0 -284.05568542280525 629.0645801032897 0 629.0645801032897 -1201.3931393071616 0 0 0 0 -408.99814708797931 305.73258531363717 0 305.73258531363717 -1163.5630979438756 0 0 0 0 -887.01586654089624 180.54511807205563 0 180.54511807205563 -1500.3614670513343 0 0 0 0 -18.044836926332209 536.34658491506343 0 536.34658491506343 -1660.0169686645531 0 0 0 0 -49.37213402341149 568.87754369705181 0 568.87754369705181 -1007.1618408879549 0 0 0 0 -127.990723087074 371.22107793242503 0 371.22107793242503 -832.71002596992184 0 0 0 0 0.11749447176407557 556.44376973206272 0 556.44376973206272 -1240.9722691562711 0 0 0 0 -1.6847615290171234 453.69098784214293 0 453.69098784214293 -1334.7321178018228 0 0 0 0 0.10345849448640365 558.90443358549237 0 558.90443358549237 -1275.1289597232826 0 0 0 0 5.0193588399270084 629.00158457516591 0 629.00158457516591 -1511.9989579155663 0 0 0 0 -55.615167148294859 651.48389935917112 0 651.48389935917112 -1210.9013177531087 0 0 0 0 -76.689728075078165 762.05087647234359 0 762.05087647234359 -1741.673638862856 0 0 0 0 -44.351965834270231 632.31907418600531 0 632.31907418600531 -1201.9292717297358 0 0 0 0 -297.7170384323399 680.45132200677654 0 680.45132200677654 -753.74985549019766 0 0 0 0 -62.188485226390185 696.22198621652569 0 696.22198621652569 -1252.8775078083499 0 0 0 0 -0.19809504100127945 533.35288821813469 0 533.35288821813469 -1050.7111539293255 0 0 0 0 -28.791472404482192 411.9450020198019 0 411.9450020198019 -1219.4866423060594 0 0 0 0 -2.7244199602719164 157.60797096934766 0 157.60797096934766 -425.36180446437356 0 0 0 0 -211.57888797634223 208.89398455996343 0 208.89398455996343 -221.32702559966856 0 0 0 0 -195.28757704995223 500.40223875081574 0 500.40223875081574 -804.61047249422154 0 0 0 0 -5.006193504867781 0.25841634584546114 0 0.25841634584546114 -1.2303910060875047 0 0 0 0 -1.3561424830404576 14.054414741578512 0 14.054414741578512 -0.98964388678723481 0 0 0 0 -2.6410031813211958 -1.6799657048231325 0 -1.6799657048231325 -0.43030517375200361 0 0 0 0 -0.0089741680461983518 21.305740447614731 0 21.305740447614731 21.243664681678638 0 0 0 0 1.8899339173296994 0.13416475447502307 0 0.13416475447502307 -12.58577478734167 0 0 0 0 435.0348935960792 252.56700560931858 0 252.56700560931858 229.26339157941311 0 0 0 0 248.98346502332424 13.506966223861127 0 13.506966223861127 -110.6062812844757 0 0 0 0 0.84982105389908824 5.0503244362726605 0 5.0503244362726605 -36.589660962712102 0 0 0 0 97.999720042367699 -47.352593379204336 0 -47.352593379204336 -63.239357147169358 0 0 0 0 -21.773339345589193 7.7786138044621111 0 7.7786138044621111 -16.729582774234586 0 0 0 0 7.7336883942895582 8.4148610343320627 0 8.4148610343320627 -13.317106748255441 0 0 0 0 7.3733635767021042 9.1689848324347167 0 9.1689848324347167 -26.042038311556098 0 0 0 0 12.428797044995008 8.4859146121016238 0 8.4859146121016238 -27.939413480184157 0 0 0 0 18.997971000673715 25.679800963793241 0 25.679800963793241 50.062263773130326 0 0 0 0 6.4810901957000056 -9.2775651346284889 0 -9.2775651346284889 -16.461957881414605 0 0 0 0 10.21077516747755 10.504944431821059 0 10.504944431821059 -26.746709731451119 0 0 0 0 -8.7823163509892765 -24.256346722067974 0 -24.256346722067974 -34.818941457124311 0 0 0 0 13.20922264418914 75.542009914701339 0 75.542009914701339 -261.13566348785389 0 0 0 0 1.4622991258060836 4.592116556310657 0 4.592116556310657 2.2901285494036188 0 0 0 0 93.900192178145517 -31.766919280205911 0 -31.766919280205911 -137.43009783457092 0 0 0 0 -296.77766303633325 189.80226705947462 0 189.80226705947462 -112.81948938038113 0 0 0 0 67.434461353928782 -93.844995725303306 0 -93.844995725303306 -279.3445681448502 0 0 0 0 669.96300665225135 311.06644499511822 0 311.06644499511822 -62.201349870454578 0 0 0 0 440.22488849490037 428.52728732011838 0 428.52728732011838 134.65524486243521 0 0 0 0 2.7682468648961134 7.4179685025673336 0 7.4179685025673336 -40.520999286108008 0 0 0 0 408.85695683717495 332.19548501774989 0 332.19548501774989 -11.828812395659043 0 0 0 0 351.99097492417059 198.90317332313043 0 198.90317332313043 -219.77714470941282 0 0 0 0 -0.35512082214119012 4.8780833022002241 0 4.8780833022002241 -16.2038462737289 0 0 0 0 730.22203234098561 -449.33838798291799 0 -449.33838798291799 -846.10227324955486 0 0 0 0 -1529.4044612634607 974.32248803329458 0 974.32248803329458 -571.93775611711317 0 0 0 0 366.51291139656678 -130.93579531731302 0 -130.93579531731302 384.69762734250435 0 0 0 0 318.51480183589592 124.97272858364522 0 124.97272858364522 -837.9833013118041 0 0 0 0 1.5612565343888889 4.4408505911250984 0 4.4408505911250984 -1.1977517120398034 0 0 0 0 -626.48810333873553 707.07813917802559 0 707.07813917802559 -687.88842749317701 0 0 0 0 -977.77645262255101 -140.75498735132715 0 -140.75498735132715 431.76910185041925 0 0 0 0 -228.82912979072717 599.71932710682449 0 599.71932710682449 -857.10094165905321 0 0 0 0 -605.99218116651173 626.44122761574545 0 626.44122761574545 -417.47697258011613 0 0 0 0 -571.90220038121333 710.16384737275439 0 710.16384737275439 -700.59745052446306 0 0 0 0 -571.3798664167407 910.3312706905599 0 910.3312706905599 -1007.5845843154784 0 0 0 0 -182.22909157554386 583.15609689929261 0 583.15609689929261 -1529.7287440945038 0 0 0 0 -182.94865536010684 657.04631711917955 0 657.04631711917955 -2768.8843262802548 0 0 0 0 -1210.3599611148238 1510.0196210969552 0 1510.0196210969552 -1587.193853777022 0 0 0 0 279.1157267941453 410.7123196889188 0 410.7123196889188 -2136.3360706844251 0 0 0 0 774.5421597922832 -418.80098994496802 0 -418.80098994496802 -1231.3504339186547 0 0 0 0 249.63817808503518 41.134117514735408 0 41.134117514735408 -1104.7342444058195 0 0 0 0 -223.0679836327904 362.69604068955715 0 362.69604068955715 -979.4687954296387 0 0 0 0 -237.98694279089796 3.9649526988861794 0 3.9649526988861794 -937.34150703478008 0 0 0 0 -4.8074502638064587 1.7541700461439973 0 1.7541700461439973 -1.6635375649092197 0 0 0 0 88.793128929639352 10.197344841089944 0 10.197344841089944 -977.06350336482501 0 0 0 0 63.698979902328574 107.98349014725318 0 107.98349014725318 -101.17079193287645 0 0 0 0 -256.32677986694034 422.49648022856127 0 422.49648022856127 -209.52920909997192 0 0 0 0 142.25184697334771 366.84516765480657 0 366.84516765480657 9.4921860628746799 0 0 0 0 -13.986339330280316 199.11078375187935 0 199.11078375187935 98.287032340012956 0 0 0 0 -193.9166924547535 216.05071127556312 0 216.05071127556312 142.05463550110289 0 0 0 0 -8.0104758011584636 214.10073256399482 0 214.10073256399482 -86.408777853554056 0 0 0 0 -420.47103190102644 202.70588428972042 0 202.70588428972042 29.413200743954803 0 0 0 0 -249.90219480355881 -47.520417891871148 0 -47.520417891871148 21.396132824032975 0 0 0 0 -63.202092827908928 -2.5771119226101291 0 -2.5771119226101291 2.1187589772453066 0 0 0 0 -122.9370544491394 96.572362183498626 0 96.572362183498626 55.112730382734298 0 0 0 0 -23.440256374335149 153.56619220532593 0 153.56619220532593 72.776967894953486 0 0 0 0 -103.45935722527793 121.73798835540947 0 121.73798835540947 86.057293177706015 0 0 0 0 144.79258639761247 202.74760019988389 0 202.74760019988389 57.77833290862327 0 0 0 0 13.247251570574008 170.54583446670586 0 170.54583446670586 65.916400837631954 0 0 0 0 151.27751768595772 199.83419290729216 0 199.83419290729216 37.731344158093634 0 0 0 0 -89.878310513326142 219.54781562345488 0 219.54781562345488 169.18847673242999 0 0 0 0 -79.37276195519371 256.52821370151651 0 256.52821370151651 164.33082770373585 0 0 0 0 167.50024790035968 319.4230211737663 0 319.4230211737663 152.90520240893238 0 0 0 0 -21.269789964397205 206.60993778974807 0 206.60993778974807 220.81577850949361 0 0 0 0 263.56470462739526 162.05483695625117 0 162.05483695625117 78.36405395680049 0 0 0 0 -27.496746636927128 230.59185976586014 0 230.59185976586014 132.95376034263609 0 0 0 0 -40.969302004494239 66.444706161251816 0 66.444706161251816 -7.8766448692185804 0 0 0 0 -104.34447162605647 28.490670391271124 0 28.490670391271124 148.25494491172321 0 0 0 0 45.161703056844999 127.47453024470451 0 127.47453024470451 56.180113696449553 0 0 0 0 30.13159606164001 56.830494763868074 0 56.830494763868074 64.107829275260372 0 0 0 0 2.4958549396176579 9.9937954435780227 0 9.9937954435780227 7.3126799184445304 0 0 0 0 -38.423744515246653 24.684929083575184 0 24.684929083575184 13.010867910314118 0 0 0 0 80.404843128169887 -31.691299044279731 0 -31.691299044279731 -19.01547974634741 0 0 0 0 185.5268425187096 76.563315908737422 0 76.563315908737422 -3.2730651300516911 0 0 0 0 114.12768277325085 75.286118187941611 0 75.286118187941611 10.775036401450052 0 0 0 0 87.392689812171739 54.744144029291419 0 54.744144029291419 -4.0406335931184003 0 0 0 0 11.110364708205452 33.467845961116836 0 33.467845961116836 13.664159972864582 0 0 0 0 21.887915396451717 -6.4591197581976303 0 -6.4591197581976303 -8.3438205653073965 0 0 0 0 -35.603065966570284 -25.495455366737588 0 -25.495455366737588 10.438294431907707 0 0 0 0 13.985663852712605 14.283517958294397 0 14.283517958294397 -13.911813857093875 0 0 0 0 10.748975911206799 6.0992548354624887 0 6.0992548354624887 -26.272291803954431 0 0 0 0 -4.6809252429957269 35.386300081303489 0 35.386300081303489 16.404253272507049 0 0 0 0 -46.147527987050125 147.23632411359904 0 147.23632411359904 -244.44608034228986 0 0 0 0 -8.5167007331866103 9.758810295427395 0 9.758810295427395 0.77091340176657042 0 0 0 0 6.2556402308583188 30.24268263514341 0 30.24268263514341 13.313579652637593 0 0 0 0 -24.266711892574676 298.50819854637666 0 298.50819854637666 -765.88590573477723 0 0 0 0 21.842492241034051 72.38077437541142 0 72.38077437541142 -1219.9859589380212 0 0 0 0 71.073004592573852 -105.76685396159883 0 -105.76685396159883 -587.09689109975443 0 0 0 0 -31.629851306261116 308.78738690471528 0 308.78738690471528 -752.2366462162172 0 0 0 0 -42.728312260762323 258.26289626117978 0 258.26289626117978 -941.61269189359882 0 0 0 0 3.0435448022763012 413.4961720135525 0 413.4961720135525 -799.78092962142455 0 0 0 0 6.8159169495083916 384.68086344647759 0 384.68086344647759 -670.48018697895168 0 0 0 0 -89.230780777477776 561.95038588030002 0 561.95038588030002 -685.33925607208585 0 0 0 0 -45.443390089829336 575.82040982897342 0 575.82040982897342 -712.224365366048 0 0 0 0 -15.490933857508935 407.44342127037635 0 407.44342127037635 -784.91719178582571 0 0 0 0 -11.392913248972036 386.67653124651952 0 386.67653124651952 -966.97031732362666 0 0 0 0 -1.3921801103133475 413.49636874883436 0 413.49636874883436 -903.57000025966454 0 0 0 0 -71.749042561059468 621.67641197429839 0 621.67641197429839 -1229.2756173060734 0 0 0 0 14.781349639386463 398.91995746869634 0 398.91995746869634 -1402.9990331283407 0 0 0 0 -69.867820981118712 640.4105287521179 0 640.4105287521179 -1065.1193353989984 0 0 0 0 -94.334396978389123 766.54276234458484 0 766.54276234458484 -767.01068765727541 0 0 0 0 -128.04807124257786 635.50961463279054 0 635.50961463279054 -802.82727928237728 0 0 0 0 -58.865105558637879 567.24325011883866 0 567.24325011883866 -680.87986603235186 0 0 0 0 -48.488032645022031 634.83659807279764 0 634.83659807279764 -940.98348261968476 0 0 0 0 -87.665024590751273 579.13174048548899 0 579.13174048548899 -895.34703925291251 0 0 0 0 -96.53230173492193 814.18666062189095 0 814.18666062189095 -490.60763956612936 0 0 0 0 -73.116341678163735 674.20859055215806 0 674.20859055215806 -719.00504737795927 0 0 0 0 -139.35927323812211 673.07764364508057 0 673.07764364508057 -552.87333972537999 0 0 0 0 -166.90512340650457 813.48391804629682 0 813.48391804629682 -321.50841982617567 0 0 0 0 -175.4681825521111 714.82905030006441 0 714.82905030006441 -214.04378588723011 0 0 0 0 -105.80511054879753 718.48560620008357 0 718.48560620008357 -377.86648479842188 0 0 0 0 -150.39977519292734 799.75918639039719 0 799.75918639039719 -257.3815421867439 0 0 0 0 -187.951748723528 619.05143170975316 0 619.05143170975316 -238.40578690281836 0 0 0 0 -106.12808177998522 551.6315076511919 0 551.6315076511919 -423.79449838542496 0 0 0 0 -154.6042805112138 676.34887627838293 0 676.34887627838293 -358.17369983749086 0 0 0 0 -85.082035020255717 672.76544789625768 0 672.76544789625768 -443.39183936867994 0 0 0 0 -154.48546570756116 673.07684857310528 0 673.07684857310528 -419.37698058105525 0 0 0 0 -103.72123691371235 597.38523168657957 0 597.38523168657957 -288.83464263677592 0 0 0 0 -127.71683202030545 593.6695453489283 0 593.6695453489283 -230.77845411131057 0 0 0 0 -178.55752657999983 519.69449200929739 0 519.69449200929739 -280.93691767943233 0 0 0 0 -188.19705507166509 617.05459123703622 0 617.05459123703622 -195.22519184209159 0 0 0 0 -102.18769564690956 585.72647703352891 0 585.72647703352891 -204.96785420362357 0 0 0 0 -1.7712531606375705 523.89359909496852 0 523.89359909496852 -163.13097898619162 0 0 0 0 207.57411080901511 491.51424162865987 0 491.51424162865987 -244.71144867160365 0 0 0 0 -21.663361127852113 610.69431559643817 0 610.69431559643817 -262.36832365290684 0 0 0 0 -10.225512255608919 514.58054881003227 0 514.58054881003227 -144.69137254516863 0 0 0 0 72.132835435037123 534.54315760763848 0 534.54315760763848 -326.36615145003816 0 0 0 0 474.42301680872333 516.34516465531851 0 516.34516465531851 -315.90302175568286 0 0 0 0 93.704726158768608 446.38101070098173 0 446.38101070098173 -209.69589840206027 0 0 0 0 654.55493454338284 313.6914567060885 0 313.6914567060885 -272.43637455659564 0 0 0 0 600.16955777276598 315.98924195189102 0 315.98924195189102 -98.70843062934 0 0 0 0 158.22923961052584 660.79631437144872 0 660.79631437144872 -344.44547859327213 0 0 0 0 -310.93820630409755 398.67552669171073 0 398.67552669171073 -210.18529060564106 0 0 0 0 -99.60936297596345 343.90724995908568 0 343.90724995908568 -698.73377937792975 0 0 0 0 -109.88914447707066 539.22408384025584 0 539.22408384025584 -456.28210902942374 0 0 0 0 -118.48069176984427 348.08390349228648 0 348.08390349228648 -556.6507604072176 0 0 0 0 -160.51016983567388 382.88053964727987 0 382.88053964727987 -608.23560931820248 0 0 0 0 -3.638602215915256 -3.2975656107286966 0 -3.2975656107286966 -3.6373958627816165 0 0 0 0 -191.18776266509667 517.28774155929386 0 517.28774155929386 -743.89251316290165 0 0 0 0 -29.676751814440649 -31.704748222134185 0 -31.704748222134185 10.80788895383921 0 0 0 0 40.355075624320307 -87.619518371218874 0 -87.619518371218874 21.324482129177341 0 0 0 0 -38.027455010404083 64.935799663718171 0 64.935799663718171 -394.96851661188339 0 0 0 0 -16.462291212726086 162.22337288351105 0 162.22337288351105 -374.67589204810429 0 0 0 0 4.6647719146154145 5.4179430587940942 0 5.4179430587940942 -5.1155322023457899 0 0 0 0 45.470666876775795 -41.247016575996895 0 -41.247016575996895 -114.07594977073313 0 0 0 0 24.245210447537829 -28.927210869187547 0 -28.927210869187547 -105.02948367437148 0 0 0 0 -10.46780042006867 26.676829028882821 0 26.676829028882821 -18.677194293076354 0 0 0 0 2.0173828058832441 -6.5589497292233716 0 -6.5589497292233716 -27.42637175819636 0 0 0 0 41.362536633359923 -21.057402691958714 0 -21.057402691958714 -119.82099262726115 0 0 0 0 8.4879531194455922 -0.20331393679907706 0 -0.20331393679907706 -125.52351534422633 0 0 0 0 7.6037469573412864 26.681959018459594 0 26.681959018459594 51.833073958661956 0 0 0 0 58.218513823396279 75.045691025652133 0 75.045691025652133 -25.792625515216756 0 0 0 0 68.691424209428078 153.68444370432917 0 153.68444370432917 292.0636077549425 0 0 0 0 -0.77318686141904891 -7.2808660259721449 0 -7.2808660259721449 -11.832367625924302 0 0 0 0 52.198868798776061 60.435763157693742 0 60.435763157693742 -50.8414368079222 0 0 0 0 112.21889610134531 151.96829139307374 0 151.96829139307374 98.93111798533937 0 0 0 0 31.401217593695037 137.27290177423856 0 137.27290177423856 147.47654135659104 0 0 0 0 51.431138549174648 61.223800035819295 0 61.223800035819295 116.89187977417896 0 0 0 0 223.94602043290797 88.823671747917615 0 88.823671747917615 -446.01145962394367 0 0 0 0 64.933563472750109 77.460296764868843 0 77.460296764868843 -12.552268947855399 0 0 0 0 65.428568080533296 79.924657104143989 0 79.924657104143989 69.983613941003568 0 0 0 0 65.468901918095071 94.581881277481443 0 94.581881277481443 61.576810010730696 0 0 0 0 58.109558969910722 88.041439735825406 0 88.041439735825406 119.8103956827108 0 0 0 0 107.83914842070953 -36.299296819288429 0 -36.299296819288429 -342.92324601135238 0 0 0 0 36.435049212821468 -13.579123483208605 0 -13.579123483208605 -187.13560189324198 0 0 0 0 150.03973007196328 -1.8790001753986871 0 -1.8790001753986871 -185.98161721526367 0 0 0 0 519.61444048360863 197.89937697562164 0 197.89937697562164 -244.49076089630398 0 0 0 0 121.79372180334758 111.77916640167859 0 111.77916640167859 -262.18821905118057 0 0 0 0 404.55502795308712 13.758136708671373 0 13.758136708671373 -30.487354705063581 0 0 0 0 204.88915715775511 -96.674220420469283 0 -96.674220420469283 -23.400491796164715 0 0 0 0 475.61327663733391 88.925742180017551 0 88.925742180017551 -424.07527648554378 0 0 0 0 73.810084023876698 -170.68457921792287 0 -170.68457921792287 41.991330786604522 0 0 0 0 595.20949119555007 420.16670340890687 0 420.16670340890687 456.03950238530524 0 0 0 0 575.8742812423443 -258.85826370205723 0 -258.85826370205723 403.32001810320799 0 0 0 0 1587.4314695007633 235.82001239729107 0 235.82001239729107 -154.81542890175842 0 0 0 0 404.30269085256441 653.46927000181495 0 653.46927000181495 -72.665676489478301 0 0 0 0 7.9511221551397284 5.086467750693572 0 5.086467750693572 3.4509646234270974 0 0 0 0 1339.9620526790386 -593.35822700604331 0 -593.35822700604331 189.14890600312719 0 0 0 0 728.78729949943954 811.44880901141732 0 811.44880901141732 -117.23924020555933 0 0 0 0 -508.11501319651143 907.41276028392531 0 907.41276028392531 -510.36874741624979 0 0 0 0 -0.14479101920682069 0.73538795742508967 0 0.73538795742508967 -0.0901059640802373 0 0 0 0 -313.0351372443256 -407.43907048447727 0 -407.43907048447727 150.38019281969173 0 0 0 0 -382.0880184299167 528.50298472519717 0 528.50298472519717 -35.734428702769947 0 0 0 0 -43.301892831099394 530.3576165863542 0 530.3576165863542 -43.090785934138694 0 0 0 0 58.762592522863997 649.44397099805064 0 649.44397099805064 -492.67596713829607 0 0 0 0 143.78098763131129 465.10210074126189 0 465.10210074126189 -97.368009955243906 0 0 0 0 1359.9697911539406 165.40446483868072 0 165.40446483868072 -273.09112712634669 0 0 0 0 518.92652528703911 610.91403843400803 0 610.91403843400803 -182.11010849616287 0 0 0 0 424.54910952446517 220.20079518521197 0 220.20079518521197 -202.24978461802311 0 0 0 0 136.1174946964602 350.47733530659025 0 350.47733530659025 -47.388055289809927 0 0 0 0 18.761043131555198 467.83815498213698 0 467.83815498213698 -97.50203491254797 0 0 0 0 88.343056108053133 268.32980739004688 0 268.32980739004688 -128.72655897898221 0 0 0 0 75.63939685683988 89.544906766187793 0 89.544906766187793 -7.8466248448345794 0 0 0 0 199.19163643780485 231.32987851876351 0 231.32987851876351 -302.27354900238061 0 0 0 0 232.07393643182149 301.79949208452581 0 301.79949208452581 -217.21821407629977 0 0 0 0 70.949482758524312 91.807331522446987 0 91.807331522446987 38.184189700162776 0 0 0 0 64.108232153696008 75.185356255649822 0 75.185356255649822 53.05411208995065 0 0 0 0 74.605748302739414 113.51426539326087 0 113.51426539326087 33.609847626284292 0 0 0 0 273.50411699175675 188.96596820821787 0 188.96596820821787 43.810149288234243 0 0 0 0 -9.2158715521909471 121.50822641300329 0 121.50822641300329 276.67676039812068 0 0 0 0 87.735088486481345 75.048475254774615 0 75.048475254774615 27.963401608696078 0 0 0 0 128.08445978086093 14.930536606756505 0 14.930536606756505 169.94648676054567 0 0 0 0 30.627007923041674 200.6607783358927 0 200.6607783358927 -33.286962077472708 0 0 0 0 73.44954724933973 103.7082909859237 0 103.7082909859237 -1.9972858509993117 0 0 0 0 -228.67252465395723 420.03839834690007 0 420.03839834690007 245.7710761887065 0 0 0 0 -36.457583690789761 151.58853447440197 0 151.58853447440197 95.045579685382108 0 0 0 0 21.363249652880768 -12.427937530213057 0 -12.427937530213057 287.25188867612815 0 0 0 0 240.42281278250448 121.36220840026363 0 121.36220840026363 -45.255206760877627 0 0 0 0 -166.67256121392711 464.92954948893203 0 464.92954948893203 513.19898493139681 0 0 0 0 -140.01139118224091 381.63416014809718 0 381.63416014809718 -87.814792207267601 0 0 0 0 -275.94992338691372 596.06056203481421 0 596.06056203481421 -335.30742420606839 0 0 0 0 -351.4256452928712 369.01312983584694 0 369.01312983584694 -60.570629852998536 0 0 0 0 -293.86886094725924 463.3933861211699 0 463.3933861211699 -547.48439188521297 0 0 0 0 -660.69975157597219 444.86899517609345 0 444.86899517609345 -383.66773183106852 0 0 0 0 -284.29390335227072 441.53517677473246 0 441.53517677473246 -905.83881945956819 0 0 0 0 -272.1254086176632 380.23027564117911 0 380.23027564117911 -147.43539780929495 0 0 0 0 -168.65156704190304 579.90377919720413 0 579.90377919720413 -450.62203563112053 0 0 0 0 -95.529429860962409 363.5284730866415 0 363.5284730866415 -440.99601907350734 0 0 0 0 -222.50181987084216 567.94902015063053 0 567.94902015063053 -503.78983472784239 0 0 0 0 -243.88160247114138 659.47062002944585 0 659.47062002944585 -740.7640666005027 0 0 0 0 -186.47514080534893 531.27535850936329 0 531.27535850936329 -701.48260013502295 0 0 0 0 -219.6526257509031 654.87610399897312 0 654.87610399897312 -769.66316099645337 0 0 0 0 -360.52547278869315 584.57575258762881 0 584.57575258762881 -665.97591739267045 0 0 0 0 -363.77141258138818 683.5095762731064 0 683.5095762731064 -690.57854259446322 0 0 0 0 -170.49978757358622 411.10558302601839 0 411.10558302601839 -518.05404929645738 0 0 0 0 -94.160935772029916 591.27553404763603 0 591.27553404763603 -732.7481670805937 0 0 0 0 -118.79901614380651 456.05446067522098 0 456.05446067522098 -973.30870243017853 0 0 0 0 90.467413505917648 87.276608036076141 0 87.276608036076141 -178.55111599798329 0 0 0 0 -84.339799649344059 76.962250923948886 0 76.962250923948886 -615.7266355057227 0 0 0 0 22.405553283695383 22.628220505587436 0 22.628220505587436 1.2355868717725542 0 0 0 0 7.7882304706715786 4.8282840226700614 0 4.8282840226700614 -11.363781573792053 0 0 0 0 -7.6471820278966334 19.781528087907645 0 19.781528087907645 -45.218979269433476 0 0 0 0 29.849458882381441 -18.266052722314271 0 -18.266052722314271 5.3985580342268804 0 0 0 0 185.92833245094516 -80.872428363236395 0 -80.872428363236395 -9.2503475515113678 0 0 0 0 20.790177631956908 12.391449004332543 0 12.391449004332543 7.7314511883686166 0 0 0 0 219.04656069068005 -45.436987287459488 0 -45.436987287459488 0.09329047218488995 0 0 0 0 262.56878384514857 300.30544699676284 0 300.30544699676284 -305.59223030598514 0 0 0 0 4.3739270079703942 0.79085738109503723 0 0.79085738109503723 -3.2427464558474668 0 0 0 0 -122.55948763449851 -86.6349240872878 0 -86.6349240872878 68.070234172539131 0 0 0 0 -290.13548052421538 725.66409675147952 0 725.66409675147952 -858.74269791400729 0 0 0 0 241.27609465352725 -76.478794072503661 0 -76.478794072503661 64.271325615685782 0 0 0 0 238.22421641711844 -21.525876105595671 0 -21.525876105595671 24.716709097177954 0 0 0 0 461.35562029568246 -262.80486707822638 0 -262.80486707822638 208.00399534232838 0 0 0 0 1155.9587821675232 11.667644614282835 0 11.667644614282835 -200.20736879672404 0 0 0 0 553.52869748010562 144.65551957346361 0 144.65551957346361 -217.04985513097927 0 0 0 0 486.48708216266823 119.57202683224386 0 119.57202683224386 -202.66645558333676 0 0 0 0 608.08275100661558 5.2881092823408835 0 5.2881092823408835 -167.47425512327027 0 0 0 0 360.17000736342743 60.604821313576394 0 60.604821313576394 -153.2124807229884 0 0 0 0 427.18434297051863 226.87488259128259 0 226.87488259128259 -264.58315939240129 0 0 0 0 324.53904834805871 -69.083124663571652 0 -69.083124663571652 -26.394738076964131 0 0 0 0 332.68103383813286 -132.69374567940758 0 -132.69374567940758 35.612846934141999 0 0 0 0 212.83768715670885 -10.921744665035476 0 -10.921744665035476 -54.034671258603339 0 0 0 0 252.08739735174458 -26.983660715581209 0 -26.983660715581209 -66.590058927798964 0 0 0 0 207.47097513354674 125.56590106069416 0 125.56590106069416 -108.48440845285404 0 0 0 0 321.03648502247233 72.061315320132962 0 72.061315320132962 -131.82252341875937 0 0 0 0 238.63193712460634 244.95502842698443 0 244.95502842698443 -155.85856671022702 0 0 0 0 259.40638436240988 257.66310631087117 0 257.66310631087117 -172.89742553754695 0 0 0 0 13.42503157855208 302.13306962360548 0 302.13306962360548 -28.102519597079663 0 0 0 0 -230.78307416848838 390.78273275884931 0 390.78273275884931 -60.018860462088924 0 0 0 0 186.6296692787655 93.96160621004492 0 93.96160621004492 -13.183608813620594 0 0 0 0 267.32180605005124 214.0064726161072 0 214.0064726161072 -12.711661049347207 0 0 0 0 -13.204173051359248 111.69612766188857 0 111.69612766188857 209.71886470761501 0 0 0 0 -79.096229142247466 157.54606445628451 0 157.54606445628451 203.86241348090425 0 0 0 0 -21.391582502876133 27.814631360250928 0 27.814631360250928 -23.078980662729457 0 0 0 0 105.52387615886983 55.322274167470823 0 55.322274167470823 -25.067854669356166 0 0 0 0 36.776442204136401 77.333906006622783 0 77.333906006622783 -26.108972957783408 0 0 0 0 8.9239103983235282 32.688605080429681 0 32.688605080429681 -28.750994654164344 0 0 0 0 107.67857207376801 39.456032430278356 0 39.456032430278356 -41.83454950439409 0 0 0 0 184.4840664590447 28.52871778044755 0 28.52871778044755 -40.462830272168503 0 0 0 0 -197.80944786482723 433.65341018977233 0 433.65341018977233 -257.48554363123094 0 0 0 0 -13.556857463513097 85.834736823339256 0 85.834736823339256 64.667236533665346 0 0 0 0 11.811913695520161 360.55226252730239 0 360.55226252730239 102.63149723112292 0 0 0 0 -17.469104912344278 18.037432099660833 0 18.037432099660833 -18.411077293047519 0 0 0 0 84.215049379919947 50.943105841173747 0 50.943105841173747 132.45668745774674 0 0 0 0 -549.48187900586345 379.8823034849629 0 379.8823034849629 190.16816632262521 0 0 0 0 -6.0272893863594277 7.2182076801914548 0 7.2182076801914548 -7.983653245440621 0 0 0 0 228.1862513126398 256.47796700785966 0 256.47796700785966 -1158.4325282423579 0 0 0 0 217.8002660600032 18.896126371906576 0 18.896126371906576 -330.18714942504266 0 0 0 0 -36.655945011363656 573.81481263831938 0 573.81481263831938 -429.73189597693454 0 0 0 0 -155.01207198254997 867.67192987485214 0 867.67192987485214 -901.85826806723344 0 0 0 0 -33.57480242390011 118.31466673386058 0 118.31466673386058 228.33568165761972 0 0 0 0 -27.633358470648091 136.44542101311606 0 136.44542101311606 -32.69657032539908 0 0 0 0 -16.078502903979086 9.7008462734447605 0 9.7008462734447605 0.78647004716515045 0 0 0 0 -48.383597249150625 182.70705753922994 0 182.70705753922994 360.00998802533786 0 0 0 0 12.64726863173928 207.57316763518565 0 207.57316763518565 253.73243043115872 0 0 0 0 22.506222278912901 124.12240965602246 0 124.12240965602246 -687.91819353918254 0 0 0 0 -117.13517494314874 430.07170925180526 0 430.07170925180526 -677.13434797992977 0 0 0 0 -6.077124334013206 786.10654895689549 0 786.10654895689549 -1544.6128228257476 0 0 0 0 -5.0388081352283507 4.7610767789232291 0 4.7610767789232291 -0.11974059271110216 0 0 0 0 -58.125991099987004 154.28335532127062 0 154.28335532127062 875.94346006046726 0 0 0 0 28.231676002091262 208.17625611535368 0 208.17625611535368 311.20793338182739 0 0 0 0 -49.856738347720238 458.98926672504422 0 458.98926672504422 362.70433864871484 0 0 0 0 82.135419177655422 236.30009153065885 0 236.30009153065885 241.62368258180504 0 0 0 0 23.690990856266581 203.03239777071258 0 203.03239777071258 265.55274099751296 0 0 0 0 -4.5345400881924434 241.31677909917471 0 241.31677909917471 241.844540250313 0 0 0 0 -36.659191483602626 240.16265526078496 0 240.16265526078496 305.64053207885672 0 0 0 0 -110.17117192046135 244.8169569181282 0 244.8169569181282 308.84728120543696 0 0 0 0 -46.218532704398967 197.99280518945852 0 197.99280518945852 343.03303297026105 0 0 0 0 -45.146960582205793 180.9577698596604 0 180.9577698596604 326.73353225955725 0 0 0 0 30.613426923635416 183.57456462367099 0 183.57456462367099 266.93084805412764 0 0 0 0 -238.98827483365312 295.32412494743767 0 295.32412494743767 399.9920181157504 0 0 0 0 -186.29722826863872 256.24883799662712 0 256.24883799662712 428.8941248512765 0 0 0 0 -107.69873798312619 257.62140990105945 0 257.62140990105945 372.66266882291802 0 0 0 0 -184.96969209749659 256.18434602767411 0 256.18434602767411 379.84812680200139 0 0 0 0 -81.271234798798105 299.41030545439935 0 299.41030545439935 284.41156250471795 0 0 0 0 -182.21640526555711 308.72106983825324 0 308.72106983825324 337.94985014989288 0 0 0 0 -184.3233518726629 299.21785995580012 0 299.21785995580012 398.44929347557991 0 0 0 0 -199.24168111716426 358.40896273562066 0 358.40896273562066 338.91501165558839 0 0 0 0 -125.78972638325649 379.18846147349359 0 379.18846147349359 200.04480058830814 0 0 0 0 7.1613624703604728 316.73827314125265 0 316.73827314125265 233.04029249764062 0 0 0 0 -71.436420180994901 298.43035144990881 0 298.43035144990881 284.22192728503796 0 0 0 0 -10.927188122746884 244.60109452339566 0 244.60109452339566 288.71763382308382 0 0 0 0 -72.338751265051542 309.59719318332282 0 309.59719318332282 213.34289398722058 0 0 0 0 -25.485034440414893 299.1336707178632 0 299.1336707178632 131.81730250304463 0 0 0 0 -123.37221729529847 412.49208602856015 0 412.49208602856015 6.6413431223190855 0 0 0 0 -181.80075724035123 414.74369015309185 0 414.74369015309185 184.84815462110055 0 0 0 0 -249.57041876061703 601.26294941970082 0 601.26294941970082 -314.80237023573773 0 0 0 0 -483.02311878699402 644.41406584493507 0 644.41406584493507 375.3026499855805 0 0 0 0 -479.9118056853913 467.65902193989587 0 467.65902193989587 382.63771388444582 0 0 0 0 -433.59000357430341 406.1902839133154 0 406.1902839133154 458.77667070848656 0 0 0 0 -291.04544844002521 481.99619512635945 0 481.99619512635945 174.47464947224125 0 0 0 0 -281.38572378091339 372.85097529099949 0 372.85097529099949 342.85898221007574 0 0 0 0 -332.0784531684767 298.91987077923477 0 298.91987077923477 479.12576910585267 0 0 0 0 -430.48776167855249 268.14038127861932 0 268.14038127861932 532.05798436357327 0 0 0 0 -341.74931716138963 298.33926895705918 0 298.33926895705918 508.16280039987669 0 0 0 0 -340.18324721640965 213.39863734631035 0 213.39863734631035 565.00811826468998 0 0 0 0 -321.6494336261967 178.52419069763437 0 178.52419069763437 501.59160564146441 0 0 0 0 -348.48435348895146 175.11518966401127 0 175.11518966401127 546.64258160942882 0 0 0 0 -285.28012334671803 248.17203092650925 0 248.17203092650925 482.22952580711535 0 0 0 0 -317.08732545152452 270.29122680340197 0 270.29122680340197 471.43435894331196 0 0 0 0 -58.425910375897729 -54.504955743707967 0 -54.504955743707967 690.71332285124299 0 0 0 0 -208.2777157164237 41.194953586162228 0 41.194953586162228 662.96890090246234 0 0 0 0 -51.28599393485274 7.0928065600662649 0 7.0928065600662649 547.88355390684956 0 0 0 0 -305.75163337955019 139.97332319922316 0 139.97332319922316 575.08158935747997 0 0 0 0 -250.02133564988617 159.51187893431415 0 159.51187893431415 558.26580324178212 0 0 0 0 -300.87790888626478 136.21960991207106 0 136.21960991207106 621.40069274253619 0 0 0 0 -390.15716789138969 161.80223437755785 0 161.80223437755785 627.78729683436904 0 0 0 0 -312.11089505959535 121.29628513990428 0 121.29628513990428 628.08402900333022 0 0 0 0 -88.921043572408962 31.174644235677988 0 31.174644235677988 657.75545919534852 0 0 0 0 -166.80734545456653 -30.61208156214343 0 -30.61208156214343 697.53763658586104 0 0 0 0 -107.77438893309591 34.315710352144379 0 34.315710352144379 692.32152850434795 0 0 0 0 -466.12388095050846 68.603905027335486 0 68.603905027335486 821.53587726457408 0 0 0 0 -590.61932582552618 254.66927238075164 0 254.66927238075164 673.29175868716266 0 0 0 0 -401.73647236716351 200.32911349972619 0 200.32911349972619 612.95313877046465 0 0 0 0 -1208.0515928600944 640.4039552899485 0 640.4039552899485 814.38672808682759 0 0 0 0 -651.30429019108851 1002.8103332671712 0 1002.8103332671712 -360.53242755162501 0 0 0 0 -643.16353295189037 61.386837328264846 0 61.386837328264846 1243.8589634199288 0 0 0 0 11.435340888012433 -41.056929284337457 0 -41.056929284337457 786.78614770791501 0 0 0 0 -8.60908394641109 4.0431312360075466 0 4.0431312360075466 -0.14774462578799596 0 0 0 0 -901.44011878058518 1129.077537693116 0 1129.077537693116 -971.86994228530239 0 0 0 0 -803.36725348934124 938.85887581627458 0 938.85887581627458 -6.6067689337542106 0 0 0 0 -686.04798951378689 523.79007751302606 0 523.79007751302606 333.08328365860871 0 0 0 0 -9.7992885407992389 3.6836384689503276 0 3.6836384689503276 -0.007234328862931072 0 0 0 0 -311.84874443770968 -24.559006124351072 0 -24.559006124351072 974.42573330790162 0 0 0 0 -788.25358745833364 995.86933044675607 0 995.86933044675607 -1446.4442493143488 0 0 0 0 -101.00886314250238 219.77201236237579 0 219.77201236237579 -179.85418074796507 0 0 0 0 -107.13229954871349 376.83966117613636 0 376.83966117613636 -912.62042747258693 0 0 0 0 -20.82692181994031 8.490663238168473 0 8.490663238168473 1.0677932411290469 0 0 0 0 -72.567135130026145 229.90483719483791 0 229.90483719483791 -196.13793430572514 0 0 0 0 -256.57627525491989 237.95920043723345 0 237.95920043723345 593.49796994176154 0 0 0 0 -400.21323220057639 -382.87302223363542 0 -382.87302223363542 -343.65012491421294 0 0 0 0 276.87400522386451 110.01104749585011 0 110.01104749585011 -239.15664605296115 0 0 0 0 26.607067943448783 471.84220671996445 0 471.84220671996445 -162.95836213485018 0 0 0 0 136.83235650508141 489.58488095395478 0 489.58488095395478 -255.47546188496926 0 0 0 0 10.57659119796881 825.60662024138583 0 825.60662024138583 -958.49311719712387 0 0 0 0 -621.96993438297613 866.15913855521728 0 866.15913855521728 -183.55827011294605 0 0 0 0 -180.66600090874999 624.34551637764343 0 624.34551637764343 -142.80412314754858 0 0 0 0 -108.98074367949448 493.22337556937418 0 493.22337556937418 17.49532242818168 0 0 0 0 -1.4814631856643246 543.89917349312827 0 543.89917349312827 -186.1920846163739 0 0 0 0 -25.753376859162017 649.79740659339086 0 649.79740659339086 -354.21987988263209 0 0 0 0 -108.41993037289285 552.80207167947719 0 552.80207167947719 -155.97381125299944 0 0 0 0 -102.50152212311514 598.91307487044651 0 598.91307487044651 -202.11939206453417 0 0 0 0 -301.94529869262988 657.12115884589684 0 657.12115884589684 19.161895519329846 0 0 0 0 -344.58533503109356 551.18121908842659 0 551.18121908842659 -82.011066591714552 0 0 0 0 20.626623478296096 510.25561880097848 0 510.25561880097848 -239.67142649938432 0 0 0 0 -66.292393260489916 333.2019823861865 0 333.2019823861865 79.224541147625132 0 0 0 0 -132.36373705424194 831.06076058557119 0 831.06076058557119 -136.68248816215782 0 0 0 0 -63.284960646415129 672.49602348265216 0 672.49602348265216 -11.3082484993447 0 0 0 0 -546.25899715838023 766.94665575294857 0 766.94665575294857 105.09579243981352 0 0 0 0 -243.73020661980991 928.99901256176508 0 928.99901256176508 -236.78244888666995 0 0 0 0 -256.0897647239326 728.40595393038166 0 728.40595393038166 -148.89417538878661 0 0 0 0 -252.74452538599144 755.87488729123152 0 755.87488729123152 -178.5869092261164 0 0 0 0 -21.467754417608376 778.9044681137957 0 778.9044681137957 -190.45063314231538 0 0 0 0 -99.335185437266773 590.38372995632562 0 590.38372995632562 109.23441073573485 0 0 0 0 -104.64931818759942 675.59369237869578 0 675.59369237869578 52.833360100114078 0 0 0 0 -83.042449719090655 719.05940360722161 0 719.05940360722161 86.252609602994198 0 0 0 0 61.632581883270177 633.0549645668134 0 633.0549645668134 28.562434893210138 0 0 0 0 -50.817624089791934 482.44805553885544 0 482.44805553885544 583.71224205870385 0 0 0 0 -93.226761310215807 331.68542219846495 0 331.68542219846495 1031.5849765439543 0 0 0 0 73.325105258525582 259.58629839358036 0 259.58629839358036 247.26133239651836 0 0 0 0 -95.418239625701972 382.42452149517476 0 382.42452149517476 373.4403614638104 0 0 0 0 -456.39598784173722 1073.5045622961816 0 1073.5045622961816 -331.47554835706069 0 0 0 0 111.96002074835997 273.71539982993727 0 273.71539982993727 -588.722021676243 0 0 0 0 137.61876015652524 202.46788343323624 0 202.46788343323624 851.44556045937134 0 0 0 0 -1.2721609363579773 193.61297476265418 0 193.61297476265418 1109.48182211944 0 0 0 0 -17.484045449846633 8.6206558928231516 0 8.6206558928231516 0.16766209158632783 0 0 0 0 61.74559000469344 127.98307861981812 0 127.98307861981812 898.20641006044571 0 0 0 0 13.983046831621323 97.255020957570196 0 97.255020957570196 950.04106185810997 0 0 0 0 46.421366738446523 26.37142915151162 0 26.37142915151162 755.17990578137506 0 0 0 0 30.627705004320887 -15.847474987701389 0 -15.847474987701389 707.382833728072 0 0 0 0 -11.143740324914688 -37.818058069991821 0 -37.818058069991821 731.85967527128787 0 0 0 0 -83.859936258810194 55.708903518341458 0 55.708903518341458 768.95736474732257 0 0 0 0 32.965982755165896 24.699519333817079 0 24.699519333817079 806.67394564718961 0 0 0 0 26.159642502439965 -14.559501851001187 0 -14.559501851001187 859.32386688311453 0 0 0 0 18.640512260157266 -82.9000722526971 0 -82.9000722526971 771.94890750564173 0 0 0 0 24.142719021445373 -91.907664555314113 0 -91.907664555314113 782.16991563903957 0 0 0 0 7.5951926309353439 -69.03271123293689 0 -69.03271123293689 658.73283466269345 0 0 0 0 14.561023408154142 -105.48385144079111 0 -105.48385144079111 762.93429969566296 0 0 0 0 -4.6076783299029671 1.211945642688927 0 1.211945642688927 2.2101494070131871 0 0 0 0 -10.275243953481549 -61.906920874971547 0 -61.906920874971547 958.84470203597448 0 0 0 0 7.7129280159133486 -64.263452837422847 0 -64.263452837422847 954.8813900393352 0 0 0 0 14.217947300057858 -73.981161032858836 0 -73.981161032858836 924.32835339446865 0 0 0 0 33.862056691636099 49.952224142741215 0 49.952224142741215 929.71103269447849 0 0 0 0 12.694797311851289 -11.577728637719702 0 -11.577728637719702 867.60357577084142 0 0 0 0 10.303753202111693 -14.753793988287498 0 -14.753793988287498 1008.2415220738148 0 0 0 0 -1.937479954038281 51.283350559542669 0 51.283350559542669 975.46266254740613 0 0 0 0 18.196882208198076 114.11341181263379 0 114.11341181263379 964.02071896358711 0 0 0 0 8.7268836179282516 51.707819198511515 0 51.707819198511515 949.12720220638221 0 0 0 0 -15.899536607443451 9.1659689039719296 0 9.1659689039719296 0.60646276399795163 0 0 0 0 6.1924738018060452 116.54852680494969 0 116.54852680494969 975.09347749972494 0 0 0 0 -10.365784775332429 7.1714720052188881 0 7.1714720052188881 1.2010888051856004 0 0 0 0 -24.976545194815117 160.71501353391909 0 160.71501353391909 858.84840128154974 0 0 0 0 -228.71634771052049 237.36851624917836 0 237.36851624917836 1167.3420925411424 0 0 0 0 -27.083592452094308 121.03401804448185 0 121.03401804448185 1041.7545318607108 0 0 0 0 5.5157152298052097 19.848233726494527 0 19.848233726494527 1075.6143417141047 0 0 0 0 -74.242241452309827 3.0486772896315415 0 3.0486772896315415 1110.21366831656 0 0 0 0 -7.5929555879265536 -126.17669672334773 0 -126.17669672334773 1337.4966084025164 0 0 0 0 -11.272403179294088 -113.29162685700473 0 -113.29162685700473 1214.5340924539814 0 0 0 0 -3.5713010826557365 0.28769199902840725 0 0.28769199902840725 2.2863412893629302 0 0 0 0 4.5699415879418552 5.1799853324890819 0 5.1799853324890819 11.893659540261089 0 0 0 0 282.2157546566159 -1501.3864910305106 0 -1501.3864910305106 1852.7816764342188 0 0 0 0 -0.0035838988405885175 41.805843082684987 0 41.805843082684987 -21.037437223705865 0 0 0 0 -1.5752148358798763 -0.22761794973544092 0 -0.22761794973544092 1.9790223675373326 0 0 0 0 960.79801416961709 -986.16580410731876 0 -986.16580410731876 900.79236143498156 0 0 0 0 -92.270687723823357 -222.59531144345237 0 -222.59531144345237 1331.2731798589994 0 0 0 0 -124.60716858204978 -268.93974081437773 0 -268.93974081437773 1470.601995708199 0 0 0 0 -91.739466457540402 -846.62363268279296 0 -846.62363268279296 3629.5256015782188 0 0 0 0 355.38492801530811 418.95341542778351 0 418.95341542778351 91.970393771041017 0 0 0 0 2.9132274399307789 996.5800155131451 0 996.5800155131451 1750.8721857564283 0 0 0 0 -230.41503554824158 116.79901525121068 0 116.79901525121068 1730.4569268876717 0 0 0 0 -164.22164000076009 295.76273798511738 0 295.76273798511738 2129.3473862298702 0 0 0 0 -3.4797689382000385 1.8641051470485692 0 1.8641051470485692 2.0523569119706315 0 0 0 0 123.33838338650821 237.11262927990447 0 237.11262927990447 1108.1083261822068 0 0 0 0 0.46883274312330198 585.98216203349693 0 585.98216203349693 1343.3026491089622 0 0 0 0 -0.22434743739722762 643.73216029911509 0 643.73216029911509 662.81732080807069 0 0 0 0 59.161457540099946 590.81965396709722 0 590.81965396709722 748.06175739426544 0 0 0 0 -84.586539411451668 337.02365751648267 0 337.02365751648267 1451.8708925725286 0 0 0 0 130.99671728663816 239.13975884398224 0 239.13975884398224 1068.5716165876238 0 0 0 0 118.12504049576819 333.85623873970826 0 333.85623873970826 556.91168589353765 0 0 0 0 -86.472998572688084 474.48299588713417 0 474.48299588713417 699.12217088755915 0 0 0 0 100.80030076763069 508.94952131765785 0 508.94952131765785 172.2135663805966 0 0 0 0 17.027766536019044 711.94612450751447 0 711.94612450751447 181.84392287679293 0 0 0 0 16.221455227132537 674.8658636123655 0 674.8658636123655 -242.26621647059818 0 0 0 0 -106.90078491785243 679.40099943746372 0 679.40099943746372 143.58860457201808 0 0 0 0 81.635118505742867 549.41018143557994 0 549.41018143557994 -252.95707686049332 0 0 0 0 -116.82941058479992 528.06733466375044 0 528.06733466375044 226.52527747713248 0 0 0 0 189.80923657897802 392.52336676396953 0 392.52336676396953 259.94847532315725 0 0 0 0 0.28233544356771745 660.75963564233643 0 660.75963564233643 -228.02062351113022 0 0 0 0 1366.2422608808411 681.38423386864815 0 681.38423386864815 -305.11292068204784 0 0 0 0 580.07183845222971 -354.80605128595198 0 -354.80605128595198 -1035.1587754052889 0 0 0 0 505.8245798090793 -84.648399206009344 0 -84.648399206009344 -637.59821084260329 0 0 0 0 -399.03622225069557 33.746111739223124 0 33.746111739223124 -215.08351839987881 0 0 0 0 -89.961754863252281 463.45398452308291 0 463.45398452308291 -490.6948935702967 0 0 0 0 -578.19580147125816 433.5794064495858 0 433.5794064495858 -524.6149979068432 0 0 0 0 -391.85161703273479 -39.067309383201064 0 -39.067309383201064 -492.08498700382188 0 0 0 0 -591.31631877439213 270.1247819423952 0 270.1247819423952 -1061.2954964671935 0 0 0 0 -852.76211738296843 631.52071874676403 0 631.52071874676403 -800.33706323537626 0 0 0 0 -732.04079400094633 594.67105676226493 0 594.67105676226493 -1468.9276525433233 0 0 0 0 -1156.2487597124709 1521.1687458196793 0 1521.1687458196793 -1776.8800826393854 0 0 0 0 -1566.9336821668549 220.83445752190164 0 220.83445752190164 -455.62884665260208 0 0 0 0 -1596.9985048538801 1249.0669199315234 0 1249.0669199315234 -885.46133686801568 0 0 0 0 -110.7067438098893 342.25480663695271 0 342.25480663695271 -1043.1271665659733 0 0 0 0 37.24239741180827 7.8365459968263167 0 7.8365459968263167 568.48586052887185 0 0 0 0 -488.96857426540737 -341.74897575448631 0 -341.74897575448631 -686.32322568831296 0 0 0 0 54.686838658490004 55.309906278479517 0 55.309906278479517 44.455032588740295 0 0 0 0 634.79476970855831 3315.1147045734906 0 3315.1147045734906 -1972.9731608213697 0 0 0 0 41.510522611068154 86.23803639525795 0 86.23803639525795 641.00322224368665 0 0 0 0 26.142152377772732 10.703110440498875 0 10.703110440498875 0.52098710295055639 0 0 0 0 -615.89713769224909 -219.13676426838356 0 -219.13676426838356 -2376.1388523542846 0 0 0 0 33.922262288288039 -0.21616014869141509 0 -0.21616014869141509 1.7878290695844044 0 0 0 0 15.237355575496622 1989.6725485358052 0 1989.6725485358052 1048.0815772458445 0 0 0 0 -458.8718314611433 266.16608706884654 0 266.16608706884654 377.7698655954373 0 0 0 0 32.229641929961375 134.31489193939049 0 134.31489193939049 102.11954638175828 0 0 0 0 1047.9018521608596 805.34074796450295 0 805.34074796450295 451.40979225277442 0 0 0 0 1215.7529000074646 178.82352184573392 0 178.82352184573392 -239.95385544046076 0 0 0 0 62.826053474342189 46.580624857870134 0 46.580624857870134 -70.913489014237712 0 0 0 0 9.7534017400239463 0.91912938194434446 0 0.91912938194434446 -0.87293665636319417 0 0 0 0 868.3899710964688 15.062508479782991 0 15.062508479782991 -191.1522484550951 0 0 0 0 843.19225849791292 519.28421688735398 0 519.28421688735398 360.04325189010706 0 0 0 0 1122.3266524458813 212.57779776993266 0 212.57779776993266 -331.99992346909858 0 0 0 0 34.671305495504981 135.22621513333951 0 135.22621513333951 105.57716434142063 0 0 0 0 197.07385811743006 796.87083217914187 0 796.87083217914187 428.85920286960754 0 0 0 0 -985.2812224628251 67.285506687672751 0 67.285506687672751 507.54558113383973 0 0 0 0 -1073.7476302127543 -164.20672971192744 0 -164.20672971192744 315.63309912446857 0 0 0 0 1157.3036756675792 -553.51096169274388 0 -553.51096169274388 -570.47839892392221 0 0 0 0 1843.4287593425252 499.44241181970574 0 499.44241181970574 -305.20421291828825 0 0 0 0 15.45553684177365 -14.747261468029457 0 -14.747261468029457 -23.201272743779917 0 0 0 0 8.3100670683689088 -13.946832744574941 0 -13.946832744574941 -3.9674296370541882 0 0 0 0 493.68404429760994 379.79344054283501 0 379.79344054283501 471.45902981148538 0 0 0 0 1212.9867970683772 548.21092993285492 0 548.21092993285492 246.56536846518429 0 0 0 0 -12.692726499750279 -17.902951780240983 0 -17.902951780240983 -5.0381785130884964 0 0 0 0 1338.6384788265932 586.42157624126412 0 586.42157624126412 -120.16850064806204 0 0 0 0 484.83888204206596 -131.85921919219254 0 -131.85921919219254 188.51305788911122 0 0 0 0 51.484453321285741 1.2749113882263714 0 1.2749113882263714 2.5450717514579289 0 0 0 0 -42.939259408187354 -69.292825810305658 0 -69.292825810305658 191.92864951456068 0 0 0 0 57.291095510230669 22.35758507737664 0 22.35758507737664 44.246184910756511 0 0 0 0 12.562354242083835 4.5976809086726007 0 4.5976809086726007 3.5360136491657386 0 0 0 0 -123.74735668266658 105.70920720201684 0 105.70920720201684 70.647671547107166 0 0 0 0 -269.92470623509143 330.56566082089557 0 330.56566082089557 -6.7690725455468055 0 0 0 0 -527.19812211107637 294.57676656698459 0 294.57676656698459 352.88878212016425 0 0 0 0 -308.24267668007087 -199.46083269841984 0 -199.46083269841984 556.29705697650206 0 0 0 0 -650.51589804483228 37.565600832356722 0 37.565600832356722 607.31993683443761 0 0 0 0 -168.56719338524999 -189.9080728665358 0 -189.9080728665358 258.0133363561763 0 0 0 0 185.29842912634194 -458.327934081899 0 -458.327934081899 83.198573031913838 0 0 0 0 277.2923875930428 -283.5391871015745 0 -283.5391871015745 427.7587057040073 0 0 0 0 -122.75800374663959 -151.46578354322264 0 -151.46578354322264 744.59505580828409 0 0 0 0 403.67532185281379 -170.99923452208532 0 -170.99923452208532 141.9376443203073 0 0 0 0 262.86061162312399 -5.824864057751256 0 -5.824864057751256 412.39876676058338 0 0 0 0 -50.192992263691849 -200.33377372194082 0 -200.33377372194082 296.28894393627706 0 0 0 0 293.74874094459665 -260.52064195211278 0 -260.52064195211278 69.712030566690373 0 0 0 0 146.71122121549706 -75.663374274423404 0 -75.663374274423404 -381.00465703287045 0 0 0 0 196.81160673836712 102.92316684378966 0 102.92316684378966 117.71858491489547 0 0 0 0 -508.84827042761026 282.30189889814937 0 282.30189889814937 -461.93235012730293 0 0 0 0 -513.40877596113728 2.2219168443915578 0 2.2219168443915578 -122.54651949985418 0 0 0 0 -535.37831237490172 62.844122870868887 0 62.844122870868887 -89.315917565603741 0 0 0 0 -518.45132668484575 366.22458131868461 0 366.22458131868461 -429.71921025740448 0 0 0 0 -603.03034920243954 133.56514894474822 0 133.56514894474822 -654.76721705423552 0 0 0 0 -258.96360927328351 69.234141569002531 0 69.234141569002531 -535.90442761173472 0 0 0 0 -298.92887173175404 92.960982804637752 0 92.960982804637752 11.352367824263638 0 0 0 0 -222.54126961622387 -209.93869503823225 0 -209.93869503823225 107.83426212146514 0 0 0 0 -241.96812599698023 47.148649195572943 0 47.148649195572943 -127.32534302691056 0 0 0 0 -23.781012130199088 -51.99351144139473 0 -51.99351144139473 232.19035334791988 0 0 0 0 -184.48717522714287 -373.32460818617255 0 -373.32460818617255 406.55425510798523 0 0 0 0 -184.74908312031766 -149.55889117311744 0 -149.55889117311744 185.93181463768997 0 0 0 0 -332.77618923531554 -172.22416135256935 0 -172.22416135256935 195.79722016143205 0 0 0 0 -217.26459900080226 74.618946414702805 0 74.618946414702805 -140.38798813120229 0 0 0 0 -465.81639469430229 199.83092274843511 0 199.83092274843511 68.398276177569642 0 0 0 0 -14.060263654697337 63.778913952352013 0 63.778913952352013 39.633798623050097 0 0 0 0 9.2397480328800157 283.25300012169464 0 283.25300012169464 -262.16109403899463 0 0 0 0 -100.25974402783322 -515.10712699428404 0 -515.10712699428404 684.5217019525262 0 0 0 0 -123.67954896134324 43.34507071202097 0 43.34507071202097 176.7679413818114 0 0 0 0 18.42832858096429 8.2207770133914337 0 8.2207770133914337 4.2734621205548962 0 0 0 0 313.67703244302538 -470.60839028225746 0 -470.60839028225746 298.68489147648506 0 0 0 0 -70.164545779040054 -379.79698609048319 0 -379.79698609048319 382.39635743902181 0 0 0 0 491.25597722822567 -124.55779888921825 0 -124.55779888921825 177.30421555412761 0 0 0 0 226.15096457317122 233.04327228892362 0 233.04327228892362 234.16812831608695 0 0 0 0 -104.49356301814259 -72.755072354724689 0 -72.755072354724689 198.9188808400977 0 0 0 0 80.214078075645375 -117.21401971481828 0 -117.21401971481828 37.325563559180409 0 0 0 0 294.64153793209698 -136.24276317367912 0 -136.24276317367912 -360.51061401017068 0 0 0 0 -139.19769444489793 -90.343154497168143 0 -90.343154497168143 449.06850394473986 0 0 0 0 24.763320998990324 15.980409138014664 0 15.980409138014664 10.339203686079884 0 0 0 0 -108.95403380006974 120.95836435339697 0 120.95836435339697 157.13303049275419 0 0 0 0 -160.21621419543226 256.38429698145774 0 256.38429698145774 398.58415676321601 0 0 0 0 -252.29174075125775 140.46293749784672 0 140.46293749784672 295.23833640641533 0 0 0 0 -226.87618792742433 355.5542262987874 0 355.5542262987874 21.418539274018258 0 0 0 0 -292.05923275057285 153.23303419466538 0 153.23303419466538 267.42671399965184 0 0 0 0 -267.0935308643966 394.75625551871781 0 394.75625551871781 -16.177169320915709 0 0 0 0 -191.75733974298055 338.6779671862605 0 338.6779671862605 -68.02703344738984 0 0 0 0 -192.27563321361959 262.84622775008029 0 262.84622775008029 83.050719125603791 0 0 0 0 121.20951121961116 -2.7637225862999912 0 -2.7637225862999912 -6.6929223997358349 0 0 0 0 76.651444491493749 201.21426450487343 0 201.21426450487343 -217.9505466212504 0 0 0 0 -33.8401394347311 271.6910033927561 0 271.6910033927561 -251.40904046083597 0 0 0 0 -117.07618666335475 332.43470199478907 0 332.43470199478907 -99.441836271340435 0 0 0 0 -70.129552888392936 373.97153818255902 0 373.97153818255902 -384.627757814902 0 0 0 0 -69.053549376680166 277.35559622240544 0 277.35559622240544 -243.8072292369543 0 0 0 0 -52.296122715302772 511.04184174376496 0 511.04184174376496 -638.47423169628019 0 0 0 0 -98.235723359917756 500.72052925746539 0 500.72052925746539 -340.03909988688611 0 0 0 0 -110.67252520506372 531.24479459710346 0 531.24479459710346 -409.48852860367333 0 0 0 0 -78.173210430097242 375.82700531848604 0 375.82700531848604 -209.09405595174758 0 0 0 0 -202.67704117779795 449.55941997960326 0 449.55941997960326 -149.44137052365113 0 0 0 0 -241.45100654746057 559.42281428546994 0 559.42281428546994 -315.27553905705281 0 0 0 0 -97.32452792928234 606.13203974052158 0 606.13203974052158 -573.0585399777774 0 0 0 0 -189.12604459130853 557.44891482743515 0 557.44891482743515 -328.86572925583459 0 0 0 0 -196.97735147206186 674.34009736298049 0 674.34009736298049 -500.59614197470364 0 0 0 0 -343.08029417687794 707.91610018389474 0 707.91610018389474 -451.60764991761243 0 0 0 0 -63.583207670166303 664.16755757692772 0 664.16755757692772 -604.22351153042109 0 0 0 0 -239.95732543188205 785.85966190298495 0 785.85966190298495 -860.53538862236019 0 0 0 0 -118.23095495707094 670.90546190752502 0 670.90546190752502 -766.09643353291904 0 0 0 0 -269.42648580725654 648.12918854046438 0 648.12918854046438 -879.55889311323699 0 0 0 0 -575.84636753126688 806.50443689361418 0 806.50443689361418 -588.38569230939902 0 0 0 0 -890.19885100059037 770.12594016187359 0 770.12594016187359 -676.38483256279142 0 0 0 0 -693.33505850292568 440.37430529607082 0 440.37430529607082 -831.50240210283664 0 0 0 0 -866.20704492175719 398.00299427518621 0 398.00299427518621 -392.58608439532691 0 0 0 0 -507.16996353448485 437.05091925688612 0 437.05091925688612 -459.47377057527046 0 0 0 0 -514.42421434130847 557.45005277878136 0 557.45005277878136 -270.48402150982292 0 0 0 0 -440.65749144673464 137.69706441131711 0 137.69706441131711 -122.46079758036649 0 0 0 0 -388.20979988024919 309.34489589989971 0 309.34489589989971 11.300012577150483 0 0 0 0 -396.18050700645836 609.01116720323625 0 609.01116720323625 -259.0201535847882 0 0 0 0 -303.32030128368024 544.74165666488807 0 544.74165666488807 -369.33061774115777 0 0 0 0 -35.940292020895868 398.97037645651289 0 398.97037645651289 -1393.8596248663798 0 0 0 0 -127.71032953540271 436.47499719806365 0 436.47499719806365 -766.13446056793327 0 0 0 0 22.573277773095469 621.65754216798086 0 621.65754216798086 -1342.5308183938614 0 0 0 0 229.94132801847081 222.67504359108716 0 222.67504359108716 -824.35263982517063 0 0 0 0 -166.45643493665557 712.86461256723123 0 712.86461256723123 -718.31873906498367 0 0 0 0 263.55413322624008 753.82892941266982 0 753.82892941266982 -2478.259774925471 0 0 0 0 -367.03612717663054 881.85418978614325 0 881.85418978614325 -1139.2074716834213 0 0 0 0 -123.24848346843646 390.1580168157634 0 390.1580168157634 -673.36501582166238 0 0 0 0 -69.385419351492601 296.1782204022129 0 296.1782204022129 -448.80149475620419 0 0 0 0 -44.390197039754639 324.39368653705969 0 324.39368653705969 -588.39723217423307 0 0 0 0 -8.9266275408954243 119.62383087469789 0 119.62383087469789 -406.5378887404222 0 0 0 0 -70.982911430241074 476.2703349411895 0 476.2703349411895 -531.6529164904241 0 0 0 0 -118.28156909585232 718.32977662423218 0 718.32977662423218 -378.22689720114431 0 0 0 0 20.96837127951585 617.96190366071824 0 617.96190366071824 -586.05945956514188 0 0 0 0 26.357362859074783 558.83402281618964 0 558.83402281618964 -790.74984591221437 0 0 0 0 -2.9487089957204091 2.8011441133097748 0 2.8011441133097748 -0.32541054852286955 0 0 0 0 -61.195452344902151 290.1243901398484 0 290.1243901398484 809.60830520631953 0 0 0 0 55.47942156382851 227.69968310776312 0 227.69968310776312 151.28350428249541 0 0 0 0 97.706450439934997 132.97051290157106 0 132.97051290157106 -202.04244066177489 0 0 0 0 63.673509501990338 161.91761200684414 0 161.91761200684414 65.150700512722324 0 0 0 0 12.864959585331235 170.53754628514071 0 170.53754628514071 -93.742566394470487 0 0 0 0 -38.586865562565436 78.526945551508106 0 78.526945551508106 785.01940441786428 0 0 0 0 75.69614164393937 68.380838878317206 0 68.380838878317206 -30.840669321364118 0 0 0 0 294.73564503381567 223.5564213539692 0 223.5564213539692 -53.146097510005347 0 0 0 0 179.74260120212602 683.84648444891354 0 683.84648444891354 628.90821321020485 0 0 0 0 283.94844261652361 -82.877631618925079 0 -82.877631618925079 -295.2163499249873 0 0 0 0 -1289.614222221775 1576.8273100486695 0 1576.8273100486695 -1559.0459618083987 0 0 0 0 -4.7723516985424794 664.04934274291736 0 664.04934274291736 -3884.8877576424566 0 0 0 0 4.4860724198336754 20.494351085820284 0 20.494351085820284 17.111514940107149 0 0 0 0 22.624215592869788 -9.8034885935098899 0 -9.8034885935098899 -31.142159346146713 0 0 0 0 -9.3889077946660109 549.47529855486937 0 549.47529855486937 -2301.5712064717372 0 0 0 0 -1110.2451508615341 510.98992711812025 0 510.98992711812025 -1454.4573610023508 0 0 0 0 -1784.5088248149623 1206.8053681760794 0 1206.8053681760794 -1407.2748462038289 0 0 0 0 -1197.455815279769 709.58025919174543 0 709.58025919174543 -832.17703660068219 0 0 0 0 -839.05784170227707 550.2793312951253 0 550.2793312951253 -982.93552999354142 0 0 0 0 -810.30886116233887 870.28895280152938 0 870.28895280152938 -1547.7363123135583 0 0 0 0 -622.38209532171459 1020.9303166894824 0 1020.9303166894824 -1255.3714926713146 0 0 0 0 -394.3474359571992 687.71171049596887 0 687.71171049596887 -1498.5922925026389 0 0 0 0 -722.48254416964483 1518.3043533484743 0 1518.3043533484743 -3041.4760159110592 0 0 0 0 115.23576050647534 672.5733559045766 0 672.5733559045766 -2435.9675996834194 0 0 0 0 42.296141759499733 400.60082658987449 0 400.60082658987449 -915.41388690429449 0 0 0 0 78.774011825195998 70.231079776287999 0 70.231079776287999 -17.537474406874054 0 0 0 0 43.306848521577194 -107.38315219260403 0 -107.38315219260403 -586.91369420425326 0 0 0 0 131.74667066936672 330.86899344119593 0 330.86899344119593 -1189.7711631532584 0 0 0 0 156.16290013098478 76.952692044447758 0 76.952692044447758 237.08168987181125 0 0 0 0 38.545956510526594 342.79560572774426 0 342.79560572774426 -755.93886590582406 0 0 0 0 -24.19158735568908 166.42644149271291 0 166.42644149271291 850.62697233495419 0 0 0 0 30.59288305352311 272.12324286663352 0 272.12324286663352 497.70718843217765 0 0 0 0 63.880495962690475 107.30771365648252 0 107.30771365648252 465.8825882490346 0 0 0 0 70.892657720627398 79.781815787443875 0 79.781815787443875 52.853211383044851 0 0 0 0 56.195184262876865 119.86438454430754 0 119.86438454430754 599.27087246377778 0 0 0 0 71.576245803116763 88.462156617548317 0 88.462156617548317 564.69781177825644 0 0 0 0 41.412517947700508 48.131204887380591 0 48.131204887380591 525.52531918694149 0 0 0 0 45.643532872214564 32.147588062303839 0 32.147588062303839 524.88701480691088 0 0 0 0 17.090312687036203 136.5427259632379 0 136.5427259632379 916.6733058661157 0 0 0 0 28.958834232355002 24.122040101028688 0 24.122040101028688 792.65010155874188 0 0 0 0 55.594889440854786 30.801408711833574 0 30.801408711833574 899.76177047172678 0 0 0 0 -101.19996759409878 159.61048826357364 0 159.61048826357364 977.36460281661857 0 0 0 0 25.375497407780763 59.977907068861469 0 59.977907068861469 16.509749203558428 0 0 0 0 103.33660133276317 -47.998427251921385 0 -47.998427251921385 1389.0943839723404 0 0 0 0 30.695067292224849 84.163063972249802 0 84.163063972249802 2076.8304382885071 0 0 0 0 52.813656122916655 222.41420142280185 0 222.41420142280185 913.07986032894405 0 0 0 0 -94.877742693372056 47.738819832182344 0 47.738819832182344 1470.2150698356782 0 0 0 0 58.558824659117818 694.19383864433621 0 694.19383864433621 -1379.5719181917884 0 0 0 0 35.076688924115714 53.81703517428889 0 53.81703517428889 13.992274287751165 0 0 0 0 590.53585195232506 597.51811768663174 0 597.51811768663174 -2993.4694660003297 0 0 0 0 -319.24783355536442 -87.171190085900889 0 -87.171190085900889 509.08098297994002 0 0 0 0 -705.65824950449053 887.76322317263475 0 887.76322317263475 -50.751743359855027 0 0 0 0 -337.03291850941514 227.13285719645501 0 227.13285719645501 -66.633517096554215 0 0 0 0 -495.54866984727096 185.96379482888733 0 185.96379482888733 400.79311850131489 0 0 0 0 -407.27671288781551 362.80198700141045 0 362.80198700141045 434.42073896963848 0 0 0 0 -449.79204381926678 297.12059257319197 0 297.12059257319197 278.14537385028962 0 0 0 0 -309.38156581913046 151.25340501328537 0 151.25340501328537 371.2319070736994 0 0 0 0 321.68596498875149 296.16083192652877 0 296.16083192652877 339.78137095079728 0 0 0 0 -21.902246529819422 405.67432308897514 0 405.67432308897514 -443.96599929199147 0 0 0 0 35.439925994473015 59.679192386051 0 59.679192386051 -585.51669301954826 0 0 0 0 -107.19649698929697 -93.987949209360522 0 -93.987949209360522 307.48825707058359 0 0 0 0 197.67669857089822 306.82081800819287 0 306.82081800819287 533.77797370210465 0 0 0 0 -226.23271025793474 -26.114681367274898 0 -26.114681367274898 432.23472467533429 0 0 0 0 10.403952261050954 59.34413283320373 0 59.34413283320373 14.297398597941012 0 0 0 0 112.63016752471685 399.3779565668965 0 399.3779565668965 -467.16094635978516 0 0 0 0 -190.4934308747288 79.734629345803114 0 79.734629345803114 1055.8967895967216 0 0 0 0 -13.353935216897298 -135.74761297547593 0 -135.74761297547593 944.44551188992045 0 0 0 0 184.63526517031278 737.94694023171178 0 737.94694023171178 168.45205666577385 0 0 0 0 138.52198285995473 49.799349709697708 0 49.799349709697708 1131.2679622750802 0 0 0 0 -28.100629753585054 -266.65310962052172 0 -266.65310962052172 1395.4791145340423 0 0 0 0 96.915265816389365 -177.20654975736397 0 -177.20654975736397 1009.0046789219195 0 0 0 0 -217.40767209352634 41.702687968052487 0 41.702687968052487 57.044230619267182 0 0 0 0 15.439855540322093 52.161872016386795 0 52.161872016386795 41.075997018457429 0 0 0 0 312.74451817002137 3553.3228563321463 0 3553.3228563321463 80.097193355759373 0 0 0 0 66.967153196629283 -1097.3531941808631 0 -1097.3531941808631 3371.1887751542672 0 0 0 0 -937.64755923401754 1585.8429792152892 0 1585.8429792152892 -2635.8342826250355 0 0 0 0 25.478110746470861 17.698356138560953 0 17.698356138560953 11.282220046524401 0 0 0 0 56.847372848984378 1302.3768831666821 0 1302.3768831666821 2615.9246683428719 0 0 0 0 -1010.0357812849215 -214.88458393320616 0 -214.88458393320616 1613.606815915824 0 0 0 0 2411.7165256591434 1139.8454059517389 0 1139.8454059517389 -274.15478126957896 0 0 0 0 1366.8040879430482 -366.72311850136612 0 -366.72311850136612 -959.45104570258991 0 0 0 0 742.0683683731595 -1841.487655761317 0 -1841.487655761317 -907.73241621226771 0 0 0 0 445.52106670114154 144.17671365929709 0 144.17671365929709 -647.50613478073501 0 0 0 0 -31.804664301977255 59.217328290406954 0 59.217328290406954 24.219888488639761 0 0 0 0 434.32812283074963 -18.935302423269604 0 -18.935302423269604 -1086.0951976706929 0 0 0 0 83.549434198372182 508.71066404305748 0 508.71066404305748 -149.83152706429246 0 0 0 0 -248.01825369427627 413.64180258150509 0 413.64180258150509 476.46869325413718 0 0 0 0 -109.65086995890306 194.42861587212246 0 194.42861587212246 716.54215079192363 0 0 0 0 340.38584595288103 422.08495528861204 0 422.08495528861204 777.80355095362756 0 0 0 0 273.45948594195306 -23.162072250481287 0 -23.162072250481287 499.71071322911303 0 0 0 0 37.092943384006503 443.34594883520913 0 443.34594883520913 915.20546378704603 0 0 0 0 264.79121886150824 435.75366736495926 0 435.75366736495926 -623.10277741297614 0 0 0 0 271.11538187221595 718.95315701610525 0 718.95315701610525 291.70731500932015 0 0 0 0 -62.353996560079395 362.59091897902545 0 362.59091897902545 414.5218702858474 0 0 0 0 107.73599452807684 214.09569022728829 0 214.09569022728829 391.28128249369911 0 0 0 0 -172.32096443735645 34.822494273044867 0 34.822494273044867 -2.1229424096527509 0 0 0 0 -248.3606754957691 502.83239644692367 0 502.83239644692367 1201.4138278282771 0 0 0 0 -6.5004000380868092 216.64384218771011 0 216.64384218771011 -699.463892997941 0 0 0 0 -33.119685010377736 -45.557915576772047 0 -45.557915576772047 30.98612419331338 0 0 0 0 -2.2713139053997935 13.962924422533092 0 13.962924422533092 30.732434044603494 0 0 0 0 -151.49415642237727 201.10361311645829 0 201.10361311645829 -343.30298726027831 0 0 0 0 1.1089846281292495 3.7295101192831623 0 3.7295101192831623 6.205922480206624 0 0 0 0 107.53644486087433 -34.641260916032479 0 -34.641260916032479 950.38361133780563 0 0 0 0 -5.1842739549501857 477.4388660631048 0 477.4388660631048 799.6471100501949 0 0 0 0 -197.06297373113921 31.664357725210721 0 31.664357725210721 2383.5976993947625 0 0 0 0 -761.72094127928722 395.8872476691613 0 395.8872476691613 -518.56464152870467 0 0 0 0 -693.94653101447329 193.88215623699944 0 193.88215623699944 895.21095958051592 0 0 0 0 72.489096499222796 -327.0714701620891 0 -327.0714701620891 -61.309044507943327 0 0 0 0 97.071559726493433 -4.1369471772341058 0 -4.1369471772341058 -885.09820320107974 0 0 0 0 -605.89860858047632 704.86698306173457 0 704.86698306173457 719.28918076958507 0 0 0 0 4.6920464940259095 24.306845758763352 0 24.306845758763352 -7.5800083982742308 0 0 0 0 170.35059136153723 17.853184249506739 0 17.853184249506739 38.965077089333136 0 0 0 0 124.24725623204722 490.90720739710378 0 490.90720739710378 95.717979694367386 0 0 0 0 293.82292800828873 53.713275857822737 0 53.713275857822737 283.07254002160334 0 0 0 0 43.639725232238021 94.383873941242513 0 94.383873941242513 39.442875292200924 0 0 0 0 19.843682715116302 130.86990124189469 0 130.86990124189469 -1.1090981961860962 0 0 0 0 108.97734095116465 60.395772254095398 0 60.395772254095398 8.6744173487460046 0 0 0 0 -275.46252132803784 304.11857646127464 0 304.11857646127464 671.82690988725517 0 0 0 0 44.492979019756106 -0.053461816660941963 0 -0.053461816660941963 -62.384581653059513 0 0 0 0 43.293711695409357 73.05896751924459 0 73.05896751924459 25.906319063411175 0 0 0 0 -20.283038086142909 -35.571773408036762 0 -35.571773408036762 43.284644022261553 0 0 0 0 204.9310816935722 60.31569165016117 0 60.31569165016117 112.87129604545771 0 0 0 0 -15.702589650987647 232.12946597434347 0 232.12946597434347 596.04157744841359 0 0 0 0 -344.51440732571064 121.14158489445981 0 121.14158489445981 738.86461703130044 0 0 0 0 154.07642250915524 144.87745286751306 0 144.87745286751306 324.77732831165486 0 0 0 0 44.070301038828802 73.302412609614436 0 73.302412609614436 20.756326873285531 0 0 0 0 336.43828303471673 160.26999129526303 0 160.26999129526303 33.127920440761955 0 0 0 0 62.378962934429325 55.815764536114159 0 55.815764536114159 59.632883808101525 0 0 0 0 -82.849547642465041 277.79862860126741 0 277.79862860126741 645.38015411321248 0 0 0 0 -269.81627024291083 172.27017944362888 0 172.27017944362888 156.20684232680651 0 0 0 0 82.85839921456656 77.112626542724456 0 77.112626542724456 44.045656761117918 0 0 0 0 139.84473229615833 141.05869881503168 0 141.05869881503168 127.09865932956382 0 0 0 0 515.65274333741399 -121.26387063890797 0 -121.26387063890797 -84.385419625325085 0 0 0 0 46.51863129431149 57.906706351815956 0 57.906706351815956 131.89126831466274 0 0 0 0 117.76257402583724 137.43777081546978 0 137.43777081546978 146.9345062157372 0 0 0 0 153.63068650488276 160.78652886039345 0 160.78652886039345 87.935717858845237 0 0 0 0 90.276657426048729 151.31699462148728 0 151.31699462148728 166.76010694856313 0 0 0 0 454.11454693204723 559.17749885248486 0 559.17749885248486 34.156507938809227 0 0 0 0 25.631254528241698 96.79465737780265 0 96.79465737780265 339.27295607654378 0 0 0 0 95.540777714527223 114.34199652762146 0 114.34199652762146 129.42659638834974 0 0 0 0 91.085131569445366 109.46601607666798 0 109.46601607666798 27.856681876353832 0 0 0 0 152.56028403861455 125.34173627942323 0 125.34173627942323 31.488570594126941 0 0 0 0 151.98657977288531 159.98389616438476 0 159.98389616438476 66.796840903043631 0 0 0 0 166.00989083181048 116.87665210574596 0 116.87665210574596 72.51835758492598 0 0 0 0 152.92134329315741 162.31893156155911 0 162.31893156155911 -41.319034505318996 0 0 0 0 252.52973404058139 124.60549044637082 0 124.60549044637082 -39.89630876177273 0 0 0 0 -73.845477913622744 156.00603770269481 0 156.00603770269481 38.328889793136113 0 0 0 0 20.827188062106288 36.774062965625006 0 36.774062965625006 62.7406562571623 0 0 0 0 -54.188792422275583 141.56047692652464 0 141.56047692652464 -119.2231433024026 0 0 0 0 545.50678522985254 -60.010677694041078 0 -60.010677694041078 -21.3429220551443 0 0 0 0 37.288057452082285 195.87063789236345 0 195.87063789236345 145.79583674297464 0 0 0 0 63.336040742778756 139.28523298917773 0 139.28523298917773 61.406324809338059 0 0 0 0 47.534391910780165 96.108957399246719 0 96.108957399246719 24.936068688740249 0 0 0 0 44.579874957176798 145.73192723469401 0 145.73192723469401 -36.602863621665165 0 0 0 0 -2092.4781051607224 -464.63588576848997 0 -464.63588576848997 117.48653329687659 0 0 0 0 231.58969008570421 212.46409835009399 0 212.46409835009399 -1.9035698800798855 0 0 0 0 77.313394682264232 102.35170902336837 0 102.35170902336837 62.103128927247838 0 0 0 0 48.298414421113378 72.495299786846047 0 72.495299786846047 97.428182911265111 0 0 0 0 197.72745274858607 70.500053258716434 0 70.500053258716434 -51.776301461824914 0 0 0 0 142.39878305580351 -4.7217523029612494 0 -4.7217523029612494 231.67599526717822 0 0 0 0 -68.797796334758459 168.28559303931706 0 168.28559303931706 729.535969987508 0 0 0 0 6.1686272341340214 1.6093311885959878 0 1.6093311885959878 0.27023725017843603 0 0 0 0 166.69184854462219 -25.58497521969548 0 -25.58497521969548 136.71133392889169 0 0 0 0 77.860688262386674 114.56683246983376 0 114.56683246983376 31.25605984858954 0 0 0 0 -57.219941148934595 125.0043110878778 0 125.0043110878778 401.36793808539369 0 0 0 0 143.11801767449651 260.37649234743776 0 260.37649234743776 206.20040896184037 0 0 0 0 18.2270551513746 -1.3476340985383928 0 -1.3476340985383928 -2.953022379764306 0 0 0 0 57.259306630192441 26.852385955380669 0 26.852385955380669 175.4714358899937 0 0 0 0 -54.733651027752785 55.797714723394165 0 55.797714723394165 558.16268766715802 0 0 0 0 64.336440840263094 55.989212807436161 0 55.989212807436161 42.932030017509533 0 0 0 0 191.01493795726856 -28.980731181291048 0 -28.980731181291048 62.737984822195358 0 0 0 0 82.345935058906889 109.3259577543969 0 109.3259577543969 20.650354237648799 0 0 0 0 -33.457476426454377 87.574534827032039 0 87.574534827032039 462.32413705749786 0 0 0 0 193.99270008446183 -6.7106754927808652 0 -6.7106754927808652 -31.7087860039519 0 0 0 0 10.956646031903801 -98.944965887931176 0 -98.944965887931176 69.215583945588151 0 0 0 0 37.445065542162524 10.152454644106811 0 10.152454644106811 37.011949645446727 0 0 0 0 0.38848437392152846 36.176109336021909 0 36.176109336021909 187.04914215179087 0 0 0 0 83.607490168418735 154.03370704393092 0 154.03370704393092 373.95184549854821 0 0 0 0 -0.30509850873130517 0.98926595123774064 0 0.98926595123774064 -1.4658052109665078 0 0 0 0 10.571160159481224 -10.934870953034988 0 -10.934870953034988 138.71130857328535 0 0 0 0 -73.897961996721278 48.129227509985867 0 48.129227509985867 103.12575091224426 0 0 0 0 147.39428787972429 67.866145384974516 0 67.866145384974516 -2.1311550678001367 0 0 0 0 238.33699613987119 34.883613628269813 0 34.883613628269813 9.3760207021277893 0 0 0 0 210.79979656932119 10.036153604738502 0 10.036153604738502 -44.927324758526083 0 0 0 0 147.1796725126531 88.868962726734225 0 88.868962726734225 75.955642465876736 0 0 0 0 -1.5233288103273139 3.4270643499581865 0 3.4270643499581865 -5.3853254006418467 0 0 0 0 13.377217716028099 97.707067235636714 0 97.707067235636714 16.700726913833932 0 0 0 0 15.527727203327231 -67.249926859843981 0 -67.249926859843981 54.103056475702033 0 0 0 0 21.913144046376146 2.0594888120995165 0 2.0594888120995165 109.05394204978438 0 0 0 0 26.298542460928729 -236.15289783694516 0 -236.15289783694516 105.67479521391942 0 0 0 0 224.61779041081172 -111.96743604198309 0 -111.96743604198309 14.265675634331274 0 0 0 0 -309.80124376239837 10.26409554446218 0 10.26409554446218 132.05591971419926 0 0 0 0 -103.81960650655674 137.72045591352071 0 137.72045591352071 -48.303789965885699 0 0 0 0 -643.4867584327003 535.92967093505285 0 535.92967093505285 -206.17844284199418 0 0 0 0 -85.782034328061854 7.599661447426115 0 7.599661447426115 267.24917060408552 0 0 0 0 -1340.0954795146827 497.2096517992286 0 497.2096517992286 -38.327489548917583 0 0 0 0 -40.242038049153052 432.16472371795135 0 432.16472371795135 -1950.2410863069017 0 0 0 0 8.3365809240312956 197.9533493471522 0 197.9533493471522 -1060.1528236236336 0 0 0 0 -321.87718564347597 267.57499873988127 0 267.57499873988127 -48.496453052790457 0 0 0 0 0.011563820674666658 7.1838484549688246 0 7.1838484549688246 -2.649742360773331 0 0 0 0 -6.8787556204770226 120.38753754824211 0 120.38753754824211 -741.6279531812761 0 0 0 0 -121.50085441370175 724.40337094863116 0 724.40337094863116 -1362.9277653604076 0 0 0 0 -317.50501713487756 513.13745861175812 0 513.13745861175812 -389.60969486363319 0 0 0 0 -606.64194772668998 937.53586933046608 0 937.53586933046608 -577.35116643597212 0 0 0 0 -662.6345716547512 1069.3016393508697 0 1069.3016393508697 -887.43120085670671 0 0 0 0 -1.982178166061118 2.4831586611081207 0 2.4831586611081207 -3.3188684464449381 0 0 0 0 -410.64818004368863 -108.59966059903309 0 -108.59966059903309 303.79098350238201 0 0 0 0 -638.23408552640103 1090.5728695642629 0 1090.5728695642629 -1379.3613651787309 0 0 0 0 -20.422093309214688 38.013747178683843 0 38.013747178683843 -784.84376098404209 0 0 0 0 -1071.8364279183988 455.28377869697533 0 455.28377869697533 139.41304822490565 0 0 0 0 -713.82259294018149 899.56736660013121 0 899.56736660013121 -860.29436182525387 0 0 0 0 -158.15235413252958 508.69042573055413 0 508.69042573055413 -1142.8178004355686 0 0 0 0 36.317799312637362 195.06665425768642 0 195.06665425768642 -678.01140743793076 0 0 0 0 41.141895471548196 257.24487842780582 0 257.24487842780582 -514.48612766415863 0 0 0 0 57.290435464165057 -190.66147963262847 0 -190.66147963262847 -285.09726779681932 0 0 0 0 55.946137553873996 1.1292110243266507 0 1.1292110243266507 105.06776246052323 0 0 0 0 130.57952892990579 -53.160897585596103 0 -53.160897585596103 -62.297855123753834 0 0 0 0 187.65333159392321 43.568049199831876 0 43.568049199831876 -300.33502734406648 0 0 0 0 260.70488762491004 115.10906719051764 0 115.10906719051764 -235.88096496903017 0 0 0 0 174.55977563749184 481.3469720600699 0 481.3469720600699 -364.58130430600795 0 0 0 0 76.205643287248677 480.80229716584017 0 480.80229716584017 -236.33481207115256 0 0 0 0 42.634576160082361 790.26721686512246 0 790.26721686512246 85.162820427229235 0 0 0 0 3.778328755217899 5.5589464864372644 0 5.5589464864372644 8.2096485789450639 0 0 0 0 35.815696391713573 717.98395407161024 0 717.98395407161024 -469.07631615284311 0 0 0 0 -215.30147108806705 356.90335005897214 0 356.90335005897214 -423.29912743685054 0 0 0 0 10.804859595344169 342.63845950134782 0 342.63845950134782 -524.82651165898642 0 0 0 0 -108.92524190491531 495.011517627996 0 495.011517627996 -513.37290272692917 0 0 0 0 -729.3117304208281 281.55471637833944 0 281.55471637833944 -165.42601962306799 0 0 0 0 -485.69036445459642 560.60164847257147 0 560.60164847257147 -421.72826350873493 0 0 0 0 -323.80905051868467 508.35471822989166 0 508.35471822989166 -467.95277867652476 0 0 0 0 -298.95913879715954 538.29494044557214 0 538.29494044557214 -504.89228177924088 0 0 0 0 -433.13144131726585 441.8258046409228 0 441.8258046409228 -400.45322757789836 0 0 0 0 8.7051264270994579 -81.048648292984581 0 -81.048648292984581 83.277632894379622 0 0 0 0 15.122357774016564 -41.016213558551499 0 -41.016213558551499 256.89916652219108 0 0 0 0 -116.34182537012384 81.012765291255164 0 81.012765291255164 260.7433881173074 0 0 0 0 9.5874358955420576 18.90339687501347 0 18.90339687501347 13.077391978207821 0 0 0 0 -29.170062379445881 28.104502133306596 0 28.104502133306596 -52.066569449219969 0 0 0 0 -16.953193707002811 22.119903091169874 0 22.119903091169874 279.77779640200242 0 0 0 0 40.643896932597272 136.68894201044895 0 136.68894201044895 99.731541573935829 0 0 0 0 -3.5400956134478747 6.7851330195153139 0 6.7851330195153139 -8.3281143117730139 0 0 0 0 -223.79310406252625 180.33682711303845 0 180.33682711303845 165.16170245045396 0 0 0 0 -279.83563172478171 226.70751687416123 0 226.70751687416123 296.23637289479302 0 0 0 0 11.388638349255729 15.160859026118274 0 15.160859026118274 16.046173745665996 0 0 0 0 76.475374114656006 673.58844943812983 0 673.58844943812983 589.97152279083821 0 0 0 0 1003.0501329523286 -569.36568962594311 0 -569.36568962594311 -160.5694403133748 0 0 0 0 459.00238365241967 375.59900432837458 0 375.59900432837458 -32.185032186891476 0 0 0 0 -175.91151796616759 201.3149374797058 0 201.3149374797058 -131.46503003316684 0 0 0 0 335.11748566296592 271.91192816534749 0 271.91192816534749 -73.8939859279144 0 0 0 0 94.976233591689379 254.68351789361805 0 254.68351789361805 -70.346392009207193 0 0 0 0 225.77647736186191 75.512904015346976 0 75.512904015346976 -121.95534508764831 0 0 0 0 404.63995261771197 91.725162554057533 0 91.725162554057533 -143.21023934537425 0 0 0 0 263.84618414644319 85.609219452027673 0 85.609219452027673 38.917779645584233 0 0 0 0 344.80731004808331 44.596414669644219 0 44.596414669644219 31.938817289239523 0 0 0 0 703.26132703341136 189.23135250474843 0 189.23135250474843 -105.45813169519897 0 0 0 0 -1.3011988407934183 2.4017568126921276 0 2.4017568126921276 -0.7171073767453322 0 0 0 0 -442.76199922280648 154.46001113965394 0 154.46001113965394 230.09173508842287 0 0 0 0 -2.6695106515755924 5.1218243778073997 0 5.1218243778073997 -1.5840604132018257 0 0 0 0 146.22409420629265 356.46570090568548 0 356.46570090568548 178.31665097539008 0 0 0 0 481.82731533168408 429.01027549633272 0 429.01027549633272 -36.524666795758549 0 0 0 0 204.84383027047443 275.32767378555207 0 275.32767378555207 185.88633859024048 0 0 0 0 343.22781619924353 195.30572028476126 0 195.30572028476126 183.14036703582047 0 0 0 0 122.85424329830857 360.00720681449457 0 360.00720681449457 232.50902634185331 0 0 0 0 242.02758302715665 350.66841636210302 0 350.66841636210302 -143.19921916535895 0 0 0 0 982.54164142011723 773.68379458369964 0 773.68379458369964 97.307831918255033 0 0 0 0 794.28273280513531 -1687.209034762358 0 -1687.209034762358 -656.28566965148002 0 0 0 0 -63.823207664798247 151.76265127192346 0 151.76265127192346 84.467667121180966 0 0 0 0 -60.005808914924273 163.51567196605083 0 163.51567196605083 -102.24745102593624 0 0 0 0 -83.525534499167406 120.15675015133615 0 120.15675015133615 25.898290898125197 0 0 0 0 -83.843682321559754 120.42256409161473 0 120.42256409161473 110.39807224247852 0 0 0 0 68.433819752295676 160.70907141504267 0 160.70907141504267 5.9401953935976053 0 0 0 0 21.835046138312464 279.1572235846204 0 279.1572235846204 273.29060195249622 0 0 0 0 716.07845373427699 643.39207798809002 0 643.39207798809002 126.49690320535046 0 0 0 0 -532.54626925379853 348.68031789705765 0 348.68031789705765 181.41781028392279 0 0 0 0 -1.671480827731699 3.202938716808859 0 3.202938716808859 -0.42619113188582958 0 0 0 0 -23.976377178449184 420.59945948572476 0 420.59945948572476 -26.91590624368655 0 0 0 0 19.412200462407782 623.04051912880095 0 623.04051912880095 282.0906000845489 0 0 0 0 134.6823372488725 198.15064669570074 0 198.15064669570074 98.61640837840423 0 0 0 0 -321.95095570465492 338.74576528157559 0 338.74576528157559 63.924346791322023 0 0 0 0 120.19437213944911 307.45182760761782 0 307.45182760761782 -492.96196847205374 0 0 0 0 -69.447097659765859 607.47296770912726 0 607.47296770912726 -283.93492080251417 0 0 0 0 -288.83585078240139 321.69841225694199 0 321.69841225694199 -384.24413690268739 0 0 0 0 -484.52136108888953 905.74641533073009 0 905.74641533073009 -835.64289983981416 0 0 0 0 -4.9019044800259621 -1.2422069187934852 0 -1.2422069187934852 0.107524858461165 0 0 0 0 -69.684455980474013 43.828938499113065 0 43.828938499113065 29.034612952366842 0 0 0 0 -77.026897446310613 62.675738505411573 0 62.675738505411573 14.287056506988847 0 0 0 0 -51.108617105492158 5.4498520056795314 0 5.4498520056795314 134.56390166881556 0 0 0 0 -117.13238078648283 87.208444776702891 0 87.208444776702891 80.511274705639153 0 0 0 0 -156.75004154438648 120.52283327771386 0 120.52283327771386 63.897383006442396 0 0 0 0 119.15750126729836 380.35010559606326 0 380.35010559606326 -306.0015036926543 0 0 0 0 -58.376035308348946 194.47860347997084 0 194.47860347997084 119.10480376369378 0 0 0 0 -4.3722627848765114 -122.11612390537721 0 -122.11612390537721 312.07811765354927 0 0 0 0 -61.430938225705177 192.10861191090225 0 192.10861191090225 654.7142794049123 0 0 0 0 136.54182401388243 346.75775748656906 0 346.75775748656906 29.792736658111608 0 0 0 0 111.17274900972552 373.65407075117582 0 373.65407075117582 47.964364138127166 0 0 0 0 561.32768061911338 538.40730505273314 0 538.40730505273314 -58.496769229284837 0 0 0 0 195.70401341874094 580.67265969141044 0 580.67265969141044 799.69996997094677 0 0 0 0 -24.158683697376546 -116.61220157060689 0 -116.61220157060689 912.18013207495096 0 0 0 0 -354.02654193739727 751.44598622652484 0 751.44598622652484 763.26786630907372 0 0 0 0 357.43620334807201 171.4332655356593 0 171.4332655356593 71.55442414213212 0 0 0 0 -18.063461233706221 361.23953974189783 0 361.23953974189783 45.21721622993573 0 0 0 0 293.68446657310415 378.74936047678148 0 378.74936047678148 -296.90731214070547 0 0 0 0 251.38346255417855 337.08104137815553 0 337.08104137815553 -406.10876922832267 0 0 0 0 130.3260466499587 415.81629852577419 0 415.81629852577419 -297.79211813342772 0 0 0 0 249.37892568693496 375.7376483056205 0 375.7376483056205 -213.73085771116166 0 0 0 0 266.68220122973435 362.78140458593862 0 362.78140458593862 -67.998442295170207 0 0 0 0 349.45566205312571 428.87431283648266 0 428.87431283648266 -313.27948496804311 0 0 0 0 206.754786372534 442.28315014224063 0 442.28315014224063 -297.66253372840129 0 0 0 0 207.7722238770657 449.4328965905288 0 449.4328965905288 -419.80976579545859 0 0 0 0 -179.07003836326476 381.990833571248 0 381.990833571248 -253.31384707965208 0 0 0 0 -25.577480356980232 282.42208671765911 0 282.42208671765911 208.76869514034445 0 0 0 0 -70.618860066720117 595.63832789056073 0 595.63832789056073 -73.722585194489511 0 0 0 0 58.816956050046429 300.42600575828601 0 300.42600575828601 122.02769996241477 0 0 0 0 54.321685122078634 319.80376743013812 0 319.80376743013812 46.118809608560696 0 0 0 0 66.227126502446481 203.0293148842029 0 203.0293148842029 131.56743128799371 0 0 0 0 158.00591752881883 217.09932313308036 0 217.09932313308036 7.7258427791821305 0 0 0 0 66.256990009555011 240.06512355810082 0 240.06512355810082 46.560656196626041 0 0 0 0 129.15906628055382 325.25811121664537 0 325.25811121664537 -228.74477002440472 0 0 0 0 168.5088663585484 232.13177958149026 0 232.13177958149026 -246.44010215767594 0 0 0 0 132.75128783168475 133.13179627721638 0 133.13179627721638 12.646545644965954 0 0 0 0 166.42985672710347 192.41960058352015 0 192.41960058352015 -270.4608824679799 0 0 0 0 123.43724881735398 60.618002192788481 0 60.618002192788481 5.1952739798250605 0 0 0 0 36.341331455270847 150.32751751200658 0 150.32751751200658 292.62057415713571 0 0 0 0 -47.797423042968148 189.47673949480486 0 189.47673949480486 274.41786763119853 0 0 0 0 38.578707993598073 223.53525680625535 0 223.53525680625535 287.49380156659481 0 0 0 0 54.366160499237594 175.63705705244229 0 175.63705705244229 302.44403625936138 0 0 0 0 38.007328413397772 219.31603656776042 0 219.31603656776042 259.0189880567159 0 0 0 0 37.309199057292972 146.19921991894557 0 146.19921991894557 167.1456010783877 0 0 0 0 52.162322489195503 226.31940875280998 0 226.31940875280998 167.39994969120744 0 0 0 0 36.838152482829173 195.3162945948734 0 195.3162945948734 316.85840214592099 0 0 0 0 50.922907063893945 170.41774166565119 0 170.41774166565119 243.43272225303008 0 0 0 0 30.816805456735892 171.44275406425959 0 171.44275406425959 323.19708669046304 0 0 0 0 66.413009437266737 181.10846965275414 0 181.10846965275414 245.63865373095859 0 0 0 0 33.951546190117369 195.08980095173411 0 195.08980095173411 249.24676962948433 0 0 0 0 48.600989698345074 200.21243998279897 0 200.21243998279897 202.14433250893114 0 0 0 0 81.842118439730257 -48.69702657932794 0 -48.69702657932794 -509.65572002457407 0 0 0 0 121.23208544772933 384.61761003566426 0 384.61761003566426 -1539.3723849811513 0 0 0 0 -226.64354396444105 618.38034756428988 0 618.38034756428988 -627.71512859076029 0 0 0 0 -183.37243606624543 676.47512132811153 0 676.47512132811153 -565.90313301160859 0 0 0 0 -2.6387394419825085 7.8758708611658221 0 7.8758708611658221 -19.877006608390531 0 0 0 0 -732.90811085650057 1157.6073026319937 0 1157.6073026319937 -1096.4190997650148 0 0 0 0 -1567.9170090415355 691.43451569424042 0 691.43451569424042 -312.4942785710773 0 0 0 0 -20.356674350096171 2.0076181498959258 0 2.0076181498959258 -3.5388050463826595 0 0 0 0 -727.2070147140148 370.09425257598377 0 370.09425257598377 -191.37969017070645 0 0 0 0 -276.3240711895196 536.91940610474649 0 536.91940610474649 -598.27111334949768 0 0 0 0 -536.10314107663362 768.05313053204691 0 768.05313053204691 -596.57335376099945 0 0 0 0 100.48651588655775 526.1117401736974 0 526.1117401736974 -696.85699250779544 0 0 0 0 103.61296478059376 127.74237041917149 0 127.74237041917149 -348.07528276484663 0 0 0 0 138.27549053529583 336.93908676960405 0 336.93908676960405 -514.03747183380619 0 0 0 0 192.73054905189201 152.77279426900895 0 152.77279426900895 -348.30576837356057 0 0 0 0 145.9085924876199 92.486021754046305 0 92.486021754046305 -22.087007876150892 0 0 0 0 -79.992344327569299 317.35196270780398 0 317.35196270780398 -327.08753274040646 0 0 0 0 281.99019568069343 218.93160730805448 0 218.93160730805448 -455.95719873136113 0 0 0 0 139.91584358668297 317.75765443671366 0 317.75765443671366 107.38608018015293 0 0 0 0 225.91239518375369 -75.156636401865399 0 -75.156636401865399 -50.888764931763944 0 0 0 0 132.79374874012137 69.596502409382083 0 69.596502409382083 441.39364160400874 0 0 0 0 370.48844292055583 273.20837097985532 0 273.20837097985532 464.69519698725981 0 0 0 0 109.20228327573568 28.160940079236752 0 28.160940079236752 340.52564585788423 0 0 0 0 252.76629200889147 5.6761733683415514 0 5.6761733683415514 -40.053443072566097 0 0 0 0 345.67497559670301 -24.789782694822861 0 -24.789782694822861 352.38020774560209 0 0 0 0 -9.7433857838732365 19.237526110552153 0 19.237526110552153 725.1328876822954 0 0 0 0 203.387317002489 218.39019456576534 0 218.39019456576534 34.465052113162528 0 0 0 0 -159.05092720550601 470.18923986322989 0 470.18923986322989 701.47248873411979 0 0 0 0 4.6313244947024259 1.8776794793721763 0 1.8776794793721763 1.5253005765453285 0 0 0 0 -40.571855347501696 -41.002600830616757 0 -41.002600830616757 1658.3843597397172 0 0 0 0 188.31656401485088 122.5486790739451 0 122.5486790739451 -285.97503369270316 0 0 0 0 -443.03576221598632 34.07667675268749 0 34.07667675268749 1452.6283101253794 0 0 0 0 -19.905715367625817 158.68387169164635 0 158.68387169164635 26.489186155439256 0 0 0 0 14.711423309903921 14.843376849862956 0 14.843376849862956 0.31898706645644026 0 0 0 0 239.18284665611282 -276.59168735863295 0 -276.59168735863295 233.92326797353962 0 0 0 0 -1881.4998336949793 -159.77167119106707 0 -159.77167119106707 289.69082526730381 0 0 0 0 269.99541916509042 220.83620916921427 0 220.83620916921427 311.40754542671164 0 0 0 0 -818.85386813343939 1030.2395658388941 0 1030.2395658388941 1231.3805160147349 0 0 0 0 -204.33169912465382 -21.091187477508356 0 -21.091187477508356 97.442862168273678 0 0 0 0 -38.601309404476297 34.765838166780973 0 34.765838166780973 1.9526046499886816 0 0 0 0 2.9320390411172639 0.96814598065580526 0 0.96814598065580526 7.2237881227708769 0 0 0 0 -134.27132318392978 430.76765435030575 0 430.76765435030575 324.61197305674432 0 0 0 0 10.783942030415346 421.91693646126078 0 421.91693646126078 67.218731730914442 0 0 0 0 -14.70762137850987 14.744212231269444 0 14.744212231269444 10.403181648768836 0 0 0 0 -25.835141463544744 29.866951105808642 0 29.866951105808642 8.745763354471574 0 0 0 0 -65.895467044796533 74.033244958759042 0 74.033244958759042 -32.987601199820347 0 0 0 0 4.8923083942694348 2.0033112668731974 0 2.0033112668731974 -26.947694601040041 0 0 0 0 259.70943526796327 104.05366802122353 0 104.05366802122353 -74.565222643610468 0 0 0 0 277.83822906726709 214.49620192695602 0 214.49620192695602 132.09905934417839 0 0 0 0 149.39822019886924 153.95604924584222 0 153.95604924584222 462.05587227751312 0 0 0 0 702.44214814272709 -36.503697032503624 0 -36.503697032503624 437.58928056904483 0 0 0 0 -90.417598841195286 1440.6580408645004 0 1440.6580408645004 -1345.9968805325516 0 0 0 0 849.82439441003953 266.18844720600464 0 266.18844720600464 13.990373305607022 0 0 0 0 635.62988095683977 529.26420114893699 0 529.26420114893699 -3.8398340534877207 0 0 0 0 665.71118129891693 427.48910056285968 0 427.48910056285968 324.51759841534488 0 0 0 0 4.2847613226404064 297.6844322059942 0 297.6844322059942 -644.82853742346379 0 0 0 0 246.97077376824745 317.95048661228611 0 317.95048661228611 -278.43552353163068 0 0 0 0 46.143318531545447 149.68488836730648 0 149.68488836730648 -122.87645350268576 0 0 0 0 -539.47355453181081 176.46637912230563 0 176.46637912230563 -179.70242503803274 0 0 0 0 -618.14770336032961 374.57575745004215 0 374.57575745004215 -384.00033030367194 0 0 0 0 -1031.6244770634221 792.35318159006965 0 792.35318159006965 -500.41683169303542 0 0 0 0 -135.54389189249196 509.96262561916683 0 509.96262561916683 -1135.0090989095406 0 0 0 0 204.9297503689013 -246.53759132491814 0 -246.53759132491814 -776.0717312084148 0 0 0 0 -46.078386769195276 -18.767688762139642 0 -18.767688762139642 -311.07612525473451 0 0 0 0 92.847260040944093 2.0925946082143128 0 2.0925946082143128 -332.03154958419964 0 0 0 0 102.15313536331632 -51.237231975091959 0 -51.237231975091959 -137.86745211424568 0 0 0 0 -171.87669471876143 -208.89297967579114 0 -208.89297967579114 246.93533673997808 0 0 0 0 290.47106488929421 360.56546841623549 0 360.56546841623549 231.19482935322898 0 0 0 0 376.51943241260597 217.80937899653327 0 217.80937899653327 -101.21013547260304 0 0 0 0 848.25164018697978 238.60720222775672 0 238.60720222775672 -101.21080310706202 0 0 0 0 572.96950279005614 71.108546200821365 0 71.108546200821365 -95.060966085949985 0 0 0 0 6.1106178957488737 80.276372233696065 0 80.276372233696065 19.54350550980962 0 0 0 0 226.53140686738698 298.39310683765916 0 298.39310683765916 -150.08310253847867 0 0 0 0 142.60124162875582 237.36407688971531 0 237.36407688971531 -977.38291897572435 0 0 0 0 1610.0442583460972 20.49830951214517 0 20.49830951214517 -1638.7881328172057 0 0 0 0 -2040.195979007498 1477.6209114483361 0 1477.6209114483361 220.57594201338179 0 0 0 0 -1.705193114564139 -1.3170449332316565 0 -1.3170449332316565 -4.5482420479919341 0 0 0 0 -1598.5191602078557 2383.8816907632668 0 2383.8816907632668 -49.490510580541013 0 0 0 0 1686.5303684694372 -475.38941258091199 0 -475.38941258091199 -894.74956721061608 0 0 0 0 641.91018147674913 -196.96899334220961 0 -196.96899334220961 85.800484884041907 0 0 0 0 7.4979638314902672 5.5769781103160909 0 5.5769781103160909 2.7606592687523754 0 0 0 0 314.52797469808138 -54.070629619287956 0 -54.070629619287956 -26.78390610844508 0 0 0 0 -26.50008896291547 197.26068980179934 0 197.26068980179934 -123.05685389157406 0 0 0 0 -0.4487002960804034 -2.6835479351410783 0 -2.6835479351410783 -1.0798602977466061 0 0 0 0 441.47598087525694 -119.4113716524962 0 -119.4113716524962 -86.522892492625488 0 0 0 0 145.63679976299682 -106.27895884323584 0 -106.27895884323584 -159.2667085791054 0 0 0 0 -112.60663470592408 127.94412331355943 0 127.94412331355943 -17.927392811897789 0 0 0 0 724.93366569804493 -1538.207596564278 0 -1538.207596564278 -3590.3546936183175 0 0 0 0 14.807401634406517 29.864162792672744 0 29.864162792672744 -1.6877662280217276 0 0 0 0 51.476304093448562 73.429016957753447 0 73.429016957753447 -42.197790304600858 0 0 0 0 -61.153090164618334 54.198986332391087 0 54.198986332391087 3.4431810854748619 0 0 0 0 -13.04126085522897 55.213714665449189 0 55.213714665449189 -27.385613671720151 0 0 0 0 -65.959326266474818 71.225603159520688 0 71.225603159520688 -11.997324524227224 0 0 0 0 294.64681632263819 43.805764415039221 0 43.805764415039221 -47.127350189319714 0 0 0 0 221.13491619117849 62.654191443208106 0 62.654191443208106 -49.241825941052497 0 0 0 0 66.796139919532791 -37.836714754822324 0 -37.836714754822324 -59.67514160319076 0 0 0 0 8.5021149527970721 6.374354632761424 0 6.374354632761424 -7.5103794004800051 0 0 0 0 254.73580833394954 26.602811523865057 0 26.602811523865057 -47.95332924759532 0 0 0 0 370.69534273553836 -31.254150319009511 0 -31.254150319009511 -19.086762312243081 0 0 0 0 355.59682873439306 86.026206192959023 0 86.026206192959023 -89.625230704610658 0 0 0 0 304.99462211663194 176.38176427516305 0 176.38176427516305 -38.629297377396142 0 0 0 0 246.11502701372228 74.35665373894517 0 74.35665373894517 -49.345842930199979 0 0 0 0 258.77757220982312 183.41946360882275 0 183.41946360882275 -35.181906880585302 0 0 0 0 94.156614595121937 186.54196163949246 0 186.54196163949246 158.90577337385275 0 0 0 0 112.10544429311267 140.52868175778542 0 140.52868175778542 -9.0266330284266587 0 0 0 0 178.22158500924888 30.252728365002724 0 30.252728365002724 -54.285579541439347 0 0 0 0 140.69097288679768 127.34070484348899 0 127.34070484348899 -3.0672851699165449 0 0 0 0 46.818795402163232 62.313239839318157 0 62.313239839318157 -46.330708032944187 0 0 0 0 133.70644852233818 -274.32479194052576 0 -274.32479194052576 93.66837026326175 0 0 0 0 148.85867391794454 82.211740072632992 0 82.211740072632992 -190.90607795958999 0 0 0 0 38.56515010328701 76.277393378658232 0 76.277393378658232 22.106028607251563 0 0 0 0 9.9496556918820716 -53.376074934099961 0 -53.376074934099961 293.96330187828426 0 0 0 0 140.10516107421427 99.872859894930798 0 99.872859894930798 -62.225928258389558 0 0 0 0 40.65645848706145 -5.2535434108004324 0 -5.2535434108004324 -98.765877368439973 0 0 0 0 516.93419152344541 -50.533502787538964 0 -50.533502787538964 -126.14283187148249 0 0 0 0 385.15668706217548 -155.94487165573082 0 -155.94487165573082 -39.272103096798674 0 0 0 0 275.94473765447765 -120.7304674736406 0 -120.7304674736406 -32.910878995586245 0 0 0 0 327.73054483973101 47.897163049517985 0 47.897163049517985 -144.55834527895422 0 0 0 0 -221.71232779901038 121.68024249886184 0 121.68024249886184 76.469211229648863 0 0 0 0 34.859885196115471 130.59321795284148 0 130.59321795284148 69.87059028666917 0 0 0 0 23.284656562889722 1138.3932109442903 0 1138.3932109442903 426.0391927671335 0 0 0 0 36.024958924657874 126.80744189568389 0 126.80744189568389 18.417584991403494 0 0 0 0 -126.28634101411444 127.60449549568966 0 127.60449549568966 38.314118591306396 0 0 0 0 416.38474022876289 140.86721781335791 0 140.86721781335791 -99.362990336216171 0 0 0 0 14.852264551558619 196.22534399993333 0 196.22534399993333 78.610327921884164 0 0 0 0 73.537628665741067 212.3423086916755 0 212.3423086916755 -55.410362273847113 0 0 0 0 64.651869964781511 99.316707495134125 0 99.316707495134125 52.991202382720047 0 0 0 0 45.942730932249106 141.27663883309515 0 141.27663883309515 35.07275637687826 0 0 0 0 -259.07020888720581 64.370112260308815 0 64.370112260308815 414.27554680511821 0 0 0 0 439.34972008315526 236.46898506565049 0 236.46898506565049 -214.18812717337642 0 0 0 0 15.653058566879679 10.913104668601228 0 10.913104668601228 -29.198903837613543 0 0 0 0 -56.162256255294778 518.44937195305829 0 518.44937195305829 -733.36892212743987 0 0 0 0 -186.01842297930853 353.67608056329482 0 353.67608056329482 -385.80620171481132 0 0 0 0 328.99240006755804 796.08927681043815 0 796.08927681043815 -57.43164200965839 0 0 0 0 -930.53435672904379 1259.3911473002818 0 1259.3911473002818 1434.1274495710459 0 0 0 0 380.60825747348554 -142.26050664312493 0 -142.26050664312493 -65.798349535369198 0 0 0 0 -83.972726574387252 128.53772429992705 0 128.53772429992705 44.255380351904023 0 0 0 0 325.46131432539551 -1564.2379010053119 0 -1564.2379010053119 3077.2981305724243 0 0 0 0 -7.1723702455783496 466.56629390563467 0 466.56629390563467 326.69953352898301 0 0 0 0 -118.29477359345765 189.24746347908876 0 189.24746347908876 -195.35621977214032 0 0 0 0 9.6188048006460747 9.518595501706784 0 9.518595501706784 7.958880368676418 0 0 0 0 39.427638664943515 -65.266099263732031 0 -65.266099263732031 986.49431095960608 0 0 0 0 -2.8556892816236115 4.7349761933778325 0 4.7349761933778325 5.9422611179295401 0 0 0 0 62.673011787087006 96.842604196059852 0 96.842604196059852 41.973192110679776 0 0 0 0 4.2048346045630751 -264.8550156972633 0 -264.8550156972633 481.96583164247932 0 0 0 0 44.753090657894063 94.59532520259566 0 94.59532520259566 44.067839516016825 0 0 0 0 9.888388816907792 4.3105839727617195 0 4.3105839727617195 5.8815036579958075 0 0 0 0 103.26317327561264 122.21813554395317 0 122.21813554395317 -205.23711051066391 0 0 0 0 76.201859639741087 279.2205232909705 0 279.2205232909705 354.70384634671791 0 0 0 0 55.989513679221545 167.43048559761445 0 167.43048559761445 -23.113060653585308 0 0 0 0 52.035789478883089 220.72231922914966 0 220.72231922914966 -107.01666330832541 0 0 0 0 80.711282467913406 109.34932017976325 0 109.34932017976325 -12.509358108882907 0 0 0 0 73.513546913241044 226.94067912716685 0 226.94067912716685 130.60791708974739 0 0 0 0 87.79412242462422 95.963464614481381 0 95.963464614481381 9.6699247239282613 0 0 0 0 8.8110654577394598 275.04700710192901 0 275.04700710192901 637.75384879579269 0 0 0 0 69.970584628463257 315.97383140846796 0 315.97383140846796 76.329649830331618 0 0 0 0 92.153830414019467 137.66833625636082 0 137.66833625636082 188.59322289868715 0 0 0 0 41.380660790502588 192.7741309041503 0 192.7741309041503 335.80223104127526 0 0 0 0 78.364219133145525 150.14895682914539 0 150.14895682914539 151.86220973048148 0 0 0 0 -3.13384080738129 9.6296975303838117 0 9.6296975303838117 0.63528586087569217 0 0 0 0 35.636918003641767 134.04948976704782 0 134.04948976704782 147.7788542694916 0 0 0 0 49.651165105999098 199.25495394459176 0 199.25495394459176 86.972600176455671 0 0 0 0 73.760246176272631 139.84370034065432 0 139.84370034065432 145.3414677645751 0 0 0 0 58.711924034896583 197.37038433805697 0 197.37038433805697 221.43171139476544 0 0 0 0 41.244947587765637 103.73665462169811 0 103.73665462169811 28.974040983275245 0 0 0 0 49.692708672208525 38.76018202489567 0 38.76018202489567 -12.980957053039058 0 0 0 0 -27.289758190724342 17.117911787481624 0 17.117911787481624 0.37037216739154388 0 0 0 0 -85.729208545283868 84.404226582298151 0 84.404226582298151 -11.042360996716091 0 0 0 0 252.70632753810787 278.5389759120585 0 278.5389759120585 -225.26462663485609 0 0 0 0 -171.12758532339581 58.163963356509498 0 58.163963356509498 -75.533945246683288 0 0 0 0 4.7874610180442687 170.75133827152331 0 170.75133827152331 -16.336177861944634 0 0 0 0 211.74978896768152 35.292244060455914 0 35.292244060455914 -687.69966079068581 0 0 0 0 115.47366491444336 -13.749278347656855 0 -13.749278347656855 -314.17978974697689 0 0 0 0 -88.85984209154249 83.759014205564995 0 83.759014205564995 -10.79905286901451 0 0 0 0 458.17774080723029 469.36613908207983 0 469.36613908207983 -109.7994565313727 0 0 0 0 -84.710606492897568 244.7900006511336 0 244.7900006511336 -53.79999753251559 0 0 0 0 -0.15524139291849792 4.280332640285657 0 4.280332640285657 -2.0491969066296063 0 0 0 0 168.56616590458725 48.029616196214192 0 48.029616196214192 -1063.3135151325046 0 0 0 0 -44.129422944148246 217.48553933250423 0 217.48553933250423 -313.20035395747072 0 0 0 0 97.679898406473512 226.08490941339096 0 226.08490941339096 -407.47917742682239 0 0 0 0 -71.927025139972102 -60.765044972366923 0 -60.765044972366923 -383.9911806096552 0 0 0 0 200.31923035891668 93.119318499797373 0 93.119318499797373 -91.98218321722743 0 0 0 0 -7.1396250145917293 267.40820563503439 0 267.40820563503439 -221.66062771270435 0 0 0 0 7.7468240706803044 -39.3859321263526 0 -39.3859321263526 -118.91486797336802 0 0 0 0 242.07153925026796 32.59085811040768 0 32.59085811040768 -280.10186368098584 0 0 0 0 140.65395160721255 257.73627838014261 0 257.73627838014261 64.1280152096042 0 0 0 0 611.58028576759534 354.89818808665768 0 354.89818808665768 -53.374566115955531 0 0 0 0 -89.677606051390086 83.924522185416407 0 83.924522185416407 -6.2230342617691008 0 0 0 0 166.83810372732114 264.37309805347923 0 264.37309805347923 135.08871883635402 0 0 0 0 -142.85908355872107 150.28916344323261 0 150.28916344323261 -28.791135447501802 0 0 0 0 -45.1595089803061 217.13924848422903 0 217.13924848422903 79.134268704479837 0 0 0 0 -59.725908054401771 207.13165628661318 0 207.13165628661318 76.701956619670455 0 0 0 0 -33.722593375622864 215.38341668599969 0 215.38341668599969 -17.616821055017226 0 0 0 0 -52.129379658761536 205.49192643170591 0 205.49192643170591 76.424470177129479 0 0 0 0 -39.295982328911123 222.45698467035618 0 222.45698467035618 86.756537525634485 0 0 0 0 18.573911012558483 168.96142843351981 0 168.96142843351981 85.317526418726629 0 0 0 0 -113.74311711326231 186.18991422986255 0 186.18991422986255 95.567256558926601 0 0 0 0 437.81153573195115 581.78312333745953 0 581.78312333745953 75.255194377547014 0 0 0 0 -89.320515316763277 82.13766032510604 0 82.13766032510604 1.8720399427371532 0 0 0 0 65.14897931632504 190.04712775517692 0 190.04712775517692 92.160944198969446 0 0 0 0 112.28696834614539 259.83778031348766 0 259.83778031348766 67.275034144824531 0 0 0 0 181.47356704022786 244.68010339096236 0 244.68010339096236 100.32246143194061 0 0 0 0 -88.635674468975793 74.178314290390176 0 74.178314290390176 8.6809947273355448 0 0 0 0 160.84440366426952 185.02704186899427 0 185.02704186899427 20.134437989356229 0 0 0 0 85.121779648012762 153.67113679120484 0 153.67113679120484 86.481635913063656 0 0 0 0 113.40741698721058 163.38665845999367 0 163.38665845999367 67.723543152540515 0 0 0 0 130.78097924383837 163.95617824844703 0 163.95617824844703 105.9528771732621 0 0 0 0 94.172798022240386 164.81355358330802 0 164.81355358330802 123.44475418170259 0 0 0 0 73.457689716629375 235.19706522573415 0 235.19706522573415 -69.286054907854123 0 0 0 0 -45.004919614666051 132.48683403834457 0 132.48683403834457 -26.207442022539908 0 0 0 0 17.490516984509782 272.57166573652739 0 272.57166573652739 14.453738838394202 0 0 0 0 -181.49614464759748 101.71882864824238 0 101.71882864824238 220.28422977294031 0 0 0 0 85.969720606909505 160.23889959759072 0 160.23889959759072 3.6166538697974602 0 0 0 0 3.435962043889452 17.806165232379538 0 17.806165232379538 18.079267463740962 0 0 0 0 -14.485340786271536 52.344857659298214 0 52.344857659298214 -275.40535933544379 0 0 0 0 -1262.0239251794701 377.1187829033006 0 377.1187829033006 709.69031166849891 0 0 0 0 -29.769157310902592 34.501790577807142 0 34.501790577807142 -10.559961416371813 0 0 0 0 -1484.6762761080045 -622.12337889129049 0 -622.12337889129049 18.524697263495909 0 0 0 0 -2.9189512250958636 4.3277393146120886 0 4.3277393146120886 -8.0330479213606054 0 0 0 0 688.90953774008995 360.29013495892741 0 360.29013495892741 683.99416160225519 0 0 0 0 -623.68059922733391 689.57621147755344 0 689.57621147755344 722.47540870495141 0 0 0 0 -15.97663332558362 36.93137428684193 0 36.93137428684193 -16.308751108435679 0 0 0 0 800.08119580722905 651.84044255310255 0 651.84044255310255 -580.36406523006735 0 0 0 0 -9.257867677080867 22.777640824624541 0 22.777640824624541 -199.13339182634809 0 0 0 0 11.165143177304451 112.24716183732195 0 112.24716183732195 -57.706444684736908 0 0 0 0 -28.024262456168799 81.339292634113008 0 81.339292634113008 -113.03070948857203 0 0 0 0 25.5124690127438 81.240142256018331 0 81.240142256018331 -38.924104257990258 0 0 0 0 81.999783380999361 103.38153133076412 0 103.38153133076412 29.959900640889828 0 0 0 0 -22.748440287308767 95.078895521459344 0 95.078895521459344 132.57677922269158 0 0 0 0 -0.49625835337115376 57.146829153066776 0 57.146829153066776 -12.428863423620172 0 0 0 0 -11.342140325756191 109.17628853831775 0 109.17628853831775 113.74118061555419 0 0 0 0 30.025916821834635 83.14184649592778 0 83.14184649592778 -34.240344501504495 0 0 0 0 22.335146333098237 235.58901702522417 0 235.58901702522417 186.49832450676331 0 0 0 0 100.25172272847522 167.33548232628527 0 167.33548232628527 146.51583912144997 0 0 0 0 -8.0785794830450612 62.671055367235532 0 62.671055367235532 -35.64105398455483 0 0 0 0 59.563809723902523 114.8717595441567 0 114.8717595441567 5.7686243374291735 0 0 0 0 22.11839980421064 46.548679867039027 0 46.548679867039027 27.778037925452736 0 0 0 0 -61.654822368558598 48.837576871681449 0 48.837576871681449 102.9948607548431 0 0 0 0 -1.5209618889581122 10.786607320042577 0 10.786607320042577 1.8823793391186712 0 0 0 0 486.61904422173848 415.98704428195924 0 415.98704428195924 630.4390453972519 0 0 0 0 724.83809332358305 585.03071560839817 0 585.03071560839817 408.81393724915324 0 0 0 0 363.83930703074748 137.60683189820338 0 137.60683189820338 308.90087206845055 0 0 0 0 -566.50287741578632 -528.36877924651344 0 -528.36877924651344 9.9272823189676274 0 0 0 0 -0.7827431184168967 4.3931150949875573 0 4.3931150949875573 -9.2246661713331264 0 0 0 0 763.4776047835303 350.8973734609549 0 350.8973734609549 121.38151468553406 0 0 0 0 94.561888577645732 -107.40488291456495 0 -107.40488291456495 -427.5542772354238 0 0 0 0 380.63779774063732 336.80835647324966 0 336.80835647324966 399.02292254476197 0 0 0 0 -293.78502239697991 1.3482029976548802 0 1.3482029976548802 37.148539126239484 0 0 0 0 6.1170886351816094 -1.4663501766530764 0 -1.4663501766530764 -8.3139131423301365 0 0 0 0 -14.484461629718494 16.726706970773385 0 16.726706970773385 -16.964910676625763 0 0 0 0 -316.95766546753663 -253.74841993297741 0 -253.74841993297741 45.79015428733328 0 0 0 0 491.00226701266365 734.25601799532342 0 734.25601799532342 221.96762329650664 0 0 0 0 -250.87304652548869 214.22604083757324 0 214.22604083757324 -124.42991682094726 0 0 0 0 232.96761169379351 -157.67291549977381 0 -157.67291549977381 121.19245079123539 0 0 0 0 429.08476288947861 532.36852207006768 0 532.36852207006768 -35.526925125843263 0 0 0 0 -702.83522466997601 -285.01911172469408 0 -285.01911172469408 117.33498223343122 0 0 0 0 -14.115679504470352 16.659239683234404 0 16.659239683234404 -15.987890024938622 0 0 0 0 108.69418701712129 172.68765369112953 0 172.68765369112953 32.654955029945995 0 0 0 0 -323.36234210485054 -323.24056225569802 0 -323.24056225569802 61.270077360168216 0 0 0 0 -465.78286924862914 -23.163072179686424 0 -23.163072179686424 67.261808843381004 0 0 0 0 -415.94114549813639 40.494224591282546 0 40.494224591282546 -246.15111286837782 0 0 0 0 -447.15070571381148 -317.7142038425045 0 -317.7142038425045 -519.60846033481357 0 0 0 0 -257.72403790708813 360.17759689698141 0 360.17759689698141 473.90225734133855 0 0 0 0 -740.02673634422445 -93.653938368064701 0 -93.653938368064701 519.28657162522723 0 0 0 0 2.0417056958249304 81.951143793172378 0 81.951143793172378 24.772372933512088 0 0 0 0 34.114084007404017 137.55219440775363 0 137.55219440775363 116.92793849179725 0 0 0 0 -12.977564569042443 98.48775402254887 0 98.48775402254887 41.881892429129948 0 0 0 0 -62.161334764955541 35.232384612412247 0 35.232384612412247 -12.425409967114199 0 0 0 0 -150.2202319898206 274.18472976626435 0 274.18472976626435 335.71568471411547 0 0 0 0 -14.000973560712737 58.423720482464887 0 58.423720482464887 14.317239815914945 0 0 0 0 -79.900988801753556 90.64164564278326 0 90.64164564278326 41.488729742907708 0 0 0 0 27.016481180448864 32.287197733416633 0 32.287197733416633 -267.23955312387261 0 0 0 0 -46.38255044963784 41.078831143420963 0 41.078831143420963 -8.0985852332497927 0 0 0 0 8.9588770026457496 87.956868210869288 0 87.956868210869288 19.343232306717255 0 0 0 0 115.76090285995815 76.987996122395998 0 76.987996122395998 7.7060476614606159 0 0 0 0 25.191557160766024 53.37497725725143 0 53.37497725725143 32.201433584559709 0 0 0 0 205.17933013345828 42.02744237413026 0 42.02744237413026 185.15252966375556 0 0 0 0 104.21475673937675 202.42097676480262 0 202.42097676480262 3.987948333076929 0 0 0 0 -105.2958548227416 191.20792151493515 0 191.20792151493515 17.026088008962688 0 0 0 0 58.698819324075885 127.82643290279884 0 127.82643290279884 14.81206491964258 0 0 0 0 -36.305488091672331 59.152823648973879 0 59.152823648973879 -10.799793731345602 0 0 0 0 42.499188670655712 104.51455307034485 0 104.51455307034485 -0.86559745675731392 0 0 0 0 69.827640221861657 163.33311540322029 0 163.33311540322029 94.570233130260021 0 0 0 0 111.83770807638575 215.79283498489713 0 215.79283498489713 336.09831689868588 0 0 0 0 -45.037354028473771 43.059595445202049 0 43.059595445202049 6.9743044231514162 0 0 0 0 -103.93126124393575 29.755385583475913 0 29.755385583475913 99.561414203846283 0 0 0 0 -1.6796401570172748 119.45462987450628 0 119.45462987450628 121.03619277137477 0 0 0 0 -3.8014984879355893 69.237015203233312 0 69.237015203233312 -14.801101520252946 0 0 0 0 -63.266029614416766 152.46553871077049 0 152.46553871077049 66.957244525310671 0 0 0 0 22.054114055485115 131.18053919726844 0 131.18053919726844 95.455604337597833 0 0 0 0 12.874935571569949 155.18192196382006 0 155.18192196382006 135.74192530304117 0 0 0 0 25.169905046575877 155.43377145303748 0 155.43377145303748 109.27136534030979 0 0 0 0 185.85338915261491 270.87249008269828 0 270.87249008269828 166.45983012615125 0 0 0 0 -68.394971759105715 88.234158240913715 0 88.234158240913715 33.841637044050074 0 0 0 0 195.30894914218152 257.25730497655968 0 257.25730497655968 57.928725184083305 0 0 0 0 107.10508982120817 112.42337372691284 0 112.42337372691284 -21.592198474020137 0 0 0 0 59.782016493816627 202.75307200760926 0 202.75307200760926 224.94209308948666 0 0 0 0 -11.439927594518437 81.167288376883391 0 81.167288376883391 32.365761967015118 0 0 0 0 7.2764500418908185 19.227101129628849 0 19.227101129628849 42.026687779866606 0 0 0 0 38.718445717156328 112.16422307379662 0 112.16422307379662 -23.526460660504434 0 0 0 0 84.961194251984125 234.67856497410867 0 234.67856497410867 84.940613246616522 0 0 0 0 -76.75376784380515 73.606453258599458 0 73.606453258599458 173.96556740164553 0 0 0 0 50.223571648020879 253.25836704274707 0 253.25836704274707 368.90548853990731 0 0 0 0 48.19870921166148 382.93910254392904 0 382.93910254392904 333.19654024982447 0 0 0 0 -36.284298334721825 171.61950434359096 0 171.61950434359096 197.71004280121269 0 0 0 0 45.341985445908676 92.453012506276451 0 92.453012506276451 -43.434842065365217 0 0 0 0 60.012544593628263 35.812924780042522 0 35.812924780042522 382.81700695701511 0 0 0 0 -16.336758922756417 843.23062850831047 0 843.23062850831047 -589.69279455168726 0 0 0 0 177.93945657263612 382.27323811964197 0 382.27323811964197 382.48084380412183 0 0 0 0 111.88903082133038 251.33751145593851 0 251.33751145593851 271.45834625819225 0 0 0 0 70.786818361839323 216.73479719314514 0 216.73479719314514 135.96936616747553 0 0 0 0 300.09873634376709 277.01923223754693 0 277.01923223754693 198.78186878753149 0 0 0 0 61.159551634118543 191.11546756197777 0 191.11546756197777 190.54279565013348 0 0 0 0 0.5079195629769373 -0.60123211857148817 0 -0.60123211857148817 1.1830192385754188 0 0 0 0 55.653213090376084 181.5320005219437 0 181.5320005219437 175.66202232053001 0 0 0 0 117.94471289015928 168.14155395884882 0 168.14155395884882 167.20928772971092 0 0 0 0 21.451551313235541 105.03218364945678 0 105.03218364945678 127.23486294501708 0 0 0 0 -32.101330609548313 286.18699885646674 0 286.18699885646674 603.26016504653853 0 0 0 0 190.7204510571537 414.58545277271242 0 414.58545277271242 307.37941831417265 0 0 0 0 275.89698573455098 227.46660216461169 0 227.46660216461169 13.894465879901873 0 0 0 0 64.767546507246152 220.1617460984603 0 220.1617460984603 473.25568432785076 0 0 0 0 191.3028267720656 380.2666336345319 0 380.2666336345319 116.38167308691482 0 0 0 0 66.567527024817537 578.9935532651798 0 578.9935532651798 334.71388532002948 0 0 0 0 -3.0393827407409617 1.9528647294086028 0 1.9528647294086028 6.1263588684985706 0 0 0 0 96.203965957640321 465.8655708223796 0 465.8655708223796 -46.14942521690682 0 0 0 0 -50.392639264886384 31.037393978457658 0 31.037393978457658 278.64240404138491 0 0 0 0 -11.008240450100857 -47.709735946584715 0 -47.709735946584715 -49.533941693109227 0 0 0 0 -63.757612976420205 98.213202312056637 0 98.213202312056637 -131.30349313812985 0 0 0 0 -9.6318150495479529 17.491695391943594 0 17.491695391943594 1.7468844259974574 0 0 0 0 -95.402819248207379 136.19150730677939 0 136.19150730677939 -298.8659760656883 0 0 0 0 60.2599640127155 303.86553550963617 0 303.86553550963617 -278.42862138495548 0 0 0 0 92.059491799048374 533.00408670502839 0 533.00408670502839 -75.973914950624021 0 0 0 0 -87.602898955744877 367.81459095176302 0 367.81459095176302 -65.240146319138148 0 0 0 0 14.799512388832227 38.027622310948573 0 38.027622310948573 13.998048962077519 0 0 0 0 -14.328901288783527 114.40278299923466 0 114.40278299923466 320.86242418635447 0 0 0 0 9.8478605993732344 29.918377417325246 0 29.918377417325246 -80.959763663141985 0 0 0 0 11.968399955658242 31.132623090581546 0 31.132623090581546 -80.323836624174874 0 0 0 0 -27.792767386301421 -44.272589616264668 0 -44.272589616264668 92.234014829911757 0 0 0 0 -42.372047716569796 2.1441272134838982 0 2.1441272134838982 64.831587258118816 0 0 0 0 -82.861787061847281 17.047459656610954 0 17.047459656610954 46.741061785499369 0 0 0 0 -5.9645960555227049 5.4059184382193308 0 5.4059184382193308 4.6780196717101532 0 0 0 0 -97.707220985241293 26.473109078653579 0 26.473109078653579 41.096136650896369 0 0 0 0 -60.82308872575959 28.267241446878415 0 28.267241446878415 23.539406198278812 0 0 0 0 -74.406110619791434 38.181686235124744 0 38.181686235124744 17.139279762252045 0 0 0 0 -213.63152541203453 -12.145118723246014 0 -12.145118723246014 24.985001467636948 0 0 0 0 -22.725760316665401 47.112564012337316 0 47.112564012337316 9.8005899155897396 0 0 0 0 -44.236539856297895 34.093944078258573 0 34.093944078258573 9.1460326832861938 0 0 0 0 -55.919377567957753 28.60703042304668 0 28.60703042304668 -6.917953697729267 0 0 0 0 -77.979642045098444 66.988848459094243 0 66.988848459094243 68.111993882594106 0 0 0 0 75.446030382503523 -32.824614842113078 0 -32.824614842113078 -42.822796916276275 0 0 0 0 -31.610663826962991 211.27362331920631 0 211.27362331920631 240.30289838900535 0 0 0 0 -44.798747847052482 21.351476776712474 0 21.351476776712474 -10.285637018666186 0 0 0 0 -29.064209548188956 276.0142998310348 0 276.0142998310348 44.495303228431339 0 0 0 0 -18.070389232467278 29.408877682634738 0 29.408877682634738 29.563185959065777 0 0 0 0 -12.787351211234636 70.519606737250797 0 70.519606737250797 15.101324685540021 0 0 0 0 -26.231547021030565 73.482918982186675 0 73.482918982186675 64.095174787096767 0 0 0 0 -43.466306214017095 64.82838849125983 0 64.82838849125983 28.025685003751278 0 0 0 0 -7.7543309245775163 35.52353163804014 0 35.52353163804014 6.0935389363730792 0 0 0 0 -6.4871978036080691 39.983236912343955 0 39.983236912343955 -0.47851034993800567 0 0 0 0 -6.2957130666109151 13.551172984390178 0 13.551172984390178 -17.032312472789272 0 0 0 0 -2.066887417815451 22.742577015134884 0 22.742577015134884 -0.59420067215023664 0 0 0 0 20.267964066348213 38.701781934896644 0 38.701781934896644 -32.235846851068345 0 0 0 0 -1.713725609210087 16.990266634108593 0 16.990266634108593 22.480013407424849 0 0 0 0 -150.81133581489848 217.99859216392542 0 217.99859216392542 223.77653329300665 0 0 0 0 -87.945664177255821 25.679913033072808 0 25.679913033072808 63.318271188793005 0 0 0 0 485.58518318575807 449.90245076374867 0 449.90245076374867 268.27143162857465 0 0 0 0 0.49706803017267021 -0.56632493943038753 0 -0.56632493943038753 0.43087257663984246 0 0 0 0 -451.81506651119707 -71.91382471137149 0 -71.91382471137149 66.22087587956139 0 0 0 0 -105.39118398190476 64.848544189802396 0 64.848544189802396 -9.9517944477993296 0 0 0 0 -39.473351356558851 72.755482855376613 0 72.755482855376613 -25.77701130295236 0 0 0 0 -96.975855736036465 42.61711100814955 0 42.61711100814955 21.309233890948235 0 0 0 0 89.486035787253059 250.07384331819594 0 250.07384331819594 469.50007629606534 0 0 0 0 -7.2947488183877454 4.8585881830475159 0 4.8585881830475159 -1.3485405053025694 0 0 0 0 -94.121780417990522 221.73084223884689 0 221.73084223884689 554.50095459313525 0 0 0 0 37.901770595650305 199.18625255844927 0 199.18625255844927 331.1977614295929 0 0 0 0 48.022791741939727 141.2692939694025 0 141.2692939694025 411.25999883234363 0 0 0 0 92.733976989678922 184.44546461413302 0 184.44546461413302 318.97061400940265 0 0 0 0 44.234891799802426 221.53458620805895 0 221.53458620805895 395.44942922977134 0 0 0 0 170.47014859826595 89.027064230222095 0 89.027064230222095 201.08783100363689 0 0 0 0 -6.5681608137633134 4.2488986193957032 0 4.2488986193957032 -1.0633873462248857 0 0 0 0 5.0464322271727724 263.49892997493043 0 263.49892997493043 446.72303138667212 0 0 0 0 -2.6081010853905582 1.8492140496855143 0 1.8492140496855143 -0.26802236906768329 0 0 0 0 67.093393874645699 319.44601188442175 0 319.44601188442175 19.938184364546032 0 0 0 0 -22.701165037173269 223.62309605874543 0 223.62309605874543 475.26733131897345 0 0 0 0 -33.632151980958383 14.160635194355237 0 14.160635194355237 -5.1066105152823802 0 0 0 0 31.108425393220386 18.221294127859437 0 18.221294127859437 284.98598981890609 0 0 0 0 -16.272407871336782 51.857523826604933 0 51.857523826604933 45.976026333693881 0 0 0 0 -43.351086207680055 26.800778817283117 0 26.800778817283117 33.625861854641698 0 0 0 0 -6.4085448702244321 33.04513412507913 0 33.04513412507913 -24.031496282902935 0 0 0 0 -7.8651524451761361 48.746618828843452 0 48.746618828843452 7.0466687499647378 0 0 0 0 -21.401348873639563 9.1857061985138841 0 9.1857061985138841 -1.5637479632489146 0 0 0 0 -33.108718013143516 -30.719625457915754 0 -30.719625457915754 200.26956385155609 0 0 0 0 14.393219834435911 11.586871657532839 0 11.586871657532839 5.5884363571684901 0 0 0 0 54.545405986806145 367.70922204419367 0 367.70922204419367 -711.98315332801212 0 0 0 0 -66.072888771028374 64.339177290989028 0 64.339177290989028 -835.51459463232095 0 0 0 0 87.739061561922426 282.22733205322493 0 282.22733205322493 -527.98142205891054 0 0 0 0 -175.10790817021302 50.682521063080628 0 50.682521063080628 -444.95684545235781 0 0 0 0 2.0012300018501605 3.3242731248469823 0 3.3242731248469823 -0.94864561613534804 0 0 0 0 65.353018846431951 173.09279065549163 0 173.09279065549163 379.2495386980263 0 0 0 0 -231.19410445357789 151.67623749558697 0 151.67623749558697 -87.697493396864957 0 0 0 0 74.884669201121142 247.77536969564653 0 247.77536969564653 342.16244040168385 0 0 0 0 -2.4824694573666761 2.415083770852462 0 2.415083770852462 1.2961327483230889 0 0 0 0 -55.178080931411387 52.809092700307474 0 52.809092700307474 401.73933399342786 0 0 0 0 -176.64638624113485 288.34117827515058 0 288.34117827515058 -324.83032303489745 0 0 0 0 -103.96145659654576 -16.206074884505142 0 -16.206074884505142 141.54526801414249 0 0 0 0 -73.525298132924945 185.54038946838909 0 185.54038946838909 102.37777210109925 0 0 0 0 -62.430228488330613 310.21556232285457 0 310.21556232285457 732.89903341531863 0 0 0 0 28.896758055590908 227.57456342007663 0 227.57456342007663 322.95084880901322 0 0 0 0 -5.4856272593024187 325.82416598217878 0 325.82416598217878 638.48659545034207 0 0 0 0 -25.891527873784071 57.035822146806822 0 57.035822146806822 213.05181070069739 0 0 0 0 552.17712708606268 649.37176203501076 0 649.37176203501076 800.18529363027119 0 0 0 0 2.5636594135525002 5.9170235971386802 0 5.9170235971386802 9.6619804970019878 0 0 0 0 114.04115220489621 -135.77724202016543 0 -135.77724202016543 279.22497838098934 0 0 0 0 2.2847562613044659 5.6033120304625754 0 5.6033120304625754 8.0417921136800814 0 0 0 0 -114.6013099871052 233.48962524186391 0 233.48962524186391 1015.5920523573832 0 0 0 0 233.65147366467863 -8.8430201550327183 0 -8.8430201550327183 -649.5956751230101 0 0 0 0 20.618428176213001 -167.80845623917247 0 -167.80845623917247 129.84469412975886 0 0 0 0 -57.373877844365779 84.915711607422054 0 84.915711607422054 -48.453297804748217 0 0 0 0 -13.649332718282494 712.10963626885871 0 712.10963626885871 -167.08681916904425 0 0 0 0 12.878223086989635 11.387466734828187 0 11.387466734828187 8.1168334433095808 0 0 0 0 -100.72572997958196 -139.83327147021555 0 -139.83327147021555 360.0816527001607 0 0 0 0 -183.64864315306477 -146.82875263786627 0 -146.82875263786627 416.49520904778001 0 0 0 0 -155.4004762895056 -149.89013672511828 0 -149.89013672511828 378.75600734545333 0 0 0 0 -11.999169349946897 93.786343354693599 0 93.786343354693599 -39.195869470950129 0 0 0 0 -31.94666917149334 102.85121930637877 0 102.85121930637877 -29.035602894506319 0 0 0 0 -17.561143924787757 96.031260751968148 0 96.031260751968148 -28.72151857521385 0 0 0 0 -19.028821679938119 101.73026661641234 0 101.73026661641234 -17.183976132182579 0 0 0 0 6.7359092276601586 49.76115122826377 0 49.76115122826377 -4.8336813492705915 0 0 0 0 -110.3415759550553 117.37276625840968 0 117.37276625840968 524.09762779738048 0 0 0 0 -18.032239321716162 16.690359321885552 0 16.690359321885552 107.25127434072465 0 0 0 0 -9.7640172369696074 56.464109049967746 0 56.464109049967746 -11.881931814695262 0 0 0 0 -27.401795451696671 99.687367263035156 0 99.687367263035156 98.387692907622977 0 0 0 0 -4.6969838373493076 35.532823127531941 0 35.532823127531941 -14.493364124428821 0 0 0 0 57.003217529301764 28.574916509698596 0 28.574916509698596 59.729357988767333 0 0 0 0 31.816054652415914 5.6352565783636237 0 5.6352565783636237 5.3471581686587797 0 0 0 0 -23.320316041521139 40.363400305401555 0 40.363400305401555 16.314238422743628 0 0 0 0 -21.638520395637897 52.249044190803943 0 52.249044190803943 166.20211516119525 0 0 0 0 -65.165773789918603 54.206202413502979 0 54.206202413502979 395.23447731122724 0 0 0 0 -15.919421414028193 50.240722019135589 0 50.240722019135589 -19.208622163248421 0 0 0 0 -39.961427211797854 136.90846904510062 0 136.90846904510062 128.11443030853798 0 0 0 0 -16.278922747528327 39.263044045127849 0 39.263044045127849 -29.61465609904414 0 0 0 0 53.189154723775573 48.404165040365115 0 48.404165040365115 128.8839326901857 0 0 0 0 32.325253957955283 231.32861733297068 0 231.32861733297068 559.86979296439131 0 0 0 0 -7.018777185730869 287.26666596654832 0 287.26666596654832 543.07275483854028 0 0 0 0 1029.6543380606454 -1177.5412457650746 0 -1177.5412457650746 -148.58762395767917 0 0 0 0 -16.653253229145776 242.27422871635645 0 242.27422871635645 526.20188228272127 0 0 0 0 39.214897802040866 91.807065009296053 0 91.807065009296053 -39.060144053495435 0 0 0 0 -1134.7170909231063 1058.4874328340738 0 1058.4874328340738 1314.1350568397465 0 0 0 0 111.86173131649059 236.10101970647113 0 236.10101970647113 352.40768282735007 0 0 0 0 44.528818183855037 330.2217128961347 0 330.2217128961347 268.93642405963874 0 0 0 0 143.72367178082641 330.61933316595787 0 330.61933316595787 285.58951251219332 0 0 0 0 5.7158007769503456 153.70479891998002 0 153.70479891998002 192.64289877103147 0 0 0 0 93.214994175621541 165.04095427388165 0 165.04095427388165 126.53313281296323 0 0 0 0 192.5536971023248 183.38306780802304 0 183.38306780802304 68.875065741300205 0 0 0 0 51.028581070462678 40.212734714740691 0 40.212734714740691 -6.7719470779084077 0 0 0 0 73.186021608154988 195.18455508659463 0 195.18455508659463 103.6568534322796 0 0 0 0 35.963217523443745 6.2877332742609724 0 6.2877332742609724 -116.90190772511642 0 0 0 0 -121.17489347251103 0.90970929884133511 0 0.90970929884133511 0.95973916442017071 0 0 0 0 -241.34519214071042 360.27912952410406 0 360.27912952410406 879.74561252145213 0 0 0 0 -124.16197923576692 380.31249896842928 0 380.31249896842928 669.41650756981471 0 0 0 0 3.1314492487884991 6.1139375689027204 0 6.1139375689027204 5.9948274825496313 0 0 0 0 -272.14461400496293 314.85272496865218 0 314.85272496865218 814.44220498156938 0 0 0 0 184.64315867406549 239.18680613341712 0 239.18680613341712 -79.782085104063299 0 0 0 0 344.51186406976194 529.95741079403524 0 529.95741079403524 353.61126862274978 0 0 0 0 396.94472017942462 864.01193670318025 0 864.01193670318025 898.7443136028478 0 0 0 0 -101.60097185970517 -120.6774584889572 0 -120.6774584889572 1689.7244480502704 0 0 0 0 -162.12804223275452 59.625957139909588 0 59.625957139909588 2.3609487118010293 0 0 0 0 -214.35165260349459 361.35322625874051 0 361.35322625874051 230.94351900466427 0 0 0 0 6.925412102372718 94.961146214094313 0 94.961146214094313 -40.673805268460463 0 0 0 0 -69.019771530904109 45.003001854252943 0 45.003001854252943 -78.520846454304774 0 0 0 0 -41.097858811262995 98.332913928308699 0 98.332913928308699 -38.525804245287873 0 0 0 0 -69.56406513726688 122.1099578141293 0 122.1099578141293 41.562876617044822 0 0 0 0 64.410356598720682 204.69217582737565 0 204.69217582737565 -49.660806339139526 0 0 0 0 159.31814614994801 331.27901067073981 0 331.27901067073981 -1.3812834412710799 0 0 0 0 206.78705038345652 279.55149793909732 0 279.55149793909732 -20.572218670398797 0 0 0 0 213.23641184804364 243.99396178318875 0 243.99396178318875 42.209515311587893 0 0 0 0 247.28684281912865 336.28226336469015 0 336.28226336469015 3.1705374733410281 0 0 0 0 265.81460289111419 517.91772412473438 0 517.91772412473438 76.842948134210019 0 0 0 0 539.0757446650241 469.5674846230504 0 469.5674846230504 -11.590157627201734 0 0 0 0 860.74739577897708 362.27183325567603 0 362.27183325567603 -25.07074698816723 0 0 0 0 85.707374342047842 -470.62996867600123 0 -470.62996867600123 1487.8315822774248 0 0 0 0 942.61077988515899 187.71066616814915 0 187.71066616814915 -66.608896044759604 0 0 0 0 -164.64870079411776 276.96015221822745 0 276.96015221822745 352.45653454026797 0 0 0 0 -11.312919741156676 8.169908558326739 0 8.169908558326739 11.553689986414 0 0 0 0 19.384910065142321 74.10279412451564 0 74.10279412451564 -53.906635586030461 0 0 0 0 24.465408698632615 52.702795740333144 0 52.702795740333144 13.710844784147952 0 0 0 0 12.71264017265969 9.5260954792207322 0 9.5260954792207322 -0.37460606474635938 0 0 0 0 615.82761715573724 150.50369669687279 0 150.50369669687279 113.56757029971777 0 0 0 0 -164.45404974854318 167.91644322473803 0 167.91644322473803 76.183421349451237 0 0 0 0 265.56002515354976 176.16915749100917 0 176.16915749100917 -49.897900144394953 0 0 0 0 6.3631902964698384 114.88725462699585 0 114.88725462699585 -52.111070116792689 0 0 0 0 191.98832987825153 274.77815821620243 0 274.77815821620243 46.246760621440444 0 0 0 0 -55.132798041522619 178.04917991686398 0 178.04917991686398 51.785366647258343 0 0 0 0 -42.795251662180817 160.51835165594093 0 160.51835165594093 34.615548125068017 0 0 0 0 62.931512958632084 204.8024588989465 0 204.8024588989465 117.59902806059472 0 0 0 0 51.894639041944174 295.73204554911717 0 295.73204554911717 191.69498641016253 0 0 0 0 94.476133803837001 306.1854109976739 0 306.1854109976739 398.1810547787245 0 0 0 0 214.4036884039815 362.13372795276882 0 362.13372795276882 10.526441302765306 0 0 0 0 181.70576084656204 307.46750900487405 0 307.46750900487405 -55.340479169906757 0 0 0 0 202.50996220285015 286.20688455450363 0 286.20688455450363 -52.552330451464513 0 0 0 0 56.998057761695236 222.53229220429057 0 222.53229220429057 -72.151655479341571 0 0 0 0 205.04713744312539 312.80737621743674 0 312.80737621743674 -33.249520223631407 0 0 0 0 168.84662603163451 236.19599467456283 0 236.19599467456283 -238.5561089210496 0 0 0 0 202.16402412694879 328.92423921871523 0 328.92423921871523 -68.310695446163436 0 0 0 0 -2.4183123407419771 140.63092151745514 0 140.63092151745514 -82.022424055820011 0 0 0 0 54.08937913821137 75.30459379786771 0 75.30459379786771 -153.24358298198058 0 0 0 0 -1.8229415988607798 120.05723831113755 0 120.05723831113755 -143.3595440854042 0 0 0 0 -0.2720218356672035 1.5537940319400576 0 1.5537940319400576 0.46887541512133879 0 0 0 0 488.94597511280153 416.25432535291839 0 416.25432535291839 708.57587561894616 0 0 0 0 480.59229998939554 630.22441562181484 0 630.22441562181484 240.66074346484675 0 0 0 0 16.545883350969234 -43.241246958431475 0 -43.241246958431475 -459.1846156740794 0 0 0 0 707.08412338688504 708.23291808884824 0 708.23291808884824 698.96611847606255 0 0 0 0 2.0466100996967214 2.4544208188809336 0 2.4544208188809336 1.8726581474581394 0 0 0 0 471.02841432655259 789.96534456377572 0 789.96534456377572 776.18989547650563 0 0 0 0 332.81624528346583 449.10243504431128 0 449.10243504431128 667.04367084763362 0 0 0 0 362.03868903437979 358.84813126374502 0 358.84813126374502 813.74580015899846 0 0 0 0 567.8115045070881 357.63637484042556 0 357.63637484042556 703.50118179310812 0 0 0 0 816.65122332487954 921.49565485403582 0 921.49565485403582 1481.6514615868728 0 0 0 0 414.41608770983294 340.42633111668692 0 340.42633111668692 707.44499743731831 0 0 0 0 573.844947366204 410.17365974320273 0 410.17365974320273 444.04207894245337 0 0 0 0 427.33522561147402 342.54769406605192 0 342.54769406605192 432.4149549890717 0 0 0 0 248.36050588800572 243.24462641479477 0 243.24462641479477 358.75846823664688 0 0 0 0 143.91144627302856 116.06176867742033 0 116.06176867742033 258.30502387911838 0 0 0 0 218.13198207691312 282.15107048800201 0 282.15107048800201 339.57905856578145 0 0 0 0 286.04786824912298 203.29400254310895 0 203.29400254310895 430.75555242561927 0 0 0 0 156.04368859002716 273.82380094259861 0 273.82380094259861 382.98753468396171 0 0 0 0 376.14078929176321 431.56742413788015 0 431.56742413788015 475.39218164686463 0 0 0 0 290.32543203551904 210.28705912630903 0 210.28705912630903 215.65792138709367 0 0 0 0 279.00131918298939 585.98149836719267 0 585.98149836719267 571.41043023279781 0 0 0 0 -12.239685914244035 5.7964083769675341 0 5.7964083769675341 2.3698054964878565 0 0 0 0 436.62827499558807 620.18608424612967 0 620.18608424612967 524.16355949015997 0 0 0 0 -25.410381281944865 315.91782834908099 0 315.91782834908099 499.10585445406832 0 0 0 0 215.15392502350005 119.21514313662192 0 119.21514313662192 25.962465150354546 0 0 0 0 74.399833178933477 186.07341838799766 0 186.07341838799766 244.63713296512105 0 0 0 0 -91.167742559657199 106.48009013225965 0 106.48009013225965 78.023735138089251 0 0 0 0 77.056413275771092 43.196034011846422 0 43.196034011846422 93.672736221233208 0 0 0 0 -148.70924571485375 -39.837048239427531 0 -39.837048239427531 98.47662078844769 0 0 0 0 -98.865537096412623 73.764257724705615 0 73.764257724705615 50.511083543947706 0 0 0 0 -40.852510143027757 182.09426696274204 0 182.09426696274204 127.23869205624578 0 0 0 0 -78.388164472220524 154.04390865267305 0 154.04390865267305 30.67606459637318 0 0 0 0 -165.12083574714052 68.050050613522217 0 68.050050613522217 117.53653059192584 0 0 0 0 -70.402820527713629 96.44173974138721 0 96.44173974138721 246.79850440939481 0 0 0 0 11.799595292948652 191.32170777025021 0 191.32170777025021 222.19943712684471 0 0 0 0 -114.12432008754695 177.11271321399909 0 177.11271321399909 -122.15799870682895 0 0 0 0 0.96298443993097749 5.6411242959694761 0 5.6411242959694761 -2.3690587182442187 0 0 0 0 -493.36431120734778 132.01541397321853 0 132.01541397321853 108.79308245801803 0 0 0 0 -0.51430810667426385 2.5360180982861209 0 2.5360180982861209 -0.19787234979977697 0 0 0 0 52.725322270114702 74.913545873024304 0 74.913545873024304 46.277817668749776 0 0 0 0 2.7646853664700757 214.12443139764946 0 214.12443139764946 -341.53343170354492 0 0 0 0 -10.622343262230189 19.055667450425801 0 19.055667450425801 -1.2141459466728008 0 0 0 0 14.579217504084227 31.879806162698515 0 31.879806162698515 3.4110099066947441 0 0 0 0 42.877235212159576 46.687670083987541 0 46.687670083987541 -41.916466891190794 0 0 0 0 4.3500420916825533 -21.484802098173532 0 -21.484802098173532 -67.778565609809448 0 0 0 0 25.738607664534356 7.8389108780429524 0 7.8389108780429524 -30.54088767229041 0 0 0 0 30.274492056242252 7.8285630504185661 0 7.8285630504185661 -1.1933185737003775 0 0 0 0 22.670512781842262 47.318742571424082 0 47.318742571424082 -39.360273773712834 0 0 0 0 -9.8074030147108715 83.00251147313611 0 83.00251147313611 -58.357422445962584 0 0 0 0 3.3396096859069075 23.391285055382468 0 23.391285055382468 -68.774425923655144 0 0 0 0 -10.582966374451644 83.360246310250659 0 83.360246310250659 -54.910713467794267 0 0 0 0 23.328127107036437 4.0888999219774433 0 4.0888999219774433 0.44832455377967051 0 0 0 0 50.249357469627284 38.808300644759584 0 38.808300644759584 -8.7470527265932105 0 0 0 0 30.675129960683989 61.450929998467473 0 61.450929998467473 -160.39709686394053 0 0 0 0 441.8507370061925 416.13752360414583 0 416.13752360414583 130.74450809721748 0 0 0 0 -9.9828940475678678 5.2349289540917567 0 5.2349289540917567 -0.50656293560071219 0 0 0 0 419.3138438910828 484.26013232959303 0 484.26013232959303 368.37233915767865 0 0 0 0 29.700078717323777 -0.46839077759796055 0 -0.46839077759796055 -18.050092673984182 0 0 0 0 47.123614322750655 113.69380490099502 0 113.69380490099502 44.859633248601313 0 0 0 0 -421.50168499730353 111.7109492293439 0 111.7109492293439 162.85437659646777 0 0 0 0 46.391162011504093 86.751070653721087 0 86.751070653721087 -138.50708400536314 0 0 0 0 -452.62103332949482 74.166871666169754 0 74.166871666169754 170.85770018808398 0 0 0 0 -250.7401642746554 155.43178702105615 0 155.43178702105615 208.55679041860276 0 0 0 0 -4.4049051350814352 2.1769114592338141 0 2.1769114592338141 0.16165532257163306 0 0 0 0 304.49201945884124 298.79673861883566 0 298.79673861883566 122.94602326036693 0 0 0 0 -42.908222003723495 428.31621698918752 0 428.31621698918752 160.92288919788916 0 0 0 0 345.51317458055564 316.19570503970681 0 316.19570503970681 149.0589993983607 0 0 0 0 285.21696984008486 266.92335913181341 0 266.92335913181341 313.32898554850544 0 0 0 0 411.65856505087868 260.75249616647852 0 260.75249616647852 158.53415848504574 0 0 0 0 409.85780931686168 256.78476109282747 0 256.78476109282747 150.61498919066071 0 0 0 0 -4.2138931046006007 5.4924443417673388 0 5.4924443417673388 -3.4287815418679202 0 0 0 0 118.58882837114788 468.27928349506351 0 468.27928349506351 -0.60896991230401909 0 0 0 0 -159.23691703636541 251.23247264699512 0 251.23247264699512 -12.706935746915406 0 0 0 0 -111.66945117171963 34.987691449457998 0 34.987691449457998 260.8857343983691 0 0 0 0 9.6022148702759296 136.10915485468286 0 136.10915485468286 108.96998946958411 0 0 0 0 -3.9008411127029206 5.1619868298517702 0 5.1619868298517702 -3.7444647653388472 0 0 0 0 394.59160993063415 200.06735881067289 0 200.06735881067289 30.952369021320919 0 0 0 0 130.75698816309159 303.47066444317352 0 303.47066444317352 165.120982874334 0 0 0 0 272.96033202584294 236.94318321668379 0 236.94318321668379 169.00699390199952 0 0 0 0 -39.878933826032153 180.46939504958755 0 180.46939504958755 179.19409099651239 0 0 0 0 -72.342378516041208 249.91718182987097 0 249.91718182987097 285.46280708427366 0 0 0 0 11.620372241195582 257.98321868119092 0 257.98321868119092 223.05467823481013 0 0 0 0 -10.142345888860291 264.1585524787879 0 264.1585524787879 248.07984237263372 0 0 0 0 86.543680414230039 185.07464674325092 0 185.07464674325092 120.48948429709162 0 0 0 0 83.858635440075886 176.61349199332381 0 176.61349199332381 109.1903518631043 0 0 0 0 -24.440108624510025 29.404293555319946 0 29.404293555319946 -9.0589401772831764 0 0 0 0 135.16325290077657 174.89121305189474 0 174.89121305189474 109.20710018448335 0 0 0 0 96.896491536101166 203.60719014374536 0 203.60719014374536 113.94582145430468 0 0 0 0 81.573817503376631 184.66606414026319 0 184.66606414026319 121.35241118804515 0 0 0 0 50.929512705464731 77.454291662306787 0 77.454291662306787 -2.7143594676490466 0 0 0 0 -95.881914855603327 70.06126433841132 0 70.06126433841132 55.026742371062625 0 0 0 0 -106.8815069911725 68.444328363353634 0 68.444328363353634 14.699341608611576 0 0 0 0 -27.437530829614843 225.25695366838045 0 225.25695366838045 -14.044782941526137 0 0 0 0 -203.365414448097 116.70954920212171 0 116.70954920212171 160.66174485020747 0 0 0 0 -2.4965511168834951 2.6713883487854986 0 2.6713883487854986 -0.53713466438384216 0 0 0 0 -182.52208691829583 211.37045882050734 0 211.37045882050734 58.386683589618769 0 0 0 0 93.246499404011047 25.787937461839761 0 25.787937461839761 133.5769949815367 0 0 0 0 -140.68551864159235 44.996738805715722 0 44.996738805715722 203.69902117368474 0 0 0 0 -68.576867489464348 115.00468050244672 0 115.00468050244672 69.19011352128291 0 0 0 0 -90.24464698661177 128.20406847272898 0 128.20406847272898 101.78194941122274 0 0 0 0 -104.92976797625306 17.91711897573623 0 17.91711897573623 100.57657736757847 0 0 0 0 82.73739401437706 195.107022193788 0 195.107022193788 114.35240191670164 0 0 0 0 -81.188511667062883 74.979052371598129 0 74.979052371598129 64.327875338342835 0 0 0 0 -89.961381785280537 46.186008355736703 0 46.186008355736703 151.01713036162982 0 0 0 0 -14.06302935003373 11.609637481384098 0 11.609637481384098 6.4584435679780228 0 0 0 0 -78.419741535704816 242.95382856770448 0 242.95382856770448 -151.8676082514794 0 0 0 0 -13.19399452219659 16.905422718740738 0 16.905422718740738 -36.975453788603772 0 0 0 0 -138.29421757232922 123.92798617283916 0 123.92798617283916 63.066989089955314 0 0 0 0 -69.946390510827769 117.85508952370583 0 117.85508952370583 -110.7325845698233 0 0 0 0 -25.597199810264385 82.586159331064863 0 82.586159331064863 -24.825490386452316 0 0 0 0 -247.73289844173996 398.56898706578068 0 398.56898706578068 174.13832339333021 0 0 0 0 -1.7097180227865465 129.033711224336 0 129.033711224336 62.783875633918797 0 0 0 0 33.728879486383363 124.37841102955157 0 124.37841102955157 2.7416143140803797 0 0 0 0 -50.623179993361418 74.312086632625864 0 74.312086632625864 -4.3800429680620709 0 0 0 0 -1073.9607620024035 238.14748151789536 0 238.14748151789536 227.84579776179453 0 0 0 0 -83.786400758501259 168.10154778290598 0 168.10154778290598 33.766968173586065 0 0 0 0 6.9140943736676803 16.747592931669651 0 16.747592931669651 20.458134048536181 0 0 0 0 151.5263450333041 -1.6147139692329802 0 -1.6147139692329802 133.33571022210526 0 0 0 0 16.486697918839027 72.863534833325559 0 72.863534833325559 -5.3416178868957331 0 0 0 0 36.925565350611578 86.462321392216836 0 86.462321392216836 62.15293529032715 0 0 0 0 91.18561825124425 159.65863604954416 0 159.65863604954416 94.298410902491014 0 0 0 0 -16.978271457079884 35.90447620237785 0 35.90447620237785 17.192996472387591 0 0 0 0 2.6266142952163705 46.107614728636342 0 46.107614728636342 -27.411600712817524 0 0 0 0 38.55332277737034 60.142469897917181 0 60.142469897917181 -66.046190637571272 0 0 0 0 25.948367481631067 100.02585400016142 0 100.02585400016142 34.344325215573917 0 0 0 0 46.293212408703553 57.341948357496946 0 57.341948357496946 36.035455446813401 0 0 0 0 34.741542866438976 76.616494467009034 0 76.616494467009034 7.4977602314174874 0 0 0 0 20.307497248653817 87.989081186962721 0 87.989081186962721 22.067769664965454 0 0 0 0 43.472404722971987 104.25754369135029 0 104.25754369135029 31.515965003651218 0 0 0 0 19.5305351257648 91.054502945560671 0 91.054502945560671 25.397018554587703 0 0 0 0 7.4177458428901062 33.285746135790355 0 33.285746135790355 -47.753786009508616 0 0 0 0 56.594041786032903 117.27622748180875 0 117.27622748180875 60.185852520960907 0 0 0 0 43.079290816055817 71.544733806633758 0 71.544733806633758 33.699458026778302 0 0 0 0 55.905320225503601 90.002274086553371 0 90.002274086553371 46.548862316711165 0 0 0 0 68.884763148644197 73.375905924128347 0 73.375905924128347 -6.179861463868292 0 0 0 0 35.391989288658806 87.735643366795557 0 87.735643366795557 18.221677968693257 0 0 0 0 19.982145791607756 30.671286807257083 0 30.671286807257083 -35.043474794168233 0 0 0 0 -27.949435196427508 29.93097202854219 0 29.93097202854219 -33.82643039604838 0 0 0 0 63.705514244347796 81.072384029754176 0 81.072384029754176 37.869138763206138 0 0 0 0 163.88132407907688 218.54010491341614 0 218.54010491341614 9.2959929781827668 0 0 0 0 -376.08960045045387 88.91076410122696 0 88.91076410122696 52.096378976191772 0 0 0 0 -368.95639142738401 47.225740456373387 0 47.225740456373387 259.92961861089861 0 0 0 0 -368.34126425184149 -108.05772243879983 0 -108.05772243879983 116.66791483928682 0 0 0 0 -250.09611397714616 -112.48192207071043 0 -112.48192207071043 65.366344521135034 0 0 0 0 -242.60689672903391 -44.420454702223651 0 -44.420454702223651 -21.718443994932386 0 0 0 0 -271.09016953253558 105.02807049382318 0 105.02807049382318 6.0877310753239726 0 0 0 0 -16.763527631005488 19.016806855604301 0 19.016806855604301 17.316500181533968 0 0 0 0 -410.61866983838991 87.025923989436706 0 87.025923989436706 183.99027114599448 0 0 0 0 55.713245037444722 67.398054740158841 0 67.398054740158841 -5.6759611969901016 0 0 0 0 -8.7508896435832515 12.815188139806299 0 12.815188139806299 0.96637156278220004 0 0 0 0 -41.991085403552724 84.132312755235276 0 84.132312755235276 21.032024065305848 0 0 0 0 -19.86658950647444 68.60451920755095 0 68.60451920755095 35.000262423450465 0 0 0 0 -185.98614470660323 50.276488643503399 0 50.276488643503399 26.91395916950205 0 0 0 0 -230.6198828864591 114.15021455329043 0 114.15021455329043 -23.844469384377589 0 0 0 0 -243.26563221035303 333.94231371078968 0 333.94231371078968 48.944089500779228 0 0 0 0 6.8462112172932201 8.802640115771883 0 8.802640115771883 12.174071936142951 0 0 0 0 -205.61555711900473 83.43295909598055 0 83.43295909598055 20.241827736157575 0 0 0 0 -6.971432827074227 59.933906351319017 0 59.933906351319017 26.977098944425393 0 0 0 0 -179.3186084998033 54.72901768232623 0 54.72901768232623 27.394337961894053 0 0 0 0 -162.78241053807324 36.576516616734807 0 36.576516616734807 47.255264984953101 0 0 0 0 -137.04295729182559 66.887684278943198 0 66.887684278943198 21.463024611087349 0 0 0 0 -159.71562012609775 20.633323692882186 0 20.633323692882186 410.47122827392013 0 0 0 0 2.9212358898961917 3.9398629462682315 0 3.9398629462682315 3.8408615770401866 0 0 0 0 424.10813870069251 499.4186776608185 0 499.4186776608185 181.33120721164596 0 0 0 0 663.55103918156237 246.33457666935465 0 246.33457666935465 -168.28269671991438 0 0 0 0 251.56252870264404 276.99645371165184 0 276.99645371165184 -57.897866853192681 0 0 0 0 254.51300499346632 243.68337112714562 0 243.68337112714562 -184.12157700285024 0 0 0 0 385.80041158729182 395.40181352876607 0 395.40181352876607 -273.11004886860246 0 0 0 0 269.6007837357356 137.58990420412738 0 137.58990420412738 -198.19620215821851 0 0 0 0 28.154424717475479 86.641990766258004 0 86.641990766258004 -35.234290661552222 0 0 0 0 22.528058217000762 38.323515676853276 0 38.323515676853276 -27.983547398696828 0 0 0 0 42.585272694403102 85.394202149811463 0 85.394202149811463 -201.0291208758008 0 0 0 0 41.167729828281153 105.92387113802033 0 105.92387113802033 132.68779461895247 0 0 0 0 35.838547454228319 308.16466002158268 0 308.16466002158268 -284.21653866508314 0 0 0 0 98.721595861705282 157.54404725283894 0 157.54404725283894 -223.95684384203923 0 0 0 0 77.651600109840729 422.25726420177762 0 422.25726420177762 -405.4546828864186 0 0 0 0 -6.7684945046912617 286.00604015705176 0 286.00604015705176 -292.90608822474678 0 0 0 0 257.36461711669472 141.17317279211602 0 141.17317279211602 -999.24867027820801 0 0 0 0 10.507161188244936 769.39293746304247 0 769.39293746304247 2542.0080889109267 0 0 0 0 108.30680957043296 48.355709505238337 0 48.355709505238337 1251.7196173510747 0 0 0 0 10.476164273321338 4.5442458253607754 0 4.5442458253607754 1.9656019190330518 0 0 0 0 -10.450083097170136 73.660708773666556 0 73.660708773666556 1136.4504192011627 0 0 0 0 244.76901135815933 188.0839203559899 0 188.0839203559899 719.35470684932079 0 0 0 0 30.804375366037945 13.993739874976967 0 13.993739874976967 3.853162037704756 0 0 0 0 77.795745346096737 337.12033550702108 0 337.12033550702108 840.75329165146104 0 0 0 0 -174.80977199034896 206.09058524043212 0 206.09058524043212 -29.281712300848085 0 0 0 0 -30.342278867170535 547.70468660908591 0 547.70468660908591 642.15162309980224 0 0 0 0 438.55456478996166 456.04989083039436 0 456.04989083039436 -510.15249187469635 0 0 0 0 456.26556837915996 606.24386512926503 0 606.24386512926503 -80.123960974591682 0 0 0 0 767.84767109086715 665.3564618301607 0 665.3564618301607 511.60843995322648 0 0 0 0 319.98452509391791 -108.42393614050889 0 -108.42393614050889 282.7069684308517 0 0 0 0 -318.87879556195549 -46.963398618430801 0 -46.963398618430801 703.06896553147817 0 0 0 0 -265.57619259833155 41.509304148989031 0 41.509304148989031 191.0180047402564 0 0 0 0 -395.30695780416863 -276.57190718350466 0 -276.57190718350466 -289.69518012285698 0 0 0 0 -521.99906218561227 -137.2949691636386 0 -137.2949691636386 222.09054950755853 0 0 0 0 -15.630984530861525 4.0925272793599703 0 4.0925272793599703 9.1004358503464715 0 0 0 0 -685.75241827454374 -650.7535693640275 0 -650.7535693640275 -415.08615796903905 0 0 0 0 -475.34389440228551 -655.31942756374337 0 -655.31942756374337 -727.83767267216172 0 0 0 0 -649.70682711957124 -501.29559864880503 0 -501.29559864880503 -52.800159136759248 0 0 0 0 -408.55941310235818 115.89501828198911 0 115.89501828198911 259.33165650360752 0 0 0 0 -123.35615090368083 185.80356634538839 0 185.80356634538839 -65.928301376014133 0 0 0 0 331.04072496875233 -74.529291257265868 0 -74.529291257265868 41.165680235506443 0 0 0 0 -4.2759628104577132 -314.58686875261992 0 -314.58686875261992 -405.43904128337454 0 0 0 0 -367.59447653247116 -412.49265843781177 0 -412.49265843781177 -174.67835552497127 0 0 0 0 157.81190894078827 -108.90209213201706 0 -108.90209213201706 -296.8795522927976 0 0 0 0 -555.95806997638465 -102.75104266040216 0 -102.75104266040216 -76.629982025478967 0 0 0 0 -29.496133366823798 28.658096706195543 0 28.658096706195543 -25.685072674080132 0 0 0 0 21.199004381072967 59.422059390967831 0 59.422059390967831 7.4545755807193927 0 0 0 0 20.237302870773132 146.18509738930015 0 146.18509738930015 36.586375397477241 0 0 0 0 8.1012178207894436 5.4299413456260481 0 5.4299413456260481 -11.049088833493656 0 0 0 0 101.1364311700454 451.98817454201708 0 451.98817454201708 681.78193766532331 0 0 0 0 281.24483033896104 194.94053994883507 0 194.94053994883507 107.05636824967587 0 0 0 0 417.46237661997702 678.53567517058559 0 678.53567517058559 716.07640217192966 0 0 0 0 151.25627480140793 135.78198915136636 0 135.78198915136636 -103.99137748078647 0 0 0 0 -34.270538773804219 159.21109732806508 0 159.21109732806508 158.32466355402721 0 0 0 0 155.47371426113932 263.87910145302521 0 263.87910145302521 232.71901149085897 0 0 0 0 -9.4084299704873047 312.62377926506542 0 312.62377926506542 219.47171485552826 0 0 0 0 112.56246703811121 224.26706525167538 0 224.26706525167538 -83.982389459122714 0 0 0 0 -27.867127653133139 174.28087973051515 0 174.28087973051515 -54.378309934567369 0 0 0 0 37.237950597904273 228.27821887563732 0 228.27821887563732 -326.6514999474166 0 0 0 0 -404.23575761357279 171.66900112215444 0 171.66900112215444 -85.666538258314176 0 0 0 0 -429.11180658768239 -82.218302284000856 0 -82.218302284000856 149.15289179084721 0 0 0 0 -2.9690433570423949 2.659523910867776 0 2.659523910867776 -2.0716733783682599 0 0 0 0 -1.1508497017966874 40.941480328358011 0 40.941480328358011 -362.62936424098461 0 0 0 0 102.46045906104794 2.6591842629459279 0 2.6591842629459279 16.348196148392162 0 0 0 0 -64.493253437645834 94.600557276928612 0 94.600557276928612 124.23215236848046 0 0 0 0 -362.54739747871406 -262.62959943663736 0 -262.62959943663736 -89.331268879497657 0 0 0 0 -227.82338321955103 -209.43717205458597 0 -209.43717205458597 -70.81514379161672 0 0 0 0 -411.95083023254824 2.7466943274091591 0 2.7466943274091591 -411.60786302825727 0 0 0 0 183.79242059638969 278.89338371789927 0 278.89338371789927 41.607830607790675 0 0 0 0 -20.443544186770016 24.776715635741631 0 24.776715635741631 -23.090330311668097 0 0 0 0 -156.65263740383494 111.57428423265083 0 111.57428423265083 308.54612891443503 0 0 0 0 -119.94472039316543 132.17684220422234 0 132.17684220422234 -18.29424946456129 0 0 0 0 13.536149108336531 -19.55338527852291 0 -19.55338527852291 -169.91201013088721 0 0 0 0 -192.43943441995896 -68.430664825202257 0 -68.430664825202257 14.864145964951604 0 0 0 0 -27.777899905066683 27.558552787852378 0 27.558552787852378 -27.587909719518464 0 0 0 0 185.62214722101635 413.60092093398725 0 413.60092093398725 350.63036830146211 0 0 0 0 -48.332516395262644 28.336774200212858 0 28.336774200212858 -48.863127351090952 0 0 0 0 -134.61658849278319 129.22990542790467 0 129.22990542790467 221.6534796024298 0 0 0 0 146.10588971750076 268.6790625931153 0 268.6790625931153 254.93311473478389 0 0 0 0 131.2140472674655 401.20472264382988 0 401.20472264382988 -35.555763884709904 0 0 0 0 -143.27274013748684 1160.8464248420023 0 1160.8464248420023 333.09665273063183 0 0 0 0 128.54627900321429 348.74297946922843 0 348.74297946922843 -488.88116277939844 0 0 0 0 -36.568125600220831 46.893286723766394 0 46.893286723766394 4.142658303660582 0 0 0 0 -9.0003013152863218 60.000295565241387 0 60.000295565241387 37.973182606110157 0 0 0 0 -60.474220471347508 77.889577777716113 0 77.889577777716113 11.709720808911925 0 0 0 0 124.46591608434392 -1278.1932950926748 0 -1278.1932950926748 1771.6383766857616 0 0 0 0 1990.5116869736776 -13.231680698119817 0 -13.231680698119817 -960.28145210291405 0 0 0 0 -196.86040367356327 7.0687685607608728 0 7.0687685607608728 1025.2254350247085 0 0 0 0 1.5196458556848498 3.9941039823585527 0 3.9941039823585527 11.882150487956366 0 0 0 0 -9.7168797059396397 27.177572907820704 0 27.177572907820704 22.948187593554167 0 0 0 0 368.68404870246013 400.83909646095708 0 400.83909646095708 139.74244264772642 0 0 0 0 -34.709432545870932 3.5198438603248547 0 3.5198438603248547 6.9656818385183499 0 0 0 0 -86.584219365345575 84.994741491229021 0 84.994741491229021 45.55024191273327 0 0 0 0 -188.19945784019001 -9.1638996152323671 0 -9.1638996152323671 193.70573965108269 0 0 0 0 333.13215767467773 542.57975407093181 0 542.57975407093181 -173.61106026043126 0 0 0 0 80.020935478707543 383.2758654784684 0 383.2758654784684 216.20297539053684 0 0 0 0 338.45778072988469 288.71689419135146 0 288.71689419135146 13.504270959296264 0 0 0 0 -13.85464808150391 127.30213285074205 0 127.30213285074205 8.860893190153547 0 0 0 0 165.8243639427983 -24.002152629804641 0 -24.002152629804641 100.3936972777592 0 0 0 0 -30.754332033488858 46.677673613053457 0 46.677673613053457 -34.227828561450778 0 0 0 0 -20.089555913213552 42.303130040781085 0 42.303130040781085 34.173829024639957 0 0 0 0 -76.06310040691119 80.929024991936785 0 80.929024991936785 16.664254945979337 0 0 0 0 -36.406053148402862 187.92644799330083 0 187.92644799330083 -82.600458072163747 0 0 0 0 -66.192962437249662 135.79797947443876 0 135.79797947443876 -147.76135906855052 0 0 0 0 -72.639852292628348 71.984747702711502 0 71.984747702711502 36.380641797237331 0 0 0 0 -62.178985612276392 44.623368059177693 0 44.623368059177693 -6.9869397576733689 0 0 0 0 -407.67421735350399 -339.85240079076539 0 -339.85240079076539 -198.30071877950104 0 0 0 0 -52.628241046431924 33.6381596583687 0 33.6381596583687 -19.704088531283958 0 0 0 0 -34.946172566119458 81.343527042110509 0 81.343527042110509 40.26145813830226 0 0 0 0 -109.42542423592749 -80.676522586771171 0 -80.676522586771171 -412.18591222832038 0 0 0 0 -70.137203095106997 57.491553093404946 0 57.491553093404946 29.676015347085922 0 0 0 0 -25.753774558505938 67.91699341617641 0 67.91699341617641 17.408550403608388 0 0 0 0 -66.852332604512412 89.339121953205904 0 89.339121953205904 9.6041943512955186 0 0 0 0 -35.41506638147257 85.538971526864771 0 85.538971526864771 14.516795914736576 0 0 0 0 -1.7231835209004203 55.973580728590605 0 55.973580728590605 35.075134479308872 0 0 0 0 8.2399703033252081 70.150711103509821 0 70.150711103509821 7.9041937965885154 0 0 0 0 -6.3503260080651671 174.61335094588139 0 174.61335094588139 186.03764595726716 0 0 0 0 -56.98036448030598 59.686599332320839 0 59.686599332320839 -6.9976473040878773 0 0 0 0 -32.095968589864306 44.400807669386097 0 44.400807669386097 -32.128923217800846 0 0 0 0 -96.694585256523851 28.173224856489924 0 28.173224856489924 11.930929333335371 0 0 0 0 3.7900738890166394 11.660999300365802 0 11.660999300365802 -9.7951608233602201 0 0 0 0 -0.026924927820800804 39.413754569019147 0 39.413754569019147 -3.4820078873617604 0 0 0 0 45.522786541376263 -5.5206299948458764 0 -5.5206299948458764 -63.946502043149849 0 0 0 0 17.760074944890221 29.336330540343624 0 29.336330540343624 1.9225563328054704 0 0 0 0 0.44124295528750768 11.990492574471602 0 11.990492574471602 -8.2819505196505361 0 0 0 0 14.45116594353749 15.515892567329502 0 15.515892567329502 -23.880025128695706 0 0 0 0 2.8226218343188521 14.419441043603001 0 14.419441043603001 -10.303121174209082 0 0 0 0 11.0436254752276 6.3845972553172032 0 6.3845972553172032 -6.1392000721098157 0 0 0 0 -14.926305198750924 22.630602764653304 0 22.630602764653304 -12.017650070738455 0 0 0 0 75.7558283223334 -20.351390059380719 0 -20.351390059380719 -82.443111335156573 0 0 0 0 57.158808991491924 82.86947130167448 0 82.86947130167448 -4.1219117574182746 0 0 0 0 60.150725963527748 7.8174803091222884 0 7.8174803091222884 -23.898111787581001 0 0 0 0 10.445976872681058 32.921860086535162 0 32.921860086535162 -36.305366616601532 0 0 0 0 20.629918705017189 18.521070639484606 0 18.521070639484606 -53.9308213335662 0 0 0 0 21.902074321944383 36.980646628218892 0 36.980646628218892 -22.158130298006654 0 0 0 0 33.886277669247647 65.170122659507797 0 65.170122659507797 -85.789110170640924 0 0 0 0 17.039086467513698 51.442870740670514 0 51.442870740670514 -129.33181693177903 0 0 0 0 -9.873081652331166 59.897421328301789 0 59.897421328301789 -85.659172713497355 0 0 0 0 -1.1642201437346671 63.125099188992536 0 63.125099188992536 15.351819050991082 0 0 0 0 94.483827665797435 148.11183718359462 0 148.11183718359462 -107.36898519540478 0 0 0 0 6.9631644969413173 41.220077518491053 0 41.220077518491053 -83.043774728710559 0 0 0 0 -1.1796304961318356 63.346279360201422 0 63.346279360201422 -6.826797297529291 0 0 0 0 1.8616193347965577 1.3703203332011764 0 1.3703203332011764 -16.387133699321911 0 0 0 0 -21.483108653104864 26.792163185480604 0 26.792163185480604 -233.4012251519091 0 0 0 0 -4.0602788195101311 51.497888295176381 0 51.497888295176381 -74.200966863198119 0 0 0 0 0.4150499996014787 15.702227639637464 0 15.702227639637464 21.588935566326001 0 0 0 0 -3.3062349117504368 30.681624435680703 0 30.681624435680703 -11.195202388635877 0 0 0 0 6.6690370020223781 29.207155912855342 0 29.207155912855342 31.988437798978339 0 0 0 0 -11.179435019534139 31.827768756123987 0 31.827768756123987 -31.583779102664266 0 0 0 0 4.2050567298938404 23.769582387129049 0 23.769582387129049 -38.544417507608159 0 0 0 0 0.1644249377993674 1.3465959399551508 0 1.3465959399551508 1.4834669455832241 0 0 0 0 0.38732316782303833 13.554090323587161 0 13.554090323587161 -18.735294662835727 0 0 0 0 0.035057434964983258 24.739263344198662 0 24.739263344198662 5.8390925702005916 0 0 0 0 1.4089949383342173 22.950929643589916 0 22.950929643589916 5.0464568761781265 0 0 0 0 6.2762615140236448 26.126361509018352 0 26.126361509018352 0.59163509076824994 0 0 0 0 -2.3863146545849148 22.036314501409294 0 22.036314501409294 14.830105038135009 0 0 0 0 12.182755957095651 21.50196809641966 0 21.50196809641966 2.8277061000680987 0 0 0 0 -6.9038433289097156 15.515213126593153 0 15.515213126593153 54.980582064448754 0 0 0 0 -0.082260590308294468 -0.39760280016249538 0 -0.39760280016249538 11.77122528341078 0 0 0 0 -0.87952755565126006 10.36396798143312 0 10.36396798143312 40.333426320471716 0 0 0 0 -9.7558284513070248 10.616524338387535 0 10.616524338387535 47.010717597357143 0 0 0 0 -0.010355665130191483 13.692862809604321 0 13.692862809604321 43.696715495541866 0 0 0 0 -2.8245875460706884 8.6072923663473375 0 8.6072923663473375 34.663767291107433 0 0 0 0 -1.5805563627909578 32.962574726602895 0 32.962574726602895 53.090451396271646 0 0 0 0 -15.862022628687555 15.556314984969276 0 15.556314984969276 50.302364096195632 0 0 0 0 -28.799602655489778 6.2627231990750847 0 6.2627231990750847 54.520604544263733 0 0 0 0 13.656873465428362 -5.2623197230227561 0 -5.2623197230227561 50.244143365679463 0 0 0 0 -19.725447016287944 -0.28206043459067587 0 -0.28206043459067587 55.744883355925595 0 0 0 0 -0.00029548417660407722 8.5539583920663063 0 8.5539583920663063 28.454260392863944 0 0 0 0 -2.2557356169294485 6.7193656475120065 0 6.7193656475120065 33.972279052130745 0 0 0 0 -5.3884023472783156 6.9035810067191505 0 6.9035810067191505 29.918030962728153 0 0 0 0 -3.5332091055752244 9.8237298069916505 0 9.8237298069916505 34.345254192179482 0 0 0 0 -1.7915233333478682 5.6112595926442737 0 5.6112595926442737 23.70735625009911 0 0 0 0 -1.3468355210130198 -2.1164120848091841 0 -2.1164120848091841 7.1319038663535821 0 0 0 0 43.719013245368842 44.745620717137626 0 44.745620717137626 62.649324107784423 0 0 0 0 -0.51434893370705947 -1.5826484172407049 0 -1.5826484172407049 0.47390877741915993 0 0 0 0 -5.5473150806938065 -3.1679397492880526 0 -3.1679397492880526 36.833884201053479 0 0 0 0 -13.337447986108032 -11.118290296701623 0 -11.118290296701623 16.088774444421915 0 0 0 0 -1.6823062898379249 -25.347265489043366 0 -25.347265489043366 23.185675513058868 0 0 0 0 7.9347859417965481 18.448616435727558 0 18.448616435727558 30.369281856336425 0 0 0 0 -30.98965197652069 81.180794271000906 0 81.180794271000906 92.951158391711488 0 0 0 0 68.678209924401017 -46.602871327410412 0 -46.602871327410412 646.28062146988486 0 0 0 0 9.4931023859244306 -28.315160301395736 0 -28.315160301395736 11.042325526301966 0 0 0 0 -0.032761862262275912 36.912551522606535 0 36.912551522606535 120.10762411438736 0 0 0 0 29.865686510689557 26.447941875310562 0 26.447941875310562 30.860217615802867 0 0 0 0 -48.691617005970329 -101.84100317905359 0 -101.84100317905359 711.90184094769506 0 0 0 0 15.225479199535528 7.7213961005874836 0 7.7213961005874836 -3.6542955949847968 0 0 0 0 107.30309181338089 -123.72532619680169 0 -123.72532619680169 296.98672424188771 0 0 0 0 7.4335291206965053 9.9348967981004535 0 9.9348967981004535 3.8869043067049436 0 0 0 0 16.280777921245317 9.2731425254114583 0 9.2731425254114583 27.051237611484794 0 0 0 0 8.4837921047583222 29.328056835478492 0 29.328056835478492 44.090392109666027 0 0 0 0 -0.31668046486137769 -0.69594831039466953 0 -0.69594831039466953 1.3784258852448286 0 0 0 0 -8.4654999001941178 -10.205853159653543 0 -10.205853159653543 63.190779150893832 0 0 0 0 23.023647506575799 0.60870543395003551 0 0.60870543395003551 49.766450018496471 0 0 0 0 12.382064898396493 9.8647231179481878 0 9.8647231179481878 55.180825533226198 0 0 0 0 15.923579617170617 8.9112743335517735 0 8.9112743335517735 53.465581484065979 0 0 0 0 16.881780020383303 20.272230479155724 0 20.272230479155724 52.694594920587406 0 0 0 0 -1.694663455884438 9.9918859174558747 0 9.9918859174558747 58.897018560108336 0 0 0 0 33.534267911934876 23.878046827072467 0 23.878046827072467 32.655291901939563 0 0 0 0 14.374707395123551 8.6326135875697219 0 8.6326135875697219 81.849892230502519 0 0 0 0 -27.292737606173432 -93.789623678361181 0 -93.789623678361181 17.436973663458048 0 0 0 0 -8.1364532668906975 -9.4021959442679588 0 -9.4021959442679588 37.012025158403361 0 0 0 0 24.595598941436037 30.91966500788169 0 30.91966500788169 58.983365265049201 0 0 0 0 34.400416899225092 20.471401901130321 0 20.471401901130321 48.211824560282366 0 0 0 0 -142.26854312780779 102.1678595710664 0 102.1678595710664 315.24282428068182 0 0 0 0 -9.0079703966403315 -7.7472478131419393 0 -7.7472478131419393 51.952871323881183 0 0 0 0 25.745442289597122 -91.936433795701305 0 -91.936433795701305 158.86630259029334 0 0 0 0 -71.736922239535488 -57.636368454499461 0 -57.636368454499461 432.45656142672124 0 0 0 0 53.912572977948003 45.639429657923756 0 45.639429657923756 14.717599359791734 0 0 0 0 10.252540566769312 -24.296689754173713 0 -24.296689754173713 213.2070315325218 0 0 0 0 57.668567998000071 33.210507293094452 0 33.210507293094452 231.69112122626029 0 0 0 0 64.737950382608688 -15.101128725153103 0 -15.101128725153103 226.47402500825228 0 0 0 0 15.135069572133943 46.912162775448451 0 46.912162775448451 261.59349556873167 0 0 0 0 36.802940608849894 57.021283244662527 0 57.021283244662527 176.35721515888508 0 0 0 0 1.3053461229392269 30.065548202584068 0 30.065548202584068 249.74383026935539 0 0 0 0 23.51496241937275 -6.3421419682636042 0 -6.3421419682636042 189.27040917113663 0 0 0 0 -1.2429194152937271 38.067794135966324 0 38.067794135966324 158.70716117059419 0 0 0 0 51.075808896741364 18.346070911593415 0 18.346070911593415 71.106391637447814 0 0 0 0 -46.732101890949707 9.7427069432924327 0 9.7427069432924327 74.905913109605535 0 0 0 0 -12.058728212409733 24.695911658828322 0 24.695911658828322 55.174504846605487 0 0 0 0 35.894876768463291 -23.56096074332163 0 -23.56096074332163 88.089967083606098 0 0 0 0 47.869977788664983 -18.693819118034298 0 -18.693819118034298 -45.137138871106799 0 0 0 0 -0.46419823462605336 -5.5768253667793886 0 -5.5768253667793886 6.1654244238914462 0 0 0 0 72.378468009497738 -79.019823303595331 0 -79.019823303595331 114.70958134860382 0 0 0 0 -11.469207609550949 -3.7079937484557206 0 -3.7079937484557206 18.22969074974721 0 0 0 0 38.759506745402177 -132.3530998552701 0 -132.3530998552701 566.68484146489391 0 0 0 0 -49.329245566768805 12.238502786194658 0 12.238502786194658 510.72316303789557 0 0 0 0 -57.450224642263493 -57.939340360005644 0 -57.939340360005644 680.73316203787908 0 0 0 0 -108.90004105654589 -111.09595996616486 0 -111.09595996616486 571.22945145679842 0 0 0 0 264.27100466447882 -97.688536099391058 0 -97.688536099391058 -55.349280382681172 0 0 0 0 160.59868155643926 -94.518598999660753 0 -94.518598999660753 677.40211922467688 0 0 0 0 -45.615381085241097 -101.78267552795569 0 -101.78267552795569 704.99566683500598 0 0 0 0 -110.52110674354481 3.4492921885066608 0 3.4492921885066608 1273.1128656452056 0 0 0 0 299.44014280894771 -753.85525515975314 0 -753.85525515975314 274.69274945418874 0 0 0 0 0.94795094445527184 2.677095039646268 0 2.677095039646268 1.9325648163124338 0 0 0 0 731.18470713612624 -312.86833223661233 0 -312.86833223661233 191.03924318707141 0 0 0 0 0.86723177162895126 1.5860816237321558 0 1.5860816237321558 3.2274029794884314 0 0 0 0 31.254579663218465 14.255684642967026 0 14.255684642967026 562.55317256655417 0 0 0 0 -4.50803371919028 -93.402673617737719 0 -93.402673617737719 790.80116940882908 0 0 0 0 -70.762498699681601 -112.69010099155457 0 -112.69010099155457 704.64008586584623 0 0 0 0 -5.3825243023482585 1.4201829823772174 0 1.4201829823772174 2.1733558609585399 0 0 0 0 38.281207549094688 -97.649836345002768 0 -97.649836345002768 420.30790014228023 0 0 0 0 43.339598552149255 16.72331346572355 0 16.72331346572355 -19.083878309638521 0 0 0 0 2.2261574192802414 -6.0377458932499763 0 -6.0377458932499763 0.2328737265144909 0 0 0 0 -6.3425799556316633 42.857497020020617 0 42.857497020020617 86.439493140904233 0 0 0 0 -9.5882567625958472 29.346066834090379 0 29.346066834090379 149.97687957544986 0 0 0 0 -12.590458076830146 -16.773531520523875 0 -16.773531520523875 71.295027635231236 0 0 0 0 -20.535742778723943 11.693204540893021 0 11.693204540893021 155.587895077957 0 0 0 0 42.640948166197632 29.088633367930015 0 29.088633367930015 77.870424745688524 0 0 0 0 38.299573488911847 13.199222537519745 0 13.199222537519745 155.61853676810921 0 0 0 0 -11.558616350739612 14.769024700501177 0 14.769024700501177 236.39003415666411 0 0 0 0 48.855738223755907 25.235486027714614 0 25.235486027714614 150.18681561984522 0 0 0 0 5.1241054088968667 8.0071919475149116 0 8.0071919475149116 346.50250398347453 0 0 0 0 -5.7635700354148867 147.88540845611033 0 147.88540845611033 20.429420057300376 0 0 0 0 10.710866083541646 69.715587882964115 0 69.715587882964115 29.037152261151487 0 0 0 0 33.867068800449488 160.44888234460268 0 160.44888234460268 -139.633111592967 0 0 0 0 -24.124606332839903 94.461414860476225 0 94.461414860476225 41.993472545847908 0 0 0 0 7.1615483592761393 67.432316551621753 0 67.432316551621753 31.750503018400725 0 0 0 0 -9.1128337958507473 -14.058186992117044 0 -14.058186992117044 334.02366706400426 0 0 0 0 49.471575940682669 -2.5235123195852793 0 -2.5235123195852793 235.13854032969562 0 0 0 0 20.61004042805871 33.739162333386048 0 33.739162333386048 250.265665880494 0 0 0 0 30.335583185133146 -19.818575238027393 0 -19.818575238027393 311.40415865814794 0 0 0 0 46.074654719035607 120.00108952500796 0 120.00108952500796 -183.97527278181769 0 0 0 0 3.2827869151812479 66.458821287430538 0 66.458821287430538 15.737207455254852 0 0 0 0 38.555541583686136 -25.767363804829074 0 -25.767363804829074 304.20983782969779 0 0 0 0 7.2978593730222201 18.21684769318199 0 18.21684769318199 399.16782688063904 0 0 0 0 0.26863588184602349 0.43401776288401095 0 0.43401776288401095 20.764034870227725 0 0 0 0 89.359168366747326 58.714548384417867 0 58.714548384417867 -130.65719536155848 0 0 0 0 -9.7907057334741694 157.86798305546563 0 157.86798305546563 19.690898997407203 0 0 0 0 18.098816424739198 137.57077960165407 0 137.57077960165407 28.963763408670275 0 0 0 0 128.46941177257031 316.16662236660341 0 316.16662236660341 257.86480527188905 0 0 0 0 301.51569175474287 65.42359532303999 0 65.42359532303999 -74.259390683631864 0 0 0 0 -51.430825601360993 122.28131031580961 0 122.28131031580961 244.58357875242655 0 0 0 0 -60.228404333043727 137.03468804489421 0 137.03468804489421 226.32083005300592 0 0 0 0 -45.520644479518523 150.4910299047915 0 150.4910299047915 177.2159881609532 0 0 0 0 -7.995426038702135 207.00852702890552 0 207.00852702890552 138.91374202889892 0 0 0 0 -19.032926414656686 98.765143014668865 0 98.765143014668865 125.22085153235093 0 0 0 0 -18.935336060676491 103.36612237314876 0 103.36612237314876 148.80085827205855 0 0 0 0 -9.3230197451048298 90.667460792971724 0 90.667460792971724 114.91416636314352 0 0 0 0 -16.123573964170646 106.20125488751546 0 106.20125488751546 148.75818596008685 0 0 0 0 -42.447461632196791 54.024451106086417 0 54.024451106086417 259.5420844015207 0 0 0 0 -44.648215300330776 120.06433736041163 0 120.06433736041163 299.24601036850436 0 0 0 0 -40.630776783509646 58.817336936639549 0 58.817336936639549 160.07096398616704 0 0 0 0 -48.326126297411975 59.21638855623678 0 59.21638855623678 146.142426088707 0 0 0 0 -71.269973007088993 61.47610317247927 0 61.47610317247927 155.7242953340683 0 0 0 0 -10.360417928342642 41.079167959887144 0 41.079167959887144 141.82071338685182 0 0 0 0 -46.077756412953022 52.273660945626034 0 52.273660945626034 153.5393928817939 0 0 0 0 -45.695076595104183 59.721821878425544 0 59.721821878425544 270.2545817779428 0 0 0 0 -77.015895988239208 105.24720885567876 0 105.24720885567876 204.91421699823877 0 0 0 0 -31.656829517356698 56.957549795692024 0 56.957549795692024 1.3935453890314022 0 0 0 0 -64.776865308915148 6.6029775700526443 0 6.6029775700526443 221.27447206004035 0 0 0 0 3.0010174485578318 39.415187636233441 0 39.415187636233441 151.4847663066721 0 0 0 0 4.2265858287637457 38.75767352454389 0 38.75767352454389 138.13764886424565 0 0 0 0 -26.689718524474301 92.745962776032684 0 92.745962776032684 148.63990023994575 0 0 0 0 75.093522238763398 -96.827943639398654 0 -96.827943639398654 689.90686357938102 0 0 0 0 11.246383492122874 19.821375413250962 0 19.821375413250962 -11.587248884802456 0 0 0 0 -16.841141164855799 75.526703226423706 0 75.526703226423706 314.44516448679269 0 0 0 0 51.477441251925484 6.0920964113620357 0 6.0920964113620357 312.48092316840484 0 0 0 0 120.26466823826195 37.119762921402071 0 37.119762921402071 266.39380001958489 0 0 0 0 92.258246653302194 -53.224428377378445 0 -53.224428377378445 278.16947971093759 0 0 0 0 -65.369849196984433 -10.882426272008161 0 -10.882426272008161 379.08090444515256 0 0 0 0 -16.295061358643579 -30.618131664871726 0 -30.618131664871726 251.39075286168736 0 0 0 0 -6.2333190603912385 1.18686050769948 0 1.18686050769948 20.091818830496607 0 0 0 0 -114.54459813372523 101.40929640190825 0 101.40929640190825 213.89244656063238 0 0 0 0 -27.041710594974575 23.629997496287615 0 23.629997496287615 199.30447991047549 0 0 0 0 -71.714754073473159 122.20142316322381 0 122.20142316322381 163.16208247530631 0 0 0 0 -85.086718283215305 72.342709700442356 0 72.342709700442356 74.136060430126236 0 0 0 0 -7.6329323439131258 12.398007221654552 0 12.398007221654552 164.93575152379344 0 0 0 0 46.396436953698867 49.851869007874484 0 49.851869007874484 190.76110153964692 0 0 0 0 42.261806128954049 -7.2697995585167519 0 -7.2697995585167519 247.760108018545 0 0 0 0 33.116927906070487 37.330381850402773 0 37.330381850402773 306.11345718598932 0 0 0 0 53.235616558493348 -7.673354291439864 0 -7.673354291439864 197.46227173311854 0 0 0 0 10.662411026794871 4.6853296817516821 0 4.6853296817516821 286.81361706979078 0 0 0 0 26.955769134128786 29.821613943851162 0 29.821613943851162 410.54603903199677 0 0 0 0 3.7616131181421224 -31.888695781362912 0 -31.888695781362912 397.66690589543941 0 0 0 0 14.584716163475889 69.902340228959005 0 69.902340228959005 43.281817358954783 0 0 0 0 49.729925942127011 -10.820501642148884 0 -10.820501642148884 229.86678862227564 0 0 0 0 42.612975066804211 27.323544614271668 0 27.323544614271668 143.65908383870192 0 0 0 0 6.9033250792126637 13.519116986388326 0 13.519116986388326 237.59044921857003 0 0 0 0 14.479233942940482 14.846689852658528 0 14.846689852658528 138.32942596439807 0 0 0 0 3.071406387258321 41.677986157232226 0 41.677986157232226 195.2608654230088 0 0 0 0 9.2886438921996159 25.149909478787777 0 25.149909478787777 150.00358848670112 0 0 0 0 0.17555055097909644 28.322142835018894 0 28.322142835018894 92.550753128432916 0 0 0 0 -3.4561370103547233 58.895660999120992 0 58.895660999120992 122.00373669030887 0 0 0 0 1.2591503000276134 14.720562005361444 0 14.720562005361444 104.352224867318 0 0 0 0 23.644371870337636 50.230041481025182 0 50.230041481025182 108.41995310668972 0 0 0 0 38.287279192722053 17.294838319335213 0 17.294838319335213 97.702874286489532 0 0 0 0 31.111145167757059 31.011838370600344 0 31.011838370600344 55.826145313962115 0 0 0 0 9.2077854697417933 -126.19954249160946 0 -126.19954249160946 823.17858014493413 0 0 0 0 1.4095849237563129 -4.0995648330299588 0 -4.0995648330299588 1.4123755535935634 0 0 0 0 13.835178292472847 20.203424949655528 0 20.203424949655528 94.685646094954791 0 0 0 0 4.4403470868710428 9.7112034111396497 0 9.7112034111396497 105.13772294905357 0 0 0 0 -1.9868308280475162 0.92883638761725762 0 0.92883638761725762 1.4722877504223284 0 0 0 0 54.125526350631844 9.4706156055199244 0 9.4706156055199244 1163.3451432150323 0 0 0 0 -199.78369527969335 217.95248704989899 0 217.95248704989899 304.00063984221561 0 0 0 0 -68.937423790761386 80.991894040216721 0 80.991894040216721 398.66592553880037 0 0 0 0 -4.7020064751035306 1.4455402148502614 0 1.4455402148502614 2.1844042159800718 0 0 0 0 -62.983374717063271 -110.29724095688834 0 -110.29724095688834 723.6626769790837 0 0 0 0 21.753860947239446 -102.31946917418281 0 -102.31946917418281 607.32931975326028 0 0 0 0 -151.56568986727507 -38.977468468827283 0 -38.977468468827283 753.20595290645724 0 0 0 0 -172.98702581249836 150.33630259222355 0 150.33630259222355 424.23330676816477 0 0 0 0 -231.99174007626425 212.061894703691 0 212.061894703691 490.8168114240525 0 0 0 0 -223.30889060610207 223.91408945535113 0 223.91408945535113 468.9599264851613 0 0 0 0 -284.54221113762469 153.96878563962946 0 153.96878563962946 537.11710160219445 0 0 0 0 -369.14996876154328 248.53511999253715 0 248.53511999253715 498.35083917375232 0 0 0 0 -382.48607953672763 187.36359922080192 0 187.36359922080192 576.69706800236781 0 0 0 0 -87.190673516131938 -28.222708139888709 0 -28.222708139888709 93.790294309683304 0 0 0 0 0.17309492080238442 -1.4441176457725646 0 -1.4441176457725646 1.0886003259324273 0 0 0 0 -419.16242078924552 193.61861151126323 0 193.61861151126323 1091.7508151128386 0 0 0 0 -244.45521056721918 -25.714509155053747 0 -25.714509155053747 168.86642898484251 0 0 0 0 -305.26590388308614 96.459801647641143 0 96.459801647641143 334.08461024568533 0 0 0 0 -188.21765132548171 183.37784415569695 0 183.37784415569695 398.23445851418728 0 0 0 0 -114.20312812831253 178.56974580358656 0 178.56974580358656 268.8157731253541 0 0 0 0 -90.936077849110006 41.10921599186986 0 41.10921599186986 181.17712754541049 0 0 0 0 -88.031628172917408 47.215373202230694 0 47.215373202230694 128.31121112541769 0 0 0 0 -158.54257559296821 103.15729828239364 0 103.15729828239364 154.54071228301473 0 0 0 0 -129.07797173524159 78.611694800356418 0 78.611694800356418 166.95315982532247 0 0 0 0 -44.684896540078626 114.3345515253618 0 114.3345515253618 104.2283087182368 0 0 0 0 -216.4451027154646 262.447039002368 0 262.447039002368 22.071914517386176 0 0 0 0 -69.481794627965428 67.193649744227514 0 67.193649744227514 -137.42874785398635 0 0 0 0 -66.188361419102876 289.60787613113098 0 289.60787613113098 -278.10365257174089 0 0 0 0 -1.5164983288502754 1.3253137817065266 0 1.3253137817065266 1.1799802535065531 0 0 0 0 49.962696000162396 100.58897561931371 0 100.58897561931371 -112.55381161547666 0 0 0 0 -288.14767635255703 425.16460131854183 0 425.16460131854183 185.81018495242097 0 0 0 0 -158.93888410228101 195.60430323018863 0 195.60430323018863 339.22436807064332 0 0 0 0 -49.499031655708677 -20.735426529465258 0 -20.735426529465258 464.40664502303662 0 0 0 0 -186.50958304930828 180.87356769656071 0 180.87356769656071 362.66502214011962 0 0 0 0 -122.12587834541046 198.90906079848355 0 198.90906079848355 331.78160150179065 0 0 0 0 -129.26952961373172 252.64854043394314 0 252.64854043394314 338.02177226500862 0 0 0 0 -219.23784960902412 267.96062644342419 0 267.96062644342419 368.97748782736744 0 0 0 0 -154.10528888592125 234.75040465418721 0 234.75040465418721 394.71328946874564 0 0 0 0 -184.16572117133182 232.98164929491395 0 232.98164929491395 400.28685080164905 0 0 0 0 -225.12228483098443 232.68730078826957 0 232.68730078826957 417.46849404852492 0 0 0 0 -184.49568461646231 226.3553647294562 0 226.3553647294562 407.00618556734844 0 0 0 0 45.647989078719547 153.49995437900759 0 153.49995437900759 334.51208640087134 0 0 0 0 -82.762284112337511 140.95154692144934 0 140.95154692144934 395.65197132430876 0 0 0 0 -152.0751866517835 202.96344218739728 0 202.96344218739728 376.98473634312904 0 0 0 0 -91.443286688256194 175.85782618814483 0 175.85782618814483 388.51610288470147 0 0 0 0 -173.55365419324335 124.32649872570005 0 124.32649872570005 452.00588248673012 0 0 0 0 -228.6334085929675 180.24218621498164 0 180.24218621498164 431.55074870570752 0 0 0 0 -167.76944064491545 170.01127546453608 0 170.01127546453608 420.03561574480409 0 0 0 0 99.981497875545756 94.710770927416888 0 94.710770927416888 379.35523264457515 0 0 0 0 -9.909320058679441 71.226997340223534 0 71.226997340223534 456.29377828747238 0 0 0 0 9.5497377952269744 137.07909354190633 0 137.07909354190633 393.4749261942361 0 0 0 0 49.00345431738242 356.2609629625149 0 356.2609629625149 -201.00882382428426 0 0 0 0 201.34552249746048 65.267288441434175 0 65.267288441434175 99.866695507382246 0 0 0 0 37.2790631747921 337.77831808289739 0 337.77831808289739 -174.52873470457416 0 0 0 0 -206.38382607302628 140.35074923950469 0 140.35074923950469 495.86719551014539 0 0 0 0 -3.1527779891998762 2.6199424033172676 0 2.6199424033172676 -0.93716338292310652 0 0 0 0 -358.50907064248895 254.43145325174692 0 254.43145325174692 458.40985106009975 0 0 0 0 -37.971431329948246 307.57578924025074 0 307.57578924025074 -185.72843190853746 0 0 0 0 -2.3703907780723057 2.5882614194642066 0 2.5882614194642066 2.1174624284606303 0 0 0 0 -306.38887220293691 181.75706369433465 0 181.75706369433465 14.375266463193839 0 0 0 0 58.997977875405923 186.97682453611742 0 186.97682453611742 -448.19890513317841 0 0 0 0 17.756734733775374 63.113632902396603 0 63.113632902396603 324.08012161717488 0 0 0 0 -1.2452375830667961 1.7181365333650724 0 1.7181365333650724 1.2655959495846005 0 0 0 0 -33.957549310842296 171.91418732794318 0 171.91418732794318 -409.41377232991363 0 0 0 0 -30.785159605671652 -6.7487001603849421 0 -6.7487001603849421 259.57801805655117 0 0 0 0 -1.4935743578535039 152.73845581509704 0 152.73845581509704 297.03599891945669 0 0 0 0 -36.764047320873942 33.319233070061728 0 33.319233070061728 99.449489575814368 0 0 0 0 -105.8796118812752 45.697757164371978 0 45.697757164371978 52.194394867838128 0 0 0 0 -89.493302924995078 83.39315350374909 0 83.39315350374909 65.404107477788784 0 0 0 0 -153.11085864549386 123.4177704428912 0 123.4177704428912 153.4116349662927 0 0 0 0 -158.82871284505381 164.4075741204897 0 164.4075741204897 83.179349940222892 0 0 0 0 -109.50999894860433 63.243428430121639 0 63.243428430121639 137.5829741634343 0 0 0 0 -83.519245939496614 86.320069184633667 0 86.320069184633667 157.05790383492422 0 0 0 0 -168.17484351855819 84.792274941932192 0 84.792274941932192 186.2606348991394 0 0 0 0 -193.2225128330756 119.64990147823664 0 119.64990147823664 233.36608263838389 0 0 0 0 -154.08246577790123 54.415379278709224 0 54.415379278709224 243.42705832436513 0 0 0 0 -13.821084936338593 18.968115651105109 0 18.968115651105109 380.57786062024388 0 0 0 0 -1.6115360131170746 -0.39017402868826334 0 -0.39017402868826334 -1.9667362684769891 0 0 0 0 -138.28611903033743 148.63196728549701 0 148.63196728549701 108.47000888874027 0 0 0 0 -29.068721831459698 53.358260889089252 0 53.358260889089252 96.839372063780502 0 0 0 0 13.043847227916558 12.509670675422512 0 12.509670675422512 209.92653580298429 0 0 0 0 4.8418298579053953 126.45510883904353 0 126.45510883904353 181.61561390276984 0 0 0 0 -175.53026583069732 124.65871911103295 0 124.65871911103295 416.18335651934831 0 0 0 0 -19.9676487092446 56.554079568555224 0 56.554079568555224 -40.271913904239305 0 0 0 0 -30.679007776885442 43.933002794361322 0 43.933002794361322 -6.0071823483459568 0 0 0 0 -13.227597139333568 56.696047387189061 0 56.696047387189061 -41.432033433833951 0 0 0 0 -130.4258052414516 237.73791629480911 0 237.73791629480911 410.65627082288847 0 0 0 0 -147.2707812725821 549.13311915353938 0 549.13311915353938 -241.10565961643442 0 0 0 0 -35.827987656812184 142.91566488407443 0 142.91566488407443 216.52511536999509 0 0 0 0 -29.984087740638074 44.179735694803924 0 44.179735694803924 -2.2474414622349528 0 0 0 0 -93.484052524800063 -263.06442217804579 0 -263.06442217804579 -45.43875658048637 0 0 0 0 17.357952608340383 108.10373463564792 0 108.10373463564792 357.23035037179943 0 0 0 0 -26.647760391817428 242.14705221536678 0 242.14705221536678 505.59276057038915 0 0 0 0 -99.023540048161522 38.00066304565371 0 38.00066304565371 282.51376730833363 0 0 0 0 45.600305074418429 188.54655586280933 0 188.54655586280933 252.6653569085247 0 0 0 0 -7.4306482932151994 -9.0271582439381746 0 -9.0271582439381746 -46.055024768571457 0 0 0 0 0.58318069542292506 21.01208956391929 0 21.01208956391929 -18.889878627946018 0 0 0 0 -213.040479491101 337.31096846902437 0 337.31096846902437 72.093318245380942 0 0 0 0 -52.754565090916003 333.75514923450828 0 333.75514923450828 -29.617390624527616 0 0 0 0 -1.7571954806590497 3.9189173212126747 0 3.9189173212126747 -5.7881876845506355 0 0 0 0 78.363706633745096 113.44102726573328 0 113.44102726573328 -121.04475321929203 0 0 0 0 73.652484891616041 83.653597494998394 0 83.653597494998394 -245.92193101259909 0 0 0 0 174.12304498770391 27.401928788134683 0 27.401928788134683 -377.8277988169657 0 0 0 0 -52.345914959572838 -105.22374027365549 0 -105.22374027365549 -182.65115570033231 0 0 0 0 7.1671803532954073 -11.525256874656407 0 -11.525256874656407 -99.533686730872432 0 0 0 0 19.304822189929837 110.81139126010203 0 110.81139126010203 35.674409049126552 0 0 0 0 -4.0934309372241842 52.705336017213995 0 52.705336017213995 -57.06823742034976 0 0 0 0 -6.1822945495332533 49.846518022150121 0 49.846518022150121 -28.909384435817628 0 0 0 0 -4.619230118598125 10.414387873655912 0 10.414387873655912 4.8052513229082194 0 0 0 0 -0.2349711748684058 37.320414486934169 0 37.320414486934169 -50.988272407047589 0 0 0 0 -1.6638739205955062 38.158753171459466 0 38.158753171459466 -44.593630638522882 0 0 0 0 -3.4214250353397802 10.17720104775799 0 10.17720104775799 -45.827375886072332 0 0 0 0 20.433956119013601 14.859124100048575 0 14.859124100048575 -52.579155711202475 0 0 0 0 -15.282635222647514 19.296668192229845 0 19.296668192229845 1.3948677436128492 0 0 0 0 0.35880191482016244 9.7119087162794671 0 9.7119087162794671 4.9246698107498119 0 0 0 0 -5.5540046037931461 24.395824878618441 0 24.395824878618441 -3.1403231505246367 0 0 0 0 -5.7039455943668145 26.34813248363389 0 26.34813248363389 -18.680441650274588 0 0 0 0 -5.4360366404958995 19.624875598225287 0 19.624875598225287 -8.6877780422437354 0 0 0 0 -26.46692567530954 64.403947814716048 0 64.403947814716048 11.714871406300517 0 0 0 0 58.600635470575071 22.018346251968978 0 22.018346251968978 -17.604349111225019 0 0 0 0 1.2974130178166803 -0.44966652681893038 0 -0.44966652681893038 -5.5746064330444085 0 0 0 0 -32.702694037347101 3.1441565790009918 0 3.1441565790009918 -16.041837614788165 0 0 0 0 -18.280009820038686 27.296582829880208 0 27.296582829880208 -1.3628607557802752 0 0 0 0 -3.7780845321319134 4.5430863936655328 0 4.5430863936655328 4.4140437193465232 0 0 0 0 594.28337190953607 287.39591680105514 0 287.39591680105514 -91.447713798406767 0 0 0 0 250.83638198007247 43.428668741194997 0 43.428668741194997 197.72329634486232 0 0 0 0 -27.232692837373179 19.678666023577534 0 19.678666023577534 2.8352597014163621 0 0 0 0 378.58348212777491 324.59333346307358 0 324.59333346307358 193.01393557361735 0 0 0 0 -1.0640820068380492 10.060173882550984 0 10.060173882550984 -12.220312946963787 0 0 0 0 -85.296245745375927 331.49966993019734 0 331.49966993019734 -182.05427903917371 0 0 0 0 179.80173513301997 2.1673035050553153 0 2.1673035050553153 111.94406662278698 0 0 0 0 186.26915644372639 161.21070162627439 0 161.21070162627439 -16.673382039432909 0 0 0 0 -243.88512112757599 -75.753512198909448 0 -75.753512198909448 89.464959445325803 0 0 0 0 133.75184282529517 48.070626448432449 0 48.070626448432449 52.812826537629007 0 0 0 0 -132.44714815750194 241.85345060967666 0 241.85345060967666 -34.713977664374397 0 0 0 0 376.45546801216551 169.81543420831258 0 169.81543420831258 -68.973975614921073 0 0 0 0 177.85988690832164 196.62308809276146 0 196.62308809276146 -70.728878565449122 0 0 0 0 126.717802650659 179.82455495717113 0 179.82455495717113 79.454555001510016 0 0 0 0 42.382339307529037 79.232573070494254 0 79.232573070494254 -8.8375754682010665 0 0 0 0 -18.502479254479113 264.69956719096081 0 264.69956719096081 303.44262133906886 0 0 0 0 73.641524329104868 218.90541577166005 0 218.90541577166005 233.50475682735851 0 0 0 0 97.139262268450693 207.67120173136209 0 207.67120173136209 80.055048003712784 0 0 0 0 148.62823054805631 273.87847614064231 0 273.87847614064231 253.14098971885142 0 0 0 0 28.895626530720619 176.89914884157406 0 176.89914884157406 340.35878331383901 0 0 0 0 -58.32042186538456 113.81769381108097 0 113.81769381108097 431.4324595167418 0 0 0 0 -253.18958793317142 221.44936010006131 0 221.44936010006131 372.10318499152709 0 0 0 0 50.971631245192839 340.08887398128718 0 340.08887398128718 84.97928455645706 0 0 0 0 27.801050891037448 296.09760184169136 0 296.09760184169136 106.05481092584523 0 0 0 0 -230.25395402235517 148.77947412916728 0 148.77947412916728 597.91547245557013 0 0 0 0 -374.47865835786433 476.45069204758511 0 476.45069204758511 477.34256787191407 0 0 0 0 36.023789294224116 255.57072723872261 0 255.57072723872261 -284.19792748350665 0 0 0 0 -15.442936858304165 534.72368251394255 0 534.72368251394255 -678.30663664650638 0 0 0 0 -41.524282161088195 583.8729995924059 0 583.8729995924059 -516.9811302990056 0 0 0 0 277.21321183036343 292.68585356183939 0 292.68585356183939 -68.85553079652891 0 0 0 0 210.97513001052721 299.22418817957532 0 299.22418817957532 -69.476167887296469 0 0 0 0 -141.02227042324375 -8.0349379944291286 0 -8.0349379944291286 63.260041339482996 0 0 0 0 -1.2657478461161276 1.8105674814812005 0 1.8105674814812005 1.1026269638483939 0 0 0 0 536.0703278685578 216.21896059663595 0 216.21896059663595 -107.12157431728701 0 0 0 0 1.0021754067128512 1.3616293114687323 0 1.3616293114687323 -4.189867245514904 0 0 0 0 215.08622101566289 -47.467071774863143 0 -47.467071774863143 -55.805882199892949 0 0 0 0 -221.38259001070401 383.37108174093191 0 383.37108174093191 -182.1048581849318 0 0 0 0 -109.92395011421468 371.67101751496739 0 371.67101751496739 -1209.8455587661974 0 0 0 0 -374.49681772302574 839.86995261455559 0 839.86995261455559 -841.98019212622603 0 0 0 0 -278.33207211637637 836.94897624887017 0 836.94897624887017 -452.3416917513423 0 0 0 0 -177.30601340410431 892.50402012182894 0 892.50402012182894 -1140.9442904517928 0 0 0 0 2.8370844009129996 5.0436526017578984 0 5.0436526017578984 3.5566059792171814 0 0 0 0 -48.207841461378848 -465.35622272163164 0 -465.35622272163164 2178.2764346566364 0 0 0 0 -314.23034766337514 132.10713734779711 0 132.10713734779711 866.21169357892359 0 0 0 0 -560.18871412560111 692.91923924372531 0 692.91923924372531 1450.8689678288574 0 0 0 0 76.518509789850214 406.03062451597361 0 406.03062451597361 426.9461395394319 0 0 0 0 115.67376640849398 356.02919139832557 0 356.02919139832557 559.965378523455 0 0 0 0 -49.477020704769529 464.19396363978012 0 464.19396363978012 391.71160656442134 0 0 0 0 -47.38808298445656 393.82130619460077 0 393.82130619460077 526.56973898914293 0 0 0 0 -25.873251032084227 408.8883096693171 0 408.8883096693171 360.0707513497764 0 0 0 0 -11.284092426925781 392.97916211502161 0 392.97916211502161 360.33528360523633 0 0 0 0 30.798616892832797 428.06596346577135 0 428.06596346577135 333.89099798127791 0 0 0 0 0.085366307757794857 404.33848992361163 0 404.33848992361163 346.00452824616514 0 0 0 0 -24.276282787614036 474.33208441697934 0 474.33208441697934 392.15743286983093 0 0 0 0 -97.625257297244389 639.16630574128067 0 639.16630574128067 521.85809302399139 0 0 0 0 -81.329135580628645 375.71722977159516 0 375.71722977159516 789.16650466991996 0 0 0 0 -250.35486828240391 384.66335693406927 0 384.66335693406927 800.22839231041144 0 0 0 0 -162.07933705390315 235.31558793009026 0 235.31558793009026 982.15433749974181 0 0 0 0 -66.296353002093383 -110.72859299609991 0 -110.72859299609991 1102.115169969351 0 0 0 0 -2.0961230217944831 34.725794280668197 0 34.725794280668197 479.71530115611495 0 0 0 0 22.025683927204227 118.76206275072036 0 118.76206275072036 268.23821564823447 0 0 0 0 -3.9249992669501808 294.42018351001389 0 294.42018351001389 510.21088741940912 0 0 0 0 -35.133450352150248 285.93624818989338 0 285.93624818989338 559.90740199394349 0 0 0 0 -137.63799097186711 -34.577311792916589 0 -34.577311792916589 174.69559586255491 0 0 0 0 -14.181325058889342 159.25014545560407 0 159.25014545560407 -10.920207329982077 0 0 0 0 12.680939127705471 14.614437059276653 0 14.614437059276653 9.8123244607055256 0 0 0 0 -680.37606712266279 392.98999141492095 0 392.98999141492095 -144.49066209534067 0 0 0 0 -526.18935877240438 1018.1031372992948 0 1018.1031372992948 -1723.0926710040294 0 0 0 0 -1093.3490974621745 360.67937854364209 0 360.67937854364209 -514.44768584016856 0 0 0 0 45.049885033789906 426.36817220976081 0 426.36817220976081 -2438.2936396045625 0 0 0 0 -9.154771171984919 3.1743611555362534 0 3.1743611555362534 -2.6318784294693458 0 0 0 0 138.1893016502072 -31.482976461082217 0 -31.482976461082217 -1189.0011220785454 0 0 0 0 -27.980066852382151 548.57259060292563 0 548.57259060292563 -1350.1244708523445 0 0 0 0 -371.28844113156083 594.33717792180687 0 594.33717792180687 -936.04351397253777 0 0 0 0 -171.54284066946275 480.88477777138723 0 480.88477777138723 -1013.0888175133223 0 0 0 0 -108.79035813262817 369.61049501383877 0 369.61049501383877 -906.53929689007055 0 0 0 0 -347.68412618781076 64.910025633637815 0 64.910025633637815 92.622328872326761 0 0 0 0 -145.96453624539572 281.26682992949918 0 281.26682992949918 -455.61538081891922 0 0 0 0 -93.193605256004957 42.099567910438054 0 42.099567910438054 -267.52448623420537 0 0 0 0 -612.71338775391632 299.83197440696858 0 299.83197440696858 -286.62448926081197 0 0 0 0 -103.7263122026925 59.546087405022263 0 59.546087405022263 -633.63208767924243 0 0 0 0 -284.25852471555845 67.172975507573938 0 67.172975507573938 8.4452235268690856 0 0 0 0 485.08691720191564 -107.41239806735757 0 -107.41239806735757 -456.08963172756012 0 0 0 0 -4.3148716691402598 4.9193007783700864 0 4.9193007783700864 -2.9699097438093247 0 0 0 0 -320.01880829335278 -3.1339749921935436 0 -3.1339749921935436 162.08136545213347 0 0 0 0 62.149634861358209 -277.7751230300637 0 -277.7751230300637 -27.334190652728012 0 0 0 0 -31.898577733746833 20.044606700008629 0 20.044606700008629 14.090185535427239 0 0 0 0 -25.418791125295684 55.470410552319663 0 55.470410552319663 -49.537038895556179 0 0 0 0 -60.58787660478265 -225.59572837694213 0 -225.59572837694213 282.47437515262573 0 0 0 0 73.411471003928455 -103.42193806391151 0 -103.42193806391151 142.14313260727067 0 0 0 0 282.76618141494691 -139.16570532981859 0 -139.16570532981859 52.314809920979314 0 0 0 0 -15.943230706310715 32.709687294413015 0 32.709687294413015 -38.307108619570499 0 0 0 0 -20.648828496254282 74.904248804390591 0 74.904248804390591 94.702885892309496 0 0 0 0 -23.762418559036917 41.627371596109491 0 41.627371596109491 -25.860376245112871 0 0 0 0 -2.1043110075572571 24.795348585603222 0 24.795348585603222 -31.903388959957624 0 0 0 0 -58.849632787678274 54.976688803748402 0 54.976688803748402 -16.279406599671347 0 0 0 0 -25.704406822449528 35.726541151379934 0 35.726541151379934 -5.1207539928727783 0 0 0 0 -17.923864736221731 42.963728932023514 0 42.963728932023514 -5.2489861608914907 0 0 0 0 -13.128203474625479 61.074202292737027 0 61.074202292737027 12.819128655799432 0 0 0 0 -27.129863625866236 44.143074203649604 0 44.143074203649604 37.790955853138236 0 0 0 0 -49.982117111076207 22.353522208077418 0 22.353522208077418 30.258026041247248 0 0 0 0 -64.793113816878758 66.768585598325444 0 66.768585598325444 102.04961264703161 0 0 0 0 -62.685014499642421 -6.0844036078378849 0 -6.0844036078378849 29.609228808927583 0 0 0 0 -14.870190541143529 22.732574683759594 0 22.732574683759594 -36.282958965137368 0 0 0 0 -49.490907436411362 41.36571925674798 0 41.36571925674798 38.322740071831504 0 0 0 0 -40.142700012191199 45.696901990770129 0 45.696901990770129 9.3311327889095992 0 0 0 0 -22.016650215606205 56.786945878673578 0 56.786945878673578 11.952879575437692 0 0 0 0 -35.587670578286634 49.590047264297027 0 49.590047264297027 -13.283257243951084 0 0 0 0 -47.638527298578992 26.598222765431274 0 26.598222765431274 8.0154289085476194 0 0 0 0 -22.972142682701815 80.559361390281992 0 80.559361390281992 47.934887858340517 0 0 0 0 -61.014541952303261 32.167186231952655 0 32.167186231952655 85.494898059296247 0 0 0 0 -29.699709369415359 53.743381940357722 0 53.743381940357722 30.42877925313951 0 0 0 0 -46.503905180830657 8.3077940783000201 0 8.3077940783000201 5.789891853615071 0 0 0 0 -42.412790480039689 28.123690311876402 0 28.123690311876402 8.9989225515738553 0 0 0 0 -48.696193508800206 48.611240299268275 0 48.611240299268275 188.20243395610669 0 0 0 0 -65.097159190714592 169.08449815013773 0 169.08449815013773 47.903807979893827 0 0 0 0 -75.157025715057443 37.540652329775682 0 37.540652329775682 -6.636658512922363 0 0 0 0 -6.5041647176925608 11.137925590324699 0 11.137925590324699 -7.8011735066332584 0 0 0 0 -74.351715663338837 52.292438238927389 0 52.292438238927389 371.89390987569277 0 0 0 0 -17.242922676348826 24.948307242813826 0 24.948307242813826 91.025078252154344 0 0 0 0 -284.25900914473459 146.96452829835107 0 146.96452829835107 458.60718013980295 0 0 0 0 -165.21417526445293 -109.39471086389312 0 -109.39471086389312 440.92351520555712 0 0 0 0 -58.627412445300138 36.466678481985142 0 36.466678481985142 -12.858183258651323 0 0 0 0 -145.34316252199642 231.4599090051197 0 231.4599090051197 84.645965509989765 0 0 0 0 3.0795456469786586 299.4724322483562 0 299.4724322483562 -417.65426623920939 0 0 0 0 -114.25715731742093 -64.620653501948254 0 -64.620653501948254 58.238486697777262 0 0 0 0 -49.466606136789778 99.623060714853636 0 99.623060714853636 224.63903337586453 0 0 0 0 -60.018848369159969 111.58833996929752 0 111.58833996929752 288.19444705225396 0 0 0 0 -49.624518015247304 100.97422210920558 0 100.97422210920558 439.88543907934036 0 0 0 0 -52.826198970578844 126.99087079652418 0 126.99087079652418 251.74720235933819 0 0 0 0 283.34712146388483 192.86196970708534 0 192.86196970708534 279.70795762031958 0 0 0 0 30.639924883089407 225.67557945005683 0 225.67557945005683 -622.21157326472166 0 0 0 0 -39.485124306417276 30.981864478589408 0 30.981864478589408 -11.182741899639147 0 0 0 0 97.462193968236534 276.16787016452963 0 276.16787016452963 -687.03159679300006 0 0 0 0 76.96124067017081 185.84105125056067 0 185.84105125056067 -685.53013108610321 0 0 0 0 -2.9952004043880152 153.78662915638961 0 153.78662915638961 -700.8857198278929 0 0 0 0 47.518387025920674 292.39339957420088 0 292.39339957420088 -852.43986263197257 0 0 0 0 101.62097170288325 246.12308731846133 0 246.12308731846133 -884.18574157731564 0 0 0 0 105.084904505944 375.38896066977031 0 375.38896066977031 -919.38105009679339 0 0 0 0 111.47688500643562 206.69923288424252 0 206.69923288424252 -737.6702828814341 0 0 0 0 191.65803326110472 157.49917273582469 0 157.49917273582469 -939.73080381461114 0 0 0 0 159.39946802718623 266.97115788849624 0 266.97115788849624 -1283.0410380714748 0 0 0 0 102.31054593258887 339.34319829748347 0 339.34319829748347 -1003.8574541788639 0 0 0 0 -224.54671959734696 749.93593463581055 0 749.93593463581055 -1632.1769086702552 0 0 0 0 34.808163508190773 335.33591088718094 0 335.33591088718094 -996.05264924442599 0 0 0 0 -326.10304539676144 348.86706364089514 0 348.86706364089514 -421.82242016333475 0 0 0 0 -275.26157822510868 117.6339285669892 0 117.6339285669892 -539.51229456561487 0 0 0 0 26.000262018307694 421.97840258844735 0 421.97840258844735 -1124.2796047148586 0 0 0 0 -8.5607273030182114 246.45562121079274 0 246.45562121079274 -1713.099836637477 0 0 0 0 -161.5770548187138 369.9697531708116 0 369.9697531708116 -882.74515799911023 0 0 0 0 -739.14892050932394 229.82222120350343 0 229.82222120350343 -905.84081772857826 0 0 0 0 -243.7465978070104 368.12406356916472 0 368.12406356916472 -416.01103127075839 0 0 0 0 -276.36145164130721 728.06578286118383 0 728.06578286118383 -819.22628540726873 0 0 0 0 -103.58126801854814 -232.01823329915351 0 -232.01823329915351 296.94540877274994 0 0 0 0 -2.5811706061649602 231.53957471223111 0 231.53957471223111 -513.52087476307861 0 0 0 0 -47.020069822669029 -339.67002507028519 0 -339.67002507028519 -292.06924771034392 0 0 0 0 -357.25151219340114 276.91968498184815 0 276.91968498184815 -208.28882350595086 0 0 0 0 8.5157103718110534 9.3876248165292253 0 9.3876248165292253 -4.1791196110935687 0 0 0 0 172.94913750344494 -270.07569827439238 0 -270.07569827439238 -845.63773997039971 0 0 0 0 261.50014176146942 -170.4603330111895 0 -170.4603330111895 -1735.6376263151078 0 0 0 0 17.443822670272425 18.101724836369868 0 18.101724836369868 1.1063598572317659 0 0 0 0 72.714365763269598 117.93157989453539 0 117.93157989453539 -393.25752138044845 0 0 0 0 -332.00809386285255 -2.774823953748637 0 -2.774823953748637 36.302631400234532 0 0 0 0 26.698791892657653 45.2918365346831 0 45.2918365346831 1.2414177230135763 0 0 0 0 12.306410893041175 49.178181004856015 0 49.178181004856015 11.903817030397477 0 0 0 0 16.288282174600113 30.813151638058372 0 30.813151638058372 7.2053695328286267 0 0 0 0 9.476510750107991 32.021794870368467 0 32.021794870368467 4.9907747988472693 0 0 0 0 47.513945681843325 48.012335533989244 0 48.012335533989244 -52.987729662047059 0 0 0 0 5.4716738173387398 30.156941797206173 0 30.156941797206173 -3.5898280396223043 0 0 0 0 -1.8377983312365131 36.699165185077327 0 36.699165185077327 -2.8240150679351004 0 0 0 0 15.091805968113476 129.39104822046647 0 129.39104822046647 69.555607611291634 0 0 0 0 -29.960938866185359 44.005721460458957 0 44.005721460458957 -22.831282465978347 0 0 0 0 -12.406834684072237 79.33772534036143 0 79.33772534036143 68.352563836917398 0 0 0 0 17.230131356918719 98.327019334225042 0 98.327019334225042 279.06618537409304 0 0 0 0 -23.543891017564931 13.383989428823227 0 13.383989428823227 4.6742314284623951 0 0 0 0 27.334716782728492 25.211746512923582 0 25.211746512923582 6.3778919129361498 0 0 0 0 -5.8005143092595972 42.561682502793701 0 42.561682502793701 144.74221352563472 0 0 0 0 3.6096414435887709 212.29277295182692 0 212.29277295182692 390.76617555626581 0 0 0 0 -37.41342459554653 255.80971605512241 0 255.80971605512241 354.62333352444693 0 0 0 0 17.165326478047064 237.45419740251236 0 237.45419740251236 264.48289569753979 0 0 0 0 55.882942676835228 303.73962996996852 0 303.73962996996852 271.48116022342219 0 0 0 0 3.4370921512308996 178.8007894683833 0 178.8007894683833 243.05957345128991 0 0 0 0 11.052991640950495 209.4524129826259 0 209.4524129826259 209.15841438245843 0 0 0 0 -14.679724365014408 126.66976478973447 0 126.66976478973447 136.6633062568435 0 0 0 0 43.446249032131163 217.69039961414819 0 217.69039961414819 156.61423357354761 0 0 0 0 86.607482206589339 169.40034450913845 0 169.40034450913845 33.978361621775548 0 0 0 0 133.51637308960198 249.11209814061294 0 249.11209814061294 130.95306619125768 0 0 0 0 45.200680414127419 266.59572981897509 0 266.59572981897509 197.59883743832324 0 0 0 0 52.850602848426206 242.88983553557046 0 242.88983553557046 212.36061161858379 0 0 0 0 84.33050337957684 313.33304221968865 0 313.33304221968865 244.15630018127558 0 0 0 0 113.43680182655226 325.28003097855981 0 325.28003097855981 238.31624097685199 0 0 0 0 80.08644301755885 242.3187279338058 0 242.3187279338058 161.00621249363758 0 0 0 0 170.06325127277523 312.75490747018193 0 312.75490747018193 215.66603337993729 0 0 0 0 169.61385320431543 234.70081597686183 0 234.70081597686183 137.20408955111634 0 0 0 0 145.48500254089595 334.23490827470232 0 334.23490827470232 284.49847327253519 0 0 0 0 191.80244186297568 350.06396310109812 0 350.06396310109812 259.65174101432785 0 0 0 0 104.46236383431824 314.18290617375897 0 314.18290617375897 244.94992018902849 0 0 0 0 187.78399475651713 305.09195290992648 0 305.09195290992648 243.33077692450024 0 0 0 0 100.5608209525526 363.58716845576419 0 363.58716845576419 293.42412271808007 0 0 0 0 53.767151328400359 355.33232988382224 0 355.33232988382224 293.01282779316534 0 0 0 0 22.7988294550305 385.53729921536433 0 385.53729921536433 350.61889162749867 0 0 0 0 63.119191847537877 385.19515098906413 0 385.19515098906413 307.80748522334034 0 0 0 0 27.89258250273997 385.51438422537467 0 385.51438422537467 308.67389414747595 0 0 0 0 2.4630007782543544 341.69100418481685 0 341.69100418481685 404.83010622359143 0 0 0 0 -0.99292587925447151 317.62610609475087 0 317.62610609475087 301.37548388648429 0 0 0 0 59.132395107022603 366.09255037863113 0 366.09255037863113 314.54250019222673 0 0 0 0 -44.404286182287592 28.915152770560155 0 28.915152770560155 -10.064489711126598 0 0 0 0 -18.324118657619692 130.50310941133648 0 130.50310941133648 225.09443182714313 0 0 0 0 -95.086121756088687 38.437823752610711 0 38.437823752610711 66.017735692741553 0 0 0 0 -6.5433267080807127 302.96366995912831 0 302.96366995912831 276.96763370845838 0 0 0 0 358.55779032850842 326.93355723857712 0 326.93355723857712 219.95913540916808 0 0 0 0 -15.393189075766458 4.3957699042045704 0 4.3957699042045704 15.167789617116938 0 0 0 0 282.44131001760252 315.53386967950064 0 315.53386967950064 194.68755468478776 0 0 0 0 290.71261941296325 278.22776871020505 0 278.22776871020505 241.54456923162797 0 0 0 0 9.8836754366333821 16.258057751736011 0 16.258057751736011 -7.1520084559554959 0 0 0 0 114.69940848176338 139.46441552835131 0 139.46441552835131 -9.5872826271661324 0 0 0 0 65.980832402667147 79.538373947645596 0 79.538373947645596 120.69758532718697 0 0 0 0 158.4781653276732 98.635823156691913 0 98.635823156691913 -10.940741138783778 0 0 0 0 118.7452332527464 234.09923625719239 0 234.09923625719239 146.94460316088589 0 0 0 0 -36.866456077141208 39.785533116887692 0 39.785533116887692 -19.578878095564647 0 0 0 0 20.450802612074767 126.10404283280513 0 126.10404283280513 12.214887148540583 0 0 0 0 81.470980219739431 23.73406539856478 0 23.73406539856478 -383.35270025963109 0 0 0 0 -15.710325451975223 9.9446620469134359 0 9.9446620469134359 -94.315012466370717 0 0 0 0 23.325615263544023 226.40960343521874 0 226.40960343521874 126.80784197799949 0 0 0 0 78.867215441219741 174.91278038237942 0 174.91278038237942 -63.398130412679166 0 0 0 0 77.698945693446149 130.78295546780646 0 130.78295546780646 -175.5015241355577 0 0 0 0 45.988523023450398 272.31328571137783 0 272.31328571137783 276.16211340377049 0 0 0 0 -46.801859803825209 -31.467148585825271 0 -31.467148585825271 110.70442566839483 0 0 0 0 -8.0103037768902254 0.32236298382673212 0 0.32236298382673212 2.7151718273841539 0 0 0 0 -2.0184841371094535 10.45919498952491 0 10.45919498952491 -4.5862838557653234 0 0 0 0 5.5457770319626434 46.59297958647312 0 46.59297958647312 40.852324345640227 0 0 0 0 61.124695519043598 74.724823879645555 0 74.724823879645555 -28.545333090871281 0 0 0 0 27.203303303764528 14.994549161116407 0 14.994549161116407 -9.4736062609609633 0 0 0 0 -25.804537472452523 24.922336011794265 0 24.922336011794265 -1.7706986383033012 0 0 0 0 108.77977059060504 74.012286339546336 0 74.012286339546336 -125.66687599498255 0 0 0 0 80.342667043762901 24.564161996978839 0 24.564161996978839 1.9888674930178851 0 0 0 0 83.914744934678311 219.36764234790826 0 219.36764234790826 -55.424319246618325 0 0 0 0 37.858502347327885 16.544582702360458 0 16.544582702360458 -687.61096633362467 0 0 0 0 -52.313114373675489 -12.362898610694174 0 -12.362898610694174 44.949607121132431 0 0 0 0 -28.433091803017305 175.61728962813868 0 175.61728962813868 -29.591785686617186 0 0 0 0 59.374449943344871 14.487186322676891 0 14.487186322676891 2.0869510753845404 0 0 0 0 141.20605241374869 193.5243565515957 0 193.5243565515957 -356.6806550760266 0 0 0 0 56.239553829829674 15.075443863845067 0 15.075443863845067 -285.67604687848871 0 0 0 0 -56.409425139136147 48.807370110567717 0 48.807370110567717 -50.54677678983353 0 0 0 0 78.419787340593757 12.314546234589216 0 12.314546234589216 125.54941011942719 0 0 0 0 -18.828018216358032 146.8264154706776 0 146.8264154706776 -37.702867602787592 0 0 0 0 110.67867425267468 60.503323165634356 0 60.503323165634356 5.3871460451700841 0 0 0 0 81.009248293528799 284.75413941133593 0 284.75413941133593 472.50353949279088 0 0 0 0 -71.779375598271145 121.21867499843938 0 121.21867499843938 -157.6056465325164 0 0 0 0 -160.88623143729637 -87.697319476516896 0 -87.697319476516896 -144.40522514929762 0 0 0 0 0.71156759834525474 -1.1120623605496931 0 -1.1120623605496931 0.52306585490561375 0 0 0 0 177.3352653842885 274.64624832908157 0 274.64624832908157 371.06995439645107 0 0 0 0 -6.4910481961763935 2.3981570728925821 0 2.3981570728925821 1.0454168218798259 0 0 0 0 148.2929725860522 -184.40838451968193 0 -184.40838451968193 -787.14251525426516 0 0 0 0 21.808035780821228 584.53900489742955 0 584.53900489742955 -418.77970485176775 0 0 0 0 -134.45631637048791 341.93200173442528 0 341.93200173442528 439.3716551244288 0 0 0 0 -54.545578541787108 551.84825548005392 0 551.84825548005392 549.49858618094004 0 0 0 0 -86.259167641488602 -4.7511513964527694 0 -4.7511513964527694 252.83309623746391 0 0 0 0 215.00198609362997 44.121632480819244 0 44.121632480819244 -229.80580695678873 0 0 0 0 175.74592809248134 309.60763043109546 0 309.60763043109546 57.403936861650436 0 0 0 0 7.8198805603024084 41.240348854473268 0 41.240348854473268 8.0635066105460282 0 0 0 0 -254.05865104965051 478.78913046163507 0 478.78913046163507 235.76255533869153 0 0 0 0 -96.620909556717379 201.33933395762142 0 201.33933395762142 129.28467700933834 0 0 0 0 171.34385741944425 -170.04298871065839 0 -170.04298871065839 342.42057854272571 0 0 0 0 -287.70535000926975 -67.597439412773383 0 -67.597439412773383 -37.828373611206189 0 0 0 0 39.125235615691054 187.68940349025434 0 187.68940349025434 -376.434635568472 0 0 0 0 -119.28094687433986 389.12222135486718 0 389.12222135486718 -127.50454328684282 0 0 0 0 -0.089618703015730716 180.17418689812439 0 180.17418689812439 -105.38335625913169 0 0 0 0 9.8778904581122333 161.0446200174265 0 161.0446200174265 -73.418890071217902 0 0 0 0 -59.023934581302456 157.11254383350388 0 157.11254383350388 -112.24494116824735 0 0 0 0 -0.040082099018036388 153.13244173997737 0 153.13244173997737 -138.25730891747298 0 0 0 0 -62.0304059976188 157.52294989616712 0 157.52294989616712 35.420680337470912 0 0 0 0 1.6831081756899948 115.35879147902415 0 115.35879147902415 -250.61234558291835 0 0 0 0 -27.552330320278998 98.851910500510712 0 98.851910500510712 -186.62203735369621 0 0 0 0 31.316634518108913 137.37156789262008 0 137.37156789262008 -340.23342136020801 0 0 0 0 10.779526020341564 1.1915082987847114 0 1.1915082987847114 -2.7207347078516548 0 0 0 0 -0.068160609342157841 127.69115897744814 0 127.69115897744814 -310.95440779121054 0 0 0 0 -26.45729182150059 2315.5193590735307 0 2315.5193590735307 -402.63858797423745 0 0 0 0 -1062.3736114851199 674.69792772058281 0 674.69792772058281 1296.7682775814901 0 0 0 0 -7.1077811431429723 8.3469725492540938 0 8.3469725492540938 -4.8115398852960283 0 0 0 0 248.0174459478003 -54.192242153945699 0 -54.192242153945699 -3255.2099719584421 0 0 0 0 -66.959696439182153 57.765402814158733 0 57.765402814158733 -287.94189162358089 0 0 0 0 54.948165616682672 144.69512759133431 0 144.69512759133431 -378.28784986920073 0 0 0 0 -133.13962343809544 232.77511239117302 0 232.77511239117302 -893.42088239795703 0 0 0 0 33.53764626130868 7.4786733475003473 0 7.4786733475003473 -0.45361773110794701 0 0 0 0 30.286437665163248 276.385643673706 0 276.385643673706 -843.74329659900468 0 0 0 0 -25.772940057489905 359.84383554984015 0 359.84383554984015 -937.80328110334085 0 0 0 0 -26.916851999281789 62.41331272471507 0 62.41331272471507 -1047.6311145106947 0 0 0 0 97.870132947879029 193.37492932282657 0 193.37492932282657 -1604.8180052679818 0 0 0 0 -51.817880494363635 421.91150419432415 0 421.91150419432415 -1050.385846614583 0 0 0 0 -21.839682410800606 22.604237417066855 0 22.604237417066855 -9.0827190412966168 0 0 0 0 246.20662223904219 553.20464584548972 0 553.20464584548972 731.51236712365335 0 0 0 0 4.0179568360567259 -0.4295807895774395 0 -0.4295807895774395 0.63060488695840711 0 0 0 0 97.957385737943696 400.24388351911193 0 400.24388351911193 674.44974893678227 0 0 0 0 -76.212926925145439 232.56195229523109 0 232.56195229523109 537.07811044539267 0 0 0 0 15.773356849706033 17.865549000023748 0 17.865549000023748 -31.249507874095798 0 0 0 0 593.00505951794912 146.95188239980598 0 146.95188239980598 -19.011098844915978 0 0 0 0 10.404451447965016 0.80581804453022698 0 0.80581804453022698 -1.2906958535357749 0 0 0 0 0.019669288754812442 23.789933825924891 0 23.789933825924891 10.70184930693722 0 0 0 0 -1.9441877229162969 -0.095324106672830311 0 -0.095324106672830311 -0.10734297916198976 0 0 0 0 0.28208917184383608 1098.8887239461328 0 1098.8887239461328 945.26960903751115 0 0 0 0 -514.01605387388497 327.6206087796208 0 327.6206087796208 -203.88630056539478 0 0 0 0 1.2716273472455437 3.5368160073695663 0 3.5368160073695663 -2.4556392886866547 0 0 0 0 279.20560875379306 -47.301835124768331 0 -47.301835124768331 1436.9224129609374 0 0 0 0 180.75643105967902 417.44239249798738 0 417.44239249798738 425.16893577725568 0 0 0 0 114.20555685713043 67.81035592976059 0 67.81035592976059 -56.738034510359284 0 0 0 0 111.0459542064782 60.959744812262215 0 60.959744812262215 -42.542630863194063 0 0 0 0 0.19100255637749797 182.54352143634242 0 182.54352143634242 140.15732303688492 0 0 0 0 -3.2850845046732502 -1.0695036465214827 0 -1.0695036465214827 2.076191087829045 0 0 0 0 0.48961162143569936 3.7934886966184784 0 3.7934886966184784 2.6877951306063323 0 0 0 0 0.1605865193194802 24.692204170534851 0 24.692204170534851 -20.672516376784642 0 0 0 0 61.660195925978769 90.521845247501915 0 90.521845247501915 -50.052556384005584 0 0 0 0 110.4330178983364 56.38534337481542 0 56.38534337481542 -55.642055827102013 0 0 0 0 66.637977562861778 61.204374403935645 0 61.204374403935645 41.412185372353008 0 0 0 0 -84.472927286100457 200.94181461841799 0 200.94181461841799 -0.49843451664673921 0 0 0 0 -28.227785220482474 67.625121211829537 0 67.625121211829537 36.615044588368619 0 0 0 0 -35.913592516124481 107.8952769019088 0 107.8952769019088 -12.762913392760311 0 0 0 0 25.038162482043845 46.395083632971364 0 46.395083632971364 25.258859836780175 0 0 0 0 -3.8066893153402361 27.76631919302649 0 27.76631919302649 -2.2567912948821345 0 0 0 0 -27.656785392869637 35.379487264702945 0 35.379487264702945 13.45535935597448 0 0 0 0 21.408587997197174 7.11200844834093 0 7.11200844834093 -6.8594361498835497 0 0 0 0 104.40187945024809 66.165973801282234 0 66.165973801282234 29.481863356566464 0 0 0 0 0.195781246609954 41.401825084652245 0 41.401825084652245 0.70450873013413684 0 0 0 0 10.540172148476188 12.062609758058528 0 12.062609758058528 5.7414946787010592 0 0 0 0 -13.551993906563439 4.3685015570354153 0 4.3685015570354153 74.733583658016869 0 0 0 0 -20.224545274191769 32.956886873857002 0 32.956886873857002 57.308507978617854 0 0 0 0 -81.745901276195582 127.99373982009865 0 127.99373982009865 9.2909751287734252 0 0 0 0 -12.958795617698343 63.521258423395921 0 63.521258423395921 26.252198614827648 0 0 0 0 -32.850040369592904 27.78707705898379 0 27.78707705898379 15.091537940151142 0 0 0 0 10.589754558125549 47.672450317676748 0 47.672450317676748 36.00937595273075 0 0 0 0 -19.560296040363028 169.8849841996016 0 169.8849841996016 4.0592754464178142 0 0 0 0 100.04570008841984 143.72505687535886 0 143.72505687535886 3.1886808971539722 0 0 0 0 8.0694866104542484 29.882543390940612 0 29.882543390940612 38.696352652855992 0 0 0 0 5.899358774011489 215.46793132000676 0 215.46793132000676 -154.11475230249562 0 0 0 0 -99.15362911531156 35.443725370359061 0 35.443725370359061 98.204492750955978 0 0 0 0 320.02998276373546 -630.2698512296156 0 -630.2698512296156 127.09885997881247 0 0 0 0 -0.57974790967233503 9.6097597173456819 0 9.6097597173456819 -4.0937212012483428 0 0 0 0 -48.910420094645815 214.59436211431239 0 214.59436211431239 146.56560359781361 0 0 0 0 1.0482113525213208 -101.43387768646789 0 -101.43387768646789 237.87885744380583 0 0 0 0 5.0244465087790218 3.1588141717151927 0 3.1588141717151927 2.1196109031743617 0 0 0 0 425.58055389813308 802.36497753144613 0 802.36497753144613 -328.18777404626599 0 0 0 0 599.86088098098116 -165.87040668096188 0 -165.87040668096188 3.6639311375329271 0 0 0 0 -2.8373687350632508 1.6074619984743777 0 1.6074619984743777 0.97271181201699619 0 0 0 0 0.014176137022381746 9.9942049124752401 0 9.9942049124752401 6.0573638646310428 0 0 0 0 -264.02157556908787 84.076906940797926 0 84.076906940797926 78.276426381860801 0 0 0 0 0.0024874732480384409 10.004451775832422 0 10.004451775832422 6.0531543477482046 0 0 0 0 7.7300842779586674 16.939534163393546 0 16.939534163393546 8.9694394374091644 0 0 0 0 0.0016984563844744116 16.885754006703792 0 16.885754006703792 9.4313115451495833 0 0 0 0 7.102406146380531 6.5515762418759493 0 6.5515762418759493 6.8032623304732596 0 0 0 0 1.3298291790535188 4.1840101996795198 0 4.1840101996795198 13.609466782406116 0 0 0 0 55.077652846870478 365.27887409651703 0 365.27887409651703 2329.2509558139936 0 0 0 0 645.04582043715345 -58.341888190974714 0 -58.341888190974714 1292.5346997098604 0 0 0 0 -287.85458216194456 -349.34224317325334 0 -349.34224317325334 2983.1156519319993 0 0 0 0 -632.86643454479054 875.00841607766779 0 875.00841607766779 2294.4743490428154 0 0 0 0 0.81878625903139635 1052.8975301567166 0 1052.8975301567166 343.60329299459409 0 0 0 0 -854.43968348560156 129.13704502736073 0 129.13704502736073 -517.03738189523574 0 0 0 0 -74.824683472164907 1389.4557029092939 0 1389.4557029092939 -1470.2078938473496 0 0 0 0 220.67395546766056 725.81519045911773 0 725.81519045911773 -76.107370533558424 0 0 0 0 -148.47978106380469 914.34929366989127 0 914.34929366989127 917.45669477499905 0 0 0 0 169.78521900749183 423.32559163941914 0 423.32559163941914 -29.724151781381806 0 0 0 0 37.941536706926854 968.9754857836042 0 968.9754857836042 -433.87407832409372 0 0 0 0 -81.120185937325004 416.47242898227705 0 416.47242898227705 -113.62912776410667 0 0 0 0 574.61935351432476 155.32400972882897 0 155.32400972882897 -2400.2611459307482 0 0 0 0 -317.27135609859397 308.37591453405912 0 308.37591453405912 914.02029884809599 0 0 0 0 -154.00467239560385 0.047996983001212357 0 0.047996983001212357 -1023.4472039368411 0 0 0 0 -11.231974575909248 6.4984282321589077 0 6.4984282321589077 -3.4827532127965526 0 0 0 0 -0.47776593136752565 463.02603257449698 0 463.02603257449698 -1438.3918709823192 0 0 0 0 -138.24228915182903 251.76129053920977 0 251.76129053920977 -311.2345414753654 0 0 0 0 -15.462812834226497 20.840650811673186 0 20.840650811673186 -6.2992231763855671 0 0 0 0 -31.690580320359572 17.981339295818302 0 17.981339295818302 -7.4373256528996592 0 0 0 0 -56.411159937095363 404.71671889212303 0 404.71671889212303 -173.93260998778715 0 0 0 0 -359.61344028818712 471.00735123417326 0 471.00735123417326 -182.2827556436896 0 0 0 0 -24.635425934990053 922.11202440680063 0 922.11202440680063 331.82370293265558 0 0 0 0 -276.09452872942711 291.44655527966825 0 291.44655527966825 122.41325990605401 0 0 0 0 -1.0530531573306234 1.2460618533706196 0 1.2460618533706196 2.079279757730319 0 0 0 0 -897.49965888958104 591.609456048418 0 591.609456048418 1133.824885863236 0 0 0 0 -1496.7876854293718 -268.68251181737833 0 -268.68251181737833 302.22016434329271 0 0 0 0 -469.14060732198413 270.75993154502794 0 270.75993154502794 546.26133334312362 0 0 0 0 -514.6993166966131 -86.251071287653758 0 -86.251071287653758 1769.866799020414 0 0 0 0 -25.216120065728319 931.08031046070391 0 931.08031046070391 1462.0320791920094 0 0 0 0 394.33825413533486 -613.70881628656025 0 -613.70881628656025 490.41445110960194 0 0 0 0 -42.723361355005181 80.046887957832951 0 80.046887957832951 280.73055663679406 0 0 0 0 -506.73187459838209 157.41252065119363 0 157.41252065119363 751.1859637558955 0 0 0 0 -210.36957335684565 207.24086823291509 0 207.24086823291509 628.73824314602098 0 0 0 0 -77.501976123816348 -81.281170776147519 0 -81.281170776147519 372.26028672210668 0 0 0 0 -130.28145834712632 386.86436930794116 0 386.86436930794116 923.22366936472827 0 0 0 0 238.78973817631777 381.02674078575365 0 381.02674078575365 232.56283711226388 0 0 0 0 -21.481051904062042 141.8859917136142 0 141.8859917136142 163.52547560424136 0 0 0 0 -97.635116911667865 271.47113751351571 0 271.47113751351571 656.11264177007251 0 0 0 0 214.99904190716916 152.66933766476359 0 152.66933766476359 26.590583917401091 0 0 0 0 -22.503195964178303 105.77475958763534 0 105.77475958763534 -69.08525569179983 0 0 0 0 -92.702651410741964 41.908161328294227 0 41.908161328294227 112.5413888329349 0 0 0 0 -39.306775294304316 36.61892207655292 0 36.61892207655292 -33.964810282583016 0 0 0 0 162.36436398922524 184.52958242464592 0 184.52958242464592 76.07687691434694 0 0 0 0 1.1833477875763379 5.4493274190818113 0 5.4493274190818113 -2.5539612866781738 0 0 0 0 8.2313659637745786 9.9039989219941518 0 9.9039989219941518 -12.468166017345624 0 0 0 0 27.704165371833369 20.21808282470738 0 20.21808282470738 -47.97732806186832 0 0 0 0 -7.7582801679091062 19.621195881183667 0 19.621195881183667 19.513831286894856 0 0 0 0 -29.325858638056161 9.1624037212622511 0 9.1624037212622511 2.0706915168275657 0 0 0 0 140.78340195448254 316.50699162527599 0 316.50699162527599 713.81149530482617 0 0 0 0 55.821614124870393 223.83822162188881 0 223.83822162188881 647.96759986320103 0 0 0 0 102.49643768269743 269.36625975144852 0 269.36625975144852 680.34234621834185 0 0 0 0 -4.0985294175384013 0.68149979148137163 0 0.68149979148137163 3.3491119285506272 0 0 0 0 145.4832948250114 338.42335312744399 0 338.42335312744399 656.60485964239342 0 0 0 0 368.6222625192313 449.05423811516812 0 449.05423811516812 649.99771477989543 0 0 0 0 224.22416635254922 298.71902778293224 0 298.71902778293224 528.4649044250109 0 0 0 0 143.95027592283441 334.40012803966238 0 334.40012803966238 580.30447481016745 0 0 0 0 1075.4998427591054 1380.3046668142779 0 1380.3046668142779 961.73929941909944 0 0 0 0 446.77512755822681 373.33345400651888 0 373.33345400651888 585.03960135237867 0 0 0 0 778.51888058370969 495.83692009558945 0 495.83692009558945 521.7446541428435 0 0 0 0 318.79381943822955 595.81222774764319 0 595.81222774764319 673.97062523051545 0 0 0 0 -407.09379201021511 144.04956116159883 0 144.04956116159883 -43.404510117987229 0 0 0 0 458.77879392035538 488.99389453673939 0 488.99389453673939 621.56813332377715 0 0 0 0 -3.5073645935098625 3.2773463325835337 0 3.2773463325835337 7.0331234137011052 0 0 0 0 736.27054498296638 599.76185358552175 0 599.76185358552175 434.29694333750376 0 0 0 0 412.44436991072143 363.21327068838582 0 363.21327068838582 447.56248309575312 0 0 0 0 187.2872887285921 300.11965303922261 0 300.11965303922261 436.43162644145195 0 0 0 0 222.35401034413371 388.86201301482652 0 388.86201301482652 553.67879883317073 0 0 0 0 263.94897069952276 346.23829904578815 0 346.23829904578815 376.54573329353298 0 0 0 0 315.49830959667452 423.85862985524 0 423.85862985524 472.83011631885165 0 0 0 0 395.72094245596236 317.27327126290402 0 317.27327126290402 255.04085784328345 0 0 0 0 598.42004640787491 394.72736393621744 0 394.72736393621744 283.87116156998673 0 0 0 0 309.97544486517654 322.80879803302378 0 322.80879803302378 257.33168577636388 0 0 0 0 259.23057449006592 406.65460563941451 0 406.65460563941451 367.68711711696233 0 0 0 0 313.67285048545455 326.35962083934282 0 326.35962083934282 245.81064446887467 0 0 0 0 75.065577293729802 357.7045635970544 0 357.7045635970544 310.36882859797333 0 0 0 0 95.8323116672982 337.51678540898138 0 337.51678540898138 272.20249990951561 0 0 0 0 74.816396369162248 361.7276675423127 0 361.7276675423127 246.88475933870359 0 0 0 0 69.797359958232846 337.198865950857 0 337.198865950857 272.92690724037675 0 0 0 0 66.917937495025399 322.76335089968416 0 322.76335089968416 207.48112216650043 0 0 0 0 41.083979456874658 416.14741776517621 0 416.14741776517621 265.94222395708493 0 0 0 0 65.951674907526467 367.59568759849208 0 367.59568759849208 269.47804090670252 0 0 0 0 62.318396944567212 383.08048888081612 0 383.08048888081612 302.26171698918915 0 0 0 0 102.29492692742497 369.14136087639781 0 369.14136087639781 286.5731485620272 0 0 0 0 121.16269855826977 378.76330996491015 0 378.76330996491015 297.16267812490696 0 0 0 0 100.01796765133622 358.67326224589488 0 358.67326224589488 319.25956982763455 0 0 0 0 217.90102328560897 348.2648673943404 0 348.2648673943404 298.05685765641556 0 0 0 0 192.77837716139038 366.2617145209224 0 366.2617145209224 298.32786239548295 0 0 0 0 147.40559860621579 376.99614870107325 0 376.99614870107325 364.2353882749594 0 0 0 0 138.07982271464425 351.7427259058386 0 351.7427259058386 300.62630563860876 0 0 0 0 97.211305607110262 348.96234328870196 0 348.96234328870196 363.62319160823245 0 0 0 0 91.976803034936893 301.38780703420343 0 301.38780703420343 319.92469947299105 0 0 0 0 109.97480822712532 341.09569022847791 0 341.09569022847791 399.56706026963366 0 0 0 0 147.60532755305758 299.3487673685886 0 299.3487673685886 453.14296881368864 0 0 0 0 195.6522888388281 388.31276647425693 0 388.31276647425693 427.38335251981334 0 0 0 0 158.84871251319419 327.41579035583709 0 327.41579035583709 351.78429429264543 0 0 0 0 114.85583980547381 326.51142051765783 0 326.51142051765783 455.49990315621835 0 0 0 0 155.67800507084758 323.684961310777 0 323.684961310777 441.57533989509102 0 0 0 0 77.140131568710785 264.10904938976455 0 264.10904938976455 379.23677743186272 0 0 0 0 75.295858035984566 265.49745074852399 0 265.49745074852399 379.25612097866542 0 0 0 0 60.852755467247334 223.15772852552254 0 223.15772852552254 316.22314459487097 0 0 0 0 51.868468000597204 228.37875140079996 0 228.37875140079996 320.70894301861699 0 0 0 0 86.701864380331244 306.11773089969211 0 306.11773089969211 322.85007021919591 0 0 0 0 76.674277781887213 301.60573083753843 0 301.60573083753843 324.05446909288003 0 0 0 0 66.650711538270116 259.13784752134234 0 259.13784752134234 268.54369832719385 0 0 0 0 76.990169976628749 295.05050433330393 0 295.05050433330393 224.15030229241529 0 0 0 0 56.623796799918637 198.34224712784635 0 198.34224712784635 232.94568525761133 0 0 0 0 65.136972473439528 198.21108279452892 0 198.21108279452892 214.04311359461281 0 0 0 0 -23.946169861642886 10.406316313153745 0 10.406316313153745 -2.2543458440372248 0 0 0 0 29.147170671916683 154.88039888541971 0 154.88039888541971 310.62238976197114 0 0 0 0 40.832859633577755 -47.969604053672811 0 -47.969604053672811 -50.466012679476989 0 0 0 0 -7.6237080159098127 9.6092824802625216 0 9.6092824802625216 -5.4296513105398212 0 0 0 0 -23.96457820609794 60.110763354517985 0 60.110763354517985 22.565090597669041 0 0 0 0 23.474504338446422 119.39134116670903 0 119.39134116670903 305.55214242602233 0 0 0 0 24.239151798828971 129.44089782057563 0 129.44089782057563 265.96662323809869 0 0 0 0 31.38310841229395 161.50582181748177 0 161.50582181748177 298.17167701922881 0 0 0 0 42.844381328592135 190.45225238284547 0 190.45225238284547 362.74867580529826 0 0 0 0 32.733014438970713 245.43558486064285 0 245.43558486064285 486.12685077630158 0 0 0 0 119.82458734187094 264.22849919101645 0 264.22849919101645 468.05338758337894 0 0 0 0 23.577632778702537 189.60915206091886 0 189.60915206091886 392.04250927301473 0 0 0 0 -16.582899473636644 107.48323791836447 0 107.48323791836447 362.34203420166875 0 0 0 0 58.089483683652361 219.65483707475505 0 219.65483707475505 395.88958988778177 0 0 0 0 -58.667564286384732 152.41248529239238 0 152.41248529239238 460.04534604192304 0 0 0 0 -16.344955212929335 16.83927409152507 0 16.83927409152507 -9.8481044509186866 0 0 0 0 -20.759484217473073 -45.18497946559728 0 -45.18497946559728 244.64473999565234 0 0 0 0 -9.6664466210932005 222.40066542332352 0 222.40066542332352 412.90545342226687 0 0 0 0 59.828095364820001 156.29078839223598 0 156.29078839223598 473.31547131453408 0 0 0 0 -24.477849457768571 93.022113874154002 0 93.022113874154002 48.522114826329926 0 0 0 0 1.4248167413170449 -22.31901011959053 0 -22.31901011959053 -65.277723556981073 0 0 0 0 -27.104478401051182 18.150857247999205 0 18.150857247999205 -7.9124204156542675 0 0 0 0 98.972296688501956 209.8285929225749 0 209.8285929225749 190.1652114625831 0 0 0 0 -10.65642624778647 3.337835669489948 0 3.337835669489948 -0.42793286264320329 0 0 0 0 122.7475101950622 159.40505988846598 0 159.40505988846598 204.45581554810633 0 0 0 0 166.77332511117856 238.39239452719085 0 238.39239452719085 6.1042094275035197 0 0 0 0 179.53389539641285 218.27840077218752 0 218.27840077218752 -33.672635952068958 0 0 0 0 168.64161659764068 200.74788896744576 0 200.74788896744576 -59.97710996605565 0 0 0 0 38.323344165066374 130.47496152034 0 130.47496152034 -35.144742234275327 0 0 0 0 194.4374780314829 161.56681953875159 0 161.56681953875159 -68.028093369357521 0 0 0 0 106.34112888450909 124.13010267330537 0 124.13010267330537 112.32198952434192 0 0 0 0 104.03204328712764 91.640874771598646 0 91.640874771598646 -97.849830694307457 0 0 0 0 -4.6946926994987734 0.68412675835456582 0 0.68412675835456582 0.64125696969284718 0 0 0 0 -237.47074392670766 -51.641300982795656 0 -51.641300982795656 155.55679130322824 0 0 0 0 69.226144590706099 129.34803227228986 0 129.34803227228986 -136.40799002138374 0 0 0 0 -31.500297502847388 207.15198225807399 0 207.15198225807399 -117.03730873890163 0 0 0 0 -167.96263494994491 216.54897103219992 0 216.54897103219992 -29.111968791636173 0 0 0 0 -29.983438588766148 10.932593997538788 0 10.932593997538788 5.1710722894003993 0 0 0 0 230.48276310220535 210.58468044409892 0 210.58468044409892 -357.06499471781717 0 0 0 0 -30.953269531313282 57.576177511800182 0 57.576177511800182 -42.799260039450985 0 0 0 0 86.512493308473495 86.690257284699328 0 86.690257284699328 -40.43784624581167 0 0 0 0 4.9585433672764339 106.45318261200009 0 106.45318261200009 214.65176277648789 0 0 0 0 4.5013716281841312 10.186152565679606 0 10.186152565679606 1.5450049487202904 0 0 0 0 -125.8754960239894 66.762679133968049 0 66.762679133968049 -16.497594311076682 0 0 0 0 -5.4894498998011443 59.542175826853324 0 59.542175826853324 -12.536718485019264 0 0 0 0 -208.63517985661747 55.385319833323592 0 55.385319833323592 75.103651498357067 0 0 0 0 42.267190334532643 32.521117435986525 0 32.521117435986525 66.370240783769987 0 0 0 0 7.5831771681981479 4.9848377511655073 0 4.9848377511655073 -1.8818121392595089 0 0 0 0 4.4820104090904351 49.31196995760547 0 49.31196995760547 31.314814816694707 0 0 0 0 -15.928673059852031 31.735536691848758 0 31.735536691848758 3.1296686083922367 0 0 0 0 -94.3872468049085 132.19600120374525 0 132.19600120374525 5.4586879016933381 0 0 0 0 30.802588062128052 155.89802981739922 0 155.89802981739922 -82.960284486151068 0 0 0 0 -51.903878415963845 139.60380523416097 0 139.60380523416097 3.4278978982183617 0 0 0 0 -11.677099525069934 48.067269460862008 0 48.067269460862008 -64.750420527474489 0 0 0 0 -15.578680492527383 -6.6310301813841193 0 -6.6310301813841193 559.62185043812497 0 0 0 0 3.8372039044037649 1.7885317694227751 0 1.7885317694227751 1.1943022220646782 0 0 0 0 -14.816652136098128 34.837015711207641 0 34.837015711207641 87.030465582734905 0 0 0 0 -30.30018757902144 22.33797574340133 0 22.33797574340133 104.10665617438644 0 0 0 0 -25.333489965720219 43.817150291262806 0 43.817150291262806 49.212752049876144 0 0 0 0 -63.933098698675167 72.86266140591033 0 72.86266140591033 120.44683609389176 0 0 0 0 -117.44913504889701 170.94724626106472 0 170.94724626106472 46.767949299082829 0 0 0 0 -111.68017941171274 114.99848546484645 0 114.99848546484645 207.76250241103116 0 0 0 0 106.00521626302361 162.21504280432418 0 162.21504280432418 -90.245157546138216 0 0 0 0 340.40336291406493 151.4409696343173 0 151.4409696343173 -156.19400944296649 0 0 0 0 205.9337689348904 390.84747936485292 0 390.84747936485292 295.04180088670546 0 0 0 0 -26.650713507566252 -14.534713448330876 0 -14.534713448330876 243.6010000936285 0 0 0 0 41.269842589368636 232.68388525830596 0 232.68388525830596 50.695850221440196 0 0 0 0 149.64760936567473 360.09775301609625 0 360.09775301609625 195.65204818394704 0 0 0 0 367.94611374997476 320.23172883314692 0 320.23172883314692 -51.308799966826427 0 0 0 0 291.99116197212425 98.416454993355728 0 98.416454993355728 -140.50898111563583 0 0 0 0 -10.355840867810656 59.230268342927403 0 59.230268342927403 -68.898975417963726 0 0 0 0 779.14549226022791 674.30943949928042 0 674.30943949928042 769.69774973212043 0 0 0 0 -32.935955519358686 -23.557389703208173 0 -23.557389703208173 -184.71941069229069 0 0 0 0 -53.189011727707111 137.30901152883234 0 137.30901152883234 34.822756736757583 0 0 0 0 73.358924402520643 159.61023766945436 0 159.61023766945436 -44.484098519489635 0 0 0 0 1.214175467322093 52.441128858196564 0 52.441128858196564 -68.836272864183272 0 0 0 0 23.122706145157281 -66.573259023385617 0 -66.573259023385617 -188.26416793248063 0 0 0 0 663.98064676109061 730.89942874245753 0 730.89942874245753 474.57855199111509 0 0 0 0 1034.3648475995724 846.7152600067493 0 846.7152600067493 508.15026992977437 0 0 0 0 755.32030519041291 419.15086441607855 0 419.15086441607855 245.08939160651062 0 0 0 0 1340.4930228968951 478.30643341180985 0 478.30643341180985 137.89764726933208 0 0 0 0 -973.61977946862316 464.09376410744153 0 464.09376410744153 411.29839160140546 0 0 0 0 -1056.6631613182981 327.42506263214455 0 327.42506263214455 335.12328742851969 0 0 0 0 1293.1909202674869 270.23292929682066 0 270.23292929682066 -264.69757614238188 0 0 0 0 1261.2849314882478 664.30839621260384 0 664.30839621260384 358.31064396245347 0 0 0 0 0.93682636666508756 3.1855600501684194 0 3.1855600501684194 1.0057386582534491 0 0 0 0 -675.8080899331253 233.53741317336971 0 233.53741317336971 92.519733381224796 0 0 0 0 -683.7179648206511 174.18963031834573 0 174.18963031834573 52.334208568441682 0 0 0 0 -615.49894940255035 253.65397706751537 0 253.65397706751537 129.83576524845557 0 0 0 0 -559.99431967124838 211.52986882659025 0 211.52986882659025 125.54399462393485 0 0 0 0 -806.38200379761111 621.61247283471312 0 621.61247283471312 452.11496288591297 0 0 0 0 -440.09472482893034 187.26186481371406 0 187.26186481371406 61.530642406025436 0 0 0 0 -414.85732529658708 141.40525904746028 0 141.40525904746028 -21.050344433780992 0 0 0 0 -501.75454704860749 209.97074749805324 0 209.97074749805324 92.376126745133661 0 0 0 0 -514.40616197089548 167.48937364143785 0 167.48937364143785 -18.557767224843701 0 0 0 0 -519.27418674774526 289.29480630144826 0 289.29480630144826 263.89718680514488 0 0 0 0 -376.68652379326522 197.57164008596737 0 197.57164008596737 285.50980563880876 0 0 0 0 -407.72109539946541 193.39481499996327 0 193.39481499996327 88.759592192116543 0 0 0 0 -377.79798359790584 118.91770178022853 0 118.91770178022853 112.54331068514148 0 0 0 0 -440.93549128879386 160.90273815421097 0 160.90273815421097 229.82579684612574 0 0 0 0 -398.81315785166225 244.12544138071826 0 244.12544138071826 295.3831914091279 0 0 0 0 -333.12292927666567 203.79134154302301 0 203.79134154302301 174.09975074029353 0 0 0 0 -20.621223794121761 596.18187002587365 0 596.18187002587365 434.81982387858443 0 0 0 0 -288.87825817929115 681.69467292683839 0 681.69467292683839 886.56666181995388 0 0 0 0 -335.01832367162569 225.88465842182632 0 225.88465842182632 299.34091917990008 0 0 0 0 -369.97319312932086 300.57180182071897 0 300.57180182071897 555.75088125606999 0 0 0 0 -395.81540342432345 372.64245783592924 0 372.64245783592924 603.78529600054026 0 0 0 0 -345.58454943353718 245.99006482625555 0 245.99006482625555 715.44344310212182 0 0 0 0 -440.16614619025495 790.08766674301296 0 790.08766674301296 463.16202942325617 0 0 0 0 701.99883269309066 872.94679090907448 0 872.94679090907448 455.68920915039052 0 0 0 0 -49.800488321183366 49.630722105752284 0 49.630722105752284 -100.99957550987892 0 0 0 0 -390.44551634601521 359.98346631238019 0 359.98346631238019 -25.990916472706886 0 0 0 0 -26.453413577375613 63.807172257395905 0 63.807172257395905 -471.53360163623438 0 0 0 0 -24.396584626631892 62.245809874526586 0 62.245809874526586 -67.773593813475912 0 0 0 0 -19.548827921564225 331.02074355311925 0 331.02074355311925 -81.589502219251244 0 0 0 0 106.32607727080176 212.70299863362743 0 212.70299863362743 9.6171880573101589 0 0 0 0 32.337680938930134 149.83184399021775 0 149.83184399021775 -93.831803049768496 0 0 0 0 17.175218676427903 122.76188428233945 0 122.76188428233945 26.434329945244826 0 0 0 0 68.616553915577242 227.75514045805903 0 227.75514045805903 22.983029520859418 0 0 0 0 100.73587950978254 190.6080682261163 0 190.6080682261163 63.315115688870719 0 0 0 0 139.11393184028566 241.46555483906559 0 241.46555483906559 85.609061901122914 0 0 0 0 79.278160773013951 238.27595446914347 0 238.27595446914347 223.9221847307781 0 0 0 0 41.10342168250645 255.69456026502303 0 255.69456026502303 399.6158943376231 0 0 0 0 66.99446751234791 259.10399637766386 0 259.10399637766386 343.96976940285094 0 0 0 0 67.658699610474287 178.2166947840451 0 178.2166947840451 374.42527616269945 0 0 0 0 82.162110709716217 202.79281519446886 0 202.79281519446886 238.60856247678748 0 0 0 0 86.203291167737916 178.44069516212039 0 178.44069516212039 370.33847182504542 0 0 0 0 58.539017537565087 298.61628134421699 0 298.61628134421699 235.60733618512313 0 0 0 0 -16.310815958126682 9.4327691747326057 0 9.4327691747326057 -0.7363272706000572 0 0 0 0 38.706142376016942 254.92511323338476 0 254.92511323338476 639.38217093305866 0 0 0 0 8.5963545311141445 3.1003698802195458 0 3.1003698802195458 -2.0153504610721846 0 0 0 0 157.49068894320953 -110.43523729792832 0 -110.43523729792832 -124.41648477441049 0 0 0 0 38.220900863932911 131.5541780548665 0 131.5541780548665 -10.707217824325198 0 0 0 0 -45.671764615151915 111.78731108288412 0 111.78731108288412 45.321450116491178 0 0 0 0 -13.978887863038153 5.9599866319247141 0 5.9599866319247141 1.4791443742615655 0 0 0 0 11.82816648226526 84.540117572483723 0 84.540117572483723 14.047168358411 0 0 0 0 -13.653394815876197 9.4720444714406753 0 9.4720444714406753 -5.276260557349012 0 0 0 0 62.511365275684511 -36.720497581831296 0 -36.720497581831296 -38.385299345327439 0 0 0 0 1.3699926503846314 7.9016325414136759 0 7.9016325414136759 -3.4690100503150028 0 0 0 0 63.575565207982436 190.84241306703188 0 190.84241306703188 96.63782104665006 0 0 0 0 23.749564863028354 142.22765835691098 0 142.22765835691098 104.05921415572084 0 0 0 0 29.634871044872853 116.66420031843791 0 116.66420031843791 152.86993343515496 0 0 0 0 50.052411714656046 179.46813358867075 0 179.46813358867075 193.90460445231292 0 0 0 0 81.008142185339238 345.73254815069959 0 345.73254815069959 128.52140247473017 0 0 0 0 66.235535874962807 230.48402127321606 0 230.48402127321606 119.5437644609774 0 0 0 0 70.700163365268963 249.36585574407763 0 249.36585574407763 152.41852078848751 0 0 0 0 65.340385872594197 201.58023198769297 0 201.58023198769297 55.199244770643418 0 0 0 0 79.132902855606517 228.7073103857183 0 228.7073103857183 108.52411084613414 0 0 0 0 -55.437710487552977 -62.208710146422732 0 -62.208710146422732 -434.94023363252927 0 0 0 0 90.949489135062322 257.22626719194523 0 257.22626719194523 -176.79733124782797 0 0 0 0 -53.572750210383674 28.525197275375831 0 28.525197275375831 51.041018031683052 0 0 0 0 80.564897796793957 342.79404332534614 0 342.79404332534614 -90.134876198113488 0 0 0 0 60.134339288342744 337.28413829346391 0 337.28413829346391 -77.063246548837924 0 0 0 0 91.737999425538874 335.59712119968026 0 335.59712119968026 -698.32398673650459 0 0 0 0 -8.5204889935448591 478.07893428145962 0 478.07893428145962 -139.52198465923721 0 0 0 0 -75.880431133729871 604.68850552692675 0 604.68850552692675 137.25831995191402 0 0 0 0 46.924963135039434 458.06728615310931 0 458.06728615310931 219.56564368700492 0 0 0 0 22.53906344374991 476.15243599486348 0 476.15243599486348 206.88335112320783 0 0 0 0 65.104849428345915 377.27499913133943 0 377.27499913133943 174.42193639661491 0 0 0 0 64.653596450807527 384.65845058942068 0 384.65845058942068 228.70648183413141 0 0 0 0 106.52700872521382 377.8738793948869 0 377.8738793948869 -58.97076761257631 0 0 0 0 85.353673277655616 367.07616594891442 0 367.07616594891442 179.2656921052403 0 0 0 0 -691.11167307008873 93.809694407427742 0 93.809694407427742 548.94438959288004 0 0 0 0 -608.3498940916179 217.60709175976808 0 217.60709175976808 140.76914945093449 0 0 0 0 -197.95780601615115 460.63979100444521 0 460.63979100444521 103.84107865804253 0 0 0 0 -538.00764456580509 381.47159380625817 0 381.47159380625817 769.01345871199374 0 0 0 0 -371.92182562354719 756.64518323546508 0 756.64518323546508 264.60269379023885 0 0 0 0 -174.63093670469243 583.24286146775557 0 583.24286146775557 -185.20663960129605 0 0 0 0 -160.32733586284303 837.9242536595375 0 837.9242536595375 -989.44095410236332 0 0 0 0 -1283.0845475217793 469.92822750231426 0 469.92822750231426 109.00310308738153 0 0 0 0 -568.60802611878898 793.94722274715241 0 793.94722274715241 -894.81426889175782 0 0 0 0 -7.8003600561120265 1.6490025513224396 0 1.6490025513224396 0.091731264400394252 0 0 0 0 -178.63083741915761 113.00031597548514 0 113.00031597548514 167.59751521170256 0 0 0 0 122.42741289766855 139.25451679194884 0 139.25451679194884 -1211.9964950800131 0 0 0 0 -5.0012295714382731 3.4530231499462332 0 3.4530231499462332 -2.429188414406056 0 0 0 0 -877.18151269329246 1074.5762032017738 0 1074.5762032017738 -62.290786433426547 0 0 0 0 -1336.700596977229 339.04741693779943 0 339.04741693779943 -654.04105160810286 0 0 0 0 -528.42795752327947 241.90728937549284 0 241.90728937549284 -770.77271700749407 0 0 0 0 -379.87199188362865 752.83806007595558 0 752.83806007595558 -1227.1285656058244 0 0 0 0 -398.34264103491296 720.94008708432739 0 720.94008708432739 -3.2021280836197548 0 0 0 0 -557.53655998176691 448.07150920979257 0 448.07150920979257 591.90370035940578 0 0 0 0 -319.47698407896678 541.86486009003056 0 541.86486009003056 472.4190739562182 0 0 0 0 1.8544093480810488 -2.4883066188448311 0 -2.4883066188448311 1.0659928173028845 0 0 0 0 -269.72905480142799 259.53877095568168 0 259.53877095568168 1159.8110472062162 0 0 0 0 -725.39446299564315 115.73637354395942 0 115.73637354395942 59.339323592546862 0 0 0 0 75.613592787791276 -97.696367099648342 0 -97.696367099648342 -155.70532207044744 0 0 0 0 53.158508136402816 57.495169138492201 0 57.495169138492201 677.52351378410822 0 0 0 0 138.96712759777438 198.97216788311198 0 198.97216788311198 448.87732149541262 0 0 0 0 38.52554473730379 178.50592970188336 0 178.50592970188336 217.43327345633588 0 0 0 0 35.372070778379566 346.35765141106822 0 346.35765141106822 346.782835001286 0 0 0 0 -123.85225179609552 243.28648989721114 0 243.28648989721114 561.32461797710857 0 0 0 0 -233.57027502442361 144.05769312030498 0 144.05769312030498 269.13499296320515 0 0 0 0 -86.839819797265591 197.02591833404495 0 197.02591833404495 230.35397771285352 0 0 0 0 -409.34284789689991 334.08589465859404 0 334.08589465859404 72.303009033963463 0 0 0 0 -330.48948109365301 481.39561810480154 0 481.39561810480154 -76.092956184249488 0 0 0 0 -467.02583051731926 653.00509345681076 0 653.00509345681076 -7.2751754612108925 0 0 0 0 -230.12576258268382 512.83533027274098 0 512.83533027274098 161.84422752433602 0 0 0 0 -225.54081039209268 431.18248295449666 0 431.18248295449666 -689.90597024648741 0 0 0 0 37.844460248277755 406.81207134798751 0 406.81207134798751 -142.94588354042025 0 0 0 0 152.13127374437317 373.51112433433082 0 373.51112433433082 570.07340382151597 0 0 0 0 -258.76866348317708 254.49881236531655 0 254.49881236531655 98.049516565544764 0 0 0 0 -104.98242806956841 -12.72951515672321 0 -12.72951515672321 13.522970438978518 0 0 0 0 66.907674513116945 189.24022802807667 0 189.24022802807667 335.17792717034172 0 0 0 0 -17.538668504159432 140.36750119435965 0 140.36750119435965 486.70369852190561 0 0 0 0 59.825007358442235 96.05407261379878 0 96.05407261379878 668.75003408196062 0 0 0 0 -147.89148073765682 191.0938642513247 0 191.0938642513247 1035.0564227786635 0 0 0 0 3.8440298768458661 0.89657548337572734 0 0.89657548337572734 -0.074204866077355547 0 0 0 0 -112.06238911602122 85.200425585961057 0 85.200425585961057 -138.01399423989642 0 0 0 0 -49.234255391173065 210.6852329257672 0 210.6852329257672 -576.12719608842599 0 0 0 0 11.536748261886316 4.5544896455409543 0 4.5544896455409543 3.6140262924927136 0 0 0 0 86.693443175703578 110.97952572088616 0 110.97952572088616 -421.85425728595874 0 0 0 0 82.325326324236812 76.68369954494483 0 76.68369954494483 -142.29815638833315 0 0 0 0 -383.52821244840743 164.00682867209616 0 164.00682867209616 123.2171866534336 0 0 0 0 111.97303985571125 387.28558549833178 0 387.28558549833178 1477.5481532906269 0 0 0 0 -37.282201378414442 60.959661596176502 0 60.959661596176502 -60.151522417736359 0 0 0 0 71.789999310967687 652.48107641063098 0 652.48107641063098 541.46389365301002 0 0 0 0 231.78308441250556 327.72929697900508 0 327.72929697900508 -11.062440475769108 0 0 0 0 100.1683816392906 96.277591262616625 0 96.277591262616625 -163.12542590423254 0 0 0 0 -77.614555764928809 -90.024036181395786 0 -90.024036181395786 -190.46380298012809 0 0 0 0 325.35191715977271 91.884042950219737 0 91.884042950219737 -295.78713018156122 0 0 0 0 -648.5773255177337 137.78982639010064 0 137.78982639010064 226.53615365315636 0 0 0 0 -884.85399003971543 597.48011576196586 0 597.48011576196586 -191.11037511463655 0 0 0 0 -95.2204434593732 -139.57193809156888 0 -139.57193809156888 -58.57755483029905 0 0 0 0 -467.04987352299213 241.51362914015772 0 241.51362914015772 -274.76875406841282 0 0 0 0 -412.81821347601363 237.67333545003203 0 237.67333545003203 -446.76556955723208 0 0 0 0 -466.74491327124997 121.25674494737177 0 121.25674494737177 -227.83079197155894 0 0 0 0 -126.79366030052188 18.248555605568981 0 18.248555605568981 -425.63034954556497 0 0 0 0 -3.6336365855148358 1.054226804968124 0 1.054226804968124 0.54981236296168845 0 0 0 0 -230.06867046491243 770.87826757016592 0 770.87826757016592 1104.3643740150146 0 0 0 0 -398.4549447648169 1066.5230240632372 0 1066.5230240632372 70.515825947004487 0 0 0 0 -434.68134873196686 120.68945252966296 0 120.68945252966296 -158.52646396176715 0 0 0 0 -414.01911849384487 132.05803549311531 0 132.05803549311531 -355.00183239107719 0 0 0 0 -242.50501780955528 -356.94454192606645 0 -356.94454192606645 397.12259435144369 0 0 0 0 -33.712741936884669 63.326166642397837 0 63.326166642397837 -65.437802747170565 0 0 0 0 -117.69788645165681 237.10877445572987 0 237.10877445572987 221.91933058622817 0 0 0 0 -268.30584513786016 190.86824777827132 0 190.86824777827132 229.55045926234379 0 0 0 0 -302.83271346563561 219.70764599845279 0 219.70764599845279 220.86736095539527 0 0 0 0 -809.04620754417965 754.91213172221069 0 754.91213172221069 117.98824262412381 0 0 0 0 -0.96669112926381207 3.1470834383922153 0 3.1470834383922153 -8.5890708114013705 0 0 0 0 -306.49777690027986 158.43617335991439 0 158.43617335991439 5.8007874412869569 0 0 0 0 -367.09687813193887 -59.435931097948924 0 -59.435931097948924 -120.60537774047407 0 0 0 0 13.486881700004233 390.43093210639017 0 390.43093210639017 245.9651865666965 0 0 0 0 -340.35730981120287 207.14333825032008 0 207.14333825032008 294.20608280049055 0 0 0 0 -250.53104651626199 172.87128555432719 0 172.87128555432719 97.025935445824871 0 0 0 0 -238.84667643805733 252.71488606636558 0 252.71488606636558 209.46066404227167 0 0 0 0 -310.46325793275901 213.68512954126345 0 213.68512954126345 350.01306427398231 0 0 0 0 -369.01319319110189 141.62160403026064 0 141.62160403026064 118.6157210713136 0 0 0 0 -395.652685706802 114.07217059202958 0 114.07217059202958 221.210325065098 0 0 0 0 -374.81068151627551 88.902196078444831 0 88.902196078444831 156.16424348160217 0 0 0 0 -410.3553031696938 -3.276020552861155 0 -3.276020552861155 49.842723622350604 0 0 0 0 -420.14931173654622 1.1361365425036638 0 1.1361365425036638 52.885991818329785 0 0 0 0 -418.34508533747248 55.452379335258229 0 55.452379335258229 36.793531721108593 0 0 0 0 -0.88834804039605064 0.94299424126629106 0 0.94299424126629106 -14.094935777239471 0 0 0 0 -188.22688639433909 -115.66478831875065 0 -115.66478831875065 -370.11708582605934 0 0 0 0 -549.98137235794275 -90.241222200471384 0 -90.241222200471384 39.084189030167181 0 0 0 0 -483.58145505643915 -70.281219206619426 0 -70.281219206619426 29.107405886054039 0 0 0 0 -319.65939451586746 26.953900992506533 0 26.953900992506533 -19.69876930891769 0 0 0 0 -475.63846082618693 -128.49965129178599 0 -128.49965129178599 -27.692453172494425 0 0 0 0 -141.636267242342 469.41728995309677 0 469.41728995309677 -746.25155401196389 0 0 0 0 -724.54552404291462 554.18340688822718 0 554.18340688822718 -351.30650295928353 0 0 0 0 -1777.4320389420027 -1508.8511924491322 0 -1508.8511924491322 -1049.4726112927892 0 0 0 0 -312.47068013853277 173.51558852230664 0 173.51558852230664 -8.8759215409081662 0 0 0 0 83.298174358627875 252.33121832006145 0 252.33121832006145 -544.38893772554002 0 0 0 0 135.46869312459057 67.416357988269738 0 67.416357988269738 -98.815702014268027 0 0 0 0 183.35881320455974 -49.546844681286302 0 -49.546844681286302 -246.30711069013341 0 0 0 0 182.62466667655099 -29.623257952982385 0 -29.623257952982385 -704.5501624342578 0 0 0 0 -12.150649725318118 11.04352187093226 0 11.04352187093226 -10.534539068954984 0 0 0 0 -1603.7255694913183 1014.1352540232838 0 1014.1352540232838 912.4457537351409 0 0 0 0 -1309.0860067760805 152.27976537731593 0 152.27976537731593 269.50809728709282 0 0 0 0 -273.04081515221333 25.668691998020222 0 25.668691998020222 74.35130565277359 0 0 0 0 383.02142639052909 210.03250466972531 0 210.03250466972531 162.05975204625429 0 0 0 0 -11.198385820127442 389.56668064428231 0 389.56668064428231 342.54285401421112 0 0 0 0 229.83013713266701 223.32387285978621 0 223.32387285978621 -129.26836674980586 0 0 0 0 -156.58712547858886 34.499481096427189 0 34.499481096427189 300.47026766238923 0 0 0 0 -399.77213647101598 292.44452629533771 0 292.44452629533771 72.807424285070738 0 0 0 0 -587.65793209556796 -110.76482146743001 0 -110.76482146743001 131.27100779919419 0 0 0 0 -755.1590499834565 -43.128493510492262 0 -43.128493510492262 66.029639526423125 0 0 0 0 -515.73341201480071 -62.676002418687858 0 -62.676002418687858 31.217370469195885 0 0 0 0 -519.04536083577841 108.44821894420602 0 108.44821894420602 9.9336804775084602 0 0 0 0 -506.44473659453797 95.230161618528655 0 95.230161618528655 -13.4720716138836 0 0 0 0 -562.7749390234676 -43.992305603256682 0 -43.992305603256682 41.108175732282689 0 0 0 0 -674.12941726132703 157.17524629682885 0 157.17524629682885 -28.606034297001315 0 0 0 0 -636.67008969354356 147.93751107860589 0 147.93751107860589 -62.641810258210171 0 0 0 0 -587.67435941517033 23.704475701211777 0 23.704475701211777 -573.14535042600619 0 0 0 0 -1098.3091537942964 42.34097680830746 0 42.34097680830746 -86.084208685162594 0 0 0 0 -0.75953480476067359 0.15875274797157601 0 0.15875274797157601 -5.3925967552331144 0 0 0 0 -429.63206725355849 67.080774543523148 0 67.080774543523148 248.03648883577262 0 0 0 0 -553.53948566933832 146.41398193714849 0 146.41398193714849 -271.15564126637764 0 0 0 0 -1334.9862808228718 -510.67427513651637 0 -510.67427513651637 366.67048523019184 0 0 0 0 -576.51653796611936 422.93164214579883 0 422.93164214579883 -214.9399202070199 0 0 0 0 -767.74549910411588 331.75506721583224 0 331.75506721583224 901.04831794965139 0 0 0 0 -816.85749107110314 -599.66663198582319 0 -599.66663198582319 1989.9430546801595 0 0 0 0 332.17283834201226 89.84224090326461 0 89.84224090326461 613.45127603449146 0 0 0 0 -695.03993753725808 14.46109109819372 0 14.46109109819372 616.77361847431166 0 0 0 0 47.780965076264692 315.28622469391121 0 315.28622469391121 364.21176583193301 0 0 0 0 10.5337546822484 193.59637102432316 0 193.59637102432316 381.69640482864543 0 0 0 0 -16.192769356774079 563.8398834580039 0 563.8398834580039 -182.58913453940477 0 0 0 0 91.751450863950595 411.79122196022217 0 411.79122196022217 209.61120950887562 0 0 0 0 69.433328972110758 143.59968781143471 0 143.59968781143471 98.696726887763361 0 0 0 0 63.152518981565663 166.6006322868343 0 166.6006322868343 222.03291923295183 0 0 0 0 6.9975586631189799 98.260051899458631 0 98.260051899458631 300.52431882162637 0 0 0 0 -44.971279645184637 -1.3079212157223594 0 -1.3079212157223594 20.451985184739755 0 0 0 0 -34.145421499299488 5.4330692103374361 0 5.4330692103374361 4.326684242839633 0 0 0 0 -332.82011978203082 129.36838566900406 0 129.36838566900406 1144.7879823487019 0 0 0 0 -276.53740628778178 444.17318656311545 0 444.17318656311545 -466.43924444371078 0 0 0 0 -102.69078718081437 144.42646467324812 0 144.42646467324812 -36.927601160336053 0 0 0 0 -364.84815240399621 281.91022553948278 0 281.91022553948278 -92.38297890292597 0 0 0 0 -157.08291204068519 62.986729647396714 0 62.986729647396714 62.040511694285669 0 0 0 0 -260.55699138449199 50.064037899948744 0 50.064037899948744 75.487061714957235 0 0 0 0 -495.40855011189706 40.405355528608197 0 40.405355528608197 136.51548330971855 0 0 0 0 -182.48109411073528 -107.14884093916044 0 -107.14884093916044 87.083307571097976 0 0 0 0 -562.26493665406724 149.09225523493569 0 149.09225523493569 -74.177905588469002 0 0 0 0 -0.71872469240676651 -1.1017516751283836 0 -1.1017516751283836 8.301271857378218 0 0 0 0 -575.49001382516872 257.31732018636831 0 257.31732018636831 -32.217006649792893 0 0 0 0 -433.39368102629305 335.43782519193337 0 335.43782519193337 18.482651878584875 0 0 0 0 -453.39478695666185 263.16750298597617 0 263.16750298597617 -91.328503858552722 0 0 0 0 -449.55436283707968 257.16905434004548 0 257.16905434004548 -38.226690820301883 0 0 0 0 -456.78907430942127 270.84719040323762 0 270.84719040323762 -52.688342349312734 0 0 0 0 -726.1048030940874 188.37024269985341 0 188.37024269985341 23.081126607590704 0 0 0 0 -603.87871420022566 297.94112963847874 0 297.94112963847874 -0.012815400171944526 0 0 0 0 -3.1750646900139117 0.45892428956940279 0 0.45892428956940279 -1.3851733848574668 0 0 0 0 -397.82358318318438 335.52539389969024 0 335.52539389969024 0.13387643925098661 0 0 0 0 -410.63868442519743 394.3327179204789 0 394.3327179204789 -24.73854794853105 0 0 0 0 -191.08804208187212 117.47814253960678 0 117.47814253960678 146.28544942391454 0 0 0 0 -605.01416187007999 483.38919429937596 0 483.38919429937596 394.56380167385214 0 0 0 0 -495.45797980992938 371.82790223773918 0 371.82790223773918 -25.919474006543169 0 0 0 0 -475.88127073672513 467.89737358365528 0 467.89737358365528 -122.97536789037986 0 0 0 0 -396.53924139871378 477.27813810567022 0 477.27813810567022 -691.94810746947769 0 0 0 0 -12.938213169025744 2.0597295694743991 0 2.0597295694743991 2.3254788481187489 0 0 0 0 -731.00256425126281 1474.0521042765249 0 1474.0521042765249 -1542.0718693838135 0 0 0 0 -1181.2046485459578 -21.557888277806342 0 -21.557888277806342 459.39098175868276 0 0 0 0 -1496.7649592886009 605.89262976069585 0 605.89262976069585 356.89587392983958 0 0 0 0 650.6836998409126 -435.63625823374605 0 -435.63625823374605 -43.793288148503052 0 0 0 0 -4.9613610394931555 6.0254754720268124 0 6.0254754720268124 -0.7206266752814372 0 0 0 0 201.8963826511681 -249.80960550888267 0 -249.80960550888267 -50.919761824596208 0 0 0 0 -468.21069969978998 482.30411052244017 0 482.30411052244017 -339.05313512787689 0 0 0 0 -23.42083889202695 7.2005124302831973 0 7.2005124302831973 -8.5151452225691173 0 0 0 0 -12.068290742743955 16.393433926323951 0 16.393433926323951 -10.540166875144223 0 0 0 0 -23.164988655575144 6.059483073247975 0 6.059483073247975 -6.3455574297986459 0 0 0 0 328.11765341048158 9.4286549076205119 0 9.4286549076205119 -121.15861110035621 0 0 0 0 106.86355507696862 105.77885384429828 0 105.77885384429828 42.421620218374301 0 0 0 0 -18.25266284692043 13.511586156688281 0 13.511586156688281 -9.6444888284022454 0 0 0 0 134.57322477355774 274.83120840111951 0 274.83120840111951 422.55161776601199 0 0 0 0 5.0719810492511215 5.1238536323068615 0 5.1238536323068615 -1.6287122480702454 0 0 0 0 193.64163549069781 -97.660447557733278 0 -97.660447557733278 60.254269837809261 0 0 0 0 273.72802624720498 160.6407400820317 0 160.6407400820317 -243.9480664836592 0 0 0 0 -110.55736241611885 -21.900181381468428 0 -21.900181381468428 349.62321149474883 0 0 0 0 255.02876109805948 281.69449711597917 0 281.69449711597917 130.22941544083005 0 0 0 0 147.80462506627373 210.47315737910685 0 210.47315737910685 209.00128920780844 0 0 0 0 0.38082905115980736 -0.4414800619034196 0 -0.4414800619034196 0.34888005860562998 0 0 0 0 127.85069006847152 211.32008308259356 0 211.32008308259356 209.01136128167855 0 0 0 0 -83.374656961526853 269.63744421584488 0 269.63744421584488 -0.016694536236173008 0 0 0 0 154.3906441680665 111.8750668780558 0 111.8750668780558 83.259920479686116 0 0 0 0 60.592959427214737 91.330532395768387 0 91.330532395768387 33.092011397617171 0 0 0 0 81.605800049976096 167.80625432479792 0 167.80625432479792 127.02846816155943 0 0 0 0 137.42708233058511 153.45194371419348 0 153.45194371419348 0.051201082413599996 0 0 0 0 -28.749700957443565 35.985092694041668 0 35.985092694041668 133.88924972702762 0 0 0 0 7.413316875732562 34.584577018718846 0 34.584577018718846 65.973070366802858 0 0 0 0 1.3302049200184172 10.113549886153947 0 10.113549886153947 -5.7036400225836594 0 0 0 0 24.161409514650586 25.059015494116466 0 25.059015494116466 -12.983145049089217 0 0 0 0 -1.4327499092915446 9.8964806059847845 0 9.8964806059847845 -17.094026937478134 0 0 0 0 9.1160420093074208 17.140944999351632 0 17.140944999351632 -14.337691183693096 0 0 0 0 -18.052660880071926 14.40039033562789 0 14.40039033562789 -12.167271756989066 0 0 0 0 -7.4576888552837772 14.482304258170188 0 14.482304258170188 -21.719865121962584 0 0 0 0 1.3672193112724926 5.2535750286879193 0 5.2535750286879193 -16.829852028051391 0 0 0 0 -22.521651641844073 4.0736761925218161 0 4.0736761925218161 15.134134532694588 0 0 0 0 -10.185700476609981 9.9855999376492264 0 9.9855999376492264 -0.76039731698898994 0 0 0 0 -11.514496526640869 5.1278901667683385 0 5.1278901667683385 -7.439096426605829 0 0 0 0 -108.4370787897642 -161.85109951393315 0 -161.85109951393315 -18.213142443040852 0 0 0 0 167.93558410402329 139.59611654723267 0 139.59611654723267 -333.42022794217337 0 0 0 0 -286.94636779021675 -332.47565727927577 0 -332.47565727927577 593.53714740584837 0 0 0 0 185.22212379595294 266.34528214401507 0 266.34528214401507 -67.190426768458565 0 0 0 0 193.20386120360126 661.3439050884673 0 661.3439050884673 892.57120871711231 0 0 0 0 -1.4523760915037087 2.7007918447758001 0 2.7007918447758001 -3.1362171590326398 0 0 0 0 38.824094460745982 261.28411795557986 0 261.28411795557986 162.04846631214605 0 0 0 0 -20.782181395203224 13.727231278076943 0 13.727231278076943 -4.4580658409977332 0 0 0 0 -27.003973913306254 1.667520329967374 0 1.667520329967374 4.1876636970409891 0 0 0 0 -2.0363658281761445 3.5256127063066032 0 3.5256127063066032 -9.0596379685850366 0 0 0 0 -9.3434521123854211 -1.233704281039536 0 -1.233704281039536 -7.4047843347943854 0 0 0 0 3.0503284841106506 14.299376159637177 0 14.299376159637177 -7.7354278611526297 0 0 0 0 -1.7706146564574681 9.2574314704662584 0 9.2574314704662584 3.7305632152149997 0 0 0 0 -52.464514180021069 15.743599399873347 0 15.743599399873347 2.8002822326816386 0 0 0 0 -27.24396460945718 5.279599659035739 0 5.279599659035739 -1.4081760663248133 0 0 0 0 -30.065262294890999 18.843514890973893 0 18.843514890973893 -15.94059676292818 0 0 0 0 -27.778625401479076 12.225241832609754 0 12.225241832609754 -8.5709089205483906 0 0 0 0 1.6264806956678513 -7.809631447213178 0 -7.809631447213178 65.963608196150744 0 0 0 0 -695.72781585415942 685.85826764738886 0 685.85826764738886 -327.18723846179273 0 0 0 0 -4.7645005237221767 10.64445981127858 0 10.64445981127858 -11.287218786585186 0 0 0 0 13.337475322885439 282.99054953619634 0 282.99054953619634 -315.79072300178814 0 0 0 0 -83.330792567037861 -50.248092524256208 0 -50.248092524256208 56.549295624252409 0 0 0 0 -3.7834787743386613 3.5922278627330471 0 3.5922278627330471 -3.1431398091519895 0 0 0 0 -44.770200791295792 2.7485358919657301 0 2.7485358919657301 0.67065276598441415 0 0 0 0 -24.834166015112714 3.8869573058618698 0 3.8869573058618698 -12.793824168402352 0 0 0 0 -93.259142663915554 8.6978854029621289 0 8.6978854029621289 15.006328847346595 0 0 0 0 -245.90984825562555 178.48046585634256 0 178.48046585634256 -258.59895329689607 0 0 0 0 2.5284790065005467 6.7970154454833107 0 6.7970154454833107 2.1700319117250046 0 0 0 0 -274.06609003664926 274.33415678047459 0 274.33415678047459 -241.47877529653488 0 0 0 0 -724.79459374373255 633.81337220770365 0 633.81337220770365 -306.24056881100842 0 0 0 0 -327.34099642734509 309.20963954512263 0 309.20963954512263 -209.1526546554669 0 0 0 0 -370.63638307487417 232.824199085695 0 232.824199085695 -205.84518655546708 0 0 0 0 -341.48549298607395 287.10962361209022 0 287.10962361209022 -219.56528934277594 0 0 0 0 -411.06029043451417 328.72810017905431 0 328.72810017905431 -239.2618549761246 0 0 0 0 -611.74393533447073 325.75161782118812 0 325.75161782118812 -148.21236517286161 0 0 0 0 -458.69137500022771 233.44137990080344 0 233.44137990080344 -92.5527988767426 0 0 0 0 -458.75957605167059 240.63755982989096 0 240.63755982989096 -177.63369625914493 0 0 0 0 -398.44849158832221 241.90752874829923 0 241.90752874829923 -208.67981663500541 0 0 0 0 -475.56901814567391 177.926321745108 0 177.926321745108 -158.92413774278248 0 0 0 0 -481.7910150408934 192.1367393722976 0 192.1367393722976 -125.4647251504939 0 0 0 0 -518.31530461681541 193.09502029782743 0 193.09502029782743 -19.878606648682762 0 0 0 0 -452.85155259608291 200.62543630185246 0 200.62543630185246 -123.04976650240133 0 0 0 0 -486.43643146738759 173.31910554578644 0 173.31910554578644 -21.028856719069893 0 0 0 0 -519.74453923211695 226.60814537905662 0 226.60814537905662 -83.824935463839211 0 0 0 0 255.73529451970535 -349.33288533278028 0 -349.33288533278028 126.31857266863517 0 0 0 0 450.38267439538322 142.97942809680535 0 142.97942809680535 -1.8637986172516321 0 0 0 0 -0.26284318621071634 0.98721808688901547 0 0.98721808688901547 -1.0060495717305002 0 0 0 0 -464.84146752639208 73.787496122211451 0 73.787496122211451 -226.81998282647692 0 0 0 0 -376.85554381515249 178.257171169098 0 178.257171169098 -212.00966134434566 0 0 0 0 -887.51490561998799 -67.428516634478001 0 -67.428516634478001 -89.700888458406553 0 0 0 0 -639.95498163817683 -9.9621518955391366 0 -9.9621518955391366 -252.64874173066346 0 0 0 0 -548.35292768082581 113.20436038539628 0 113.20436038539628 -216.45108075057215 0 0 0 0 -546.42355508776382 57.033325774274999 0 57.033325774274999 -232.02926084760111 0 0 0 0 -586.23078346785042 102.76729082189559 0 102.76729082189559 -136.97272276261356 0 0 0 0 -747.85323672735831 181.3081715197186 0 181.3081715197186 54.658796416129917 0 0 0 0 -751.13698950700928 151.94909388199449 0 151.94909388199449 56.296084389905445 0 0 0 0 -865.0291279594021 39.083304302468605 0 39.083304302468605 -24.583338122582063 0 0 0 0 1078.6186550987622 238.18501877240487 0 238.18501877240487 9.4282378148927819 0 0 0 0 265.44648993082228 392.58011360237288 0 392.58011360237288 247.13744025788037 0 0 0 0 531.28673810324108 441.34489945914538 0 441.34489945914538 115.80394070962211 0 0 0 0 279.40471390298489 290.5718307100683 0 290.5718307100683 74.316664884725469 0 0 0 0 321.6090160666281 419.92933375445864 0 419.92933375445864 126.04577129198879 0 0 0 0 363.01566167547935 368.36738059029813 0 368.36738059029813 132.08481754531385 0 0 0 0 114.34225533388963 100.58941092029272 0 100.58941092029272 -57.662494583513762 0 0 0 0 9.8898598548790346 25.595229353560171 0 25.595229353560171 -8.6133879884739031 0 0 0 0 350.55575820385275 407.30770726987976 0 407.30770726987976 34.575495475233765 0 0 0 0 251.47948755624384 -72.8167484841033 0 -72.8167484841033 -60.13632435517502 0 0 0 0 157.85294654911559 3.5779832130683644 0 3.5779832130683644 -233.02472952513199 0 0 0 0 14.793895505052802 57.03917544790292 0 57.03917544790292 -61.380782516655913 0 0 0 0 40.921279983958811 167.19474219520635 0 167.19474219520635 -16.294065760419471 0 0 0 0 15.301501046669728 255.52825034436682 0 255.52825034436682 -104.23327245198561 0 0 0 0 71.894193106350485 67.321737986953423 0 67.321737986953423 28.351568439397397 0 0 0 0 -39.582101490811908 59.420805979090588 0 59.420805979090588 -35.761193325614187 0 0 0 0 26.462153964456775 46.028056576714789 0 46.028056576714789 15.559631532902131 0 0 0 0 70.998873596297926 217.68522312237474 0 217.68522312237474 129.14078050403623 0 0 0 0 -24.538304644458549 78.321237682608626 0 78.321237682608626 1.6682539739194908 0 0 0 0 -13.714967804189655 227.26816901060374 0 227.26816901060374 182.72973505250411 0 0 0 0 11.62064999978611 353.38797025092936 0 353.38797025092936 566.02176809823141 0 0 0 0 120.71488523145672 456.80466868314397 0 456.80466868314397 264.07760330257588 0 0 0 0 -61.005343372904463 3.6569936409941874 0 3.6569936409941874 210.42490238849859 0 0 0 0 6.4220090636790701 156.58495657436742 0 156.58495657436742 21.536705592676299 0 0 0 0 -106.52796382842098 131.79149269452682 0 131.79149269452682 1014.9587254912622 0 0 0 0 998.49328255845467 482.52569333974679 0 482.52569333974679 -92.298454543364642 0 0 0 0 1025.2102694773785 81.249727493297542 0 81.249727493297542 -96.397506656274345 0 0 0 0 1.8490797799552183 4.760139146541178 0 4.760139146541178 9.2524837043478385 0 0 0 0 1127.5908177332094 -72.280988060512755 0 -72.280988060512755 112.18389443315391 0 0 0 0 297.1181692808459 755.34879487236321 0 755.34879487236321 756.50023277364016 0 0 0 0 46.677141667227261 174.01353317845496 0 174.01353317845496 177.25919168708788 0 0 0 0 -584.33030357401003 1007.5179264473118 0 1007.5179264473118 0.9404941646316729 0 0 0 0 311.26874339488859 -11.662775417040393 0 -11.662775417040393 -145.75473208084441 0 0 0 0 73.650223579985322 340.22888515912564 0 340.22888515912564 295.93720195813512 0 0 0 0 103.11085128046398 386.26182067446643 0 386.26182067446643 232.90254519053269 0 0 0 0 66.642493873965577 73.702754586469382 0 73.702754586469382 -134.79937760857865 0 0 0 0 -0.012637298356366955 20.13537780527065 0 20.13537780527065 -4.0339214095447353 0 0 0 0 -197.08024222946551 201.04123845744471 0 201.04123845744471 -168.71673264716844 0 0 0 0 0.20722134265467673 4.3741635201290734 0 4.3741635201290734 -4.6698246688753784 0 0 0 0 -77.526071259424498 269.55037705904761 0 269.55037705904761 -152.76524557063385 0 0 0 0 -914.64780691800479 674.91888383381229 0 674.91888383381229 -268.79433256586344 0 0 0 0 101.7776402091913 93.094920330768218 0 93.094920330768218 0.10133540645620087 0 0 0 0 1.2529282011446981 -0.95472013082910223 0 -0.95472013082910223 -4.3684813782317633 0 0 0 0 -470.05363314937858 1605.0084517232826 0 1605.0084517232826 -372.921889932677 0 0 0 0 -227.05844568736939 632.08842884901242 0 632.08842884901242 -977.65593907152652 0 0 0 0 -97.248347022999951 600.88510858798691 0 600.88510858798691 -1359.5546266638703 0 0 0 0 -193.9769422981044 358.62273702540551 0 358.62273702540551 -1326.3685646930135 0 0 0 0 158.07563632132951 188.66025738503959 0 188.66025738503959 622.04648239657399 0 0 0 0 -1.7144531958533662 10.085346834747753 0 10.085346834747753 -1.7148407729403852 0 0 0 0 -347.76817042524635 627.4728870365725 0 627.4728870365725 1627.1709518998105 0 0 0 0 -484.92806929662038 1687.0753779577681 0 1687.0753779577681 -3847.1419337268744 0 0 0 0 -2.1064822129850427 18.470390426025887 0 18.470390426025887 -0.59000426609095769 0 0 0 0 161.60519921641389 339.12375922594947 0 339.12375922594947 305.83424570548232 0 0 0 0 100.57731292200333 363.89865826959431 0 363.89865826959431 312.28371326094816 0 0 0 0 -266.86102444707649 396.01904730070964 0 396.01904730070964 -706.93342017503164 0 0 0 0 118.61917651850672 393.84189118926588 0 393.84189118926588 304.97163414752868 0 0 0 0 99.979202897846335 382.79865240598883 0 382.79865240598883 334.10223885918094 0 0 0 0 77.726599005767639 216.93936895385195 0 216.93936895385195 116.08816477186338 0 0 0 0 195.5841958388919 529.0735211387655 0 529.0735211387655 319.07161272817757 0 0 0 0 170.42945219359717 380.46763949932392 0 380.46763949932392 -247.14851136169455 0 0 0 0 -20.188563655436155 153.14475438901718 0 153.14475438901718 -31.949164955520246 0 0 0 0 248.99864895723294 689.71535398725609 0 689.71535398725609 -772.91016543989826 0 0 0 0 -4.9216803174640518 251.81011155297165 0 251.81011155297165 -1036.6624613054228 0 0 0 0 -5.1816100880678277 1258.7186081286709 0 1258.7186081286709 -1757.8867411150277 0 0 0 0 -337.27828418982972 1216.3995204309103 0 1216.3995204309103 316.6144796675726 0 0 0 0 45.155592970972066 1557.0530404624442 0 1557.0530404624442 -4462.9098810646901 0 0 0 0 -2.0912674046464304 9.6417771877893301 0 9.6417771877893301 -4.6662384360784941 0 0 0 0 -6.4956678346002832 16.952773415867682 0 16.952773415867682 -5.7308926970470679 0 0 0 0 196.03771473330562 719.795600244448 0 719.795600244448 -1855.3838052039118 0 0 0 0 348.44309395411256 1327.1965498352765 0 1327.1965498352765 -304.02401808129798 0 0 0 0 84.68776974325192 928.24085398099123 0 928.24085398099123 -171.53381220440497 0 0 0 0 -86.268872874672525 665.46877893020428 0 665.46877893020428 1408.9046778069769 0 0 0 0 -437.65857153653633 912.0515267301962 0 912.0515267301962 -2.5170130286860513 0 0 0 0 -3.6933732377646038 9.2560544696020486 0 9.2560544696020486 -2.5616946850080069 0 0 0 0 11.125114321269486 3324.246740464107 0 3324.246740464107 -3642.3513209229131 0 0 0 0 778.6782696883165 1331.099832648084 0 1331.099832648084 -1860.4418967605598 0 0 0 0 -1.1478180765843717 2311.4853145357993 0 2311.4853145357993 2236.8497569263673 0 0 0 0 60.341402251287946 410.54389839851501 0 410.54389839851501 -37.275206153623003 0 0 0 0 -0.62126502992440613 2340.7831719982591 0 2340.7831719982591 -2157.332159855956 0 0 0 0 119.73935139452806 282.31140508669341 0 282.31140508669341 -1917.4335242933753 0 0 0 0 -0.69360177414637292 859.24175372298487 0 859.24175372298487 659.00439329170695 0 0 0 0 715.60344876013551 -211.46003349654347 0 -211.46003349654347 -5089.8852900471975 0 0 0 0 -6.92676207523823 10.632586203273064 0 10.632586203273064 -13.707152789723523 0 0 0 0 -196.91251783730695 -315.66047989347135 0 -315.66047989347135 -258.08085086829669 0 0 0 0 0.25463664359690286 85.745432453345558 0 85.745432453345558 97.35469131168793 0 0 0 0 -3.6906086084118215 3.8429275496472926 0 3.8429275496472926 -3.8313416196165235 0 0 0 0 264.92461233029462 132.90069145239977 0 132.90069145239977 -121.65296396311896 0 0 0 0 359.8352941740668 632.36903964034354 0 632.36903964034354 343.86470838577952 0 0 0 0 538.90373730976717 158.64297940647521 0 158.64297940647521 -476.94011881781626 0 0 0 0 -20.28735882886599 29.707499162207739 0 29.707499162207739 -28.932468921159057 0 0 0 0 93.57696061614115 249.69419222753277 0 249.69419222753277 49.272670582671708 0 0 0 0 -35.670697186772827 39.575844453935389 0 39.575844453935389 -38.036155230656902 0 0 0 0 193.73211484744388 243.017414572485 0 243.017414572485 100.76432299626322 0 0 0 0 195.46385593767627 84.003015784393938 0 84.003015784393938 43.281231837354426 0 0 0 0 150.42018904073484 83.854462056315242 0 83.854462056315242 -49.551750219899986 0 0 0 0 45.860709481143658 107.52533583050285 0 107.52533583050285 6.3994731737111579 0 0 0 0 -46.326785813347669 9.7864839107242005 0 9.7864839107242005 74.066360157885356 0 0 0 0 121.88726477071759 164.26624693766644 0 164.26624693766644 -35.045060245065542 0 0 0 0 44.086382939785835 -68.180881668748043 0 -68.180881668748043 -225.2531919805333 0 0 0 0 78.838583605887834 113.55327814989141 0 113.55327814989141 -136.83478028245008 0 0 0 0 114.84525439995923 45.178006252368505 0 45.178006252368505 -32.823618578448077 0 0 0 0 21.935583985628909 46.126319534378126 0 46.126319534378126 100.17673280493182 0 0 0 0 -0.27730912431123445 99.227415921480087 0 99.227415921480087 -0.28524535850738175 0 0 0 0 -8.6041892022753075 9.6034901867269156 0 9.6034901867269156 -15.919061653432266 0 0 0 0 23.459940268272476 -32.413718459820302 0 -32.413718459820302 -101.03486689148849 0 0 0 0 -167.54844544946536 -59.257372246342129 0 -59.257372246342129 -221.50907579100749 0 0 0 0 162.06158533610869 492.24008561501978 0 492.24008561501978 122.62977550674259 0 0 0 0 40.727170056377226 67.924340321808472 0 67.924340321808472 -13.359068370418143 0 0 0 0 67.379033118840198 114.90069544634753 0 114.90069544634753 -160.5343240799557 0 0 0 0 -0.50563351599757667 -1.1811916804558393 0 -1.1811916804558393 -24.025783408197981 0 0 0 0 64.721974485581086 683.44695286051137 0 683.44695286051137 -175.19629060526495 0 0 0 0 -1282.5732722762368 -1022.4785231983114 0 -1022.4785231983114 1563.9969746093557 0 0 0 0 15.749198321647661 48.327731391007745 0 48.327731391007745 9.472979732797711 0 0 0 0 13.458413333509725 45.715860891650664 0 45.715860891650664 71.078858320746804 0 0 0 0 -3.2555285306803139 28.693901620036115 0 28.693901620036115 38.292875584493004 0 0 0 0 31.023484494598961 -4.6503799346683081 0 -4.6503799346683081 -85.520143630998064 0 0 0 0 3.0537894937015153 30.541745670227101 0 30.541745670227101 5.6100617303018225 0 0 0 0 3.6141633107733142 25.227316248068121 0 25.227316248068121 1.1402317039705281 0 0 0 0 13.968055702031052 60.323949479105067 0 60.323949479105067 13.384150972226053 0 0 0 0 -11.408280896919678 45.710474362327659 0 45.710474362327659 106.54636079298507 0 0 0 0 357.34006738070548 221.81516961632587 0 221.81516961632587 86.405685529301991 0 0 0 0 416.64905002239175 315.33027551068517 0 315.33027551068517 85.370515583752422 0 0 0 0 -29.054544193128095 -1.5056529963039793 0 -1.5056529963039793 49.030491368990624 0 0 0 0 44.876133111380113 60.052334687119583 0 60.052334687119583 52.82810744390008 0 0 0 0 5.3234717483137501 126.58501869426618 0 126.58501869426618 376.75715437863255 0 0 0 0 116.89569367476361 -100.90425747437985 0 -100.90425747437985 -35.083491116456571 0 0 0 0 -1026.9590652754414 409.80177422035194 0 409.80177422035194 1765.8113226977293 0 0 0 0 1511.3428170868356 714.46669317678607 0 714.46669317678607 225.73092621586693 0 0 0 0 366.09734108944031 509.73699301754823 0 509.73699301754823 390.31059382754393 0 0 0 0 -72.069857415719184 111.77722421858016 0 111.77722421858016 488.92514403560199 0 0 0 0 -66.073730580892146 33.132561938584857 0 33.132561938584857 -9.137598401326855 0 0 0 0 -55.863029195323179 -1.0360731546315947 0 -1.0360731546315947 -62.480171864721342 0 0 0 0 1206.0717008117972 13.992671720843646 0 13.992671720843646 -882.34317831715452 0 0 0 0 -19.307175031875271 8.2193318285978005 0 8.2193318285978005 5.4411117089601362 0 0 0 0 124.79577952993714 -4.0981213381965063 0 -4.0981213381965063 58.218730321520525 0 0 0 0 -33.428279391329397 -34.645049955289096 0 -34.645049955289096 -12.885030130535597 0 0 0 0 -28.957782518276531 96.629757488464747 0 96.629757488464747 11.308504257205641 0 0 0 0 -43.754378668769078 19.439113364963205 0 19.439113364963205 -10.351932419902369 0 0 0 0 80.359645493703283 189.56011353187932 0 189.56011353187932 109.9466273984799 0 0 0 0 38.511204381546399 67.523101472420279 0 67.523101472420279 -22.902526254587102 0 0 0 0 318.03107818150602 22.954812047464657 0 22.954812047464657 -207.5975024709478 0 0 0 0 -190.35487108722737 95.325644246811862 0 95.325644246811862 223.0844289591696 0 0 0 0 12.788732191034796 64.655361216562596 0 64.655361216562596 205.30860434308124 0 0 0 0 404.3022704400355 424.62465658361907 0 424.62465658361907 110.55257998748493 0 0 0 0 354.79565914532941 304.6777624179449 0 304.6777624179449 -53.893996065191459 0 0 0 0 -19.716081662747456 152.25923040838825 0 152.25923040838825 10.083168515062425 0 0 0 0 255.68179933825741 70.20857329028513 0 70.20857329028513 -348.75712025129178 0 0 0 0 196.20433202186177 155.16214644864158 0 155.16214644864158 -30.574475275381701 0 0 0 0 173.94648431688256 150.13765572858392 0 150.13765572858392 191.88159138971241 0 0 0 0 326.07458362460602 259.10907378252341 0 259.10907378252341 74.054153109900653 0 0 0 0 -256.75327316729636 -118.69169432853596 0 -118.69169432853596 214.33135408500675 0 0 0 0 814.45596014035254 266.56410037247406 0 266.56410037247406 43.938515124667902 0 0 0 0 439.80459549544321 309.44376176543301 0 309.44376176543301 66.440865790311364 0 0 0 0 3.5640296976877011 -5.0452398992451357 0 -5.0452398992451357 -2.0392668630061053 0 0 0 0 -11.121335335894276 20.467450046421121 0 20.467450046421121 -27.937057270721198 0 0 0 0 -15.687247296187707 121.59076491585438 0 121.59076491585438 -3.7431707497380557 0 0 0 0 321.06025114007389 304.8340969538649 0 304.8340969538649 123.88609871911467 0 0 0 0 153.05800080562585 208.38357669534162 0 208.38357669534162 -32.965634377251263 0 0 0 0 -884.81433681634689 -659.17508474718852 0 -659.17508474718852 -78.297481154178968 0 0 0 0 -432.63228226219235 322.17824280745117 0 322.17824280745117 -609.43568793596933 0 0 0 0 0.48747475384538674 -0.073297784816091394 0 -0.073297784816091394 -4.4301692558188392 0 0 0 0 -83.75439557975551 250.88947347758221 0 250.88947347758221 -35.444769964946317 0 0 0 0 161.68932065880222 248.51505224736866 0 248.51505224736866 -178.02499167821952 0 0 0 0 -4.2716229628763713 6.4172195234309015 0 6.4172195234309015 -11.941544646789794 0 0 0 0 139.03665060947242 324.41849544690194 0 324.41849544690194 125.2047883902851 0 0 0 0 -603.05786402341255 -785.02465299185133 0 -785.02465299185133 -37.209158567944542 0 0 0 0 0.83839570831955967 14.511005648958459 0 14.511005648958459 8.6074258659346015 0 0 0 0 40.508633161352918 102.36557373150572 0 102.36557373150572 82.537865550111746 0 0 0 0 -1430.3560391594146 908.43462579938932 0 908.43462579938932 -646.27577049785759 0 0 0 0 28.01047562942199 69.336517749143241 0 69.336517749143241 45.474158107419498 0 0 0 0 17.348819343114119 44.291153902756378 0 44.291153902756378 41.881054377009377 0 0 0 0 21.081956790916593 45.471183909015963 0 45.471183909015963 110.97244606453023 0 0 0 0 12.367882319884302 69.926098795280268 0 69.926098795280268 50.353829851112096 0 0 0 0 6.9935091354085444 37.66267629201684 0 37.66267629201684 47.524175401660614 0 0 0 0 -40.091990237558093 98.154541658819653 0 98.154541658819653 -28.587770388563513 0 0 0 0 118.00175400555099 28.9458984018911 0 28.9458984018911 42.141225343046244 0 0 0 0 7.5635784534497361 74.327488639304647 0 74.327488639304647 -54.160757081917836 0 0 0 0 20.613687416253015 107.01029959708103 0 107.01029959708103 -17.858723041135818 0 0 0 0 -57.65760110456722 20.802084757808188 0 20.802084757808188 51.40287616918431 0 0 0 0 3.7628319759584636 5.8182222476530541 0 5.8182222476530541 6.496588264331308 0 0 0 0 26.878406026782102 68.657433952466363 0 68.657433952466363 22.871409966071951 0 0 0 0 -23.785496021091603 20.352906282365439 0 20.352906282365439 28.761559164559003 0 0 0 0 2.889689207729687 3.0465096647799896 0 3.0465096647799896 3.7119534056694192 0 0 0 0 14.69587736385351 27.056253793552798 0 27.056253793552798 12.03295068963908 0 0 0 0 33.778346077061357 17.713311602726208 0 17.713311602726208 21.138776093604974 0 0 0 0 26.039719429851175 69.105457253645 0 69.105457253645 50.103568475926295 0 0 0 0 19.327276257472704 53.695301183659467 0 53.695301183659467 14.869140905371751 0 0 0 0 -1.5224209417037855 17.703781246120343 0 17.703781246120343 49.348300137164188 0 0 0 0 -29.858913888037932 47.769717595532711 0 47.769717595532711 68.815115606761537 0 0 0 0 9.7180537996011509 38.086242197925884 0 38.086242197925884 33.490659856080214 0 0 0 0 711.01148544164357 486.44728470539121 0 486.44728470539121 -40.785913270752644 0 0 0 0 -116.95871715814519 355.3798417329017 0 355.3798417329017 1014.7279427505564 0 0 0 0 3.5918185786167593 4.9845745949028526 0 4.9845745949028526 0.61889790130388178 0 0 0 0 292.14991235458592 -5.1275137091288343 0 -5.1275137091288343 23.010543024749495 0 0 0 0 58.088130964355855 220.39031879010145 0 220.39031879010145 879.40289818948804 0 0 0 0 9.1814141398065203 89.376149251820607 0 89.376149251820607 532.97028465717449 0 0 0 0 -5.7301279328156198 17.665587832795694 0 17.665587832795694 -21.089843113975803 0 0 0 0 -10.447073289597784 19.048815270465496 0 19.048815270465496 -4.8102263328845538 0 0 0 0 345.50970295171282 18.815531791522517 0 18.815531791522517 -49.025500880175969 0 0 0 0 30.457240587988508 61.273118880682887 0 61.273118880682887 30.713303702483245 0 0 0 0 -12.363017409707794 57.241056483835564 0 57.241056483835564 43.18856189919461 0 0 0 0 9.1013277989200105 386.85011268894596 0 386.85011268894596 339.90918587725901 0 0 0 0 50.580716319626845 87.661730783322128 0 87.661730783322128 -278.13923858100316 0 0 0 0 -0.0059549892113750502 0.30643804475297998 0 0.30643804475297998 -0.45144638719463615 0 0 0 0 110.5664480817718 122.37575128916797 0 122.37575128916797 -1.3288608027942246 0 0 0 0 -15.889688640606426 22.94354314940027 0 22.94354314940027 -38.978325138589298 0 0 0 0 31.947924401079035 35.819250123888196 0 35.819250123888196 246.77064793514 0 0 0 0 -11.748970739992728 79.151969497703249 0 79.151969497703249 73.325212960524368 0 0 0 0 58.394489602676003 24.830793185567018 0 24.830793185567018 42.695216966523731 0 0 0 0 52.200717673104464 122.3962840110762 0 122.3962840110762 -39.889613869607274 0 0 0 0 31.822429404345712 71.010112249248778 0 71.010112249248778 -24.399863750048098 0 0 0 0 65.197980765968623 122.51431783674343 0 122.51431783674343 -150.59986151734483 0 0 0 0 221.97479761604154 91.170778134139255 0 91.170778134139255 -341.53698800638085 0 0 0 0 55.65636843928857 -8.3612319353826479 0 -8.3612319353826479 -185.96158260318043 0 0 0 0 -60.93823177701961 -57.147976094674959 0 -57.147976094674959 172.46999073903135 0 0 0 0 -6.076069008676436 3.6080299023152804 0 3.6080299023152804 -4.2929926623570793 0 0 0 0 19.808684113586878 73.57097424595122 0 73.57097424595122 70.256589555676328 0 0 0 0 -2.0163002463000339 69.975812765405863 0 69.975812765405863 122.00288778194954 0 0 0 0 1.9429480110270161 5.5566308704003973 0 5.5566308704003973 -0.80592120962042202 0 0 0 0 10.883120416348447 68.832345072092721 0 68.832345072092721 62.602326939289924 0 0 0 0 -1.5900184669359874 46.598057506274927 0 46.598057506274927 65.805418788077077 0 0 0 0 18.516552286799651 92.804513326074812 0 92.804513326074812 60.529091275820974 0 0 0 0 -12.064833275507908 87.44141905579454 0 87.44141905579454 53.139737876845174 0 0 0 0 -15.284226115591764 56.317399671199382 0 56.317399671199382 48.792512882302617 0 0 0 0 -0.98875067545179718 46.94424923439874 0 46.94424923439874 41.598593481015996 0 0 0 0 -49.729915353352453 35.768374077088083 0 35.768374077088083 -2.3531381863722345 0 0 0 0 -76.35224966069643 189.81112544124062 0 189.81112544124062 -36.258165637758793 0 0 0 0 -4.7890606598806853 13.235438599662061 0 13.235438599662061 -12.434668903486795 0 0 0 0 -5.3696278307158991 69.890684997859353 0 69.890684997859353 22.332476893796411 0 0 0 0 1.5927496117195687 25.229443425270802 0 25.229443425270802 35.09063335834071 0 0 0 0 -3.1226985301266268 33.809101383427333 0 33.809101383427333 -8.2595624321693322 0 0 0 0 65.818443146624304 84.988823901425349 0 84.988823901425349 -7.6442832917527994 0 0 0 0 98.122575648799057 95.44765372389702 0 95.44765372389702 -6.0764270739164203 0 0 0 0 46.085013605790209 -34.393775623888359 0 -34.393775623888359 -172.44658920033544 0 0 0 0 -2.611466173949502 2.9380633357016848 0 2.9380633357016848 -5.6126649789380849 0 0 0 0 -388.29644224912806 346.28558370237624 0 346.28558370237624 121.15090597173548 0 0 0 0 -457.69344647628031 -2.3423787551291753 0 -2.3423787551291753 49.869811945041874 0 0 0 0 -782.0052303639668 -248.6519835479412 0 -248.6519835479412 148.27576185467296 0 0 0 0 49.801781798118498 70.307335135637132 0 70.307335135637132 47.846346276388445 0 0 0 0 106.76269766599444 554.18402872150182 0 554.18402872150182 -41.144447374899755 0 0 0 0 371.85254348583385 140.20651106988953 0 140.20651106988953 -257.87020759668303 0 0 0 0 149.57092077188395 258.63131367618553 0 258.63131367618553 6.9102491023368202 0 0 0 0 70.923155452308492 385.85902797218296 0 385.85902797218296 380.4585267076036 0 0 0 0 -0.059087138556073171 26.579912584153234 0 26.579912584153234 17.845399794125342 0 0 0 0 259.70549327391018 386.98068983698613 0 386.98068983698613 -232.17843661253573 0 0 0 0 318.10736054658901 241.32837338521495 0 241.32837338521495 -375.97321472469775 0 0 0 0 172.49003129186895 176.75202280649683 0 176.75202280649683 -150.39753463972011 0 0 0 0 65.075341318097344 137.53921052121586 0 137.53921052121586 102.46763509858283 0 0 0 0 -48.968324856936306 11.046453730057692 0 11.046453730057692 402.13763373796246 0 0 0 0 182.19852415325931 386.40441187894612 0 386.40441187894612 101.16606263059657 0 0 0 0 204.76175394261418 104.73106806365104 0 104.73106806365104 -8.3872085464536212 0 0 0 0 159.83958890742286 228.74302343219279 0 228.74302343219279 -112.95335297856946 0 0 0 0 36.895878899360468 189.07900397198682 0 189.07900397198682 -45.3866526017664 0 0 0 0 84.234691620413514 238.81282298651786 0 238.81282298651786 -62.693375568196643 0 0 0 0 61.62572914440716 52.58372167692869 0 52.58372167692869 -136.47434391595743 0 0 0 0 43.277785697013087 66.497062743388256 0 66.497062743388256 41.161345141461055 0 0 0 0 194.84414542749846 -16.826210518691369 0 -16.826210518691369 154.23648716587923 0 0 0 0 399.471259509844 108.55242981304764 0 108.55242981304764 -76.571414542147977 0 0 0 0 4.132051860604367 33.003039039274746 0 33.003039039274746 -51.066974048670886 0 0 0 0 72.115151207417512 33.006729228061886 0 33.006729228061886 -46.907494973820576 0 0 0 0 62.509841360470546 76.495099265450335 0 76.495099265450335 -37.539468731556553 0 0 0 0 35.602652899371606 48.708750006358969 0 48.708750006358969 -30.757605828359374 0 0 0 0 38.534951678525431 46.282446500766127 0 46.282446500766127 -32.964079908975691 0 0 0 0 37.011022443713955 44.563657773567684 0 44.563657773567684 -25.41241731322225 0 0 0 0 287.24644164261827 361.91501202045038 0 361.91501202045038 -425.83092918592592 0 0 0 0 63.038106995812939 73.74773827606198 0 73.74773827606198 48.974838986005906 0 0 0 0 -18.054570532060097 128.33423177827535 0 128.33423177827535 -73.881567272859684 0 0 0 0 70.613882697232839 224.08938404248329 0 224.08938404248329 29.147749029092665 0 0 0 0 117.57572918061487 73.088573992532474 0 73.088573992532474 -303.21877382908133 0 0 0 0 76.4853949480148 8.159200151621917 0 8.159200151621917 2.0061044756075717 0 0 0 0 70.993320193980253 58.998539787698974 0 58.998539787698974 446.15657439248935 0 0 0 0 417.53596509704039 -59.173323088572943 0 -59.173323088572943 -77.240267776920518 0 0 0 0 326.44964465624071 544.76444208627436 0 544.76444208627436 297.02865138280686 0 0 0 0 -88.53015300464358 179.06599301579627 0 179.06599301579627 -25.062855122385372 0 0 0 0 9.2611975013939176 81.156316523657566 0 81.156316523657566 21.750661290258932 0 0 0 0 -125.19823029446343 178.20887898208093 0 178.20887898208093 178.80244106052851 0 0 0 0 -59.006491467456726 302.4777109304232 0 302.4777109304232 -40.492683258726174 0 0 0 0 59.908809030568612 95.656904356165384 0 95.656904356165384 51.020074285903746 0 0 0 0 9.861663689082194 67.757485305946247 0 67.757485305946247 -23.333974984323049 0 0 0 0 63.871086581098098 152.98346902741469 0 152.98346902741469 -85.032756297627202 0 0 0 0 38.475501302422344 196.32245769295696 0 196.32245769295696 20.164541387828649 0 0 0 0 96.424485684870888 200.74150206401828 0 200.74150206401828 -41.709732362083741 0 0 0 0 83.547134654506408 124.126205838038 0 124.126205838038 -49.412643657095941 0 0 0 0 187.53662383890241 149.7979536477942 0 149.7979536477942 18.007545795131591 0 0 0 0 -5.8691111536292944 44.608225754578434 0 44.608225754578434 -22.284496076907317 0 0 0 0 169.48093147884356 123.69955556131754 0 123.69955556131754 -19.233582285356533 0 0 0 0 55.602810346139563 96.612584628621335 0 96.612584628621335 -21.697140780917834 0 0 0 0 159.01522518257207 95.399743422432948 0 95.399743422432948 28.762148497960879 0 0 0 0 59.356629372864518 99.182699866345502 0 99.182699866345502 38.078873803911847 0 0 0 0 146.37050598822589 170.60403794520971 0 170.60403794520971 94.348394134368391 0 0 0 0 85.50600528011455 151.07623239537497 0 151.07623239537497 37.582146779634058 0 0 0 0 103.48154924775736 38.760880002959311 0 38.760880002959311 -26.744935238122707 0 0 0 0 -1.0757236287851129 2.3535511126817497 0 2.3535511126817497 -2.9337662393136839 0 0 0 0 114.709244713614 184.36408322062562 0 184.36408322062562 73.445909502814175 0 0 0 0 -37.954864768958942 99.44664702063892 0 99.44664702063892 46.933998436787078 0 0 0 0 -10.955137027331071 46.818548446158061 0 46.818548446158061 -19.625189388730689 0 0 0 0 -197.8027801089047 3.428654041592381 0 3.428654041592381 15.360782062140061 0 0 0 0 -45.095738857096876 16.07857720345055 0 16.07857720345055 -66.281265871992218 0 0 0 0 -182.57569565669064 81.81681235897895 0 81.81681235897895 68.539505417851615 0 0 0 0 -74.182502713152644 5.5463664398994297 0 5.5463664398994297 103.56938543480646 0 0 0 0 208.0845689342832 174.24398498681057 0 174.24398498681057 -51.559514796885196 0 0 0 0 185.01891949358242 71.450913456263152 0 71.450913456263152 -42.792160658209468 0 0 0 0 -0.30531771259485652 1.1673201598358247 0 1.1673201598358247 -1.7543843542748618 0 0 0 0 71.222985959553171 349.70438712085252 0 349.70438712085252 -94.264385063986992 0 0 0 0 -112.85853062838578 128.16658741662832 0 128.16658741662832 71.304143807754372 0 0 0 0 -6.4986469842391443 106.11111005490864 0 106.11111005490864 -9.7393563202786027 0 0 0 0 36.683444630055163 67.392370005627214 0 67.392370005627214 38.8628657983392 0 0 0 0 -176.56331305344065 135.19264670498524 0 135.19264670498524 25.846639541472541 0 0 0 0 108.76215109814802 173.38534247436473 0 173.38534247436473 -45.956784118861833 0 0 0 0 80.508859476682119 63.596665490228588 0 63.596665490228588 -40.647102223127149 0 0 0 0 54.824800065081945 97.734138749947306 0 97.734138749947306 -84.125925030864892 0 0 0 0 -161.11599029222998 97.917209792365611 0 97.917209792365611 -14.257589748303872 0 0 0 0 23.40964729028201 97.134966942328901 0 97.134966942328901 -56.064905356317468 0 0 0 0 48.119437317021948 79.807544405910448 0 79.807544405910448 -124.33579556376208 0 0 0 0 5.0649525831468054 65.339339830454264 0 65.339339830454264 -31.255003368569305 0 0 0 0 -156.22225148115103 169.6290219607472 0 169.6290219607472 -97.10995994922996 0 0 0 0 -27.30150728172157 306.65727837134909 0 306.65727837134909 -104.53542356991966 0 0 0 0 -179.23120397943421 247.75189866599248 0 247.75189866599248 -117.3627327708964 0 0 0 0 -164.05836004088633 155.77044079186453 0 155.77044079186453 15.858507233599084 0 0 0 0 11.122939688885452 65.627662158900534 0 65.627662158900534 -72.804061695522563 0 0 0 0 545.45324227231322 -5.6411512893537292 0 -5.6411512893537292 -218.21484230685746 0 0 0 0 -88.94942303994074 69.949075965543159 0 69.949075965543159 17.578338558772487 0 0 0 0 160.47976778561133 204.52545617645228 0 204.52545617645228 61.285419227613602 0 0 0 0 21.494355411589154 13.687717516547274 0 13.687717516547274 -2.232885483684413 0 0 0 0 -175.54493573720424 180.10482491728658 0 180.10482491728658 66.406885375705315 0 0 0 0 131.43722893043014 118.4312337773008 0 118.4312337773008 -33.872147867703461 0 0 0 0 -14.554056870892964 29.921139519025019 0 29.921139519025019 24.11055487235717 0 0 0 0 -43.9374950927714 26.212276879248634 0 26.212276879248634 10.709161754098716 0 0 0 0 -94.801563881628681 49.443404699748498 0 49.443404699748498 96.22667439336692 0 0 0 0 1.4840884447985445 60.04819355737709 0 60.04819355737709 -190.4790862181253 0 0 0 0 -188.81525581385358 159.62377461138385 0 159.62377461138385 -13.716527720855083 0 0 0 0 -152.98644987964508 136.85400995084638 0 136.85400995084638 -0.56732297706184909 0 0 0 0 -109.62281374479062 47.554739237784815 0 47.554739237784815 174.91258628245123 0 0 0 0 -170.83401906481959 168.95474442873638 0 168.95474442873638 98.673654910628102 0 0 0 0 -1.976286977885195 -0.45436192027554512 0 -0.45436192027554512 -0.010838960957158861 0 0 0 0 24.154884847006542 54.761644756070382 0 54.761644756070382 106.58719179898617 0 0 0 0 -33.350399800896412 62.791088092570135 0 62.791088092570135 106.44473760840265 0 0 0 0 -62.71690568464328 108.03225162993476 0 108.03225162993476 103.03471297294163 0 0 0 0 -76.809914448120253 112.23513812815509 0 112.23513812815509 123.55437651445391 0 0 0 0 -35.922705824254081 76.889769439549127 0 76.889769439549127 118.57922576389592 0 0 0 0 134.60134176477004 176.43967558541044 0 176.43967558541044 61.818513044134306 0 0 0 0 11.059591029024887 100.36311938461949 0 100.36311938461949 95.133519819799403 0 0 0 0 -28.238804815555341 -45.578066005647997 0 -45.578066005647997 -62.081054961206974 0 0 0 0 22.329791697862674 71.827973787843803 0 71.827973787843803 304.79515478320536 0 0 0 0 -51.718701042449538 574.05897227910282 0 574.05897227910282 -83.461109751544427 0 0 0 0 306.44995701500011 236.53823092219864 0 236.53823092219864 5.9254645960172638 0 0 0 0 -364.12350946429069 43.953386659464741 0 43.953386659464741 245.95519260744004 0 0 0 0 -1.8208179103331474 2.1403503482753052 0 2.1403503482753052 -1.2639383992360536 0 0 0 0 45.562750011522439 142.49249760150633 0 142.49249760150633 -191.87785381432877 0 0 0 0 -318.81896386313019 156.88754273581435 0 156.88754273581435 -3.6754435155489773 0 0 0 0 -26.69339492641916 55.377030355020374 0 55.377030355020374 -54.404264468441767 0 0 0 0 20.751051878457872 10.509195266606156 0 10.509195266606156 -21.995419235578716 0 0 0 0 -2.8898020152555546 -165.35166296530952 0 -165.35166296530952 692.38871250590273 0 0 0 0 260.13976758790523 -268.49007487826748 0 -268.49007487826748 560.35339516591921 0 0 0 0 -852.34319291677093 826.51715077861445 0 826.51715077861445 1029.3958432674699 0 0 0 0 110.24955943693931 -22.538513424905432 0 -22.538513424905432 -40.628771920353756 0 0 0 0 -5.0880168724411305 53.864034291761101 0 53.864034291761101 -62.538663856284785 0 0 0 0 105.36473931124783 299.23788052616146 0 299.23788052616146 185.04770118003944 0 0 0 0 -132.0238828719157 639.04982104888768 0 639.04982104888768 23.987358920625411 0 0 0 0 83.303780537680723 81.812159628854715 0 81.812159628854715 36.655350839573657 0 0 0 0 0.64724159038769358 4.1313266283210055 0 4.1313266283210055 -33.205357810815187 0 0 0 0 -28.24301743056705 41.605980205442499 0 41.605980205442499 -7.4376506288520261 0 0 0 0 112.21357385790907 92.408627964759944 0 92.408627964759944 -189.80321565539634 0 0 0 0 204.57320387952495 277.08727741573239 0 277.08727741573239 155.9096618599724 0 0 0 0 -143.54075863082835 117.39044528360682 0 117.39044528360682 218.4862501304051 0 0 0 0 145.37978175835451 287.01430638768943 0 287.01430638768943 260.2796331414138 0 0 0 0 2.562502967295984 12.848429546624246 0 12.848429546624246 4.2701613065059121 0 0 0 0 82.153305791944149 45.903417187815649 0 45.903417187815649 -11.689799144107383 0 0 0 0 5.2404449904806825 79.239923873519729 0 79.239923873519729 120.14536997460527 0 0 0 0 -11.818341719976161 87.440850432278239 0 87.440850432278239 43.589418474704871 0 0 0 0 -37.902230520480387 29.647711346149983 0 29.647711346149983 12.08895999596399 0 0 0 0 -6.1104756755485141 72.032777691878437 0 72.032777691878437 41.72773526670062 0 0 0 0 -50.668924504227135 31.366468442253073 0 31.366468442253073 2.4728274383622306 0 0 0 0 -7.7876428428432973 44.617563191697414 0 44.617563191697414 25.164909192933777 0 0 0 0 13.86659914469783 60.658678781372146 0 60.658678781372146 108.06704376561174 0 0 0 0 -2.5935644702112768 67.709398443963437 0 67.709398443963437 106.5770914042223 0 0 0 0 -17.175240440360369 32.892641587866223 0 32.892641587866223 48.780398467409469 0 0 0 0 -29.413226191657365 28.998279957094311 0 28.998279957094311 62.003915435325837 0 0 0 0 -74.564645950478734 47.11969488732575 0 47.11969488732575 184.25614779407624 0 0 0 0 4.6283843959390651 50.865668384023593 0 50.865668384023593 32.110956063756021 0 0 0 0 38.203630574978888 137.21219736571675 0 137.21219736571675 49.004112843686016 0 0 0 0 -174.63018494112475 -0.043120743270264938 0 -0.043120743270264938 102.08133575362444 0 0 0 0 16.218892887671245 -2.7351567333826097 0 -2.7351567333826097 60.834992421441711 0 0 0 0 -17.346903894477364 6.7404936971522318 0 6.7404936971522318 3.940988509805436 0 0 0 0 120.16274314874317 98.514936700245016 0 98.514936700245016 22.885956226949929 0 0 0 0 -28.064046922925172 52.064683329905662 0 52.064683329905662 -7.0003650376662705 0 0 0 0 339.39199046770955 176.11243872702107 0 176.11243872702107 39.801702889759326 0 0 0 0 -33.744340830575482 31.772375108367726 0 31.772375108367726 3.9337910021298512 0 0 0 0 -60.032309166493476 46.444423218313716 0 46.444423218313716 24.654682478706945 0 0 0 0 -11.659050978400046 62.935078597336542 0 62.935078597336542 38.037003679783083 0 0 0 0 -10.398332720535109 39.643528929154854 0 39.643528929154854 28.000641188933514 0 0 0 0 237.92989624905022 266.73254002822796 0 266.73254002822796 36.228767581371358 0 0 0 0 -19.312591440975666 374.03659701780271 0 374.03659701780271 260.96998904571228 0 0 0 0 80.886663565775962 348.44778622767626 0 348.44778622767626 73.734704481234076 0 0 0 0 165.50799146413192 200.23458156648849 0 200.23458156648849 246.74641729859286 0 0 0 0 -146.00542243510426 358.6142873189383 0 358.6142873189383 178.18555841175839 0 0 0 0 67.223550834969501 128.10462755485059 0 128.10462755485059 -75.8415052751443 0 0 0 0 -12.128064850243391 324.69016261488287 0 324.69016261488287 346.58502882955509 0 0 0 0 -44.05514953388743 42.606575604737841 0 42.606575604737841 -33.655308714333614 0 0 0 0 -7.8077066962510457 15.176637455166073 0 15.176637455166073 -13.286570596144259 0 0 0 0 -9.1737119666393596 4.2851603950746409 0 4.2851603950746409 -0.56585666391814016 0 0 0 0 133.23103823637939 -98.256977736062254 0 -98.256977736062254 -264.73822121981357 0 0 0 0 101.01205733661482 58.276036802431918 0 58.276036802431918 376.92006433910683 0 0 0 0 -33.216371804630711 56.170336646747501 0 56.170336646747501 -57.513313581076574 0 0 0 0 -33.105663744030608 252.35565403179135 0 252.35565403179135 36.349838742273278 0 0 0 0 193.55387294839602 381.32090446283837 0 381.32090446283837 -12.778233365948836 0 0 0 0 -28.10380138500409 29.542818608882001 0 29.542818608882001 -30.469831830380286 0 0 0 0 58.229041438869899 293.88090441364329 0 293.88090441364329 46.409688155079493 0 0 0 0 -1.4627691779751331 34.465319321410789 0 34.465319321410789 118.20215339110291 0 0 0 0 19.95203734417737 -146.79495646135911 0 -146.79495646135911 -38.357208820365486 0 0 0 0 -477.11476099157153 -181.29355049325386 0 -181.29355049325386 42.093801136943512 0 0 0 0 195.1862577824561 -72.660052118072656 0 -72.660052118072656 201.86604335342417 0 0 0 0 -329.51063403234002 319.12518167145754 0 319.12518167145754 19.44683535725926 0 0 0 0 72.861933134845458 137.98452566604828 0 137.98452566604828 19.410234943115576 0 0 0 0 -250.91317717324273 177.08707856284309 0 177.08707856284309 167.91728933282138 0 0 0 0 3.8723136629589234 39.43273264015798 0 39.43273264015798 102.80939913358964 0 0 0 0 2.2563072634555397 -1.1157324721878865 0 -1.1157324721878865 -2.1800567130945865 0 0 0 0 -59.18552551641551 142.89578953270393 0 142.89578953270393 134.00749061870738 0 0 0 0 209.24296263872748 222.25113800745748 0 222.25113800745748 110.33670244412497 0 0 0 0 -121.5852272464399 174.48405879293568 0 174.48405879293568 128.07443892903393 0 0 0 0 7.0603527520513012 15.373943355563483 0 15.373943355563483 13.464717629622498 0 0 0 0 18.923913375168922 47.080334858299466 0 47.080334858299466 99.493675985962909 0 0 0 0 11.032025391999923 52.055016174708726 0 52.055016174708726 97.052099711640039 0 0 0 0 -39.242599273031374 14.480635761810845 0 14.480635761810845 51.636439939771662 0 0 0 0 11.98829226324586 44.288017646582702 0 44.288017646582702 96.114123950135252 0 0 0 0 39.19425709670486 50.950545108837105 0 50.950545108837105 100.22645137184008 0 0 0 0 17.136362892793841 41.211107400592482 0 41.211107400592482 40.09459882095689 0 0 0 0 9.0820508801364213 24.307158210186003 0 24.307158210186003 34.347914325463307 0 0 0 0 -97.41800982314453 -91.280705647412105 0 -91.280705647412105 -582.56830610288307 0 0 0 0 132.28600553344586 7.697901707229903 0 7.697901707229903 -1999.2060533040203 0 0 0 0 55.391024558339268 -189.35008149308851 0 -189.35008149308851 -1091.8561001939233 0 0 0 0 -516.33181216585217 513.30958742939401 0 513.30958742939401 -937.48968608223367 0 0 0 0 -391.31556628420367 476.01366304254043 0 476.01366304254043 -845.98357456662052 0 0 0 0 -420.27638500007743 547.15455191931687 0 547.15455191931687 -963.61120105406735 0 0 0 0 -198.19081892639224 232.18194797514298 0 232.18194797514298 -550.44984788875445 0 0 0 0 -179.63969377774629 263.173003068252 0 263.173003068252 -638.73804692062185 0 0 0 0 -530.8278457839333 141.66720475436887 0 141.66720475436887 -363.8877310937678 0 0 0 0 -563.1490175013314 373.72629833327665 0 373.72629833327665 -424.18785108995507 0 0 0 0 -665.60672439396149 197.33919297799002 0 197.33919297799002 -572.13782624440501 0 0 0 0 -1024.8361675950582 642.05189891436021 0 642.05189891436021 -874.78957247675862 0 0 0 0 -601.58532068945351 832.40097437929944 0 832.40097437929944 -1919.2473937571049 0 0 0 0 -615.0602464042604 227.56386607063178 0 227.56386607063178 -857.47858652455034 0 0 0 0 -452.27410982032598 453.24656988021161 0 453.24656988021161 -546.23877449738211 0 0 0 0 -345.52405713321059 567.7611185539281 0 567.7611185539281 -905.11727156959751 0 0 0 0 103.95275064502493 134.92101809472297 0 134.92101809472297 -508.15934853814542 0 0 0 0 -862.58120118282386 418.99299577709462 0 418.99299577709462 530.3803166627913 0 0 0 0 4.1038451712184951 6.6839737897248028 0 6.6839737897248028 0.54046286275519151 0 0 0 0 95.1395040005591 205.96187760664907 0 205.96187760664907 -2837.5632438226603 0 0 0 0 -527.92793581701153 432.10312938055813 0 432.10312938055813 -254.19947268106625 0 0 0 0 -407.72271766734775 660.48307542718248 0 660.48307542718248 -618.03147256048396 0 0 0 0 -387.35428138721909 617.32962198843597 0 617.32962198843597 -573.81438424874796 0 0 0 0 -409.43534089154673 419.40825972960556 0 419.40825972960556 -299.02765911084134 0 0 0 0 -392.63425841165008 474.50725401859381 0 474.50725401859381 -731.75388554025267 0 0 0 0 -385.78066614120326 416.12595252461324 0 416.12595252461324 -311.74510385560279 0 0 0 0 -499.90721085143741 633.51384072334622 0 633.51384072334622 -553.54536869681033 0 0 0 0 -294.96837099473487 -53.638505039321899 0 -53.638505039321899 104.94573387225682 0 0 0 0 -1.708568558938083 15.093538698329013 0 15.093538698329013 18.388176541117353 0 0 0 0 -516.84140960971854 128.36193948557047 0 128.36193948557047 214.48840334411943 0 0 0 0 -185.80484498786973 468.63393762411943 0 468.63393762411943 -764.23960437694041 0 0 0 0 265.07866798417672 166.77459360657667 0 166.77459360657667 -562.27312323822844 0 0 0 0 -254.75636832245073 475.5304744956793 0 475.5304744956793 -319.05649379006354 0 0 0 0 13.076382706974982 67.316530962678371 0 67.316530962678371 -419.15737191333028 0 0 0 0 -312.75249898455513 181.070654020863 0 181.070654020863 -122.74419340719032 0 0 0 0 498.84507594438037 126.1618077243038 0 126.1618077243038 -464.11863248294321 0 0 0 0 225.6157075493611 237.21043830518465 0 237.21043830518465 -283.39381870273792 0 0 0 0 251.44080911506899 111.33137841101416 0 111.33137841101416 -461.44552923759693 0 0 0 0 45.975936123199062 17.815345918912499 0 17.815345918912499 25.003101793239694 0 0 0 0 30.543455197016129 67.515958744388584 0 67.515958744388584 -28.045078100402776 0 0 0 0 -18.96469590008347 15.711484611937834 0 15.711484611937834 18.531098634892587 0 0 0 0 -111.93909407778119 208.39448445739981 0 208.39448445739981 163.0119556955251 0 0 0 0 28.550879231257568 142.45665327828829 0 142.45665327828829 273.08844132134982 0 0 0 0 126.11670950289408 42.959921452966228 0 42.959921452966228 -41.636897115859028 0 0 0 0 66.455114911754208 108.73074957462086 0 108.73074957462086 34.162869609455811 0 0 0 0 19.161956347663363 138.92828809718776 0 138.92828809718776 276.44920859806007 0 0 0 0 -0.16999909130109359 1.0193316559178172 0 1.0193316559178172 -1.7229709096467047 0 0 0 0 189.3536112050715 146.37998226197669 0 146.37998226197669 -16.921550713173929 0 0 0 0 -132.02375034117358 94.750383913058613 0 94.750383913058613 117.11356376359572 0 0 0 0 -88.370944752314244 161.00969775073827 0 161.00969775073827 60.16720679536229 0 0 0 0 27.737373576899699 84.060969181009568 0 84.060969181009568 45.697214666208311 0 0 0 0 -56.442312922696146 118.61989469965192 0 118.61989469965192 93.532101497767144 0 0 0 0 27.320671608475095 54.123898370213283 0 54.123898370213283 82.585861988288343 0 0 0 0 5.5028973636071896 67.305863169283839 0 67.305863169283839 89.348744946968509 0 0 0 0 10.669087672133173 70.510695518889406 0 70.510695518889406 80.286307565314928 0 0 0 0 33.806470984098269 48.552094670769293 0 48.552094670769293 90.373532517865897 0 0 0 0 -16.032470536854817 137.73727465365664 0 137.73727465365664 -3.8353940251108725 0 0 0 0 -6.8772010636239429 57.597670800449123 0 57.597670800449123 174.09215908001352 0 0 0 0 11.254785501595393 31.163093621141627 0 31.163093621141627 -5.2067712992516135 0 0 0 0 28.187101804856866 63.544011473084538 0 63.544011473084538 88.633311540703289 0 0 0 0 13.527363083857949 32.048731844135432 0 32.048731844135432 -17.241591164485108 0 0 0 0 29.155830559211608 -55.993141415667196 0 -55.993141415667196 -270.59731443183409 0 0 0 0 22.170665876867133 49.690244142017036 0 49.690244142017036 138.72303301059583 0 0 0 0 21.790113556136532 36.526306808480072 0 36.526306808480072 5.0291234479343245 0 0 0 0 18.387504355952842 33.299444484640844 0 33.299444484640844 38.083117235000827 0 0 0 0 -4.4684107683460752 -73.151831904506253 0 -73.151831904506253 -507.03559715105803 0 0 0 0 21.250733863605319 17.437950799794152 0 17.437950799794152 -22.516891312421677 0 0 0 0 -26.606667861400638 -40.865953657310456 0 -40.865953657310456 -553.08126920924406 0 0 0 0 -106.67263707271923 121.29327278042183 0 121.29327278042183 -372.43571573810186 0 0 0 0 -84.127504893098376 167.31155035432312 0 167.31155035432312 -346.97817244319594 0 0 0 0 37.85049257900755 44.297347588602861 0 44.297347588602861 -160.60771731249406 0 0 0 0 -20.52129293885082 -51.804080621732282 0 -51.804080621732282 -292.24622502570855 0 0 0 0 57.849842165160226 37.176276396807225 0 37.176276396807225 -161.59822109999368 0 0 0 0 31.550919334244099 45.724064770882251 0 45.724064770882251 -100.00260521479504 0 0 0 0 126.82280960096978 186.02497951422993 0 186.02497951422993 -6.3840392285419512 0 0 0 0 1.9744671790249413 44.319596684392309 0 44.319596684392309 -92.31913211059873 0 0 0 0 61.316405556743121 24.920395393215586 0 24.920395393215586 -315.04505945676647 0 0 0 0 -15.830935184327245 -25.050776562966348 0 -25.050776562966348 -69.869082063727546 0 0 0 0 60.769591316035076 155.63714182953845 0 155.63714182953845 109.01766703651811 0 0 0 0 141.03353136591613 145.19582534488291 0 145.19582534488291 -94.923145474385819 0 0 0 0 204.50011360650387 222.75194631758495 0 222.75194631758495 59.370234920184885 0 0 0 0 138.4367062635597 258.98844821426019 0 258.98844821426019 146.43903646923718 0 0 0 0 199.30810264374304 236.09940871163417 0 236.09940871163417 154.8050585185556 0 0 0 0 153.65794178214855 291.77469776503131 0 291.77469776503131 263.3537916297937 0 0 0 0 10.088151428120796 7.8696256209050546 0 7.8696256209050546 -8.7866441329457814 0 0 0 0 138.47748744597266 277.83901127269201 0 277.83901127269201 317.2175573077111 0 0 0 0 17.078608031748445 16.909962064804859 0 16.909962064804859 -107.6053268124524 0 0 0 0 176.77586832642555 220.67468501640542 0 220.67468501640542 207.73771070017392 0 0 0 0 114.96718646433874 361.95759902309146 0 361.95759902309146 610.67097433679737 0 0 0 0 132.60010560941737 136.75403776288294 0 136.75403776288294 58.909831381111871 0 0 0 0 131.05713244962612 150.95468333284271 0 150.95468333284271 28.874985625458066 0 0 0 0 157.64367677064729 279.75073102484021 0 279.75073102484021 166.91924324646243 0 0 0 0 90.693062086735154 211.1864331576071 0 211.1864331576071 -8.8638443303643726 0 0 0 0 58.873106566312345 108.91122786306369 0 108.91122786306369 -120.92741607126663 0 0 0 0 -8.9124405816255603 254.2871298979735 0 254.2871298979735 40.034694826870691 0 0 0 0 -283.03657146883779 316.38802960477187 0 316.38802960477187 -251.80286217718822 0 0 0 0 2.5724129267618991 182.69508315544226 0 182.69508315544226 -210.88799136961461 0 0 0 0 -44.366149046531064 98.255939549693721 0 98.255939549693721 -238.42917847080389 0 0 0 0 -137.37488571774156 250.59316731900617 0 250.59316731900617 -113.62838510927395 0 0 0 0 -35.032299042388331 153.55034691774927 0 153.55034691774927 -22.841783343261341 0 0 0 0 -307.39399240521016 279.82148166428669 0 279.82148166428669 44.730758758145384 0 0 0 0 -152.95309359892235 166.83525164345883 0 166.83525164345883 -87.453255702945171 0 0 0 0 -148.07633070136217 139.52987705614942 0 139.52987705614942 167.82947874144884 0 0 0 0 -53.428788872464793 278.29135206819046 0 278.29135206819046 124.89919223902689 0 0 0 0 -295.17204623663565 234.53324444957252 0 234.53324444957252 337.60410677963227 0 0 0 0 142.93811302348331 145.24780086155079 0 145.24780086155079 337.90494199104432 0 0 0 0 244.48327919620351 308.7662245150641 0 308.7662245150641 213.56063948605879 0 0 0 0 78.60345990202768 293.87744698907773 0 293.87744698907773 244.52393865484919 0 0 0 0 90.903566947963554 178.01281389713404 0 178.01281389713404 98.133764579353738 0 0 0 0 -63.332518430292112 257.83293623726058 0 257.83293623726058 283.78474355229991 0 0 0 0 3.257482944886533 4.7740407359382857 0 4.7740407359382857 -3.8188050679185466 0 0 0 0 -39.872113125247779 358.25116626768249 0 358.25116626768249 218.20904235102353 0 0 0 0 -89.12386235492886 431.2213592395201 0 431.2213592395201 839.17848188577045 0 0 0 0 -81.137134916716604 159.58666587432526 0 159.58666587432526 18.762224141704792 0 0 0 0 -99.274441236972052 270.4255800242172 0 270.4255800242172 -110.73800480147474 0 0 0 0 0.61473068247869378 77.989421113437857 0 77.989421113437857 -541.00107940185626 0 0 0 0 -10.19232032135551 92.207623467285885 0 92.207623467285885 -107.25609296491893 0 0 0 0 -14.419711057031236 63.299156606881297 0 63.299156606881297 -73.182190998602891 0 0 0 0 131.29319384701012 123.44524688292222 0 123.44524688292222 -51.301040713864495 0 0 0 0 82.392076588756026 40.536859690244455 0 40.536859690244455 -96.893582855351269 0 0 0 0 1.9354943226571777 -43.282470790836669 0 -43.282470790836669 -127.68803976045456 0 0 0 0 35.915579230262665 -23.936780215539329 0 -23.936780215539329 -28.055348458598019 0 0 0 0 34.503079307793087 0.75596986903110519 0 0.75596986903110519 -109.98091164923972 0 0 0 0 14.163013263751054 -32.439146225340664 0 -32.439146225340664 -235.92196350826998 0 0 0 0 5.7798545760034159 7.3201501087266081 0 7.3201501087266081 -5.99582338636435 0 0 0 0 -11.361886226535717 55.027524115153938 0 55.027524115153938 -192.73353803344071 0 0 0 0 0.97586210451231636 -1.8486183114625021 0 -1.8486183114625021 8.328167537375009 0 0 0 0 1092.9439386896338 744.89315733622061 0 744.89315733622061 339.64919716199802 0 0 0 0 743.7216603946581 60.543825681117596 0 60.543825681117596 -229.34744837361359 0 0 0 0 236.74891815179944 43.913790388607595 0 43.913790388607595 670.74506372799806 0 0 0 0 -344.06497696293809 275.06967978490866 0 275.06967978490866 573.66833508563832 0 0 0 0 220.64012753596035 513.20250185539044 0 513.20250185539044 84.048647902352968 0 0 0 0 -361.34649460147193 -39.973300048499368 0 -39.973300048499368 533.9749087265227 0 0 0 0 -293.42440533838089 -196.57275244662014 0 -196.57275244662014 194.71695493116567 0 0 0 0 -367.052176333018 7.1827972590835998 0 7.1827972590835998 224.74646899844811 0 0 0 0 -465.60967664256168 72.125218563582166 0 72.125218563582166 328.18039481763844 0 0 0 0 -342.73505883854523 219.01572101533884 0 219.01572101533884 56.806984298018506 0 0 0 0 -458.1375168098748 152.80015330312017 0 152.80015330312017 19.582126297289506 0 0 0 0 -460.26707651235165 283.32168020437985 0 283.32168020437985 -196.17977020569379 0 0 0 0 -549.63188435720804 165.21180544760136 0 165.21180544760136 116.99267513327504 0 0 0 0 -406.51584615674074 153.95419999839578 0 153.95419999839578 98.550286133569898 0 0 0 0 -450.43358636243647 275.41925110440206 0 275.41925110440206 -125.14835479308385 0 0 0 0 -503.74997683423862 203.38938956399215 0 203.38938956399215 -184.29473980984767 0 0 0 0 -293.15149718864996 207.6803547553136 0 207.6803547553136 -157.0602021496743 0 0 0 0 -467.44319197560253 384.68112567868957 0 384.68112567868957 -336.66484394384315 0 0 0 0 -298.65328130866692 170.42716958410165 0 170.42716958410165 54.561570533915074 0 0 0 0 -480.27479727651371 276.96175503130507 0 276.96175503130507 0.12989871529862285 0 0 0 0 -459.49651342441211 169.00099407615198 0 169.00099407615198 210.67780180409318 0 0 0 0 -293.26947001079679 145.86385020389571 0 145.86385020389571 212.49323703796836 0 0 0 0 -152.98167552489031 224.50102881036582 0 224.50102881036582 80.783128553688584 0 0 0 0 -283.64858077202189 170.25762491025489 0 170.25762491025489 240.80194058277993 0 0 0 0 -111.4320151979191 155.43297282578715 0 155.43297282578715 38.9085201209964 0 0 0 0 -158.09579481822584 109.30664668770623 0 109.30664668770623 39.126867159182439 0 0 0 0 -149.16084301253795 89.604272036187467 0 89.604272036187467 81.635055419945274 0 0 0 0 -207.76231674302107 42.876249744913366 0 42.876249744913366 61.338617738161702 0 0 0 0 -310.04226152743649 41.523522369265265 0 41.523522369265265 190.63664838183468 0 0 0 0 -220.27856445329962 17.437912089582824 0 17.437912089582824 113.04016463534208 0 0 0 0 -216.39871956736351 4.8270461194633754 0 4.8270461194633754 33.391927949502133 0 0 0 0 -319.86930161245255 16.579113690328086 0 16.579113690328086 73.259648681989347 0 0 0 0 -187.01341449316533 9.1217563142199651 0 9.1217563142199651 34.642774655716494 0 0 0 0 405.5305375415337 318.83031910416321 0 318.83031910416321 168.92122461874533 0 0 0 0 0.6966205178721907 -2.0821260009797982 0 -2.0821260009797982 26.096015515212514 0 0 0 0 28.670172063473728 1.6330826425837586 0 1.6330826425837586 109.17263870268653 0 0 0 0 -11.836671416544103 -24.62354619181891 0 -24.62354619181891 70.93471157811166 0 0 0 0 68.74372052513354 -2.1914784390974091 0 -2.1914784390974091 -25.570298342208844 0 0 0 0 -53.302867443460855 -65.513084475933283 0 -65.513084475933283 73.986289854132337 0 0 0 0 -0.83795012949013881 -2.4743583001826153 0 -2.4743583001826153 17.136150798236585 0 0 0 0 -209.43959800584707 64.494358261435991 0 64.494358261435991 27.991373288023169 0 0 0 0 -176.1959183014369 41.898433840258804 0 41.898433840258804 43.225515253521735 0 0 0 0 18.994880321974051 77.546604102310084 0 77.546604102310084 205.60326252962113 0 0 0 0 -5.7682611492276123 -3.8259909038629303 0 -3.8259909038629303 42.521075955727554 0 0 0 0 -215.6725894616975 25.621962854405865 0 25.621962854405865 63.416816534863756 0 0 0 0 -144.20121740500326 63.262565231278131 0 63.262565231278131 59.769130730945108 0 0 0 0 -191.93875328497234 30.519997472933028 0 30.519997472933028 44.857148380237049 0 0 0 0 -172.84112658685626 15.069532849331154 0 15.069532849331154 55.520286319428124 0 0 0 0 -44.809801017661812 40.692964604524605 0 40.692964604524605 41.897430837299908 0 0 0 0 -216.91945855739323 -35.843586709357623 0 -35.843586709357623 196.29882234583783 0 0 0 0 -123.62717055900157 0.37644447892216704 0 0.37644447892216704 33.614459877891932 0 0 0 0 -50.052887118887156 101.0922712501997 0 101.0922712501997 65.538156461749168 0 0 0 0 -114.14166503881188 73.415919118536294 0 73.415919118536294 78.356529594500898 0 0 0 0 -101.17400315054283 93.854808127701972 0 93.854808127701972 65.147481826003059 0 0 0 0 -103.68042341004184 50.889725052562426 0 50.889725052562426 45.534317403900786 0 0 0 0 -60.045494970923755 92.004668499219406 0 92.004668499219406 41.107626886689104 0 0 0 0 -80.358636982464304 146.17967769524148 0 146.17967769524148 -1.7751712608005619 0 0 0 0 8.2083762013353407 91.020562835299643 0 91.020562835299643 23.902853185587446 0 0 0 0 -65.598345170219545 111.05337580257037 0 111.05337580257037 75.315244170298683 0 0 0 0 -41.174239379295614 129.02385468475131 0 129.02385468475131 128.60267684530118 0 0 0 0 -42.089350949318032 117.46661951066199 0 117.46661951066199 86.229836497761426 0 0 0 0 17.860188559978269 54.87194300511328 0 54.87194300511328 112.11291039478965 0 0 0 0 -64.312659933260875 64.577258789067855 0 64.577258789067855 87.276427634758875 0 0 0 0 -35.482278724097753 46.605202998088927 0 46.605202998088927 -38.121239664666803 0 0 0 0 -5.4979477613347854 1.454644696363502 0 1.454644696363502 6.4777163300813925 0 0 0 0 66.191664023710473 34.637381568216369 0 34.637381568216369 143.14724099545856 0 0 0 0 -6.1865389699014486 168.72301292325574 0 168.72301292325574 -0.33884556713746861 0 0 0 0 76.316943734374945 80.808730807955726 0 80.808730807955726 83.915649490460055 0 0 0 0 106.34217414035902 183.2142585058009 0 183.2142585058009 111.63396470766747 0 0 0 0 147.37168441936592 114.32273975386852 0 114.32273975386852 0.27270057298301253 0 0 0 0 -249.86903580429498 -23.266985349568131 0 -23.266985349568131 29.197591563890455 0 0 0 0 3.8951403949005083 0.53658090230223365 0 0.53658090230223365 -4.2507151557896918 0 0 0 0 -69.324354510434205 99.988168245923589 0 99.988168245923589 99.967490023940627 0 0 0 0 -49.880995068678743 41.34368497795532 0 41.34368497795532 2.0065177561391465 0 0 0 0 -81.703225670520624 7.4246427459765982 0 7.4246427459765982 74.569397137929627 0 0 0 0 -35.2117152491046 6.8078566143012722 0 6.8078566143012722 32.431416618637741 0 0 0 0 -74.853394582085457 58.426447682786602 0 58.426447682786602 66.388002492065425 0 0 0 0 -64.197146037513448 100.20849919634202 0 100.20849919634202 -0.11290437416755594 0 0 0 0 -2.4921371854288736 52.407705973335396 0 52.407705973335396 17.088827303399739 0 0 0 0 35.1639315170396 90.189258207876264 0 90.189258207876264 0.021999569521969353 0 0 0 0 -52.265127376703788 32.670256766072271 0 32.670256766072271 20.957264293490212 0 0 0 0 -142.64337759179762 -10.647753444201953 0 -10.647753444201953 199.1694346054137 0 0 0 0 -172.11520921150804 -2.6106049871232244 0 -2.6106049871232244 56.072329227929004 0 0 0 0 -3.3942467367477036 2.1542809752927639 0 2.1542809752927639 2.9928975818322101 0 0 0 0 -106.89281480291538 159.79562008688663 0 159.79562008688663 7.2572561137058074 0 0 0 0 -18.447424437967921 41.367021839152827 0 41.367021839152827 -58.156607305584316 0 0 0 0 -60.867420830709307 91.072137820778153 0 91.072137820778153 58.240289790264796 0 0 0 0 88.6687154038882 50.265081805922819 0 50.265081805922819 -110.68603510051616 0 0 0 0 82.534415946305671 129.93564611987676 0 129.93564611987676 -81.205653459124733 0 0 0 0 -48.31546276049994 50.698961979906016 0 50.698961979906016 -22.027535542343685 0 0 0 0 20.299161652103066 173.9287957468041 0 173.9287957468041 -104.43960314695141 0 0 0 0 -67.710483266433585 139.36997635365515 0 139.36997635365515 -138.28951074964425 0 0 0 0 -82.803201222661301 187.22061748504348 0 187.22061748504348 -40.1580514954112 0 0 0 0 -75.279300877184141 109.27677558241703 0 109.27677558241703 15.21764509336208 0 0 0 0 -36.598552000359632 128.76127956074197 0 128.76127956074197 -74.02781547421182 0 0 0 0 -35.612659336271463 192.31908630703401 0 192.31908630703401 20.132926322563435 0 0 0 0 -79.448698953623534 104.96454742526112 0 104.96454742526112 72.28835680589691 0 0 0 0 -54.819478039353271 126.77622213925497 0 126.77622213925497 56.563535998342559 0 0 0 0 41.049266593799985 84.90276305446605 0 84.90276305446605 -13.789124699949753 0 0 0 0 -29.661059723206563 32.564170874189585 0 32.564170874189585 236.24253159121872 0 0 0 0 82.371358524498646 150.14071742756641 0 150.14071742756641 57.74245797209278 0 0 0 0 -48.247348650140339 184.05376336490735 0 184.05376336490735 216.84419123144471 0 0 0 0 -10.494165802194203 -0.55275069294413726 0 -0.55275069294413726 10.260601130994672 0 0 0 0 -136.98875913290249 12.249949953489704 0 12.249949953489704 34.847441145277116 0 0 0 0 -8.8882284619656104 7.4618440737083915 0 7.4618440737083915 -1.8368870222495843 0 0 0 0 20.412468329064723 120.41027061144996 0 120.41027061144996 -9.2529901940579293 0 0 0 0 -63.081783372035716 56.862169181142235 0 56.862169181142235 60.101079576568736 0 0 0 0 -85.554962841633824 119.36049443901356 0 119.36049443901356 43.161479130882071 0 0 0 0 -76.698301698255818 59.511812911005109 0 59.511812911005109 29.378664000734716 0 0 0 0 -13.090226006221201 30.821206667402294 0 30.821206667402294 55.919166377483634 0 0 0 0 -103.34834497646079 36.839331877039513 0 36.839331877039513 152.56714126665611 0 0 0 0 -18.990283238521442 24.748677774274256 0 24.748677774274256 -9.5126214134506881 0 0 0 0 -35.974241744894243 40.977531640608504 0 40.977531640608504 -56.086471953894943 0 0 0 0 -1.8613526804904836 10.12325819379339 0 10.12325819379339 -8.3821812734480829 0 0 0 0 -39.739291179217346 61.376591213672938 0 61.376591213672938 -22.056841847847465 0 0 0 0 -3.0426053191768005 102.20545242514345 0 102.20545242514345 -111.36514324638483 0 0 0 0 -84.922088132356293 51.801330512622371 0 51.801330512622371 23.884158626198769 0 0 0 0 -6.1737179411994418 3.7763069466156409 0 3.7763069466156409 1.2044206849581656 0 0 0 0 -140.55883175275812 -85.238019200594863 0 -85.238019200594863 182.44365423524869 0 0 0 0 -22.779544776858529 21.504735990405607 0 21.504735990405607 4.5718436372117139 0 0 0 0 -261.98739873222075 45.385174266324611 0 45.385174266324611 363.9509710735947 0 0 0 0 -79.484857541741803 39.544166199440951 0 39.544166199440951 -20.418073062130134 0 0 0 0 -0.33343646139464056 8.726707140873998 0 8.726707140873998 -7.4670377079945922 0 0 0 0 -40.522180581749126 96.469979594221513 0 96.469979594221513 -88.675339441630058 0 0 0 0 -40.046302187394616 28.836033908450219 0 28.836033908450219 25.528526155746164 0 0 0 0 -409.09676013059652 -153.7736102934723 0 -153.7736102934723 46.358116966828675 0 0 0 0 -24.298465668369317 261.04377679742174 0 261.04377679742174 24.403104007564252 0 0 0 0 2.7521219600694309 -0.6525079543191481 0 -0.6525079543191481 -4.3501094305002539 0 0 0 0 -336.06082023803174 122.78542108577676 0 122.78542108577676 133.87168117911642 0 0 0 0 3.6883208339004341 14.029145972755941 0 14.029145972755941 0.0076813954947283491 0 0 0 0 -18.532283138250932 9.3025975590426242 0 9.3025975590426242 4.5718436372574871 0 0 0 0 -18.157589587479379 11.438864256484521 0 11.438864256484521 -0.013863652282452676 0 0 0 0 -14.743021599908388 12.546539342965843 0 12.546539342965843 -9.5126214134506881 0 0 0 0 -62.256226795274415 68.560129781486467 0 68.560129781486467 -63.144856348255416 0 0 0 0 -71.95074070408009 86.065087831346318 0 86.065087831346318 -36.55101952633413 0 0 0 0 -37.52148814632109 44.838709550713304 0 44.838709550713304 -10.335535298001759 0 0 0 0 -7.4183926552278621 6.3797407966228832 0 6.3797407966228832 -3.159852002477578 0 0 0 0 -61.908015561941284 67.781722793188237 0 67.781722793188237 -76.465661613183329 0 0 0 0 -40.583562864499982 44.461538238901994 0 44.461538238901994 -78.512902520451462 0 0 0 0 -7.4967640486975142 62.865212955948664 0 62.865212955948664 -115.14555768738501 0 0 0 0 -2.0935558834669905 -6.2054753592331622 0 -6.2054753592331622 13.313150320076439 0 0 0 0 -20.538705139472768 13.772939491829675 0 13.772939491829675 -72.218683977320325 0 0 0 0 -1.8719618625473231 20.187112768355291 0 20.187112768355291 6.5579837365366984 0 0 0 0 -29.302307718323789 39.000639826684079 0 39.000639826684079 -4.4800330934893395 0 0 0 0 -27.735314503082918 38.333933750836877 0 38.333933750836877 -67.117081192700425 0 0 0 0 -4.4886421779518031 25.514156196507571 0 25.514156196507571 -8.536136564698424 0 0 0 0 -27.206335594819393 63.46313447522698 0 63.46313447522698 -43.031350114673842 0 0 0 0 -9.211528891372275 35.888542091790349 0 35.888542091790349 -1.2362733255525882 0 0 0 0 -0.080998461973287306 5.702997978959143 0 5.702997978959143 3.381006708781797 0 0 0 0 -1.4145836405550654 39.374397256848169 0 39.374397256848169 -70.947151334723458 0 0 0 0 -12.515158076232183 56.175591457518749 0 56.175591457518749 -76.630209335111431 0 0 0 0 40.788537547261512 35.129213910506223 0 35.129213910506223 -106.1307850893063 0 0 0 0 -9.2625861613632878 58.835633022419643 0 58.835633022419643 -75.826792404717708 0 0 0 0 -12.848578922290471 80.072113431320759 0 80.072113431320759 -87.640628218405254 0 0 0 0 -3.1323015542479311 0.95450780650725164 0 0.95450780650725164 3.7928492599270385 0 0 0 0 4.16985543562987 37.968289686061325 0 37.968289686061325 -50.344169501680881 0 0 0 0 -13.120470111069153 49.932396478267037 0 49.932396478267037 -91.798933283847873 0 0 0 0 -20.758660444525958 72.430212065184605 0 72.430212065184605 -46.263735037762672 0 0 0 0 15.064502026349146 32.873318855694379 0 32.873318855694379 -37.73275944517809 0 0 0 0 -9.4748781225607672 47.680223662486242 0 47.680223662486242 -0.060279043143964373 0 0 0 0 15.052575303337505 32.386872729424454 0 32.386872729424454 18.376381941372529 0 0 0 0 3.1804790808432131 0.64175026534341839 0 0.64175026534341839 -3.191016260973953 0 0 0 0 8.2994701780444302 25.067117315946234 0 25.067117315946234 -41.341336240206147 0 0 0 0 94.683812524170207 114.05427475193574 0 114.05427475193574 -130.34301374030838 0 0 0 0 21.841921482824546 9.5292800661027286 0 9.5292800661027286 -3.2560408187714884 0 0 0 0 11.091110273353479 41.183575163879141 0 41.183575163879141 -50.181215449658339 0 0 0 0 -4.8320750298344137 50.358301707383362 0 50.358301707383362 119.28371183629497 0 0 0 0 49.263573995252955 -103.2921495482733 0 -103.2921495482733 74.691670705884462 0 0 0 0 -10.600003398885747 -24.919390238152118 0 -24.919390238152118 6.707430960083002 0 0 0 0 43.509615530925657 18.562735456267546 0 18.562735456267546 3.0734145411843201 0 0 0 0 -6.366119326055923 -1.0942642471054569 0 -1.0942642471054569 -0.026058822215952775 0 0 0 0 238.06687212621 75.959734178439248 0 75.959734178439248 -186.2583595346332 0 0 0 0 -84.321343418629112 -116.42525201942044 0 -116.42525201942044 -137.25355567276711 0 0 0 0 29.262893726516268 21.985646836408705 0 21.985646836408705 -15.961826561077032 0 0 0 0 22.037279094460381 7.0677164019769236 0 7.0677164019769236 1.241444628755815 0 0 0 0 7.4967393030531042 3.4815688646990708 0 3.4815688646990708 -2.7652084495573206 0 0 0 0 -67.907192197985751 176.21806426571129 0 176.21806426571129 -269.49561508199258 0 0 0 0 18.811636349921134 5.4149454126601313 0 5.4149454126601313 0.0021532334684408738 0 0 0 0 65.850090301581076 -8.3691202095724293 0 -8.3691202095724293 -92.185237409197725 0 0 0 0 7.43785792412476 4.6363874293125491 0 4.6363874293125491 -3.3345140989832771 0 0 0 0 205.46543525571178 113.75687986481353 0 113.75687986481353 -463.7822364213207 0 0 0 0 -218.29377254570045 405.06240777979474 0 405.06240777979474 379.17570099332079 0 0 0 0 2.36487879879639 3.2452734348908905 0 3.2452734348908905 -1.1064852868088479 0 0 0 0 279.39890486644526 -95.530010330156074 0 -95.530010330156074 -269.07237493619323 0 0 0 0 156.27642146862672 45.862673624593299 0 45.862673624593299 -595.83680060769257 0 0 0 0 -51.9667516281188 27.450009867925473 0 27.450009867925473 -224.55918114105589 0 0 0 0 -36.327712258986139 91.191496088227723 0 91.191496088227723 -36.102913263544906 0 0 0 0 11.591431758828548 156.12851003788819 0 156.12851003788819 -119.54117639480683 0 0 0 0 191.92645591506698 242.68322050225106 0 242.68322050225106 -286.87922886248271 0 0 0 0 194.40506659328582 94.190244776321947 0 94.190244776321947 -176.55298826753278 0 0 0 0 -1.1902000775795614 88.960657589015682 0 88.960657589015682 -30.171270831080619 0 0 0 0 54.646777940379252 56.209883122501196 0 56.209883122501196 -95.608524766939809 0 0 0 0 14.305984766141947 10.764049202194826 0 10.764049202194826 -12.645158603187873 0 0 0 0 5.1329674757253088 41.949445692327572 0 41.949445692327572 -85.116025604031165 0 0 0 0 -176.18719721526941 -32.411505986383418 0 -32.411505986383418 142.11165771218657 0 0 0 0 23.92892350027978 40.140144530349062 0 40.140144530349062 -283.67718048244933 0 0 0 0 -33.165670070142824 101.71319963776477 0 101.71319963776477 -160.79729380234494 0 0 0 0 6.1493044182037195 3.1934172946277215 0 3.1934172946277215 -0.49882655830977285 0 0 0 0 -1.1556031422114756 5.3097455833049025 0 5.3097455833049025 -148.5535721378983 0 0 0 0 -25.695687736185391 93.757244919142977 0 93.757244919142977 -104.52121507425909 0 0 0 0 -32.801502786509445 96.312411949889793 0 96.312411949889793 -83.936018405892582 0 0 0 0 -40.140979565978341 64.879446210397873 0 64.879446210397873 -82.916915757145034 0 0 0 0 6.6843501886214653 73.248492605969659 0 73.248492605969659 -92.311452965222998 0 0 0 0 6.7377406652922218 81.013967665552627 0 81.013967665552627 -18.049768253913498 0 0 0 0 64.117842834176372 20.143469456023013 0 20.143469456023013 -94.955927883449476 0 0 0 0 36.209799994732748 99.382350757165113 0 99.382350757165113 -46.347439163342642 0 0 0 0 12.323604517687272 66.705265696120478 0 66.705265696120478 -13.605835307913367 0 0 0 0 -16.459160706921818 34.665888662461221 0 34.665888662461221 -48.967622725100682 0 0 0 0 -12.257202497092603 30.404832377822906 0 30.404832377822906 -35.770134709603042 0 0 0 0 124.04526164507115 18.627860150685592 0 18.627860150685592 -144.70776460343041 0 0 0 0 -27.019667181479235 32.836145851761103 0 32.836145851761103 -11.96165821354225 0 0 0 0 -57.02754432650363 67.537521158035815 0 67.537521158035815 36.146449823339935 0 0 0 0 -59.577824687990869 46.017910082322487 0 46.017910082322487 -15.719978990207892 0 0 0 0 -141.14452910658292 32.077415488223778 0 32.077415488223778 30.541081892923103 0 0 0 0 -33.226997802536061 97.283791641842981 0 97.283791641842981 -29.673574016254861 0 0 0 0 -52.86761448204561 114.78014935093961 0 114.78014935093961 16.973632654320681 0 0 0 0 -61.838555027725306 80.364163045909663 0 80.364163045909663 12.317503681058042 0 0 0 0 34.924332659796164 160.68366154987598 0 160.68366154987598 28.644628508525784 0 0 0 0 139.05738896951698 85.685120096168248 0 85.685120096168248 -56.049949535554333 0 0 0 0 58.370518730309186 207.80307457169692 0 207.80307457169692 53.429437671817141 0 0 0 0 39.4038114914365 102.4187408532016 0 102.4187408532016 28.449777088520932 0 0 0 0 -55.48155764702642 112.8147334338064 0 112.8147334338064 78.024564225568611 0 0 0 0 -132.63714273009782 137.72164229057307 0 137.72164229057307 42.093314855650533 0 0 0 0 -90.215629685426393 73.190184807634068 0 73.190184807634068 19.031720416067401 0 0 0 0 -134.0407118310759 172.81091530456615 0 172.81091530456615 -72.062447303775116 0 0 0 0 -276.47560168615746 73.630179904859688 0 73.630179904859688 30.011640267475741 0 0 0 0 -15.322753506134177 177.74330748250941 0 177.74330748250941 24.933603146419046 0 0 0 0 -29.971753124911629 92.374394485777884 0 92.374394485777884 -22.605045477532258 0 0 0 0 78.096733309062074 138.98583605206659 0 138.98583605206659 7.2687105044606142 0 0 0 0 1.4837282718683582 88.276603762806189 0 88.276603762806189 -48.59093689758447 0 0 0 0 16.212250673128437 95.763449455727823 0 95.763449455727823 -61.112320312560769 0 0 0 0 -17.399346036519091 133.23458663908968 0 133.23458663908968 -104.56503644312033 0 0 0 0 -127.06866452583927 71.991737093499978 0 71.991737093499978 -68.459262530194337 0 0 0 0 -347.34407498310247 155.56884106807411 0 155.56884106807411 8.5486476717633195 0 0 0 0 -329.41416614889567 96.019753530876187 0 96.019753530876187 4.7908939628396183 0 0 0 0 -411.63060291575675 156.41481275856495 0 156.41481275856495 9.4490029251319356 0 0 0 0 -427.47075749803707 85.589736428624747 0 85.589736428624747 3.7410529772751033 0 0 0 0 -399.13545407035235 191.55524487775619 0 191.55524487775619 -105.9419255440007 0 0 0 0 61.151609405649651 -19.185965703291004 0 -19.185965703291004 -23.797775258310139 0 0 0 0 -4.6221093066559007 -0.47176887897482089 0 -0.47176887897482089 4.0604782155711518 0 0 0 0 -402.2099071161847 29.835688522849523 0 29.835688522849523 39.606802263559075 0 0 0 0 -13.559507509803627 18.291080064316539 0 18.291080064316539 -16.939839721409953 0 0 0 0 325.48990657284958 205.6831890011963 0 205.6831890011963 125.81113957893103 0 0 0 0 199.55785956314867 271.85661268828699 0 271.85661268828699 137.39542082013213 0 0 0 0 200.91928532526072 206.54408600268653 0 206.54408600268653 126.35925109471646 0 0 0 0 125.68211762849387 65.101087433824432 0 65.101087433824432 -54.146786729688756 0 0 0 0 29.143346400094742 34.005439742526505 0 34.005439742526505 -4.6606079409830272 0 0 0 0 5.9435059158684496 10.451005956601477 0 10.451005956601477 -18.422413016596977 0 0 0 0 36.085097017402191 10.062482735578214 0 10.062482735578214 -23.264393581367301 0 0 0 0 195.29569973790058 203.35861494870187 0 203.35861494870187 252.04845540947281 0 0 0 0 7.0011161094845988 0.52152293982992148 0 0.52152293982992148 -3.5105484807435232 0 0 0 0 5.1410908629886407 7.0705611146162255 0 7.0705611146162255 -7.7573898962205021 0 0 0 0 -53.877318677326912 -1.3430256447318243 0 -1.3430256447318243 -29.564182575268205 0 0 0 0 -171.94431119818182 -57.740750630007824 0 -57.740750630007824 -55.508280716923764 0 0 0 0 281.81619214073135 575.0179815319625 0 575.0179815319625 222.12272612654488 0 0 0 0 343.52648080927111 457.71616527125298 0 457.71616527125298 68.799896440046723 0 0 0 0 211.99694741352914 536.81041143281254 0 536.81041143281254 13.601956212587538 0 0 0 0 184.37568240598085 345.30860551519436 0 345.30860551519436 336.97299800683686 0 0 0 0 262.99630801229841 82.962638357297692 0 82.962638357297692 716.54518833960174 0 0 0 0 621.81303646422748 474.54546178778401 0 474.54546178778401 374.59811570351303 0 0 0 0 194.97991584426461 389.90010405812609 0 389.90010405812609 345.42533404270944 0 0 0 0 300.07793834642143 460.04478108223702 0 460.04478108223702 383.1342138869295 0 0 0 0 236.56322060712137 530.06813732477895 0 530.06813732477895 789.81435436255197 0 0 0 0 377.75650688019073 536.20093586668372 0 536.20093586668372 245.05434523787699 0 0 0 0 5.0564077885389906 65.713618115873032 0 65.713618115873032 31.956879313918762 0 0 0 0 1.890978826378424 -0.48440441172850512 0 -0.48440441172850512 -1.3680379568532999 0 0 0 0 -184.82739477597897 57.995125171641121 0 57.995125171641121 31.937551268506638 0 0 0 0 -32.928919162387274 177.71008534705834 0 177.71008534705834 43.290523384988774 0 0 0 0 201.70785000605883 329.5131156778516 0 329.5131156778516 -45.42176984467369 0 0 0 0 196.54580364968297 307.46265418868279 0 307.46265418868279 60.497288378574012 0 0 0 0 299.86100729867121 511.65217825220316 0 511.65217825220316 245.71291682422066 0 0 0 0 439.7495374723535 511.53918849127331 0 511.53918849127331 -210.84525197754556 0 0 0 0 536.43126768104821 366.16570215901447 0 366.16570215901447 -46.999503458680238 0 0 0 0 184.70113888140327 203.18782753804408 0 203.18782753804408 122.22807279047265 0 0 0 0 316.81900404158478 100.05906908810721 0 100.05906908810721 18.579027071980818 0 0 0 0 -127.01445976654009 480.06337647313921 0 480.06337647313921 -144.87736918334485 0 0 0 0 171.08201167397624 567.0768726156748 0 567.0768726156748 15.261739409404981 0 0 0 0 122.55769099385353 240.45628685139764 0 240.45628685139764 -222.9874646319513 0 0 0 0 -101.11031323058432 274.89859243765386 0 274.89859243765386 -210.05576713682967 0 0 0 0 99.358980856048674 149.68125096247604 0 149.68125096247604 -478.11144606463495 0 0 0 0 -49.487045359600415 202.49756316399726 0 202.49756316399726 -496.06349989878072 0 0 0 0 -107.864891830435 209.3045399132825 0 209.3045399132825 -87.647050311556086 0 0 0 0 5.1720568170045276 495.18112182720415 0 495.18112182720415 -559.40298433943826 0 0 0 0 8.1597981307444947 7.1963711582017709 0 7.1963711582017709 3.8671047653330106 0 0 0 0 647.90854338809913 319.12352394448681 0 319.12352394448681 -141.09305733211659 0 0 0 0 889.70056678026731 103.45813213485962 0 103.45813213485962 -462.01004332379671 0 0 0 0 3.9216555969191145 3.8422117335957182 0 3.8422117335957182 2.2671169719848194 0 0 0 0 799.73511725627941 -54.040683961997274 0 -54.040683961997274 -562.38542407215573 0 0 0 0 532.80841103037164 -167.22912958543748 0 -167.22912958543748 -478.23192323646799 0 0 0 0 726.96322137568768 -6.3272719485175912 0 -6.3272719485175912 -467.57546790629567 0 0 0 0 780.99447720558055 -62.861664123294759 0 -62.861664123294759 -446.07384924415965 0 0 0 0 527.75738548386471 -229.22946075878281 0 -229.22946075878281 -219.2444623486881 0 0 0 0 347.28688868644531 10.216100067271327 0 10.216100067271327 -132.22088379623892 0 0 0 0 132.98000982708618 295.7617620457022 0 295.7617620457022 316.22184565755015 0 0 0 0 7.1884581194470023 2.8308736893508524 0 2.8308736893508524 0.53035523939815477 0 0 0 0 758.23129125705964 -491.72744759418856 0 -491.72744759418856 -100.48925781596336 0 0 0 0 184.76998728539002 -129.5459115394915 0 -129.5459115394915 -211.95854920336296 0 0 0 0 688.27511779820975 472.4985306136914 0 472.4985306136914 -42.054883921970031 0 0 0 0 1296.5381123588486 -25.038312758770189 0 -25.038312758770189 -473.43841846852229 0 0 0 0 1010.9649771361074 102.90341628042461 0 102.90341628042461 -0.34157425949524622 0 0 0 0 891.0538937115025 367.40839941990635 0 367.40839941990635 41.922479586704867 0 0 0 0 233.36447194798893 73.782059946548543 0 73.782059946548543 0.28479589945272188 0 0 0 0 -244.04492725289782 125.50041752231482 0 125.50041752231482 -67.98679921078292 0 0 0 0 126.69133924020935 -13.951404790641391 0 -13.951404790641391 326.60343882757661 0 0 0 0 153.68438987508083 146.58474395372923 0 146.58474395372923 -136.80348789454729 0 0 0 0 -164.52117834326521 232.1980059108464 0 232.1980059108464 0.30649940519098562 0 0 0 0 -176.98226103631714 174.33968553145314 0 174.33968553145314 -141.1434375728204 0 0 0 0 -251.40675402822853 376.49291545336746 0 376.49291545336746 -236.23373029090362 0 0 0 0 4.9199592872253213 6.2822752551616077 0 6.2822752551616077 4.396451095053294 0 0 0 0 -187.46822784601818 145.35167867316522 0 145.35167867316522 0.092525401596503798 0 0 0 0 13.012403727316268 330.10851533478854 0 330.10851533478854 126.63095064790105 0 0 0 0 -92.838565801026562 361.96605034804088 0 361.96605034804088 152.91842600052769 0 0 0 0 248.10840965971329 243.97369511382203 0 243.97369511382203 -0.13003065817611059 0 0 0 0 27.949968682331018 295.84545018681092 0 295.84545018681092 -228.45957010454731 0 0 0 0 194.83270378514749 448.04627842398077 0 448.04627842398077 -95.093844256043667 0 0 0 0 0.14863363312198175 3.2561449913671936 0 3.2561449913671936 3.2181587219968719 0 0 0 0 -101.96958276974328 167.27359094190615 0 167.27359094190615 -246.63151924723934 0 0 0 0 143.32542213766465 144.47623445804493 0 144.47623445804493 -246.50483650313981 0 0 0 0 -16.202695293545275 125.82703827815203 0 125.82703827815203 -341.32062315789517 0 0 0 0 -64.870915634779521 256.03375798298657 0 256.03375798298657 -216.78947203462303 0 0 0 0 46.567357273107973 240.8067064881343 0 240.8067064881343 -365.37243943264184 0 0 0 0 -39.156899556624921 146.27757706385455 0 146.27757706385455 -477.37951289286138 0 0 0 0 -56.873590420473192 197.62618118899991 0 197.62618118899991 -370.8525209648833 0 0 0 0 -115.6894181356256 175.21056541776488 0 175.21056541776488 -362.76544155769807 0 0 0 0 -23.060699190059495 185.80271070959134 0 185.80271070959134 -491.78592267259955 0 0 0 0 -82.793433842487502 155.45130316932045 0 155.45130316932045 -496.19271975534321 0 0 0 0 -83.507713431094089 148.02244174601947 0 148.02244174601947 -455.36730672379235 0 0 0 0 -178.03025788392279 204.57015169649094 0 204.57015169649094 -469.35384434747175 0 0 0 0 -46.806717582583133 165.73327056815469 0 165.73327056815469 -446.9691936312156 0 0 0 0 -89.183333141402727 132.10741594644787 0 132.10741594644787 -326.95176649269706 0 0 0 0 -130.17575510346069 145.43509734253894 0 145.43509734253894 -329.58506572601618 0 0 0 0 -106.43005326780076 92.635155899369238 0 92.635155899369238 36.17859644080454 0 0 0 0 76.828006914056459 63.565759223689383 0 63.565759223689383 40.565382244269131 0 0 0 0 0.7369213267697603 3.3424509007550398 0 3.3424509007550398 -2.4002105309564001 0 0 0 0 -245.94775656588172 84.199571960965841 0 84.199571960965841 350.49335964827333 0 0 0 0 54.535934547588113 35.756298124819295 0 35.756298124819295 -0.019196794204850005 0 0 0 0 -348.89298044162479 257.19929959344154 0 257.19929959344154 125.0096563743864 0 0 0 0 -107.01077769069889 97.381304081362032 0 97.381304081362032 9.5249793931834574 0 0 0 0 -131.51625227612385 334.73533084135852 0 334.73533084135852 -8.1463078816814232 0 0 0 0 -293.36452878846148 340.61827742339847 0 340.61827742339847 11.390843704808503 0 0 0 0 -156.17417801824377 389.49204142072995 0 389.49204142072995 0.62597285451129114 0 0 0 0 -117.98306728628449 297.79555870784679 0 297.79555870784679 3.731724840195966 0 0 0 0 -26.020270633129257 401.8317152581003 0 401.8317152581003 -47.976602410330088 0 0 0 0 -118.41467519099388 292.0685223299588 0 292.0685223299588 -165.2099651391618 0 0 0 0 -34.673370331306614 323.92906225184743 0 323.92906225184743 -201.46239367332601 0 0 0 0 -50.613111873339221 199.88563862010051 0 199.88563862010051 -346.54705335698964 0 0 0 0 -78.651862314814935 65.394589235511376 0 65.394589235511376 -387.07987720485835 0 0 0 0 -2.1754955208048585 2.5115461242150445 0 2.5115461242150445 1.3373298598307883 0 0 0 0 -79.442669510490759 272.06277551340918 0 272.06277551340918 -381.75481957446027 0 0 0 0 -10.125500451254993 127.30349505724735 0 127.30349505724735 -414.88850812953024 0 0 0 0 -136.58321018925199 205.9741833886801 0 205.9741833886801 -125.41854319391132 0 0 0 0 -2.1963499517671323 2.3270968084870844 0 2.3270968084870844 1.758425229881567 0 0 0 0 -144.57575920888212 190.86429029930878 0 190.86429029930878 -113.68076760486292 0 0 0 0 -76.274068290415016 99.780704250588315 0 99.780704250588315 -255.03966147751635 0 0 0 0 -25.447462303141947 138.88205963783912 0 138.88205963783912 -292.08130932311178 0 0 0 0 50.751819485445594 147.39462183893193 0 147.39462183893193 -109.59341088127258 0 0 0 0 -134.51082444053327 -48.637403348644511 0 -48.637403348644511 339.33167776653863 0 0 0 0 -85.058862523927019 42.755908371142141 0 42.755908371142141 -335.58248520462803 0 0 0 0 1.0803674895323638 85.612849824727164 0 85.612849824727164 -506.1518228816567 0 0 0 0 -180.05269127336805 -75.669387961856955 0 -75.669387961856955 439.21187592222122 0 0 0 0 -33.270164022628663 10.827192783864348 0 10.827192783864348 1.3673311177904246 0 0 0 0 90.375628042527751 133.78812356578419 0 133.78812356578419 -38.737289948339821 0 0 0 0 89.69313953906294 51.643441436011926 0 51.643441436011926 803.69728125949041 0 0 0 0 -215.45082011742124 283.79202216870181 0 283.79202216870181 633.33245902995986 0 0 0 0 -72.517296028796409 75.468727653576934 0 75.468727653576934 -429.58484909358958 0 0 0 0 -35.674236526432651 171.08765260711516 0 171.08765260711516 -490.93328288004705 0 0 0 0 -0.74499786590786243 77.544125146287115 0 77.544125146287115 -644.13597723052953 0 0 0 0 -18.723776667251251 10.184654457229584 0 10.184654457229584 1.0321393626410433 0 0 0 0 284.81606267348707 234.9781993601282 0 234.9781993601282 179.39161312523356 0 0 0 0 205.19568224026807 26.893748559057713 0 26.893748559057713 352.20269888189068 0 0 0 0 448.60384864310618 359.48183385445736 0 359.48183385445736 557.45691050530877 0 0 0 0 -223.33465540359794 2.3205937817911035 0 2.3205937817911035 886.8886649611668 0 0 0 0 -0.96603081269630309 0.39651726648961017 0 0.39651726648961017 3.9327168030084749 0 0 0 0 -177.6360714024031 -292.86967517777521 0 -292.86967517777521 -266.08103665437375 0 0 0 0 -23.376308540171522 213.37745979586907 0 213.37745979586907 934.80401311811875 0 0 0 0 31.998576628313458 66.826062618580181 0 66.826062618580181 1237.3000089970301 0 0 0 0 -1.0010300608323206 1.747538625021086 0 1.747538625021086 1.0403236009873353 0 0 0 0 -227.89386997313704 -144.91164585968363 0 -144.91164585968363 -202.54341067434871 0 0 0 0 -182.27076064393441 -157.44755839355639 0 -157.44755839355639 -3.4337477788358228 0 0 0 0 -251.27494747816127 -178.49549382804253 0 -178.49549382804253 41.109817946387921 0 0 0 0 -279.83250375729131 -109.23110536283639 0 -109.23110536283639 2.2080624861991964 0 0 0 0 -1.1784937333049448 -2.8026264838317729 0 -2.8026264838317729 25.821276729223086 0 0 0 0 -100.76563759588498 -99.159720216921414 0 -99.159720216921414 -8.6950307549122954 0 0 0 0 -290.23391485132197 -124.90957904910465 0 -124.90957904910465 79.456706957542337 0 0 0 0 -15.193934781463895 0.60930728289713443 0 0.60930728289713443 53.860452845896361 0 0 0 0 -15.121107471282357 -5.7652623896028672 0 -5.7652623896028672 28.248170825143461 0 0 0 0 -23.192950159300381 -10.908878205009387 0 -10.908878205009387 51.837449642047432 0 0 0 0 -23.239744789703764 3.1055284246176598 0 3.1055284246176598 59.56189499469474 0 0 0 0 -119.88262780051082 302.591214869346 0 302.591214869346 772.91776049749751 0 0 0 0 -8.6111308561493907 8.6005654837801728 0 8.6005654837801728 -1.1243326358443113 0 0 0 0 301.53886414382578 418.25410633691899 0 418.25410633691899 804.62576670138515 0 0 0 0 231.34727354067491 231.82955129585025 0 231.82955129585025 440.39810360517004 0 0 0 0 -122.41799777515917 163.81458953594483 0 163.81458953594483 727.48061744537699 0 0 0 0 -10.378412975868777 7.2666191632773689 0 7.2666191632773689 -2.8298684690329878 0 0 0 0 -34.822083358336386 34.912012702436186 0 34.912012702436186 94.843972537273658 0 0 0 0 4.0263769310911357 18.13885730632137 0 18.13885730632137 42.008396723074839 0 0 0 0 137.10889610287632 130.63900268946236 0 130.63900268946236 298.78249404068629 0 0 0 0 -3.4962922932698604 4.0446062191932981 0 4.0446062191932981 0.18210427820439179 0 0 0 0 38.046425413035649 210.11883217633294 0 210.11883217633294 -1175.0899849732523 0 0 0 0 26.131297159215137 27.710997022528318 0 27.710997022528318 655.81454121939532 0 0 0 0 -124.31666216300891 103.92960464148928 0 103.92960464148928 -484.92730558131734 0 0 0 0 -124.86182099672283 380.70555378839163 0 380.70555378839163 -678.97882313675655 0 0 0 0 -60.998309270807113 172.66448284526268 0 172.66448284526268 -707.09705778030911 0 0 0 0 -102.47343176009963 121.91436098297709 0 121.91436098297709 -701.04112447073203 0 0 0 0 -30.642679319671515 199.02781131482334 0 199.02781131482334 -510.24478464837011 0 0 0 0 -1.7654954708888795 2.0624305315375011 0 2.0624305315375011 0.89019268107205107 0 0 0 0 -54.717747868076913 98.565658619700116 0 98.565658619700116 -702.13939477458189 0 0 0 0 -144.76187060412667 -1.5068096737522865 0 -1.5068096737522865 509.31644354982382 0 0 0 0 -10.181343716901477 8.297206363953336 0 8.297206363953336 0.85763988853707929 0 0 0 0 -241.73144202730055 -121.20002211293468 0 -121.20002211293468 384.82142153193126 0 0 0 0 86.940365900260076 8.6692620957110194 0 8.6692620957110194 339.487186013459 0 0 0 0 -14.887021214213746 189.41670068369422 0 189.41670068369422 -811.38253660822375 0 0 0 0 31.188335147830458 29.56760127344387 0 29.56760127344387 350.70110607694369 0 0 0 0 -31.1775138666153 -68.660257794777863 0 -68.660257794777863 204.73361198307248 0 0 0 0 70.357083388727915 89.449405909545021 0 89.449405909545021 164.39153951958724 0 0 0 0 64.333248627372086 77.564028106666228 0 77.564028106666228 258.87517893925542 0 0 0 0 157.34411208556958 117.24809993966483 0 117.24809993966483 265.23040838644374 0 0 0 0 -235.37493636288491 -318.88611722266069 0 -318.88611722266069 -176.57986440608511 0 0 0 0 -359.84495048076678 -257.50599994551885 0 -257.50599994551885 125.24047725560376 0 0 0 0 -173.50023470941233 4.0787321518728277 0 4.0787321518728277 392.09938531682565 0 0 0 0 -158.62950571581496 3.1069091014069272 0 3.1069091014069272 117.80800296281222 0 0 0 0 -54.150612222979362 -43.929333337575372 0 -43.929333337575372 110.60500661208062 0 0 0 0 106.25907913581796 65.096713461578474 0 65.096713461578474 129.1539782769687 0 0 0 0 -3.8880165552673134 114.5272488668852 0 114.5272488668852 144.08217159141896 0 0 0 0 198.30539792892887 152.01934259969858 0 152.01934259969858 177.05968222896627 0 0 0 0 177.58582601543458 229.12038002307236 0 229.12038002307236 257.31152664427646 0 0 0 0 278.74761901387501 289.63076284014096 0 289.63076284014096 308.41346059135503 0 0 0 0 184.7448813670191 252.98159210205995 0 252.98159210205995 443.31276261559105 0 0 0 0 179.80304721260745 186.24782473652158 0 186.24782473652158 296.67623083549552 0 0 0 0 173.25712265871175 197.16035236864991 0 197.16035236864991 321.24865935309208 0 0 0 0 -8.7177960389944928 192.95550346228993 0 192.95550346228993 480.97054013781599 0 0 0 0 153.88687269611364 104.69468954509648 0 104.69468954509648 342.73254948168324 0 0 0 0 157.19048135244157 133.40694185005123 0 133.40694185005123 423.76493516640039 0 0 0 0 -96.273569445365411 349.15063471195026 0 349.15063471195026 427.78005217516329 0 0 0 0 144.75217058951966 321.63600154466985 0 321.63600154466985 374.10960717116541 0 0 0 0 55.537024416050372 180.3405958317162 0 180.3405958317162 402.53245260229596 0 0 0 0 198.15906699038987 236.67242118505237 0 236.67242118505237 434.23027901349997 0 0 0 0 119.27942643676215 294.46239243412856 0 294.46239243412856 420.11969018215314 0 0 0 0 125.60838594234428 353.64009387746046 0 353.64009387746046 713.35892704690923 0 0 0 0 321.10756498913724 560.19732334360015 0 560.19732334360015 509.77686723217448 0 0 0 0 -45.551565153632737 520.38718179764692 0 520.38718179764692 590.07018289939151 0 0 0 0 268.99396282480211 421.70045501052664 0 421.70045501052664 449.91801371643669 0 0 0 0 143.131197503556 556.18905179431022 0 556.18905179431022 511.00987064246146 0 0 0 0 207.56371359851801 309.59243238164345 0 309.59243238164345 396.39907349995337 0 0 0 0 238.21869204876748 385.57143916242057 0 385.57143916242057 484.23734784178669 0 0 0 0 268.14247965152208 430.5942815268354 0 430.5942815268354 467.11509586221655 0 0 0 0 263.09754023537062 403.39288962852879 0 403.39288962852879 503.77887634185026 0 0 0 0 318.0869811899538 388.96912852243986 0 388.96912852243986 407.06570299240047 0 0 0 0 309.469221222138 490.33024929224484 0 490.33024929224484 642.68732145738613 0 0 0 0 307.01373088270066 348.98863174107828 0 348.98863174107828 540.89009190065553 0 0 0 0 99.872340773712949 25.153965409110242 0 25.153965409110242 -25.024381871589867 0 0 0 0 -2.058586387730994 5.7286633237789033 0 5.7286633237789033 2.2009574511158974 0 0 0 0 401.08174608151512 414.85694900027011 0 414.85694900027011 468.96576337404622 0 0 0 0 -89.42872065028223 94.992745833777008 0 94.992745833777008 102.7290943741682 0 0 0 0 -2.187819373864329 1.2290579654509202 0 1.2290579654509202 -0.034199368925726503 0 0 0 0 122.41310487154942 145.10947224915435 0 145.10947224915435 49.687139849891537 0 0 0 0 36.590174493834866 88.214049363105005 0 88.214049363105005 136.62510887123062 0 0 0 0 4.1681977716422356 5.9689476415340721 0 5.9689476415340721 -0.54776980063397218 0 0 0 0 44.674623170957148 170.78501424860224 0 170.78501424860224 194.80839614343131 0 0 0 0 45.557446696195257 46.950855736511585 0 46.950855736511585 -9.0550674121477641 0 0 0 0 90.672453399437018 46.33621929626679 0 46.33621929626679 -32.465527578315232 0 0 0 0 -8.3777506473810579 42.423341755573176 0 42.423341755573176 -45.392819916345388 0 0 0 0 150.22723937913747 415.35697734348469 0 415.35697734348469 -254.67833479667024 0 0 0 0 24.070079006174637 55.666143719099637 0 55.666143719099637 -32.69911331457115 0 0 0 0 78.554450501284009 68.506378688813129 0 68.506378688813129 -203.72856209879683 0 0 0 0 28.127538767363149 -56.155960358992161 0 -56.155960358992161 -183.05237999673409 0 0 0 0 -345.1579952748134 -818.27567998983068 0 -818.27567998983068 368.50222687367932 0 0 0 0 -0.48059612644555472 1.0774411992446744 0 1.0774411992446744 3.7629691925799875 0 0 0 0 47.78841776586529 26.070236523511539 0 26.070236523511539 13.377338171099865 0 0 0 0 38.147286591817192 96.623596325691324 0 96.623596325691324 37.054310946346959 0 0 0 0 37.294978335896019 2.6732896498685932 0 2.6732896498685932 -0.76964872785279681 0 0 0 0 -34.195947500034656 11.741388201112215 0 11.741388201112215 13.244085425788114 0 0 0 0 472.57876596088317 708.29703548598627 0 708.29703548598627 938.01018882609787 0 0 0 0 59.20436147656801 331.78439553969656 0 331.78439553969656 -77.315326876472682 0 0 0 0 703.94831922709636 114.76581790138516 0 114.76581790138516 1118.8072659052559 0 0 0 0 345.88526242037915 539.26991093158722 0 539.26991093158722 556.36727726174286 0 0 0 0 452.96188746720554 249.28158276998874 0 249.28158276998874 105.56496679710108 0 0 0 0 314.08739334056918 362.20834123215172 0 362.20834123215172 556.53191662734025 0 0 0 0 268.41564438759815 409.07739446383493 0 409.07739446383493 774.27386282874795 0 0 0 0 408.20929443137538 490.06122628736193 0 490.06122628736193 386.11609135034087 0 0 0 0 210.53950942459323 261.01318308488408 0 261.01318308488408 321.31495608497062 0 0 0 0 326.14470070815241 351.25527636152401 0 351.25527636152401 315.72519707103493 0 0 0 0 196.02720984276039 209.68056880638323 0 209.68056880638323 277.77319937248831 0 0 0 0 243.02003910219537 258.69897404532821 0 258.69897404532821 182.22108324195142 0 0 0 0 96.874118239873951 -2.4435305366387183 0 -2.4435305366387183 34.394220844580559 0 0 0 0 288.08883382122804 275.82467435774015 0 275.82467435774015 172.85800735870725 0 0 0 0 -530.25772315577706 -138.78461200877064 0 -138.78461200877064 158.01591508880665 0 0 0 0 -157.0633060612472 76.432559524342651 0 76.432559524342651 64.684870978606341 0 0 0 0 -0.56122783855562375 -24.813535022934047 0 -24.813535022934047 38.412342783762142 0 0 0 0 -0.19478025569959412 -2.9342177613457636 0 -2.9342177613457636 31.377528013179983 0 0 0 0 95.858287532291797 1.1980217254531453 0 1.1980217254531453 1.0612344881228637 0 0 0 0 -59.277167349119736 -48.583665234196815 0 -48.583665234196815 39.272861543955514 0 0 0 0 -67.504236379940266 -187.02491311891208 0 -187.02491311891208 -129.65981279448897 0 0 0 0 331.03343784346725 289.69776090256346 0 289.69776090256346 -56.463828535606808 0 0 0 0 178.84430103634259 286.81918291738839 0 286.81918291738839 522.45502129512897 0 0 0 0 -130.88584251088832 64.711858501497773 0 64.711858501497773 35.659414732737787 0 0 0 0 -42.559677982151243 -0.78729820035005105 0 -0.78729820035005105 62.004311529439292 0 0 0 0 -249.59148836407621 -41.925819234063965 0 -41.925819234063965 66.110804935597116 0 0 0 0 -68.815525393164535 113.56387669449759 0 113.56387669449759 73.615570673675393 0 0 0 0 -224.7208298418094 123.51267373128485 0 123.51267373128485 98.233184934564633 0 0 0 0 -374.08151692444153 81.92181629192055 0 81.92181629192055 50.504085859662155 0 0 0 0 -817.00879771895779 527.61463800762976 0 527.61463800762976 -221.86911643657368 0 0 0 0 -467.6653839290575 83.650972484378144 0 83.650972484378144 114.6385532040149 0 0 0 0 -279.32147457435167 372.51668349570537 0 372.51668349570537 263.71072298273793 0 0 0 0 -446.67720952564832 -182.39533064938587 0 -182.39533064938587 37.416226245724829 0 0 0 0 -47.885253778904371 -42.224231456246343 0 -42.224231456246343 23.408022939336661 0 0 0 0 -30.300643161728544 -151.12545228105409 0 -151.12545228105409 -142.36722634028411 0 0 0 0 -36.330482623789521 -110.19459774173993 0 -110.19459774173993 106.36021506105317 0 0 0 0 -1.0361146423911123 107.51741861224582 0 107.51741861224582 422.73667453484813 0 0 0 0 -59.118317229831518 -59.616931648313766 0 -59.616931648313766 134.40269439177064 0 0 0 0 -388.50250692678947 64.737596422914066 0 64.737596422914066 226.90326712107344 0 0 0 0 -1067.1513839496774 -80.806499566802813 0 -80.806499566802813 165.22219338918512 0 0 0 0 -414.1657423121751 -112.35329420756352 0 -112.35329420756352 -648.44021497425274 0 0 0 0 -571.80028310895887 11.458049891087285 0 11.458049891087285 576.45557088857458 0 0 0 0 554.41024490681593 -23.050660741275351 0 -23.050660741275351 -24.212409778963774 0 0 0 0 184.3544507555016 232.70237944586552 0 232.70237944586552 1928.091356402947 0 0 0 0 245.60441867584814 619.67123104266648 0 619.67123104266648 1507.8447472074185 0 0 0 0 718.94740577242374 450.70571677724365 0 450.70571677724365 450.16792104800697 0 0 0 0 -37.64770528804172 -107.87345813716365 0 -107.87345813716365 -41.929387144860812 0 0 0 0 -0.45338506218648389 -0.35249429587570091 0 -0.35249429587570091 32.110933143787065 0 0 0 0 212.91658684305003 30.281930399389239 0 30.281930399389239 0.18063504644669592 0 0 0 0 478.18405584465381 -120.11683120099769 0 -120.11683120099769 232.47007564682281 0 0 0 0 1599.8336561044841 439.1241446003005 0 439.1241446003005 1843.5911032540607 0 0 0 0 1812.9701510773775 2455.3042301105306 0 2455.3042301105306 -76.377310779768322 0 0 0 0 0.38706167306199291 3.1689508476843642 0 3.1689508476843642 15.851173069883146 0 0 0 0 292.2154299273061 -220.1003431880963 0 -220.1003431880963 88.042526290373644 0 0 0 0 415.01237991588823 11.957584995441721 0 11.957584995441721 -35.410060915528447 0 0 0 0 1449.8779397066764 941.93629215342662 0 941.93629215342662 200.7611509852577 0 0 0 0 183.93308797081772 323.53138777514687 0 323.53138777514687 276.07416483349516 0 0 0 0 1070.5653611305042 330.72029594422202 0 330.72029594422202 -783.10082394907658 0 0 0 0 722.35995498957345 -251.54485625086818 0 -251.54485625086818 -433.68945496866945 0 0 0 0 188.55434288066863 1958.6250286915165 0 1958.6250286915165 2556.0471844284002 0 0 0 0 9.8138189523512516 -2.2051646130718723 0 -2.2051646130718723 2.3612990650686925 0 0 0 0 284.67100110283354 74.664206955465488 0 74.664206955465488 31.405005645057827 0 0 0 0 0.19218703680333249 4.5091099659923088 0 4.5091099659923088 8.3126353712606544 0 0 0 0 46.144973183229013 -17.557778589096415 0 -17.557778589096415 -153.4177279980795 0 0 0 0 -45.935977338995144 -161.81369206816453 0 -161.81369206816453 -31.402153051341884 0 0 0 0 122.41745277644077 -339.01495959272142 0 -339.01495959272142 -61.812878684489988 0 0 0 0 -3.0490161211044828 -0.78571998608754257 0 -0.78571998608754257 3.8548764900380945 0 0 0 0 939.45031844177538 511.45776805706555 0 511.45776805706555 320.3143133711601 0 0 0 0 1040.762958643867 184.6442522307625 0 184.6442522307625 1324.6864477650961 0 0 0 0 1946.7093542078492 564.92915009397257 0 564.92915009397257 206.88682448296458 0 0 0 0 131.42358308298753 -253.19405129557708 0 -253.19405129557708 1306.5562479303044 0 0 0 0 555.32564686029946 1298.0231382177371 0 1298.0231382177371 1530.2154372448276 0 0 0 0 909.67060806423706 831.38685590231034 0 831.38685590231034 173.18660134472884 0 0 0 0 -93.668420420031907 651.45735271548619 0 651.45735271548619 892.98344991536578 0 0 0 0 1023.2771280994875 -36.353298306945362 0 -36.353298306945362 -153.77243605669355 0 0 0 0 454.84688971336436 270.0471896942181 0 270.0471896942181 170.41685722835246 0 0 0 0 198.26770639871938 -102.15315341163659 0 -102.15315341163659 -126.58860536146676 0 0 0 0 398.90297462469607 -43.161593666824047 0 -43.161593666824047 -185.75111194851343 0 0 0 0 31.953981881402797 542.57303873899218 0 542.57303873899218 79.876885655190563 0 0 0 0 409.67186722359162 468.408910815338 0 468.408910815338 -189.44284905766835 0 0 0 0 -59.997539883106583 467.64670879628102 0 467.64670879628102 -393.12578797148308 0 0 0 0 -192.07281612410225 376.14751660788897 0 376.14751660788897 -200.64968218049034 0 0 0 0 -535.70275408481393 589.93786528264172 0 589.93786528264172 -418.55583856049634 0 0 0 0 -13.562130320435244 104.36563515935268 0 104.36563515935268 -231.71471081329219 0 0 0 0 -156.33957925281356 -10.456191290853894 0 -10.456191290853894 -317.87112195673035 0 0 0 0 145.33632294806284 -190.13487142256054 0 -190.13487142256054 -343.97717511528754 0 0 0 0 56.963130530766648 130.80358487794001 0 130.80358487794001 -362.43953213025816 0 0 0 0 -448.24770383173382 220.35726417711703 0 220.35726417711703 -362.81776571400133 0 0 0 0 163.04848017757104 -116.26710335574171 0 -116.26710335574171 -192.90269732338493 0 0 0 0 219.42074043176945 -194.0734644310869 0 -194.0734644310869 -201.23715309475665 0 0 0 0 154.46249025522047 -157.32255181716027 0 -157.32255181716027 -153.89960220947978 0 0 0 0 188.33108085777349 -228.76072936481796 0 -228.76072936481796 -38.291696085841977 0 0 0 0 367.42785214303149 -169.94093375714147 0 -169.94093375714147 -201.37358385237167 0 0 0 0 -399.3360072112464 198.71885150737216 0 198.71885150737216 181.67418319849821 0 0 0 0 -885.40994503458194 196.53771772741956 0 196.53771772741956 267.49789614765905 0 0 0 0 -884.90374076014723 563.54834654637671 0 563.54834654637671 225.72898038724088 0 0 0 0 -462.52178666376585 568.60234190443589 0 568.60234190443589 334.25414530366834 0 0 0 0 -518.98967287422488 589.4360537672892 0 589.4360537672892 690.85605325750657 0 0 0 0 -570.40139556214672 394.50324809733138 0 394.50324809733138 257.42917451624817 0 0 0 0 -93.208334217833908 635.97141168989765 0 635.97141168989765 341.8655800754932 0 0 0 0 -262.46115995143555 782.20935116427427 0 782.20935116427427 426.77949127182364 0 0 0 0 135.68456303977837 646.83768149022217 0 646.83768149022217 -118.96037013136083 0 0 0 0 -185.81880423284656 628.90260244804085 0 628.90260244804085 -502.11459811968962 0 0 0 0 -296.05469390148028 683.74373120167002 0 683.74373120167002 -120.06494242294411 0 0 0 0 -236.83963278597912 757.38343086170789 0 757.38343086170789 -134.71598335837461 0 0 0 0 -319.24414021639723 599.6741909829143 0 599.6741909829143 -123.17954560849466 0 0 0 0 -264.33083554004043 494.89509012201779 0 494.89509012201779 -681.91257702253642 0 0 0 0 -294.12405030889272 510.40100766339492 0 510.40100766339492 -175.96573855513998 0 0 0 0 -53.055384320403391 120.21163235883432 0 120.21163235883432 -48.861897880062315 0 0 0 0 -501.43751365595756 425.89021241292176 0 425.89021241292176 -188.57290664597531 0 0 0 0 70.615926823935538 53.38338717824476 0 53.38338717824476 4.3350585700040938 0 0 0 0 -0.15805457096188036 61.44924900861588 0 61.44924900861588 34.97591187824252 0 0 0 0 15.2287631449326 92.381247974306461 0 92.381247974306461 54.205555343534797 0 0 0 0 35.442822302104808 35.836469889576691 0 35.836469889576691 14.522267681888479 0 0 0 0 11.607272568448025 49.693737457189854 0 49.693737457189854 3.5523632277327124 0 0 0 0 32.693356126121458 46.492809846029026 0 46.492809846029026 29.939514335757423 0 0 0 0 -112.18633482834048 620.8357632306288 0 620.8357632306288 -789.9011070175693 0 0 0 0 -160.00898465757564 476.55127732394612 0 476.55127732394612 -1056.7200640590017 0 0 0 0 -349.42716960055077 840.1456024433428 0 840.1456024433428 -687.18893436974031 0 0 0 0 -66.115516554993519 289.65195610684168 0 289.65195610684168 111.22007686574943 0 0 0 0 -9.6068042591705627 35.000564674464471 0 35.000564674464471 34.779783382092063 0 0 0 0 -309.48478336995322 217.23004890118318 0 217.23004890118318 174.92648208542232 0 0 0 0 41.209221231456468 76.023864566974225 0 76.023864566974225 38.670259754013387 0 0 0 0 34.688503467470582 93.388719630329433 0 93.388719630329433 41.088190132291857 0 0 0 0 590.38469727811207 29.600609966109914 0 29.600609966109914 -223.65949677476601 0 0 0 0 18.66282501643218 290.96397523322958 0 290.96397523322958 -319.22747279897158 0 0 0 0 506.27154448075271 57.798413189455459 0 57.798413189455459 -286.36985539933085 0 0 0 0 230.07512219332966 -192.76053579006839 0 -192.76053579006839 -487.60545583194471 0 0 0 0 -107.05412051303938 -34.121994238521438 0 -34.121994238521438 -652.21291816432495 0 0 0 0 -731.32364068578318 35.362800978880841 0 35.362800978880841 -532.62275265205244 0 0 0 0 -373.54730988348842 557.07547667671679 0 557.07547667671679 -645.62576301459922 0 0 0 0 -908.88002028365736 352.48533845067141 0 352.48533845067141 -561.62292144400999 0 0 0 0 -278.39740104255543 358.74772421369562 0 358.74772421369562 -568.3901806048234 0 0 0 0 -582.58910889585604 419.70376759019564 0 419.70376759019564 -1005.1019797180779 0 0 0 0 -548.4068550913762 754.41299753234489 0 754.41299753234489 -856.11425496684387 0 0 0 0 -1298.808778471659 732.30011335149175 0 732.30011335149175 -849.93777886154567 0 0 0 0 181.43674885355722 873.83642631265684 0 873.83642631265684 -2864.6774816744728 0 0 0 0 -3.8787795916461825 3.1547124293222168 0 3.1547124293222168 5.8925720493936353 0 0 0 0 -893.10824206592042 124.48180768301245 0 124.48180768301245 -1252.0602162051946 0 0 0 0 -1542.4785958756183 1352.352793136859 0 1352.352793136859 -1868.8345874117222 0 0 0 0 -4.081820484399227 1.048326705918754 0 1.048326705918754 6.149552853590734 0 0 0 0 -1505.1399703371571 1543.7617496880703 0 1543.7617496880703 -1528.8600899513694 0 0 0 0 -0.47215007365684869 166.42612381012805 0 166.42612381012805 -1110.7746260510758 0 0 0 0 -807.45603552762623 116.49162213635282 0 116.49162213635282 -647.5851693178156 0 0 0 0 -688.29878832870963 1028.2124536855117 0 1028.2124536855117 -541.42948109296776 0 0 0 0 -306.81603306176112 568.64268307540624 0 568.64268307540624 -25.365939558949322 0 0 0 0 -239.38121842090368 -343.44007572937699 0 -343.44007572937699 241.71454242663458 0 0 0 0 -1250.2455486916178 307.3439656061164 0 307.3439656061164 289.85278305056272 0 0 0 0 -297.03424546467977 255.65033677952306 0 255.65033677952306 282.95821322915253 0 0 0 0 -658.25336904960386 715.00093850188568 0 715.00093850188568 535.11877643034677 0 0 0 0 -150.91060894136535 1047.2109819691905 0 1047.2109819691905 652.31879787823345 0 0 0 0 -330.47441158666015 585.83172761523292 0 585.83172761523292 805.4832545685349 0 0 0 0 -253.50155977327267 -231.21622991481854 0 -231.21622991481854 -376.238850940259 0 0 0 0 233.01588183053536 15.924951553377468 0 15.924951553377468 -251.1940221705263 0 0 0 0 756.11370547618799 612.07269224971242 0 612.07269224971242 36.80033254083537 0 0 0 0 251.81804080687652 144.86291626407183 0 144.86291626407183 118.5580866645796 0 0 0 0 -29.020191541400663 33.217540880855239 0 33.217540880855239 -35.126614069938569 0 0 0 0 -166.63530940846249 -338.60388015275748 0 -338.60388015275748 284.20976763489944 0 0 0 0 281.99908525108867 -103.6710307264575 0 -103.6710307264575 -243.20218255496002 0 0 0 0 -812.32952726997519 281.65465443634457 0 281.65465443634457 288.43781956323073 0 0 0 0 -232.2740433426352 132.16292715434247 0 132.16292715434247 301.42470680973929 0 0 0 0 -8.9133842700977315 17.412466758113041 0 17.412466758113041 -37.920763325130793 0 0 0 0 143.46492120605399 658.4350006699824 0 658.4350006699824 -57.151878955599386 0 0 0 0 118.51027046924128 75.921620087192423 0 75.921620087192423 -48.406950643955497 0 0 0 0 325.25569768161404 -643.31688374708756 0 -643.31688374708756 -1113.9394927098583 0 0 0 0 -432.55506732184767 888.19871180716291 0 888.19871180716291 -83.680278104016907 0 0 0 0 -165.33778494706036 -417.48189295787478 0 -417.48189295787478 -916.89760432734329 0 0 0 0 -8.3495543103352112 11.492651549889324 0 11.492651549889324 -15.228259135313891 0 0 0 0 -194.5620925270523 1438.8393398734624 0 1438.8393398734624 -1022.4250735886581 0 0 0 0 497.92117115791189 874.3447641297098 0 874.3447641297098 -601.92760162398918 0 0 0 0 -1154.653382258085 349.802704310423 0 349.802704310423 108.4083501114219 0 0 0 0 457.92241875454783 -468.99541786461486 0 -468.99541786461486 523.94706073876296 0 0 0 0 -238.99422701734647 -174.1456987633137 0 -174.1456987633137 1402.1184679205471 0 0 0 0 31.720530131497071 171.63668739434797 0 171.63668739434797 101.72435694291198 0 0 0 0 635.80494288247155 4.1182005119480891 0 4.1182005119480891 -83.892745361896232 0 0 0 0 -756.50868951232314 -658.40141673672224 0 -658.40141673672224 277.00438721483806 0 0 0 0 -10.752349049471377 61.568983864301117 0 61.568983864301117 808.33458127990889 0 0 0 0 -116.52889140606476 -387.16974567285251 0 -387.16974567285251 238.19431192532647 0 0 0 0 -183.23200703025873 -171.84821539364202 0 -171.84821539364202 166.80675902965595 0 0 0 0 2.0113186596008745 -79.448338237285498 0 -79.448338237285498 145.94825619609037 0 0 0 0 54.589450336904584 45.413630767599543 0 45.413630767599543 -9.3559567709253741 0 0 0 0 103.55458289754461 173.99547608052671 0 173.99547608052671 -210.22709667675372 0 0 0 0 82.722214353682375 110.70359276377712 0 110.70359276377712 -68.457175757343066 0 0 0 0 64.606118413739622 43.028777375184916 0 43.028777375184916 -1.1437518286131194 0 0 0 0 58.985285281734832 203.63647018687334 0 203.63647018687334 -95.482559393829433 0 0 0 0 110.90687868371606 150.72252436348936 0 150.72252436348936 -97.46148294096929 0 0 0 0 39.587265552123426 77.576573028985877 0 77.576573028985877 9.3139128673064988 0 0 0 0 -57.327378898378811 313.30291391695209 0 313.30291391695209 1203.9371840675412 0 0 0 0 -19.237090750029836 65.342818794225735 0 65.342818794225735 -47.743047710297276 0 0 0 0 45.480104482812749 89.451782422547694 0 89.451782422547694 -94.492979516799096 0 0 0 0 127.54163202128984 19.934170830980293 0 19.934170830980293 -170.94685321969882 0 0 0 0 22.707630533494012 134.42252145521707 0 134.42252145521707 -48.020147320145043 0 0 0 0 141.04118108696275 -67.114001176523743 0 -67.114001176523743 -130.02813603781397 0 0 0 0 101.14229887949205 59.356442817086645 0 59.356442817086645 -64.404534758039517 0 0 0 0 197.6235110182879 82.23031933007951 0 82.23031933007951 -60.745570214989129 0 0 0 0 291.05881690969181 37.363897685951088 0 37.363897685951088 -39.788932059564104 0 0 0 0 285.36664620428201 -31.235916608129628 0 -31.235916608129628 -122.06182878340769 0 0 0 0 280.97392431654589 199.6067435465884 0 199.6067435465884 -25.485704168822849 0 0 0 0 -43.895336742862114 47.304937487423047 0 47.304937487423047 -43.702785179354493 0 0 0 0 45.921163339766281 1175.4324969024747 0 1175.4324969024747 -84.348347713676048 0 0 0 0 177.48012884262425 265.81145773673779 0 265.81145773673779 69.610477487876778 0 0 0 0 132.40203068577011 115.5476878816371 0 115.5476878816371 -59.411469151149504 0 0 0 0 92.859789160895161 207.56775902287336 0 207.56775902287336 0.0055356782977469265 0 0 0 0 -77.265812438199191 129.7220029123182 0 129.7220029123182 163.64764078438748 0 0 0 0 -70.118695053570264 227.68755410968151 0 227.68755410968151 170.09305617782047 0 0 0 0 -15.496213130977594 207.37497776528335 0 207.37497776528335 58.397377565139323 0 0 0 0 -10.122189794627957 252.52728246296147 0 252.52728246296147 148.92487645131769 0 0 0 0 58.570379836688517 221.82128725972143 0 221.82128725972143 144.90243709957576 0 0 0 0 159.00046566363017 160.73764642405877 0 160.73764642405877 -6.3367403061274672 0 0 0 0 -17.734318903894746 345.76085677956144 0 345.76085677956144 -169.80832023944822 0 0 0 0 -125.71409177912574 110.07940346576652 0 110.07940346576652 -235.37724232036271 0 0 0 0 -191.60082891338243 195.23333116620779 0 195.23333116620779 69.220172292247298 0 0 0 0 -160.88812353674439 113.65579505189817 0 113.65579505189817 24.552149272432871 0 0 0 0 -121.84349313181883 141.40894819391542 0 141.40894819391542 -170.21461258243653 0 0 0 0 -147.98286061894032 75.940033007616876 0 75.940033007616876 28.262722480707453 0 0 0 0 -131.57261249117437 100.83773920653039 0 100.83773920653039 51.773537926615973 0 0 0 0 -3.0790883495428716 -6.7419839898211649 0 -6.7419839898211649 7.3874241924931994 0 0 0 0 -25.582086971551689 17.841360664361673 0 17.841360664361673 149.64084236635244 0 0 0 0 2.4285360274807317 111.48417669922492 0 111.48417669922492 145.77692648435914 0 0 0 0 -92.487982606646256 42.213477134660934 0 42.213477134660934 98.006394392163202 0 0 0 0 -56.893531854759203 172.62114619997737 0 172.62114619997737 50.925543443769129 0 0 0 0 40.66281693536439 79.941681271691778 0 79.941681271691778 167.41119067488762 0 0 0 0 -28.417617844974302 141.69318528252552 0 141.69318528252552 292.06994133487751 0 0 0 0 62.173394428791653 83.325737476137874 0 83.325737476137874 161.06532163750671 0 0 0 0 15.789320962809143 114.94859389163321 0 114.94859389163321 325.00837540584325 0 0 0 0 -30.303624247637345 229.00961826475395 0 229.00961826475395 622.22240299094119 0 0 0 0 -0.61694105703074342 6.0076516912267266 0 6.0076516912267266 -2.8243188798942782 0 0 0 0 115.26344781387161 147.51309059387131 0 147.51309059387131 286.94862009254575 0 0 0 0 70.622131869444274 53.829466479932307 0 53.829466479932307 352.30793700711729 0 0 0 0 -10.292012297337351 189.17293101935138 0 189.17293101935138 438.94913886964787 0 0 0 0 63.940309551981045 -10.099117824553105 0 -10.099117824553105 -269.61711711383759 0 0 0 0 -5.7938799308661544 10.600680059254472 0 10.600680059254472 -2.5949925478316942 0 0 0 0 12.995258408016525 174.76711076593347 0 174.76711076593347 182.60840725854359 0 0 0 0 16.886045876701246 101.02512482848397 0 101.02512482848397 314.52369158978036 0 0 0 0 -29.607107615222048 197.13928614721226 0 197.13928614721226 265.85890934072086 0 0 0 0 22.16719317715615 199.50842685809766 0 199.50842685809766 175.78443849778705 0 0 0 0 54.196286098464043 167.22304050236926 0 167.22304050236926 121.90549663681304 0 0 0 0 25.907759198194981 217.56914839414094 0 217.56914839414094 146.07496473203355 0 0 0 0 3.1722319197069737 208.90636501299741 0 208.90636501299741 202.53783543291502 0 0 0 0 39.71516067214543 149.8525619085267 0 149.8525619085267 188.12371904172505 0 0 0 0 -11.429130077989754 43.547515351426227 0 43.547515351426227 -51.389906949916622 0 0 0 0 13.570184168347623 -10.054876906579011 0 -10.054876906579011 -166.2496382954705 0 0 0 0 -11.520589034104944 13.305435015334609 0 13.305435015334609 -18.510313777743434 0 0 0 0 -76.945004817738663 58.410760427563218 0 58.410760427563218 -68.095481383439619 0 0 0 0 20.460803957961616 121.64295129856328 0 121.64295129856328 66.155407620244659 0 0 0 0 1.0382224651111756 86.387403985208948 0 86.387403985208948 75.131502121201265 0 0 0 0 -6.2044215677715897 37.185084733890534 0 37.185084733890534 -36.883492097209285 0 0 0 0 3.8664574576032464 94.951242093560722 0 94.951242093560722 97.730544371355791 0 0 0 0 9.6135974076532875 98.939273936643076 0 98.939273936643076 30.782939425014774 0 0 0 0 -4.0318200855399482 84.593382950341038 0 84.593382950341038 45.58555801527109 0 0 0 0 -3.1500899261700397 87.957410976898245 0 87.957410976898245 34.610268609438208 0 0 0 0 2.4077928317710757 93.899411768914433 0 93.899411768914433 31.115834606811404 0 0 0 0 2.1242073861794779 106.49671733388095 0 106.49671733388095 25.259416505141417 0 0 0 0 -2.6519228854158428 102.88941304618493 0 102.88941304618493 36.379844219583902 0 0 0 0 4.9588751611299813 99.487535651700455 0 99.487535651700455 11.174378320807591 0 0 0 0 6.9349794661975466 89.170109242812032 0 89.170109242812032 10.216274202276509 0 0 0 0 17.609224473708309 104.20507605641615 0 104.20507605641615 -17.242688187165186 0 0 0 0 185.29281752034149 174.82342233712552 0 174.82342233712552 -2.9022757182829082 0 0 0 0 -13.221278061087872 43.372739264098442 0 43.372739264098442 -51.475148275339322 0 0 0 0 1.1567157262470573 22.822337247605901 0 22.822337247605901 -55.814017228793091 0 0 0 0 4.3891588676851825 89.869913338792685 0 89.869913338792685 19.513383073266596 0 0 0 0 109.03295556461671 203.32190641391935 0 203.32190641391935 141.24645728091127 0 0 0 0 3.673724926188072 6.2030588608139254 0 6.2030588608139254 -18.390525785360737 0 0 0 0 -5.9723268081215792 82.973709982426954 0 82.973709982426954 42.742907197498425 0 0 0 0 -6.2002246699885291 81.249433008670167 0 81.249433008670167 30.270396692649228 0 0 0 0 -8.4317140207713237 82.752318688428204 0 82.752318688428204 30.608848980224138 0 0 0 0 -2.2702241888910066 73.13158299283532 0 73.13158299283532 20.411838447784248 0 0 0 0 3.0388535401384615 82.891086927163087 0 82.891086927163087 29.874381123925559 0 0 0 0 -0.52159733302687528 78.170397238318401 0 78.170397238318401 16.811532291700132 0 0 0 0 -8.8476518412684584 45.779600835006789 0 45.779600835006789 -35.241086401694389 0 0 0 0 -1.3387569325455786 46.516238311299944 0 46.516238311299944 11.964530364398968 0 0 0 0 2.5732278490468161 68.929277377497783 0 68.929277377497783 32.919802568827436 0 0 0 0 -22.161825014147325 64.141677804334904 0 64.141677804334904 30.293664242577506 0 0 0 0 -26.950163646186411 63.332714449028572 0 63.332714449028572 -1.7127567077986896 0 0 0 0 -44.151638247509254 63.727078922063811 0 63.727078922063811 39.577440137858503 0 0 0 0 -18.394229239464039 61.721486944850767 0 61.721486944850767 25.714314469732926 0 0 0 0 -23.599448845969164 115.56404534103058 0 115.56404534103058 -44.520513025607215 0 0 0 0 -11.580057794068125 168.33728431040072 0 168.33728431040072 78.162933180778055 0 0 0 0 -30.269649893427413 70.724026224532281 0 70.724026224532281 125.90020480906242 0 0 0 0 27.620688456365315 29.118793722445844 0 29.118793722445844 85.055801487440476 0 0 0 0 -54.234991002798779 115.95256002807582 0 115.95256002807582 51.217116803338286 0 0 0 0 -17.094217208999908 70.164072994433809 0 70.164072994433809 48.688508878403809 0 0 0 0 48.221021782752359 25.539615679961571 0 25.539615679961571 56.022130838828161 0 0 0 0 33.826789919345174 50.62106572711491 0 50.62106572711491 33.038407537154853 0 0 0 0 12.573581030204878 103.11535374560299 0 103.11535374560299 86.199004199137562 0 0 0 0 13.338450755119993 208.04969644328594 0 208.04969644328594 91.415489980368875 0 0 0 0 12.943965937120083 173.3683748772055 0 173.3683748772055 -65.181075866203173 0 0 0 0 -83.127082433034957 124.20483039034298 0 124.20483039034298 54.859652944971458 0 0 0 0 71.377761175175777 63.994713088119731 0 63.994713088119731 40.253678680621533 0 0 0 0 -415.34219906131284 353.6164855163006 0 353.6164855163006 -72.580611948782462 0 0 0 0 -91.781247930346581 207.50683397108514 0 207.50683397108514 3.7564399950424558 0 0 0 0 65.543934868888755 270.26699355191158 0 270.26699355191158 331.77043857520039 0 0 0 0 218.81597690073249 49.065148608009622 0 49.065148608009622 111.91500672013353 0 0 0 0 19.789501930048573 222.57959241542267 0 222.57959241542267 324.08794763076912 0 0 0 0 6.2670142623537686 37.241531624771596 0 37.241531624771596 -85.068299298203783 0 0 0 0 -28.647255328553001 15.569834880085182 0 15.569834880085182 366.05633829033468 0 0 0 0 0.53528837244678584 7.5933722201447438 0 7.5933722201447438 -6.6229755391816951 0 0 0 0 254.31433745862159 250.49822272719757 0 250.49822272719757 69.918473311277921 0 0 0 0 108.7009831854084 188.11100212091696 0 188.11100212091696 -30.814122796378797 0 0 0 0 60.915448418600135 139.77606207621284 0 139.77606207621284 31.905935287733882 0 0 0 0 156.11494916206721 150.70402675151854 0 150.70402675151854 -26.740240617036761 0 0 0 0 170.93000553474258 48.750339516464919 0 48.750339516464919 -166.3089867708768 0 0 0 0 334.26498799776164 26.803348761393863 0 26.803348761393863 -167.76269042935746 0 0 0 0 -117.60103188254288 153.23244086855266 0 153.23244086855266 -96.156494924558501 0 0 0 0 20.311047321847582 -101.3723989436985 0 -101.3723989436985 -144.59714328251721 0 0 0 0 176.29696574942818 152.20971661674957 0 152.20971661674957 -59.29393181760679 0 0 0 0 33.994598649267573 99.487161625904264 0 99.487161625904264 -77.118632460260415 0 0 0 0 58.801356197043788 209.67682930509909 0 209.67682930509909 -115.78888213564642 0 0 0 0 32.005914545414271 198.15261858730082 0 198.15261858730082 -190.65370000133407 0 0 0 0 18.354151795843649 28.818598980415757 0 28.818598980415757 23.195938936004417 0 0 0 0 6.6546386920963414 181.20302888119477 0 181.20302888119477 -31.019966226194811 0 0 0 0 53.110879165993538 158.31320701020013 0 158.31320701020013 -170.30477655665891 0 0 0 0 219.84886917292897 39.053656106334529 0 39.053656106334529 -77.295223192852518 0 0 0 0 724.496979657677 191.496981356162 0 191.496981356162 13.833919020253234 0 0 0 0 -119.21576476110931 40.363956007997331 0 40.363956007997331 262.93515121489327 0 0 0 0 80.904112567931307 68.22087497787291 0 68.22087497787291 -3.2361870179801349 0 0 0 0 58.250162164732195 64.162315997337188 0 64.162315997337188 55.584492174026082 0 0 0 0 -207.95223039949451 559.45403175917454 0 559.45403175917454 191.99788070016075 0 0 0 0 7.283633202734741 1.585975352661734 0 1.585975352661734 -6.5022783471214325 0 0 0 0 -921.74650724492676 -293.36920304519299 0 -293.36920304519299 783.4288238909503 0 0 0 0 -0.42882006775471382 74.100365236998186 0 74.100365236998186 -29.309974207048072 0 0 0 0 7.8791991307349747 4.1153325678884585 0 4.1153325678884585 0.96778826733017809 0 0 0 0 447.83332621383306 -86.727278404257959 0 -86.727278404257959 -206.30296833458851 0 0 0 0 -13.10459738530335 66.409435287117958 0 66.409435287117958 10.332544315708219 0 0 0 0 -24.395193035292323 86.232779483179911 0 86.232779483179911 -1.8071058995265048 0 0 0 0 -20.635377191763837 87.426661736681126 0 87.426661736681126 -11.206102625234053 0 0 0 0 59.473190570970473 335.36869971633132 0 335.36869971633132 -1470.9967074247943 0 0 0 0 -5.6009257796005478 -4.353714742393521 0 -4.353714742393521 -2.5482766799384393 0 0 0 0 -451.93880731852119 -201.54449289610056 0 -201.54449289610056 631.81668190084747 0 0 0 0 45.078327979395908 32.714056217839243 0 32.714056217839243 -53.406565842130021 0 0 0 0 -207.16072185039616 244.1233461413467 0 244.1233461413467 281.02949406301195 0 0 0 0 -30.553061257602895 18.041943407516015 0 18.041943407516015 24.861251576724314 0 0 0 0 75.964859367595636 696.58233518659836 0 696.58233518659836 -400.0708953186404 0 0 0 0 82.723654683654559 79.20462773383538 0 79.20462773383538 57.970606888134796 0 0 0 0 -2.3595038887360715 215.83123887442343 0 215.83123887442343 -43.051945681228972 0 0 0 0 8.3408035887841834 150.45821121482004 0 150.45821121482004 -99.97910453726945 0 0 0 0 -1413.6684866963551 2.104633109200222 0 2.104633109200222 1255.9146977340424 0 0 0 0 11.842861900728273 3.8436052424237914 0 3.8436052424237914 3.0059011350703031 0 0 0 0 -6.147574153002104 15.820257791491713 0 15.820257791491713 13.383076612826722 0 0 0 0 -151.18683289498949 17.014816703187535 0 17.014816703187535 92.140564467976219 0 0 0 0 378.00156209774286 -267.85815328556055 0 -267.85815328556055 -341.58697857467951 0 0 0 0 -879.7906581332627 541.23704541189363 0 541.23704541189363 -197.46316898314399 0 0 0 0 -298.50045780580513 397.82853370346129 0 397.82853370346129 -307.0166098997579 0 0 0 0 1431.6635575537766 157.41686460877099 0 157.41686460877099 -277.20350996099296 0 0 0 0 504.70735909164978 1403.0813865042001 0 1403.0813865042001 158.10210166440811 0 0 0 0 -3.6975609993060061 588.40363747962692 0 588.40363747962692 380.51339897456637 0 0 0 0 -289.38134263582288 142.4339266984025 0 142.4339266984025 777.26648393982032 0 0 0 0 -282.31838507870816 117.38761025652639 0 117.38761025652639 11.471865645027719 0 0 0 0 -182.5531865382427 321.89368147114146 0 321.89368147114146 4.2677049026533496 0 0 0 0 62.108954593741146 469.12715404600385 0 469.12715404600385 -80.683720877219457 0 0 0 0 -5.1803586811201967 316.14194627011602 0 316.14194627011602 -10.016628428486001 0 0 0 0 -39.197536195913017 244.72269974694063 0 244.72269974694063 -153.90357705854694 0 0 0 0 17.759518626065983 354.99020267614105 0 354.99020267614105 -323.87219425750664 0 0 0 0 -50.976211932115802 257.50494260824053 0 257.50494260824053 -153.56052147963783 0 0 0 0 -96.074813100484789 199.33151630609063 0 199.33151630609063 -222.74849888813333 0 0 0 0 10.010864652083001 225.30966844566137 0 225.30966844566137 -543.72699208500126 0 0 0 0 10.04558223103686 136.13790144457744 0 136.13790144457744 -304.93644460759242 0 0 0 0 -140.18324887060533 208.28518869797381 0 208.28518869797381 -104.2156424849818 0 0 0 0 -137.4080128910864 250.69687327824067 0 250.69687327824067 -143.29019448188046 0 0 0 0 -2.0543158992168173 91.246400437492412 0 91.246400437492412 -10.373415995105461 0 0 0 0 -66.148934570632122 198.83609729361103 0 198.83609729361103 -125.56640894245356 0 0 0 0 4.9378872422259477 59.745272932751206 0 59.745272932751206 -24.551400892505683 0 0 0 0 -8.5541442357507549 130.75002876288636 0 130.75002876288636 59.030007858033059 0 0 0 0 1.3366562942610472 74.112864496804832 0 74.112864496804832 -43.072602936023031 0 0 0 0 3.3611475908401189 82.892028864371241 0 82.892028864371241 -70.646271514182445 0 0 0 0 -22.85677944670897 100.64638215737068 0 100.64638215737068 -14.651053216832224 0 0 0 0 -96.789679141440047 180.74599735540323 0 180.74599735540323 -143.00788268755423 0 0 0 0 -18.372192019640352 74.599829231650801 0 74.599829231650801 -12.548513125977479 0 0 0 0 -194.92570055179294 83.858257658364892 0 83.858257658364892 62.996335902957071 0 0 0 0 21.422487119298264 38.872705028687676 0 38.872705028687676 4.0965492073080156 0 0 0 0 138.18856486747336 187.81272315770912 0 187.81272315770912 -187.1878819188496 0 0 0 0 -217.02795108902501 407.69502546424337 0 407.69502546424337 -252.70355442437722 0 0 0 0 -328.15140284649794 -162.60546818100556 0 -162.60546818100556 -244.40275373143959 0 0 0 0 -102.92966641995008 55.783205796713446 0 55.783205796713446 83.269785783981206 0 0 0 0 -10.931850121378915 74.979900258437027 0 74.979900258437027 4.0348323116770644 0 0 0 0 -12.204108469799394 69.588872190135589 0 69.588872190135589 78.600381313877733 0 0 0 0 -69.96082084892987 78.113668244172004 0 78.113668244172004 78.01827364982455 0 0 0 0 1.3338974328713675 2.0474192954668808 0 2.0474192954668808 3.2008078660680752 0 0 0 0 -58.088418519633706 -8.4100596927455626 0 -8.4100596927455626 439.07348589627509 0 0 0 0 13.800488893142756 86.089924084248196 0 86.089924084248196 -220.84605133676814 0 0 0 0 -62.560952906736929 77.446342238923535 0 77.446342238923535 -22.143240161676658 0 0 0 0 -0.48875254820450209 86.519684420753038 0 86.519684420753038 -21.662000096242991 0 0 0 0 -10.31855915079359 72.129004706686828 0 72.129004706686828 -68.275906745926477 0 0 0 0 2.8931038789596641 129.05436534322507 0 129.05436534322507 -112.59201267093886 0 0 0 0 -7.487096761243663 21.584859251139989 0 21.584859251139989 4.1908803440734204 0 0 0 0 -39.876443200311769 133.18042547372534 0 133.18042547372534 -48.874291389045538 0 0 0 0 -14.627061123203021 86.531929767137626 0 86.531929767137626 -24.21711564756697 0 0 0 0 -30.122629193239845 90.150083089931286 0 90.150083089931286 28.783546273160027 0 0 0 0 -4.8707602764479816 100.56609000690514 0 100.56609000690514 -17.022964128875174 0 0 0 0 1738.9937701491872 516.11921833601082 0 516.11921833601082 539.0109362664225 0 0 0 0 -27.051837894541677 90.493965416171704 0 90.493965416171704 13.496410013001878 0 0 0 0 -10.94431834616779 71.047142762755271 0 71.047142762755271 4.4777661872347636 0 0 0 0 -17.979919032659382 106.10430302558234 0 106.10430302558234 18.186199003626825 0 0 0 0 888.38788153513451 68.051663057864062 0 68.051663057864062 -261.55763485885109 0 0 0 0 1088.9625502647687 382.40256159281125 0 382.40256159281125 -329.3782894089527 0 0 0 0 -153.88268853275804 1309.9570203937765 0 1309.9570203937765 742.09355894840701 0 0 0 0 -789.31933348115126 -15.284592555879499 0 -15.284592555879499 37.228513138063136 0 0 0 0 0.95480678566673305 112.1082297853136 0 112.1082297853136 1.3177258929354139 0 0 0 0 28.932541332258552 55.103971615266346 0 55.103971615266346 -0.67064525734167546 0 0 0 0 -6.1154388146367182 59.017455103668794 0 59.017455103668794 11.385701935254303 0 0 0 0 -361.76535446904018 -159.84096575357398 0 -159.84096575357398 -163.27074845333118 0 0 0 0 -53.892232142548892 79.933723638998345 0 79.933723638998345 26.731204127339879 0 0 0 0 -60.584504287209711 75.187209852840169 0 75.187209852840169 97.156849296137807 0 0 0 0 -9.5268340034381254 40.258468827145407 0 40.258468827145407 48.778177976782899 0 0 0 0 -39.860444603633368 116.75026504088601 0 116.75026504088601 44.906253305322025 0 0 0 0 -54.064339297823608 51.621470307174604 0 51.621470307174604 8.9947322337538935 0 0 0 0 -144.48088617963367 279.21923539038835 0 279.21923539038835 -296.64202650536754 0 0 0 0 -252.18315102383531 221.65516193902022 0 221.65516193902022 139.91274113283725 0 0 0 0 -2.7063789075664317 3.8508006120910636 0 3.8508006120910636 -9.1197615134587409 0 0 0 0 -291.11163349670369 -110.17697395655659 0 -110.17697395655659 -134.13866794283967 0 0 0 0 203.56855683549657 268.36011547148519 0 268.36011547148519 -227.34679964015959 0 0 0 0 480.94967604313206 409.43543446664808 0 409.43543446664808 -313.2453299491026 0 0 0 0 378.10521285609138 4.507842415740015 0 4.507842415740015 -268.00766504075727 0 0 0 0 -152.64707875397971 38.717944610038785 0 38.717944610038785 38.571769541340473 0 0 0 0 -50.221158412503428 197.6460907226101 0 197.6460907226101 -135.89676912153664 0 0 0 0 1.3907911589815569 3.2459556638258391 0 3.2459556638258391 -2.2942212864169136 0 0 0 0 -162.21756448007363 181.21017593591387 0 181.21017593591387 -147.01598684747296 0 0 0 0 -172.83962068759138 214.55987183971592 0 214.55987183971592 -242.18756023197784 0 0 0 0 -182.41689972000313 231.86238882839098 0 231.86238882839098 -195.7781245290571 0 0 0 0 -237.15447249036515 199.00373287721595 0 199.00373287721595 -220.54109669898025 0 0 0 0 -149.93676558280276 159.62173662847636 0 159.62173662847636 -204.86438730667578 0 0 0 0 -11.941335334997746 40.96882507101612 0 40.96882507101612 69.888439768957824 0 0 0 0 -273.27713706520444 185.03373504450428 0 185.03373504450428 -24.252618219461965 0 0 0 0 -15.195118559684488 103.84975695464527 0 103.84975695464527 -49.430923118517967 0 0 0 0 -192.27880070293759 267.15657721643583 0 267.15657721643583 -382.71350105167949 0 0 0 0 -0.19089526105537402 3.1827729591736613 0 3.1827729591736613 12.571556724857279 0 0 0 0 -17.683721242239699 103.14000417556235 0 103.14000417556235 -11.023572843434522 0 0 0 0 -199.29221732640144 137.83381720605394 0 137.83381720605394 -126.24660592805594 0 0 0 0 -170.61486956008594 246.1591887292816 0 246.1591887292816 -121.18699733071867 0 0 0 0 -12.568673053892496 31.354512472129869 0 31.354512472129869 79.85435947956671 0 0 0 0 -120.65409294019628 222.41627019506268 0 222.41627019506268 -112.83416742206828 0 0 0 0 -69.015317586134188 172.35130311978719 0 172.35130311978719 -109.96110043754743 0 0 0 0 -2.6817992332871654 120.8775945033849 0 120.8775945033849 -76.858156968312869 0 0 0 0 -1.8243189194254228 127.02970080083469 0 127.02970080083469 -38.539540557190776 0 0 0 0 -118.98453371900541 11.991360123414779 0 11.991360123414779 180.02860219703143 0 0 0 0 -99.9587671654117 199.86026169099205 0 199.86026169099205 96.678302690910641 0 0 0 0 -94.989352922695616 33.227883965660112 0 33.227883965660112 40.236617504051537 0 0 0 0 -374.87606648476503 -166.04693701474753 0 -166.04693701474753 -53.435096611545305 0 0 0 0 -5.2861046037069173 -23.01102439758688 0 -23.01102439758688 75.292973685689503 0 0 0 0 -94.022036498956368 243.1282063401859 0 243.1282063401859 274.46732891854481 0 0 0 0 -2.4403899539538543 156.81214099934732 0 156.81214099934732 49.201762945158407 0 0 0 0 -15.840212209310266 207.60768558569544 0 207.60768558569544 100.00583399010429 0 0 0 0 -41.415798216432449 119.43884917736432 0 119.43884917736432 157.12822106175008 0 0 0 0 -42.201387455614167 225.77915127952292 0 225.77915127952292 15.583173860082752 0 0 0 0 8.8991860855894629 184.7415627707087 0 184.7415627707087 43.258438567994745 0 0 0 0 -65.733742583513958 151.49729615831893 0 151.49729615831893 49.174102365353434 0 0 0 0 24.030494092730805 265.97211455794968 0 265.97211455794968 -182.12599863414653 0 0 0 0 -377.06676969492401 316.52604626423636 0 316.52604626423636 11.406309756683186 0 0 0 0 46.120444462379965 193.24404879071517 0 193.24404879071517 -65.766963273497822 0 0 0 0 220.58150156406919 52.111081162845949 0 52.111081162845949 -26.470741148717934 0 0 0 0 65.029736240500341 60.596670204068516 0 60.596670204068516 9.1905422363158173 0 0 0 0 -516.71415020953282 -414.75091373531905 0 -414.75091373531905 132.78707985001529 0 0 0 0 74.901423357565363 86.935990499405307 0 86.935990499405307 -28.988467743070032 0 0 0 0 257.07156116620172 590.98788790815161 0 590.98788790815161 -238.76722015946871 0 0 0 0 493.55402183890692 458.87951183949917 0 458.87951183949917 -166.77659914863034 0 0 0 0 132.56993221262019 137.3770160162876 0 137.3770160162876 48.035632844897918 0 0 0 0 84.142352198313773 66.672841062630596 0 66.672841062630596 2.1042536930826508 0 0 0 0 714.81545771206584 599.32290753982488 0 599.32290753982488 -246.02864241714997 0 0 0 0 895.60586048876212 272.07634586116546 0 272.07634586116546 -329.96667264359712 0 0 0 0 -0.48791167626941956 5.4653059459378142 0 5.4653059459378142 -10.291629257458453 0 0 0 0 -8.966880570949499 5.0223909190040104 0 5.0223909190040104 -1.5123072472834878 0 0 0 0 -81.228936140769292 185.70773770982123 0 185.70773770982123 602.01328717478464 0 0 0 0 -47.998278190694464 103.77001193232354 0 103.77001193232354 24.847646091482602 0 0 0 0 -330.35670037629643 174.43901595136413 0 174.43901595136413 520.19781988674367 0 0 0 0 60.504555865370548 -0.75488413988387038 0 -0.75488413988387038 296.7226042967668 0 0 0 0 -3.9364691828532727 1.5274799292897399 0 1.5274799292897399 -0.34726616865879123 0 0 0 0 -172.75179480093539 86.569309021957451 0 86.569309021957451 267.64686253595573 0 0 0 0 -142.93159334735719 85.091947165245074 0 85.091947165245074 -30.892893656680826 0 0 0 0 -19.676629970258229 68.298358028994897 0 68.298358028994897 36.455917752719415 0 0 0 0 -206.49428532425554 166.46022785900277 0 166.46022785900277 332.80025660712272 0 0 0 0 -367.00374192139589 324.13160054363107 0 324.13160054363107 178.17463716532802 0 0 0 0 -5.7386282744919299 141.93790322454879 0 141.93790322454879 62.01155972086417 0 0 0 0 -54.157632586760883 75.408785800178521 0 75.408785800178521 15.197471850508009 0 0 0 0 7.687006433338297 154.50695295163769 0 154.50695295163769 29.842744994632085 0 0 0 0 126.85941054749128 95.468812635546783 0 95.468812635546783 28.602216084293559 0 0 0 0 94.015331740902184 92.128630550065282 0 92.128630550065282 63.14773821993731 0 0 0 0 9.7422306361986557 124.00715495521581 0 124.00715495521581 -84.786640504746174 0 0 0 0 51.071877231216035 67.288695322452099 0 67.288695322452099 10.814526209182254 0 0 0 0 -5.3254269412282156 94.692252498076414 0 94.692252498076414 -61.604913492337801 0 0 0 0 67.208762081550958 63.525758929652511 0 63.525758929652511 111.86657822239795 0 0 0 0 72.386161115107825 62.087189279031008 0 62.087189279031008 -180.80560802511172 0 0 0 0 -8.1210509455772879 26.404687234384966 0 26.404687234384966 7.194449602376551 0 0 0 0 -36.69161436673312 141.28986831523071 0 141.28986831523071 -107.85399634386704 0 0 0 0 -56.668866052350495 117.44568611000432 0 117.44568611000432 -119.67707244871417 0 0 0 0 -100.80415802707103 129.17857265285602 0 129.17857265285602 -159.47285686005489 0 0 0 0 -57.032543105233344 124.56586333189625 0 124.56586333189625 -167.6804646270175 0 0 0 0 -247.44178018290268 -36.70663841890746 0 -36.70663841890746 116.7269356122415 0 0 0 0 -25.068588171595856 67.666669231757979 0 67.666669231757979 71.008330906595802 0 0 0 0 -51.731940865541219 -104.51508587622811 0 -104.51508587622811 122.38483876505779 0 0 0 0 -130.16781586233446 0.061305173399887281 0 0.061305173399887281 -8.060184452260728 0 0 0 0 -37.660075264284387 127.382779757354 0 127.382779757354 -207.40800966705137 0 0 0 0 -80.164997680477242 16.825584690870897 0 16.825584690870897 17.184019938628865 0 0 0 0 -101.77666546966248 91.289004740276141 0 91.289004740276141 -211.43502241427632 0 0 0 0 -2.1908267533435719 85.957906562980497 0 85.957906562980497 -388.90840746414597 0 0 0 0 -53.922460470015537 7.8029450207946525 0 7.8029450207946525 -0.79689111425512849 0 0 0 0 45.641341155932423 63.454274850228103 0 63.454274850228103 -29.755742600696976 0 0 0 0 -41.048524517027545 84.885841545139556 0 84.885841545139556 -139.43064965572921 0 0 0 0 25.511090114154285 192.85753311619919 0 192.85753311619919 -181.51414981558628 0 0 0 0 -1.4525870975776343 144.46906885856151 0 144.46906885856151 -230.60847124888096 0 0 0 0 -57.659958153561092 184.90690311967046 0 184.90690311967046 -131.49428320562583 0 0 0 0 -0.53365275137912249 203.41766273991743 0 203.41766273991743 -143.14714362712402 0 0 0 0 -28.358335715900466 190.97562483922957 0 190.97562483922957 -120.85371056445001 0 0 0 0 -73.625451634936326 272.12585554335237 0 272.12585554335237 -170.42600165132899 0 0 0 0 -67.774394435567956 170.1896974665724 0 170.1896974665724 -151.03110462475161 0 0 0 0 -67.875911783521587 171.80976690244279 0 171.80976690244279 -103.11284338789119 0 0 0 0 -45.353634858623991 137.71972507586179 0 137.71972507586179 -51.908828035826446 0 0 0 0 6.4676878830287023 116.81232202285901 0 116.81232202285901 -100.58277163238381 0 0 0 0 -122.20952649377432 216.49436487795901 0 216.49436487795901 -54.25851093513802 0 0 0 0 -54.804903249518247 132.657110717264 0 132.657110717264 4.2674153571570059 0 0 0 0 -80.28437108879848 323.28443000400239 0 323.28443000400239 54.797163097580778 0 0 0 0 -1.2872748277368373 210.57767829587101 0 210.57767829587101 -60.710311222363089 0 0 0 0 52.750333007563313 197.76528364564001 0 197.76528364564001 -0.26594634201319423 0 0 0 0 -88.411289915772159 240.71129888398082 0 240.71129888398082 198.81724875574582 0 0 0 0 -70.598714185456629 189.97140868949646 0 189.97140868949646 313.79511437530164 0 0 0 0 0.9427642290286542 3.580934593760162 0 3.580934593760162 -2.7356317839135045 0 0 0 0 48.649283840513817 202.42700766661437 0 202.42700766661437 -245.5520945587341 0 0 0 0 123.41086059823647 74.135126319961273 0 74.135126319961273 -118.35434399158021 0 0 0 0 107.42212563480825 135.77287175944912 0 135.77287175944912 70.318842977154418 0 0 0 0 104.0460580787003 101.68708619025711 0 101.68708619025711 139.31198596761533 0 0 0 0 54.539287377367145 35.798025933108875 0 35.798025933108875 0.24559985527594108 0 0 0 0 -0.35724317352116941 4.7858666677566646 0 4.7858666677566646 -3.2720592242378359 0 0 0 0 76.155049636679905 239.72109239342535 0 239.72109239342535 179.96425687812007 0 0 0 0 -22.36146712541813 100.93067014485132 0 100.93067014485132 121.33064635723713 0 0 0 0 0.47672368304900203 -1.2474409547829168 0 -1.2474409547829168 -4.6915063736392426 0 0 0 0 199.49246156829031 287.29613629733649 0 287.29613629733649 99.044782852812205 0 0 0 0 252.87451787729515 182.31192425927293 0 182.31192425927293 120.47784911713097 0 0 0 0 39.881293715334323 128.3305519006899 0 128.3305519006899 197.31603770166839 0 0 0 0 51.104126236277807 80.241105815548508 0 80.241105815548508 4.9762017732427921 0 0 0 0 -48.475897106196498 164.75407937036653 0 164.75407937036653 182.74306400823116 0 0 0 0 26.05150454370596 154.47698198925355 0 154.47698198925355 228.13560366540332 0 0 0 0 114.74449442158948 154.42095585639618 0 154.42095585639618 227.00905532073739 0 0 0 0 18.095388999848865 13.522295687369024 0 13.522295687369024 7.6110516480582646 0 0 0 0 65.078347615864914 39.542218651833537 0 39.542218651833537 80.183515366254142 0 0 0 0 52.51660682932561 68.364096514364064 0 68.364096514364064 -18.666761336527998 0 0 0 0 10.148219188035 178.9736335238631 0 178.9736335238631 -18.908832736166715 0 0 0 0 65.075183914890658 128.10642828350683 0 128.10642828350683 25.927613523715991 0 0 0 0 81.945456240886415 193.00274852071016 0 193.00274852071016 116.11659812738981 0 0 0 0 194.71928634770666 290.6186662931359 0 290.6186662931359 109.55958196586289 0 0 0 0 83.379472317523323 152.2097045247574 0 152.2097045247574 170.25809211286833 0 0 0 0 -2.8227220818153 225.2812944652469 0 225.2812944652469 116.50915752915171 0 0 0 0 -31.196559771000466 384.19734962874827 0 384.19734962874827 329.25703046940907 0 0 0 0 -38.798603699917294 328.55883954813908 0 328.55883954813908 1.1901783192297444 0 0 0 0 6.3655474819170195 6.1843031623066054 0 6.1843031623066054 0.0035272931127110496 0 0 0 0 3.0811972626708268 2.5423958156011111 0 2.5423958156011111 -3.3119681076273935 0 0 0 0 5.5764969741503592 5.069687452090875 0 5.069687452090875 1.024852857211954 0 0 0 0 2.7449650365742855 6.9097211858534138 0 6.9097211858534138 8.4987404989078641e-05 0 0 0 0 2.5974014052408165 7.4486085028256639 0 7.4486085028256639 1.6935345668098307 0 0 0 0 320.84462560118118 183.98163308374205 0 183.98163308374205 102.48350667097839 0 0 0 0 3.8773790065396554 3.4453335680984765 0 3.4453335680984765 -4.0358395707038426 0 0 0 0 -1.5713963662119568 1.1482467165618999 0 1.1482467165618999 2.2092181186141602 0 0 0 0 -19.443931602996599 1.5168474819438416 0 1.5168474819438416 -64.162588535808027 0 0 0 0 -124.68785960478999 327.92240728806064 0 327.92240728806064 143.56535134614387 0 0 0 0 -184.27608720083663 45.571819252611022 0 45.571819252611022 93.665826190728694 0 0 0 0 -21.744830936251674 52.851738585333806 0 52.851738585333806 -114.26496962388046 0 0 0 0 1.1719109389921982 1.175510684276702 0 1.175510684276702 -0.81568729074979274 0 0 0 0 -66.952741179957229 244.293039101256 0 244.293039101256 -141.47971495790989 0 0 0 0 -182.41499400959583 175.46845385819324 0 175.46845385819324 -157.05757414178515 0 0 0 0 -0.6401764007954398 3.8228849527346114 0 3.8228849527346114 4.7221574029222211 0 0 0 0 1.412606490575854 6.4996546341208159 0 6.4996546341208159 -0.69678819883847609 0 0 0 0 2.373534930688038 8.0232428204180906 0 8.0232428204180906 0.22256672751973383 0 0 0 0 0.064830907605937682 6.3738073804270243 0 6.3738073804270243 0.74440460822370369 0 0 0 0 -0.71587205310061108 4.7219340405717958 0 4.7219340405717958 -0.54299640961107798 0 0 0 0 493.1061907699841 40.402674722579832 0 40.402674722579832 -243.37127549186698 0 0 0 0 -4.2585475160922215 7.0372677083432791 0 7.0372677083432791 -0.0025003685732372105 0 0 0 0 -1.4226230493770515 1.9192005740400475 0 1.9192005740400475 3.6228782811488998 0 0 0 0 603.95387567570106 383.08755637140166 0 383.08755637140166 -43.775410622183699 0 0 0 0 271.04727620068115 153.56508790191174 0 153.56508790191174 3.2172824249282712 0 0 0 0 277.2202728286502 94.931552657952125 0 94.931552657952125 -59.601342652691528 0 0 0 0 -26.958841438106901 28.960432858439162 0 28.960432858439162 1.3627826386364177 0 0 0 0 45.210011268885864 95.497181508169888 0 95.497181508169888 142.87386574804259 0 0 0 0 116.35102511661535 77.792850818237639 0 77.792850818237639 134.17179407336153 0 0 0 0 143.72928671813133 102.61808494587603 0 102.61808494587603 241.69061700228485 0 0 0 0 297.6849093896526 203.01654795846844 0 203.01654795846844 73.214354126917897 0 0 0 0 178.8572802210474 98.673373854973761 0 98.673373854973761 211.78253285586834 0 0 0 0 123.05090857198229 78.61523587910051 0 78.61523587910051 219.81526555729579 0 0 0 0 140.40336119146014 117.95852041267608 0 117.95852041267608 196.66780475806445 0 0 0 0 361.31515902059618 375.5390920094469 0 375.5390920094469 314.83308221132393 0 0 0 0 236.87667865271942 321.20038547085642 0 321.20038547085642 661.42814676275157 0 0 0 0 159.54038748480525 139.1267851356024 0 139.1267851356024 243.10519677745651 0 0 0 0 329.80632320708537 334.7611100209906 0 334.7611100209906 299.47403760555972 0 0 0 0 415.34450012519119 396.04662041477332 0 396.04662041477332 322.01208335894626 0 0 0 0 527.46219321792159 515.40149903410565 0 515.40149903410565 163.74186091397132 0 0 0 0 507.69450925007186 436.31074398064447 0 436.31074398064447 -0.16907886525586946 0 0 0 0 397.82687167706354 327.38072358610407 0 327.38072358610407 135.3795529815834 0 0 0 0 520.49239776025934 475.08924074965034 0 475.08924074965034 71.554549828670133 0 0 0 0 806.27871262340341 776.18959569144499 0 776.18959569144499 0.77820309136586729 0 0 0 0 421.24630574340699 447.19285259129538 0 447.19285259129538 261.41366568614467 0 0 0 0 565.06786896535777 496.92946274088172 0 496.92946274088172 50.237992554801167 0 0 0 0 -306.42160250149755 -21.808798451107577 0 -21.808798451107577 31.605113044613972 0 0 0 0 2506.8100496968145 1030.5347561457784 0 1030.5347561457784 235.27365496103448 0 0 0 0 3834.1335349310903 1203.4127137086107 0 1203.4127137086107 247.72507165145362 0 0 0 0 1323.506129214813 1657.5275711085233 0 1657.5275711085233 986.11973654771282 0 0 0 0 0.77112295866251657 -2.0141098956370627 0 -2.0141098956370627 -0.57747706755270656 0 0 0 0 1467.4560422412687 2011.1263029433976 0 2011.1263029433976 1735.9951685191336 0 0 0 0 749.74779425545421 1328.8745963276888 0 1328.8745963276888 1217.1245631898892 0 0 0 0 9.1594551728789781 15.359068627008604 0 15.359068627008604 19.196066432994826 0 0 0 0 3574.2165777139962 651.69097182982841 0 651.69097182982841 234.7871492436243 0 0 0 0 -555.34856620455685 -961.19092439551241 0 -961.19092439551241 -259.71417432496673 0 0 0 0 60.875905562701519 -77.19672722487303 0 -77.19672722487303 686.65821031679297 0 0 0 0 9.706569707310905 13.758682263331679 0 13.758682263331679 -0.71563736700448999 0 0 0 0 1576.875482583855 -381.72296388974064 0 -381.72296388974064 -749.71695042033389 0 0 0 0 869.84364022854425 -325.99396377285302 0 -325.99396377285302 144.92203681465617 0 0 0 0 1908.0944674342463 -36.207694842552883 0 -36.207694842552883 -37.757157402593293 0 0 0 0 371.75639698994928 447.54173673685364 0 447.54173673685364 725.44701893445017 0 0 0 0 634.9165429201239 698.07701873278711 0 698.07701873278711 246.20342732547579 0 0 0 0 237.83637324780284 357.05113004091254 0 357.05113004091254 126.08371718609123 0 0 0 0 800.96150224344456 218.46508947094844 0 218.46508947094844 -343.55689462889131 0 0 0 0 2029.3780302094674 743.37726267072139 0 743.37726267072139 -678.0905732583924 0 0 0 0 660.03250181645853 1401.9541180586239 0 1401.9541180586239 2306.6442337045155 0 0 0 0 -472.25254280775698 -130.60691472369945 0 -130.60691472369945 -1002.3100293379612 0 0 0 0 32.423147162552169 6.8066907868583826 0 6.8066907868583826 0.70970957174002081 0 0 0 0 1809.8439573655996 -143.84027773958951 0 -143.84027773958951 -1965.7100440585054 0 0 0 0 1362.8066321928491 -61.307425478218647 0 -61.307425478218647 -1472.0805772054591 0 0 0 0 1649.4399217823302 -317.24384871430448 0 -317.24384871430448 -1500.2313524938072 0 0 0 0 24.491993790660928 33.294588414294729 0 33.294588414294729 39.955757643738707 0 0 0 0 1085.8146884804446 -64.252843264945113 0 -64.252843264945113 274.99008640924876 0 0 0 0 1704.2435951483531 487.6951433016493 0 487.6951433016493 -884.22702735730854 0 0 0 0 1498.0070856101229 414.93050379248598 0 414.93050379248598 85.328167498460971 0 0 0 0 1599.5590761754574 201.22147739122011 0 201.22147739122011 -149.20597380155959 0 0 0 0 -734.56648245955876 1665.9657723489945 0 1665.9657723489945 2624.0633070982731 0 0 0 0 15.363652317553544 12.431045517305449 0 12.431045517305449 -34.918429401805099 0 0 0 0 27.783434271483941 50.108399879698382 0 50.108399879698382 60.3041477561693 0 0 0 0 92.980985193978995 220.99941913063594 0 220.99941913063594 -40.940335908657289 0 0 0 0 -297.05148332090903 420.2434141222584 0 420.2434141222584 -186.08133426994027 0 0 0 0 71.431241842641612 -12.180318903272564 0 -12.180318903272564 -25.419050056282686 0 0 0 0 320.21169843847747 367.25202730578167 0 367.25202730578167 -312.94723890616297 0 0 0 0 4.7651489152386262 -0.53026378502465832 0 -0.53026378502465832 -31.538135318508694 0 0 0 0 295.46315776670235 31.739038721916586 0 31.739038721916586 -293.0036177833681 0 0 0 0 2071.8553747028345 131.48686215865746 0 131.48686215865746 -228.2921598387984 0 0 0 0 1689.3432985302352 -227.08650525726989 0 -227.08650525726989 12.44575008971151 0 0 0 0 1.790559149586187 2.1334037221475057 0 2.1334037221475057 -11.553223289285654 0 0 0 0 809.62779925501673 181.04406833559187 0 181.04406833559187 -208.51533093489707 0 0 0 0 -303.06637729261274 -696.17495527293431 0 -696.17495527293431 -343.61126474988123 0 0 0 0 296.15625438529241 3.3076395522148232 0 3.3076395522148232 -268.66959940443485 0 0 0 0 54.060790949428338 301.20340095584834 0 301.20340095584834 670.67649459936365 0 0 0 0 1008.3235623090914 1731.1626413043323 0 1731.1626413043323 1400.2285879033443 0 0 0 0 3344.2067164459586 2540.1647846563355 0 2540.1647846563355 343.48345567098659 0 0 0 0 928.03326696883596 1419.3597500690012 0 1419.3597500690012 157.08831327232474 0 0 0 0 1820.929953428109 202.68839389396453 0 202.68839389396453 -1286.4210034356656 0 0 0 0 3778.7369705711899 -541.90999829897191 0 -541.90999829897191 -66.072188588903373 0 0 0 0 1917.9395541145059 1181.6194508881963 0 1181.6194508881963 1204.7674150523671 0 0 0 0 -82.916458876687102 -9.6996351110792602 0 -9.6996351110792602 39.937061603464826 0 0 0 0 10.605731278706941 11.624734708381496 0 11.624734708381496 12.399393255618179 0 0 0 0 -598.60992972020904 627.83684769306092 0 627.83684769306092 927.05003935782588 0 0 0 0 -15.550624397132196 1821.0753038230978 0 1821.0753038230978 871.46746102229713 0 0 0 0 1474.7127232083585 -250.74108387103115 0 -250.74108387103115 380.30265781165508 0 0 0 0 542.12733271383331 392.41446062027535 0 392.41446062027535 1730.9484208537979 0 0 0 0 -55.788776775843871 109.45949587604628 0 109.45949587604628 987.92813806641789 0 0 0 0 146.37355062727875 -266.90186183580954 0 -266.90186183580954 1326.6404351407036 0 0 0 0 122.53532347705914 496.44970131880109 0 496.44970131880109 348.65951539028174 0 0 0 0 140.47889634162129 50.128096279629972 0 50.128096279629972 450.91539321908931 0 0 0 0 1408.7928673864881 336.25887099700412 0 336.25887099700412 451.54178910717019 0 0 0 0 -1011.9201643292618 -1017.4952040422068 0 -1017.4952040422068 960.82507999196969 0 0 0 0 -845.06615583492385 -306.47046229407715 0 -306.47046229407715 853.33431805133296 0 0 0 0 -757.71199129635716 300.42145252216505 0 300.42145252216505 2278.2320609334711 0 0 0 0 -129.410135447004 34.552051048558496 0 34.552051048558496 360.86856768154212 0 0 0 0 636.06743686954724 1110.7754178310279 0 1110.7754178310279 577.97439400493386 0 0 0 0 -7.1146778394992225 15.385601116434614 0 15.385601116434614 2.6245848232831008 0 0 0 0 -113.67807796146371 -37.493038399811667 0 -37.493038399811667 62.42507944238605 0 0 0 0 -112.05544504485442 39.509976961409848 0 39.509976961409848 54.46894395419713 0 0 0 0 166.9614459824661 97.730546671475167 0 97.730546671475167 527.56414760806729 0 0 0 0 -13.444463371499097 14.092895323174844 0 14.092895323174844 -0.3686837566628185 0 0 0 0 -42.985194762804895 1164.2160090475954 0 1164.2160090475954 647.54185512993718 0 0 0 0 237.20124290035164 2053.7987193152803 0 2053.7987193152803 -795.19328381464584 0 0 0 0 124.53522272201735 282.89305471269836 0 282.89305471269836 2456.8004011643643 0 0 0 0 -553.84245831418957 301.36917571537924 0 301.36917571537924 229.81422576517798 0 0 0 0 -50.192603996547405 -575.5348421953895 0 -575.5348421953895 -2553.945484273514 0 0 0 0 -10.446388203312438 9.5789595908825618 0 9.5789595908825618 -10.720367770091912 0 0 0 0 182.21648830403683 458.94689183090304 0 458.94689183090304 -239.09840937092667 0 0 0 0 108.93317471836053 -386.95215496326273 0 -386.95215496326273 -906.57856950150745 0 0 0 0 132.78047671687091 272.30121088332817 0 272.30121088332817 -229.49488465196555 0 0 0 0 0.33630117941757476 52.799067317101219 0 52.799067317101219 -16.238977023930914 0 0 0 0 127.63399530129985 31.826068882191294 0 31.826068882191294 -1.8368537493792161 0 0 0 0 146.04385532109882 285.77809944056935 0 285.77809944056935 -320.81202796704019 0 0 0 0 144.8565550970452 96.498306060762843 0 96.498306060762843 232.79480511130532 0 0 0 0 86.132373743855652 19.71351275984054 0 19.71351275984054 2.4122512425223128 0 0 0 0 473.48283070001344 753.31428239201341 0 753.31428239201341 -1408.9526953291061 0 0 0 0 190.33495532862435 -216.38614815782785 0 -216.38614815782785 -1637.5931415703308 0 0 0 0 -388.28452601725803 966.32595137558565 0 966.32595137558565 -920.10557169363892 0 0 0 0 1726.6937716286811 2238.4177183570191 0 2238.4177183570191 0.041965179738326697 0 0 0 0 990.92236894657253 2018.3509462749753 0 2018.3509462749753 2082.0784134044297 0 0 0 0 341.97264679378713 2789.2202194860729 0 2789.2202194860729 2653.296715158951 0 0 0 0 408.96508734433155 2506.99679600128 0 2506.99679600128 3821.9204018893142 0 0 0 0 -4.6838633068114746 11.33222561082988 0 11.33222561082988 -3.7623794941997062 0 0 0 0 -2.9136211970121995 2936.8952765970939 0 2936.8952765970939 1624.5335644411171 0 0 0 0 1147.7789416041128 2507.654421258781 0 2507.654421258781 2518.369388576466 0 0 0 0 1079.7108477617585 1683.4375950481262 0 1683.4375950481262 2827.5003827322071 0 0 0 0 521.62839522431022 1686.9217668570127 0 1686.9217668570127 2588.8937423953539 0 0 0 0 -11.691732043529441 21.750578750648287 0 21.750578750648287 -10.696778757513613 0 0 0 0 1554.9398926363647 1519.6696513223651 0 1519.6696513223651 1.4595333472305811 0 0 0 0 1476.2984575358932 1607.5109229362497 0 1607.5109229362497 1104.4382070411302 0 0 0 0 562.06573390221456 1087.0554574205817 0 1087.0554574205817 2264.893126640949 0 0 0 0 887.4941832277982 1271.1571588398547 0 1271.1571588398547 1500.6844614185247 0 0 0 0 928.59343592366349 923.54357902249467 0 923.54357902249467 1151.2257150572841 0 0 0 0 787.56266394609702 1236.5867889438377 0 1236.5867889438377 1875.7932968996247 0 0 0 0 1009.6841328834871 1230.7767037575031 0 1230.7767037575031 1870.7051718715666 0 0 0 0 810.9705371036689 1702.0108974246177 0 1702.0108974246177 2705.5160214081079 0 0 0 0 -9.1896171518330902 18.972565184781217 0 18.972565184781217 -10.219691178112186 0 0 0 0 1122.7300209041132 1416.1991615805855 0 1416.1991615805855 1076.4905298242156 0 0 0 0 1196.1916931227606 1164.7512973647063 0 1164.7512973647063 -348.55361922351585 0 0 0 0 -2.5164511119995723 8.2222400845633103 0 8.2222400845633103 -3.4235550459273725 0 0 0 0 777.81824310815136 1852.2528312962531 0 1852.2528312962531 2574.0502427240208 0 0 0 0 1042.9981365018612 2179.2401609024237 0 2179.2401609024237 1711.2117684283585 0 0 0 0 2630.4969146386356 2126.6132371348376 0 2126.6132371348376 1558.4994662472309 0 0 0 0 1275.8209376268205 1331.8092042423814 0 1331.8092042423814 1104.700738592961 0 0 0 0 764.7538731831155 1252.9995357702719 0 1252.9995357702719 2327.0627485340301 0 0 0 0 1307.2658892997424 1464.820729828476 0 1464.820729828476 1665.6873085365951 0 0 0 0 731.60892704229627 739.17074759589013 0 739.17074759589013 1262.9219506873051 0 0 0 0 1575.0555842145368 783.39780049478941 0 783.39780049478941 577.17843288596487 0 0 0 0 1336.7318187058117 450.25512214579794 0 450.25512214579794 258.48383198127704 0 0 0 0 2650.6261046172804 1281.2171309157748 0 1281.2171309157748 683.12874900393945 0 0 0 0 935.24614626009134 339.08510293986183 0 339.08510293986183 542.287077029383 0 0 0 0 1550.7687502632834 52.128152339069857 0 52.128152339069857 -64.510918672865955 0 0 0 0 855.99224856593446 613.40318468992245 0 613.40318468992245 58.572815495586838 0 0 0 0 769.2137350734356 92.794506703045045 0 92.794506703045045 210.98040201404365 0 0 0 0 127.6371420488249 137.24850806840368 0 137.24850806840368 208.59431648072496 0 0 0 0 421.18760968464267 699.35430474348686 0 699.35430474348686 47.006096000695834 0 0 0 0 1065.0784070097143 -67.366692035699089 0 -67.366692035699089 -539.3602009871247 0 0 0 0 1188.232108919532 178.75422409489693 0 178.75422409489693 -49.137112972817704 0 0 0 0 2629.5388569398201 1263.7582680123378 0 1263.7582680123378 -1030.7312462062182 0 0 0 0 1048.5311967509333 390.57660488574766 0 390.57660488574766 452.97763302850944 0 0 0 0 923.51334210616187 869.01878266391577 0 869.01878266391577 -768.87540071617332 0 0 0 0 969.06952251424082 31.199328360547952 0 31.199328360547952 -21.342655802080117 0 0 0 0 1748.8116756375748 571.11519370619862 0 571.11519370619862 -822.41940193848859 0 0 0 0 1344.090333992448 877.58398126303473 0 877.58398126303473 567.89793009718414 0 0 0 0 178.49793194336235 209.88879293268838 0 209.88879293268838 220.16459854703862 0 0 0 0 816.27000258719636 -573.35766425130714 0 -573.35766425130714 -2726.7322069778093 0 0 0 0 -4.9811318599378183 4.7908925501029955 0 4.7908925501029955 -3.7118381282266171 0 0 0 0 -269.09107057642541 -155.93310841103812 0 -155.93310841103812 -505.23450165687245 0 0 0 0 259.27629765879828 650.43160119745153 0 650.43160119745153 -508.65161144251397 0 0 0 0 230.85324043719447 95.018561757511634 0 95.018561757511634 138.64678553045087 0 0 0 0 -24.206349487978997 16.55996732649416 0 16.55996732649416 -12.734426694474195 0 0 0 0 168.35766014263754 374.13430248095301 0 374.13430248095301 -306.86219222845102 0 0 0 0 75.360434591420926 -263.36993927619187 0 -263.36993927619187 -1206.5006019051762 0 0 0 0 717.10325835472031 963.99156777036114 0 963.99156777036114 442.87479627579887 0 0 0 0 -105.87948882387718 303.40710678192409 0 303.40710678192409 398.65734440278902 0 0 0 0 213.63140778144589 719.12411565683215 0 719.12411565683215 1148.2762656992927 0 0 0 0 199.03520194337761 901.85767709397624 0 901.85767709397624 1549.1412037719338 0 0 0 0 1104.8473859715305 1320.5242231993252 0 1320.5242231993252 1476.2225861857587 0 0 0 0 -249.65579457803688 1703.6879885701492 0 1703.6879885701492 1398.8271581225272 0 0 0 0 880.093104251966 1802.7201632967954 0 1802.7201632967954 483.94896612674347 0 0 0 0 -874.23539333696681 595.00350579753285 0 595.00350579753285 3404.6748818021006 0 0 0 0 12.084261432690255 2440.7894001291625 0 2440.7894001291625 3273.6582438648838 0 0 0 0 -121.71634838364116 655.87684558402543 0 655.87684558402543 853.30452685974888 0 0 0 0 -183.7447239459143 632.82337782534887 0 632.82337782534887 1055.6462099070741 0 0 0 0 420.26948136174178 1349.0488792821779 0 1349.0488792821779 1213.3577123330906 0 0 0 0 466.62923640276131 740.50440507619714 0 740.50440507619714 209.04296610034362 0 0 0 0 32.237613778881496 165.07508302529459 0 165.07508302529459 -39.939714627849753 0 0 0 0 232.35143094469095 294.92011390755215 0 294.92011390755215 -221.05916858266573 0 0 0 0 192.32526052120375 187.89365254233417 0 187.89365254233417 -592.45941208940349 0 0 0 0 61.857132741919486 36.355599079819513 0 36.355599079819513 -630.41491087732356 0 0 0 0 -48.648867824374008 44.24048823871459 0 44.24048823871459 0.930456772780488 0 0 0 0 -31.225410537997959 278.37985313728859 0 278.37985313728859 -221.86360280920053 0 0 0 0 -394.13653484490351 676.13647503888569 0 676.13647503888569 -181.99976957781473 0 0 0 0 14.062916185013108 27.013647797672931 0 27.013647797672931 35.563482766473896 0 0 0 0 -71.658915653708391 182.03720652307675 0 182.03720652307675 -336.31016606921185 0 0 0 0 3.2169440858231155 50.284123523556154 0 50.284123523556154 30.220318377136863 0 0 0 0 -51.777819793816889 209.54751279196353 0 209.54751279196353 -356.68635097862716 0 0 0 0 -55.967112011931022 293.55744415548543 0 293.55744415548543 761.08742990734754 0 0 0 0 262.59062188536336 288.22321441162785 0 288.22321441162785 -511.06239128098241 0 0 0 0 -593.31252545638563 -509.43026816573547 0 -509.43026816573547 1949.3067997779071 0 0 0 0 440.2627019896463 76.170049248510622 0 76.170049248510622 -24.303516144849709 0 0 0 0 -55.357428478659131 13.718222305513336 0 13.718222305513336 108.06481795111904 0 0 0 0 -20.967194656754145 73.983169577615627 0 73.983169577615627 3.1097953795397189 0 0 0 0 10.386494317680445 14.573450979358526 0 14.573450979358526 16.688858896926263 0 0 0 0 -24.679441987369501 25.408128608340803 0 25.408128608340803 8.379936084835208 0 0 0 0 414.62571933957224 1618.2441737778245 0 1618.2441737778245 4203.4961719297935 0 0 0 0 8.2706741397202563 5.1015349830189791 0 5.1015349830189791 4.6044848448397033 0 0 0 0 -0.016639009438222274 58.535268196992547 0 58.535268196992547 -42.307190530533262 0 0 0 0 432.46253852454538 1334.4838674342318 0 1334.4838674342318 4430.9289187792529 0 0 0 0 -0.020656797939002144 2436.7818769701398 0 2436.7818769701398 2350.2313309389428 0 0 0 0 1.5463473116082582 6.0514628147553395 0 6.0514628147553395 19.575988094918046 0 0 0 0 251.25434488455357 3592.0263556521531 0 3592.0263556521531 1082.7041243184503 0 0 0 0 0.15916765351721551 863.87514264463971 0 863.87514264463971 -304.2504835623331 0 0 0 0 -70.287903855456534 723.99260371069977 0 723.99260371069977 -295.34510838800634 0 0 0 0 -0.49864153179805726 904.31090908585247 0 904.31090908585247 -1054.9292206117207 0 0 0 0 69.843959491870919 589.63218741731907 0 589.63218741731907 -822.12638191565202 0 0 0 0 -5.6919398736215499 0.93138033334847137 0 0.93138033334847137 -1.8063139690530505 0 0 0 0 198.83581778546795 242.95155436911227 0 242.95155436911227 -2208.2807968619018 0 0 0 0 -0.0089794480696310085 63.367421080433317 0 63.367421080433317 84.080568669196509 0 0 0 0 11.198146664333763 25.106260086969996 0 25.106260086969996 7.771429003776575 0 0 0 0 20.517399727017619 71.663498658963363 0 71.663498658963363 3.0317991286256074 0 0 0 0 195.29486757430846 387.94306603333791 0 387.94306603333791 -780.5705252589396 0 0 0 0 -179.35125505033648 372.6494656521445 0 372.6494656521445 -584.71220745672326 0 0 0 0 -180.1845452132693 533.48351168690715 0 533.48351168690715 -491.13353783936327 0 0 0 0 -10.450128868105821 63.147184739988006 0 63.147184739988006 47.320272931392537 0 0 0 0 -118.53150790928339 305.58021092271156 0 305.58021092271156 -721.18193155315385 0 0 0 0 -10.054011793346547 10.351768508270027 0 10.351768508270027 -4.6375829196384046 0 0 0 0 -7.1821607507008594 58.582202698577021 0 58.582202698577021 -25.491350857075304 0 0 0 0 24.389383112119219 36.008301340588162 0 36.008301340588162 -8.0981766803379003 0 0 0 0 40.040727915164268 75.672950478006754 0 75.672950478006754 27.084085780755629 0 0 0 0 83.86546713766964 68.108265324108899 0 68.108265324108899 33.470958767749266 0 0 0 0 227.02358104623272 195.4002087616027 0 195.4002087616027 -306.42809229584236 0 0 0 0 -125.56537198763544 220.92057405584274 0 220.92057405584274 63.771060085102363 0 0 0 0 -130.70674248915748 18.532067426349386 0 18.532067426349386 142.69326910176096 0 0 0 0 4.4596195527394968 0.13070447532790297 0 0.13070447532790297 -31.243507372722036 0 0 0 0 351.11174154694709 114.00426720869291 0 114.00426720869291 -374.19150822857046 0 0 0 0 326.50698867157917 -11.265915553551167 0 -11.265915553551167 -247.84467596501054 0 0 0 0 -0.38847229542446371 -2.1962379564629799 0 -2.1962379564629799 -8.6706902222427686 0 0 0 0 194.41370474769792 798.4015491653081 0 798.4015491653081 -513.42639530479846 0 0 0 0 -1154.1984558316326 941.86006107000321 0 941.86006107000321 -464.19331519134721 0 0 0 0 -375.77419227098653 1076.2918872327627 0 1076.2918872327627 -556.36590668841382 0 0 0 0 124.47053935810982 678.13214526545926 0 678.13214526545926 -897.74330323891445 0 0 0 0 -64.823325928053237 582.61469650598519 0 582.61469650598519 -924.47937097198155 0 0 0 0 144.68439536323422 444.84818323031141 0 444.84818323031141 -329.05954101325915 0 0 0 0 5.0544008036304149 1027.095640588168 0 1027.095640588168 1074.3845523843338 0 0 0 0 772.05256620359432 -286.50757847932618 0 -286.50757847932618 -138.99951172382862 0 0 0 0 588.15423471805116 245.9885489856315 0 245.9885489856315 -308.86657323894906 0 0 0 0 -112.81953646759212 -85.709430507486104 0 -85.709430507486104 195.5624445368303 0 0 0 0 99.462108571256977 590.55781353712518 0 590.55781353712518 -332.02555998197158 0 0 0 0 -91.880476054637256 30.618493353558279 0 30.618493353558279 230.71746980262105 0 0 0 0 99.419923528643267 425.35525130958558 0 425.35525130958558 -199.86929332130967 0 0 0 0 66.787298978076961 46.029518195036346 0 46.029518195036346 32.37705468856268 0 0 0 0 1789.5225055916526 -257.5345040740649 0 -257.5345040740649 -350.3511489933735 0 0 0 0 92.802538403937206 132.88839273877551 0 132.88839273877551 360.44742505771865 0 0 0 0 1324.7330325115181 90.838587338686921 0 90.838587338686921 38.420854180316383 0 0 0 0 1239.301493494695 534.11997630759015 0 534.11997630759015 502.15600090537919 0 0 0 0 1721.3305784970726 679.73258081966924 0 679.73258081966924 94.352478933164093 0 0 0 0 2544.6233044586843 1340.3462126284285 0 1340.3462126284285 418.68461685140574 0 0 0 0 2285.7839158754505 1617.8534082208789 0 1617.8534082208789 122.13712416097405 0 0 0 0 3478.6524612991816 2177.0110013632939 0 2177.0110013632939 370.20924182208546 0 0 0 0 28.153658966504992 18.12090650297586 0 18.12090650297586 11.54908855140593 0 0 0 0 3811.8806480357744 299.64283873001114 0 299.64283873001114 -430.87167629911528 0 0 0 0 765.11675196127908 2329.2091067091533 0 2329.2091067091533 3019.889316337838 0 0 0 0 3509.8083641062694 2670.6150503655808 0 2670.6150503655808 55.270025073965371 0 0 0 0 56.897330813400913 153.70934283702081 0 153.70934283702081 0.78168387811456341 0 0 0 0 -21.184330156045235 6.0021132910885626 0 6.0021132910885626 54.52324641433097 0 0 0 0 2174.3846944495817 79.814150200237236 0 79.814150200237236 3741.4451800869574 0 0 0 0 62.079669563521747 -20.612559186996805 0 -20.612559186996805 131.21743428336049 0 0 0 0 222.33162671515311 5.7504007690295111 0 5.7504007690295111 40.643456503878042 0 0 0 0 2108.3620621780947 2181.7703588438999 0 2181.7703588438999 642.41529381043802 0 0 0 0 -27.879780057310001 9.4985976573937307 0 9.4985976573937307 56.414257332528052 0 0 0 0 2150.6726592581035 1786.0222316832078 0 1786.0222316832078 -362.21470710920039 0 0 0 0 67.454513870245137 4.1203439585697197 0 4.1203439585697197 134.53874682073365 0 0 0 0 51.150579020701116 -78.551484335774148 0 -78.551484335774148 266.40715023242228 0 0 0 0 23.560470639698906 105.19696916281646 0 105.19696916281646 178.34123129369982 0 0 0 0 8.8556277852621861 136.64314108861436 0 136.64314108861436 298.93805412638176 0 0 0 0 20.658630746238487 119.32427678882777 0 119.32427678882777 124.54301922564628 0 0 0 0 30.93927686270581 186.3257850096461 0 186.3257850096461 33.140787361742696 0 0 0 0 29.531792592396414 177.10703432228729 0 177.10703432228729 183.91152571098064 0 0 0 0 144.94757854897762 194.460885585715 0 194.460885585715 -174.06588860955526 0 0 0 0 81.643656940796291 76.456587369147513 0 76.456587369147513 20.190127367969261 0 0 0 0 118.91441275315447 294.17870912096987 0 294.17870912096987 -60.084804988553515 0 0 0 0 408.49784399598866 546.28917243601245 0 546.28917243601245 137.60091347763228 0 0 0 0 110.27224562946049 87.311668252971231 0 87.311668252971231 68.923116772901267 0 0 0 0 42.741918402979309 129.6342860526596 0 129.6342860526596 71.753171103206114 0 0 0 0 92.368911427434398 53.656372501907612 0 53.656372501907612 -2.624281080399669 0 0 0 0 -117.07624052104075 88.904133600648493 0 88.904133600648493 26.504527857177891 0 0 0 0 43.471659158502007 102.15000083122868 0 102.15000083122868 -5.8545139035122702 0 0 0 0 5.366132719196905 27.299321631022991 0 27.299321631022991 5.9316202389462092 0 0 0 0 38.900678038459318 144.29540119260332 0 144.29540119260332 63.977708124089986 0 0 0 0 52.430426977643947 123.05578964439883 0 123.05578964439883 86.463411736127455 0 0 0 0 24.209090701246168 106.71807794801862 0 106.71807794801862 144.36466589196334 0 0 0 0 36.340733594232006 113.82855240201752 0 113.82855240201752 122.32334314269247 0 0 0 0 -30.550311893970758 23.581889148625891 0 23.581889148625891 57.980071559188474 0 0 0 0 881.75918648784864 1296.4982833716094 0 1296.4982833716094 1141.8813838169735 0 0 0 0 89.721247206995031 64.616086475849443 0 64.616086475849443 -23.853510184653715 0 0 0 0 4.3457111800380517 29.05889847808217 0 29.05889847808217 -5.275750590428089 0 0 0 0 49.338798206445063 17.179108575786813 0 17.179108575786813 -54.638567691283242 0 0 0 0 4.2401260096411875 11.312060622996171 0 11.312060622996171 12.814434453508099 0 0 0 0 892.52240217958752 885.49565251301465 0 885.49565251301465 563.32300239084725 0 0 0 0 200.26079675307847 -13.489864832918101 0 -13.489864832918101 40.584454289943096 0 0 0 0 741.48687747638905 1160.2094412062397 0 1160.2094412062397 1909.929051176332 0 0 0 0 1056.7554727454844 1127.0877442772762 0 1127.0877442772762 1175.4574518788868 0 0 0 0 271.24157190346159 1209.1567066423449 0 1209.1567066423449 1178.8990487465926 0 0 0 0 628.87179400602326 1011.4181407025426 0 1011.4181407025426 788.03635371763812 0 0 0 0 757.8806996026251 1361.5265264229347 0 1361.5265264229347 1117.4424761472637 0 0 0 0 1149.529768503402 1164.1028141429142 0 1164.1028141429142 750.38559871462348 0 0 0 0 -369.94433942027536 901.76379316329076 0 901.76379316329076 1043.6448779667262 0 0 0 0 118.76820213084284 1654.3480755235178 0 1654.3480755235178 879.16234136915955 0 0 0 0 14.679998397739837 452.03971926919621 0 452.03971926919621 145.92793319400516 0 0 0 0 -248.32832168784807 741.18117874932796 0 741.18117874932796 452.33163709231303 0 0 0 0 60.729353484148305 630.2703490478325 0 630.2703490478325 488.21548692922806 0 0 0 0 303.87900761546916 769.09446791715891 0 769.09446791715891 1053.1238181823101 0 0 0 0 -160.28492140703383 968.38422971920045 0 968.38422971920045 967.59505141790578 0 0 0 0 235.5811387563881 789.27517592488584 0 789.27517592488584 1746.7493431104594 0 0 0 0 186.44934636713151 919.44487578556254 0 919.44487578556254 1403.6651235936442 0 0 0 0 374.26406784926075 1142.7208077797641 0 1142.7208077797641 1684.1741993613396 0 0 0 0 35.720634459066787 625.17036193231979 0 625.17036193231979 1022.3867134849206 0 0 0 0 62.103305947210174 848.45625060332532 0 848.45625060332532 1720.0981180844974 0 0 0 0 70.129618852268322 986.13238842093779 0 986.13238842093779 1477.2913695657116 0 0 0 0 -61.52092367655132 1011.760507760453 0 1011.760507760453 1369.5420634218499 0 0 0 0 17.257860162229917 706.93906091975668 0 706.93906091975668 1312.4472903764254 0 0 0 0 45.006293800106505 985.31100946296647 0 985.31100946296647 1462.3534873045064 0 0 0 0 -6.2457491884269984 809.62660697574483 0 809.62660697574483 1819.341292365767 0 0 0 0 93.837515625127708 630.25271871040241 0 630.25271871040241 1697.2341699645258 0 0 0 0 0.018889434431912377 927.83305367119465 0 927.83305367119465 1297.6495899093243 0 0 0 0 -0.071491119510028511 907.93716044790563 0 907.93716044790563 508.38267011409698 0 0 0 0 -29.891819987213239 611.11987916414 0 611.11987916414 952.41513376206422 0 0 0 0 -99.451684395156917 957.6710987984261 0 957.6710987984261 1048.9887968013536 0 0 0 0 64.360645969863981 715.24057306104078 0 715.24057306104078 -295.31044015725854 0 0 0 0 -69.89209693781595 576.99819596879934 0 576.99819596879934 229.36925802495534 0 0 0 0 108.99561371002346 147.65518056905057 0 147.65518056905057 -114.61150274601823 0 0 0 0 -82.311235886249051 -47.415351300402108 0 -47.415351300402108 -56.251695231272606 0 0 0 0 403.23633794230409 24.677810075132584 0 24.677810075132584 -114.33220808074839 0 0 0 0 314.39064389960549 347.12752205718425 0 347.12752205718425 222.94982391483791 0 0 0 0 100.8188692870217 208.90478670260063 0 208.90478670260063 39.157793003512779 0 0 0 0 116.57033375375613 99.548033491300885 0 99.548033491300885 -53.223348058199917 0 0 0 0 0.86978550551430089 140.251047331265 0 140.251047331265 153.70845699579513 0 0 0 0 41.781188162771286 72.47152280206501 0 72.47152280206501 201.57451472381945 0 0 0 0 47.640849508927204 42.905905795232684 0 42.905905795232684 8.7788521915135789 0 0 0 0 -85.597622764747939 153.75311268042424 0 153.75311268042424 -86.807528302291757 0 0 0 0 40.106518251064699 174.09011750489299 0 174.09011750489299 -99.01991794168498 0 0 0 0 69.46807998411532 73.40560016460222 0 73.40560016460222 -76.019132220753818 0 0 0 0 -1.9532565932909165 87.611827716235894 0 87.611827716235894 -81.256528290898132 0 0 0 0 5.267946430874872 165.91410175917554 0 165.91410175917554 -101.29200339474846 0 0 0 0 -109.23684566053544 136.96832332322447 0 136.96832332322447 -70.718075668264646 0 0 0 0 -45.041442854933848 128.77225505725073 0 128.77225505725073 -69.837149025610415 0 0 0 0 -21.582109440975728 36.642855247530917 0 36.642855247530917 66.020594886197415 0 0 0 0 -40.841006755184026 103.48830776155728 0 103.48830776155728 -81.066293981784838 0 0 0 0 -35.723678337422058 45.558042496448451 0 45.558042496448451 -33.31953637433719 0 0 0 0 -134.96208680679331 343.1852684142018 0 343.1852684142018 782.31148384102562 0 0 0 0 62.139164982894727 100.36062918331299 0 100.36062918331299 -106.04612327893483 0 0 0 0 -18.353879334707926 25.352353789391174 0 25.352353789391174 -32.905547380377811 0 0 0 0 60.705801509447895 -18.177334088729197 0 -18.177334088729197 -276.70037656889326 0 0 0 0 530.78540431371221 -158.84245144535089 0 -158.84245144535089 -66.831293295887008 0 0 0 0 443.3882529258326 431.34145278903043 0 431.34145278903043 -12.733006081471103 0 0 0 0 187.23097528373728 265.2152061841025 0 265.2152061841025 122.20998673244321 0 0 0 0 224.58026471536141 408.79365913796209 0 408.79365913796209 122.05416920941207 0 0 0 0 2202.9865654904133 551.33976208334934 0 551.33976208334934 743.33363936604292 0 0 0 0 1579.9378540052076 1493.3929281201326 0 1493.3929281201326 1559.1639370180346 0 0 0 0 -5.9346222538921438 5.7559419199617423 0 5.7559419199617423 9.5055757114814412 0 0 0 0 -1536.524765107788 -200.97156886756966 0 -200.97156886756966 307.25462333757605 0 0 0 0 -29.785375061750528 437.09395708708325 0 437.09395708708325 98.631461264458267 0 0 0 0 -17.381696989781346 9.3283099315484321 0 9.3283099315484321 34.185170692896378 0 0 0 0 -336.33738731027552 11.732414804173459 0 11.732414804173459 209.79888360158657 0 0 0 0 2535.5285092293925 2144.0551395820075 0 2144.0551395820075 847.63125442145974 0 0 0 0 -15.450008027339209 251.10975475376654 0 251.10975475376654 398.17465643216565 0 0 0 0 76.43519279564498 176.18965853121335 0 176.18965853121335 133.14989844659794 0 0 0 0 212.63368851579435 535.37343211312691 0 535.37343211312691 366.71547705470948 0 0 0 0 -2.7362944888607501 4.7246569387725117 0 4.7246569387725117 -6.1089364528549197 0 0 0 0 65.191194367187563 201.70177629974933 0 201.70177629974933 176.04568256253697 0 0 0 0 190.95447263155074 346.51088959896879 0 346.51088959896879 -141.70761923259124 0 0 0 0 31.112301734057837 -389.19324849512486 0 -389.19324849512486 -472.78243718212616 0 0 0 0 -8.4079428525407707 14.6598301363492 0 14.6598301363492 -18.80463434991583 0 0 0 0 351.32082185712352 425.64085417266324 0 425.64085417266324 122.54289375992835 0 0 0 0 382.64936070765543 257.43646944098873 0 257.43646944098873 114.21913165615115 0 0 0 0 -353.89456844760207 -435.02551182006755 0 -435.02551182006755 -306.10413536014676 0 0 0 0 92.085647593579779 11.01264691466713 0 11.01264691466713 337.00849809625652 0 0 0 0 230.19206037507684 112.08623892156902 0 112.08623892156902 -255.40732856032628 0 0 0 0 47.813561904373273 416.68912631240346 0 416.68912631240346 465.88670247710979 0 0 0 0 360.35447828749602 463.72244613552175 0 463.72244613552175 -412.25803295492278 0 0 0 0 336.46457732829367 -147.20987025078284 0 -147.20987025078284 378.52345787672675 0 0 0 0 10.029057946819705 -3.0346201991621626 0 -3.0346201991621626 1.864879908157846 0 0 0 0 -126.17832336277934 756.23091738194489 0 756.23091738194489 992.02133073540608 0 0 0 0 63.338073863385944 15.738958358873788 0 15.738958358873788 -27.509887427648209 0 0 0 0 38.157076044298947 -5.524732360763835 0 -5.524732360763835 1.0063041307399487 0 0 0 0 220.38712951592424 47.39869448383979 0 47.39869448383979 -413.33732465349021 0 0 0 0 183.4047983417986 -298.83829787369177 0 -298.83829787369177 -17.582979815386352 0 0 0 0 -425.58016200944257 350.33158514708703 0 350.33158514708703 493.46741974623001 0 0 0 0 844.62188464548672 391.51174061697384 0 391.51174061697384 336.41850754940242 0 0 0 0 156.57076533200598 -129.35626432709614 0 -129.35626432709614 931.20132007871871 0 0 0 0 119.93628462377819 22.905461509260931 0 22.905461509260931 341.24518245429499 0 0 0 0 51.654373718556599 -41.014847612605081 0 -41.014847612605081 434.33473492141638 0 0 0 0 193.17186567216413 347.1256526519428 0 347.1256526519428 143.7582408732851 0 0 0 0 22.573595079564257 78.069492354061367 0 78.069492354061367 549.03867431366234 0 0 0 0 209.33991570623766 435.51628708387034 0 435.51628708387034 619.72417722770479 0 0 0 0 61.968976508331252 -51.144787940946117 0 -51.144787940946117 -51.294194901231094 0 0 0 0 721.0121435423498 269.40997427232651 0 269.40997427232651 -226.77236506080953 0 0 0 0 79.908704032092373 73.561763501573807 0 73.561763501573807 19.774638447889998 0 0 0 0 193.3688201525656 10.119746661934187 0 10.119746661934187 -228.65913175823516 0 0 0 0 44.252051245901384 250.77067587518104 0 250.77067587518104 99.073869613715942 0 0 0 0 146.92793020940735 -36.194576912850607 0 -36.194576912850607 -76.120998035297816 0 0 0 0 48.222926476242719 30.242809673713055 0 30.242809673713055 -8.5391933764331043 0 0 0 0 35.887631414436328 -9.5259190923352435 0 -9.5259190923352435 -103.78450912665721 0 0 0 0 19.71781263081391 10.838569314293963 0 10.838569314293963 -22.345695074073234 0 0 0 0 45.180756991321687 86.759733061153383 0 86.759733061153383 -72.04299444825665 0 0 0 0 42.91449020690925 55.639575987041098 0 55.639575987041098 16.615176634579257 0 0 0 0 61.459355970349861 71.855404850153718 0 71.855404850153718 -14.613779444667671 0 0 0 0 57.794388746340701 68.904362717850745 0 68.904362717850745 -1.8982174047851004 0 0 0 0 52.135073979356093 66.192370973221841 0 66.192370973221841 15.072422642619131 0 0 0 0 29.171450816769692 40.472096794351479 0 40.472096794351479 38.527347086285459 0 0 0 0 66.932431273889961 42.390454401807801 0 42.390454401807801 9.6755125281342771 0 0 0 0 -23.694559738563839 88.929825284387334 0 88.929825284387334 38.216304342611693 0 0 0 0 61.132876270035922 46.246281637049833 0 46.246281637049833 11.376589027102455 0 0 0 0 60.214612813608255 37.052185168868164 0 37.052185168868164 -29.203135180283425 0 0 0 0 70.612578840315109 -1.2825252738184645 0 -1.2825252738184645 12.142830240164926 0 0 0 0 -30.584962567507318 40.667995919820896 0 40.667995919820896 33.552759636382689 0 0 0 0 -19.608301548116287 23.13450557530814 0 23.13450557530814 45.145132711157203 0 0 0 0 32.234003547944326 30.204631568298595 0 30.204631568298595 11.830288868755133 0 0 0 0 -10.763400585303316 26.580935563841194 0 26.580935563841194 20.373900914557453 0 0 0 0 3.3350811046422564 7.4347852269443422 0 7.4347852269443422 -0.47570057533297927 0 0 0 0 29.347397689605714 113.12074304225825 0 113.12074304225825 255.75162546058709 0 0 0 0 -19.903787953124265 50.966257739943103 0 50.966257739943103 595.28361466302886 0 0 0 0 437.04734780360013 340.11501823397703 0 340.11501823397703 348.0812579822209 0 0 0 0 9.1506226449614445 -1.1179205615885195 0 -1.1179205615885195 1.3902315205596096 0 0 0 0 6.7220305577211548 17.138489413293428 0 17.138489413293428 49.875893524775165 0 0 0 0 18.095011069570319 9.4933222909457982 0 9.4933222909457982 27.679534828941541 0 0 0 0 -0.36071453714976087 11.194718622158689 0 11.194718622158689 42.924580240243813 0 0 0 0 -0.13912812137161268 2.6770575892622333 0 2.6770575892622333 -1.9753632821438458 0 0 0 0 2.0599984284926904 31.08074350082461 0 31.08074350082461 39.863831825170564 0 0 0 0 2.1488506985842832 16.130620790045214 0 16.130620790045214 94.827079145528842 0 0 0 0 32.685557168966625 18.397333967448503 0 18.397333967448503 49.680850252121672 0 0 0 0 5.8356445636018179 56.294566079435754 0 56.294566079435754 234.63773259600566 0 0 0 0 22.092750359210186 85.859423801750381 0 85.859423801750381 92.827399351532222 0 0 0 0 -12.196730231080437 63.574371938579134 0 63.574371938579134 94.11560240246763 0 0 0 0 54.434645293804351 144.82033342964132 0 144.82033342964132 36.340313049702672 0 0 0 0 52.115156205558918 69.39439415793673 0 69.39439415793673 41.720461573394346 0 0 0 0 127.58118934270169 150.36658250952314 0 150.36658250952314 26.872568468439567 0 0 0 0 76.478347095602658 280.54383643376059 0 280.54383643376059 179.48468145784864 0 0 0 0 17.451032249169657 217.20615847528097 0 217.20615847528097 262.26771076348086 0 0 0 0 21.537658325221855 178.79319933825172 0 178.79319933825172 136.02576992457034 0 0 0 0 78.364534160471521 265.08571704573114 0 265.08571704573114 29.771597676954116 0 0 0 0 29.269879430430024 101.69244442297584 0 101.69244442297584 39.353194989411286 0 0 0 0 53.127177684757044 100.48516123595618 0 100.48516123595618 -73.023229817372339 0 0 0 0 102.50714127377432 189.29725909414265 0 189.29725909414265 -30.726715448799951 0 0 0 0 -124.67507196740189 47.864058297811425 0 47.864058297811425 127.95493093068944 0 0 0 0 42.113262530150678 178.45267474816865 0 178.45267474816865 30.667655520355765 0 0 0 0 39.597070663170598 190.84118625690644 0 190.84118625690644 -26.834870143538865 0 0 0 0 63.060344291769212 90.191505806230708 0 90.191505806230708 34.651902472608668 0 0 0 0 41.456041039113188 135.46310862609971 0 135.46310862609971 -17.109899931820109 0 0 0 0 18.918872598540474 167.90069592125474 0 167.90069592125474 89.092891937383683 0 0 0 0 -8.0648810505680046 86.339564320756836 0 86.339564320756836 -49.052775650964101 0 0 0 0 -6.4445472267398145 92.710727087662235 0 92.710727087662235 36.28791632138018 0 0 0 0 -10.935374153865268 250.42146155102091 0 250.42146155102091 85.916354912671522 0 0 0 0 55.690444552652878 105.35674542127666 0 105.35674542127666 -13.039680399574479 0 0 0 0 142.044910242279 109.00863314765593 0 109.00863314765593 -112.24823808975634 0 0 0 0 42.397224565884926 6.2010284549330095 0 6.2010284549330095 -5.7633084681238387 0 0 0 0 148.41360339078528 87.696480626775156 0 87.696480626775156 -107.30498366992106 0 0 0 0 132.09362782660173 143.10019842223846 0 143.10019842223846 -292.75507659702998 0 0 0 0 -164.93157462865929 183.22640415221395 0 183.22640415221395 62.911832679914369 0 0 0 0 5.7484598658193136 388.71015627438283 0 388.71015627438283 -57.290727220395638 0 0 0 0 33.104416873552793 27.64952636575552 0 27.64952636575552 -7.0072419053462554 0 0 0 0 -108.15712041219376 105.38219506896189 0 105.38219506896189 80.794185967410158 0 0 0 0 -65.788414304592152 320.59173838079869 0 320.59173838079869 -103.18306044754718 0 0 0 0 123.08056194826349 141.68342866219064 0 141.68342866219064 -25.672950675965694 0 0 0 0 -11.610757623993635 117.26600400110584 0 117.26600400110584 4.5433722799995166 0 0 0 0 -5.1371918884979095 235.34336734073804 0 235.34336734073804 16.544911306864378 0 0 0 0 94.512935569306137 263.84330834898719 0 263.84330834898719 -24.704762882640352 0 0 0 0 967.70392937446013 -143.08814098614494 0 -143.08814098614494 -49.19037502853098 0 0 0 0 6.4743724272993859 383.14202877009484 0 383.14202877009484 282.71223336100229 0 0 0 0 6.7425569747109364 5.2353915479571356 0 5.2353915479571356 -0.14762984855400418 0 0 0 0 274.05005072892527 168.74408331432824 0 168.74408331432824 52.39956416073619 0 0 0 0 444.64504987745022 451.27268165904206 0 451.27268165904206 379.15110003043083 0 0 0 0 385.44301486307813 268.04855768251218 0 268.04855768251218 -157.67223201541492 0 0 0 0 251.87528063645004 353.73999889133847 0 353.73999889133847 -116.97659279485742 0 0 0 0 199.74466232146369 225.20515638958932 0 225.20515638958932 -30.239406684173446 0 0 0 0 344.01181900844676 0.43997091674464173 0 0.43997091674464173 41.214148265768927 0 0 0 0 213.5412755748257 106.95171005669999 0 106.95171005669999 -45.709979616389319 0 0 0 0 217.910607933547 105.47464071134527 0 105.47464071134527 -50.582997130808508 0 0 0 0 83.82271245578886 223.08641942621034 0 223.08641942621034 -29.571019563790742 0 0 0 0 18.453973220952321 112.16630646364138 0 112.16630646364138 -50.503622786536653 0 0 0 0 109.15800698394014 177.31525063173103 0 177.31525063173103 -38.224017870947137 0 0 0 0 41.933475052726862 88.094158434114433 0 88.094158434114433 -25.678019155704533 0 0 0 0 65.944721881255759 71.279379099859497 0 71.279379099859497 25.300012082432669 0 0 0 0 161.26865827779693 112.77704380131399 0 112.77704380131399 -204.13785333259875 0 0 0 0 65.742542856982311 51.462419355560471 0 51.462419355560471 11.864376834730628 0 0 0 0 57.116016989827301 56.31169038740542 0 56.31169038740542 17.816654837045824 0 0 0 0 134.04416653874796 -3.7466504436215473 0 -3.7466504436215473 -131.38417581023168 0 0 0 0 52.417535568776657 68.03576101404542 0 68.03576101404542 -31.499309102408006 0 0 0 0 220.28174074515118 -44.895269762120734 0 -44.895269762120734 -29.395185179157124 0 0 0 0 26.377418775261418 24.809273585809436 0 24.809273585809436 1.6491960456304469 0 0 0 0 69.053688796135248 -57.183072673276911 0 -57.183072673276911 -20.730552407665527 0 0 0 0 275.9517827208474 -80.591584351398069 0 -80.591584351398069 19.543796712554467 0 0 0 0 72.102536563499598 -78.854702437427477 0 -78.854702437427477 -63.960377409224748 0 0 0 0 135.85475973051507 86.377437643089252 0 86.377437643089252 51.976248019105697 0 0 0 0 -63.436477180686779 -11.826272803231404 0 -11.826272803231404 283.72378360121184 0 0 0 0 -85.021544269649894 241.16344492547432 0 241.16344492547432 -152.4479124771492 0 0 0 0 -103.93446942503215 36.71676078240489 0 36.71676078240489 51.173593166660794 0 0 0 0 7.7249343089391118 4.8424650492083288 0 4.8424650492083288 1.5456324301183884 0 0 0 0 -105.05850450221624 164.64615139099215 0 164.64615139099215 13.416141067740682 0 0 0 0 -64.961410919993796 239.03393422680165 0 239.03393422680165 -181.32331804520072 0 0 0 0 -141.79162257669668 66.314991825394827 0 66.314991825394827 -21.961694756539146 0 0 0 0 -155.10779367974101 110.8930091743116 0 110.8930091743116 -51.791658237660158 0 0 0 0 -25.910293206194183 51.359918438658497 0 51.359918438658497 31.423829756378836 0 0 0 0 -59.996236829654663 143.93252075358396 0 143.93252075358396 43.656024904561491 0 0 0 0 7.9616091777470785 9.137911670963291 0 9.137911670963291 10.273021669888507 0 0 0 0 98.448644948111905 6.2998692160499559 0 6.2998692160499559 -115.37247746475623 0 0 0 0 6.8097353005288142 3.7606076277711793 0 3.7606076277711793 0.83671456114282705 0 0 0 0 25.957665612484561 120.35074579243519 0 120.35074579243519 -128.89672140290804 0 0 0 0 -76.197040980106976 2.3365577634763213 0 2.3365577634763213 37.81309960811268 0 0 0 0 -87.243348719217465 29.89037739714513 0 29.89037739714513 -24.023766706604874 0 0 0 0 3.7203894041717263 1.1237436745372236 0 1.1237436745372236 -0.82530019403704102 0 0 0 0 59.397272666479694 -33.166073987305936 0 -33.166073987305936 -99.558642718667215 0 0 0 0 -38.540808176523569 104.42207702437508 0 104.42207702437508 192.18226308925659 0 0 0 0 166.65707150411617 297.78344287278378 0 297.78344287278378 162.88349303451832 0 0 0 0 309.82119738521578 224.57242030636189 0 224.57242030636189 47.864536079141544 0 0 0 0 26.47457302735711 163.65585211942198 0 163.65585211942198 45.460319968689873 0 0 0 0 12.011131339560961 172.73736593830472 0 172.73736593830472 50.50719998552313 0 0 0 0 -60.588056198408594 117.68338863363351 0 117.68338863363351 24.229932714493771 0 0 0 0 100.11100898860605 265.12289134514685 0 265.12289134514685 61.494826586073486 0 0 0 0 57.849143276922405 229.47475506185583 0 229.47475506185583 -32.362608567111238 0 0 0 0 61.606418392002524 175.29415826851073 0 175.29415826851073 -78.731252699195466 0 0 0 0 229.4197815367952 247.99879531959959 0 247.99879531959959 -51.841064255802848 0 0 0 0 -260.57971879260731 136.76143016291826 0 136.76143016291826 40.966310382824304 0 0 0 0 20.936104243912268 19.78305778372669 0 19.78305778372669 -205.17493206460131 0 0 0 0 -41.468160379270557 98.473324200100251 0 98.473324200100251 -163.64487006142917 0 0 0 0 -199.17728024579992 -22.535047401264819 0 -22.535047401264819 -16.246227203762828 0 0 0 0 -15.048748930901638 102.65653844201188 0 102.65653844201188 -41.408692402848828 0 0 0 0 -247.90077765368915 138.45841373761687 0 138.45841373761687 -25.961032724620964 0 0 0 0 -24.377568006471847 -13.475868234780137 0 -13.475868234780137 -23.585414245266293 0 0 0 0 -189.79522433478633 -105.08389046527145 0 -105.08389046527145 -37.853460330683447 0 0 0 0 -0.5643841109802068 1.5130077246692792 0 1.5130077246692792 -1.6424340246540226 0 0 0 0 -60.335495132549113 -49.293190757320644 0 -49.293190757320644 -16.765043448998767 0 0 0 0 0.064652446770793404 3.4476444640255011 0 3.4476444640255011 -5.1849472749928509 0 0 0 0 -14.582190637735039 41.03924469712365 0 41.03924469712365 -98.832536953392264 0 0 0 0 211.48031000695482 72.917062768320648 0 72.917062768320648 0.30902086411151686 0 0 0 0 -1.0492037276599149 -1.1417808983402296 0 -1.1417808983402296 0.16110115864142216 0 0 0 0 4.8213324924727203 6.8971971882365324 0 6.8971971882365324 -3.5478896026179427 0 0 0 0 -39.08891518098244 -13.726509066590552 0 -13.726509066590552 40.246944527922096 0 0 0 0 1.8693934232932108 7.1448138270250467 0 7.1448138270250467 -0.92352226760135636 0 0 0 0 201.83334409665258 268.75978883595963 0 268.75978883595963 -39.150074136136027 0 0 0 0 197.73664447266492 273.59175540665365 0 273.59175540665365 -44.395006146049127 0 0 0 0 266.13260191642621 275.31623289668823 0 275.31623289668823 -65.21290852274069 0 0 0 0 160.43188480410754 216.99203214632871 0 216.99203214632871 -94.846569456040015 0 0 0 0 164.13955379527761 138.26589269426131 0 138.26589269426131 -48.245419708167901 0 0 0 0 152.71961047121295 254.13742747441665 0 254.13742747441665 -43.503155558835715 0 0 0 0 180.17524978601432 310.23097428590154 0 310.23097428590154 19.140088500724232 0 0 0 0 61.266682861372828 245.1945040704486 0 245.1945040704486 56.295999427580682 0 0 0 0 86.015116982836844 122.50564214894052 0 122.50564214894052 -17.607710589873022 0 0 0 0 192.06894835730782 105.15238099945236 0 105.15238099945236 -97.860201238476293 0 0 0 0 12.345492727035889 74.064220805748846 0 74.064220805748846 -42.144125917895508 0 0 0 0 499.61341378928046 22.911853590718238 0 22.911853590718238 -19.087963687219599 0 0 0 0 -7.7707808170389399 12.549850434500456 0 12.549850434500456 -15.873384400041765 0 0 0 0 200.55212288076291 193.83070609379502 0 193.83070609379502 77.690536772075575 0 0 0 0 370.44994106300874 451.89335741607192 0 451.89335741607192 357.83939915177689 0 0 0 0 142.52432910661446 233.79321383030765 0 233.79321383030765 171.89903043270124 0 0 0 0 83.875460555704194 189.44925074047023 0 189.44925074047023 140.40935330424236 0 0 0 0 197.01219639019109 191.15714102030006 0 191.15714102030006 76.108999146977112 0 0 0 0 -77.535424607842288 -131.35854698871299 0 -131.35854698871299 30.682258780310804 0 0 0 0 -17.285861304820287 21.108820237526771 0 21.108820237526771 -33.594970148548377 0 0 0 0 130.86648317325944 127.89522661819132 0 127.89522661819132 47.977483207636396 0 0 0 0 183.36995887765079 146.40377247430843 0 146.40377247430843 36.983910053972977 0 0 0 0 141.3762852271575 136.07347619655161 0 136.07347619655161 -19.824298332940089 0 0 0 0 148.28157832807119 158.16276795751332 0 158.16276795751332 30.706925481861617 0 0 0 0 1.6917702929755194 46.592942393784796 0 46.592942393784796 -45.731450575235293 0 0 0 0 225.61501949904778 8.287536194860877 0 8.287536194860877 -88.638271198511575 0 0 0 0 -167.4006892805337 102.32993814664769 0 102.32993814664769 116.9257547434363 0 0 0 0 -159.45501232672541 146.58857904848742 0 146.58857904848742 284.16767659619654 0 0 0 0 273.06677230294736 -138.31589840733977 0 -138.31589840733977 355.65538542284702 0 0 0 0 668.69136266883288 219.5238261465629 0 219.5238261465629 -30.492051931993046 0 0 0 0 351.3562651045213 322.06381377899743 0 322.06381377899743 270.26561366477517 0 0 0 0 360.01492996295201 106.35143937673138 0 106.35143937673138 -71.761888653036294 0 0 0 0 295.6541944896162 331.70027638124884 0 331.70027638124884 53.89606347711765 0 0 0 0 231.88604021802894 143.61850411396154 0 143.61850411396154 -77.897032300099454 0 0 0 0 -278.30685217100836 422.59760548647682 0 422.59760548647682 -443.92640991534063 0 0 0 0 0.00023663093452341855 655.08059426229374 0 655.08059426229374 -597.2589560607521 0 0 0 0 -259.24839159219118 418.7068619413003 0 418.7068619413003 -618.96378522400482 0 0 0 0 -340.9870898045192 399.6033623592557 0 399.6033623592557 -346.10694842403427 0 0 0 0 -130.67110835001949 292.21745836520131 0 292.21745836520131 -434.7728168976173 0 0 0 0 -203.93428912523086 394.35763703070916 0 394.35763703070916 -471.40547792655525 0 0 0 0 4.0739415796421667 1.5723745132172269 0 1.5723745132172269 0.53433059782685177 0 0 0 0 20.209652033375505 323.10939466120794 0 323.10939466120794 -474.60059516085676 0 0 0 0 -551.17306303296937 808.30775284195988 0 808.30775284195988 1795.1867723498854 0 0 0 0 155.02251567720668 871.4446001812139 0 871.4446001812139 1799.0926589641858 0 0 0 0 -19.417979345643403 864.8529834533706 0 864.8529834533706 1966.5011203243484 0 0 0 0 -109.22448798129335 895.8429025458754 0 895.8429025458754 2781.9261514381797 0 0 0 0 -0.048139252270630095 2.0559003526256276 0 2.0559003526256276 1.5654934751775613 0 0 0 0 330.42848831397714 594.25634367284511 0 594.25634367284511 1842.5793443314105 0 0 0 0 99.044986800174229 -194.36461998995946 0 -194.36461998995946 296.83075928803009 0 0 0 0 26.026050312058942 -26.895383528511957 0 -26.895383528511957 -87.260383726927103 0 0 0 0 3.603838487280882 56.183922095580783 0 56.183922095580783 -130.05100614007461 0 0 0 0 2.3179432930218127 6.6980900806329089 0 6.6980900806329089 -0.15836850585347406 0 0 0 0 -17.063286922362749 11.692261506152136 0 11.692261506152136 -26.004573285212246 0 0 0 0 55.812428389115667 849.57970906517403 0 849.57970906517403 1725.3760959667125 0 0 0 0 17.352788172385772 9.6944273209592211 0 9.6944273209592211 -15.585170665144688 0 0 0 0 -15.596026228129631 25.477863196865655 0 25.477863196865655 -40.481747015190194 0 0 0 0 15.927028304089617 4.9807838760325467 0 4.9807838760325467 -37.094648493002751 0 0 0 0 6.1565509635402123 -4.675988089031307 0 -4.675988089031307 -34.02806996012805 0 0 0 0 12.838631814433029 18.479086311570427 0 18.479086311570427 -49.881643959302892 0 0 0 0 15.941838037804189 14.220010448778233 0 14.220010448778233 -2.6046928525787933 0 0 0 0 14.297577401870512 8.8060241927814786 0 8.8060241927814786 -47.230537712304795 0 0 0 0 -189.41777587858087 220.79578569630758 0 220.79578569630758 -209.6562194502585 0 0 0 0 10.315633651654309 5.9372005749709853 0 5.9372005749709853 4.2221680362864618 0 0 0 0 -126.80008727226232 295.01574716510913 0 295.01574716510913 -397.71089494347689 0 0 0 0 -143.04246004162269 92.586019726429186 0 92.586019726429186 -38.883365693225642 0 0 0 0 -74.545317628762859 146.7555612062788 0 146.7555612062788 -225.0845216650996 0 0 0 0 -143.7205907398893 180.77495962619651 0 180.77495962619651 -172.89021410499117 0 0 0 0 68.155090725907939 -32.317140644618121 0 -32.317140644618121 1.0152677401438268 0 0 0 0 45.82481028692564 138.99568361621641 0 138.99568361621641 313.42691193398787 0 0 0 0 7.3490841720676485 6.8643633726911197 0 6.8643633726911197 -10.050179900635705 0 0 0 0 78.806581121127238 -40.266439979573988 0 -40.266439979573988 -75.825139954787119 0 0 0 0 84.771619043298415 18.991312726633623 0 18.991312726633623 -42.785791246955341 0 0 0 0 82.429484719585162 31.328899253621785 0 31.328899253621785 -105.19796847210091 0 0 0 0 8.0063803409382643 17.152769046755282 0 17.152769046755282 -38.252653044563957 0 0 0 0 70.155650294516818 6.4179783042418421 0 6.4179783042418421 -53.601677050744911 0 0 0 0 22.984980387933319 44.904228340925329 0 44.904228340925329 -72.635024459013948 0 0 0 0 -1.2887035358766532 15.962868807302641 0 15.962868807302641 -20.50940165887144 0 0 0 0 41.966607282778568 42.547327483267281 0 42.547327483267281 -7.0321461780695245 0 0 0 0 49.642583451408427 8.5548494488502911 0 8.5548494488502911 -23.865164574031951 0 0 0 0 46.514942364417948 9.3556275652517797 0 9.3556275652517797 -49.207663796463748 0 0 0 0 53.924585771368584 13.230522610523622 0 13.230522610523622 -48.861852074041963 0 0 0 0 38.216538233624306 22.511409460334107 0 22.511409460334107 -24.614900390617549 0 0 0 0 19.083752188365906 4.7286354746902362 0 4.7286354746902362 -15.310745333680643 0 0 0 0 735.12204065467813 534.52470403209372 0 534.52470403209372 242.33811534497363 0 0 0 0 44.888935045164544 3.7290044595865766 0 3.7290044595865766 -21.028368283034069 0 0 0 0 4.7916676670231482 10.528950519940039 0 10.528950519940039 -7.4673441443080506 0 0 0 0 4.8581245743756369 -1.1057198887950221 0 -1.1057198887950221 -2.8858743143795209 0 0 0 0 32.44834047392942 18.624227935215458 0 18.624227935215458 -3.5879534418927506 0 0 0 0 11.968013370336848 27.585613172650483 0 27.585613172650483 -13.988018956355518 0 0 0 0 -10.864344731969226 17.548605295297335 0 17.548605295297335 -1.4684187496438597 0 0 0 0 -18.721721526657348 14.659425279394782 0 14.659425279394782 -1.3473734205181245 0 0 0 0 -1.8076068787768307 2.2397841133188194 0 2.2397841133188194 -0.22300638278125007 0 0 0 0 102.29423169801157 49.076171514481757 0 49.076171514481757 -25.614163335732883 0 0 0 0 0.34707615452845175 -0.016861119590643625 0 -0.016861119590643625 -2.8312314340353311 0 0 0 0 51.461315345106414 76.053203366696835 0 76.053203366696835 44.926664466545844 0 0 0 0 68.853082165020169 38.534467483896151 0 38.534467483896151 -47.798972718504956 0 0 0 0 63.591955599396897 36.848500666408654 0 36.848500666408654 -25.313254293010687 0 0 0 0 566.86263464389776 63.988714278948464 0 63.988714278948464 -184.08795136158005 0 0 0 0 62.224015666623018 50.662845838662179 0 50.662845838662179 -50.602561010309728 0 0 0 0 -3.7187169043432391 11.731811509084991 0 11.731811509084991 -28.235797566634218 0 0 0 0 81.964513191327569 449.59634437937166 0 449.59634437937166 690.6526860879967 0 0 0 0 18.374888834613444 28.198918081357391 0 28.198918081357391 -42.008036552747285 0 0 0 0 353.8159203410687 166.90761666393519 0 166.90761666393519 -177.9073600282718 0 0 0 0 92.790546386240749 51.4551656963813 0 51.4551656963813 -6.6145538859527733 0 0 0 0 -143.15784665290266 198.08698301107506 0 198.08698301107506 170.96770381241822 0 0 0 0 4.7269140092931821 2.1731384293796481 0 2.1731384293796481 -0.16784466900020334 0 0 0 0 329.2041666614241 124.13928176735863 0 124.13928176735863 -232.94376297965937 0 0 0 0 164.85323183725995 -70.979236579167264 0 -70.979236579167264 -151.22636897953635 0 0 0 0 266.35393458834733 185.97673237127128 0 185.97673237127128 -40.720287013027701 0 0 0 0 281.1485359276121 42.403267149667954 0 42.403267149667954 -261.60625196198089 0 0 0 0 303.0905575605575 103.30231631109928 0 103.30231631109928 -131.12065944554342 0 0 0 0 128.14215109599172 43.998597986612367 0 43.998597986612367 -57.160252256110653 0 0 0 0 190.67130685629672 160.58311184480226 0 160.58311184480226 39.398482530988986 0 0 0 0 508.55724410602124 -27.308442201196158 0 -27.308442201196158 42.0960185716458 0 0 0 0 -1.4143826151270815 10.387612159789455 0 10.387612159789455 -10.553235276424743 0 0 0 0 -239.33648581072339 440.18363241686529 0 440.18363241686529 790.64625336290919 0 0 0 0 672.58820197520254 159.6787690650026 0 159.6787690650026 -80.853248648934823 0 0 0 0 531.50385279851616 194.54056930217484 0 194.54056930217484 129.90275459481927 0 0 0 0 534.62855258455966 97.526403414878587 0 97.526403414878587 185.57693047873545 0 0 0 0 531.49576496798568 197.61800645224395 0 197.61800645224395 45.530029643530725 0 0 0 0 534.61804196669254 101.58367220650689 0 101.58367220650689 -10.660993327510369 0 0 0 0 36.059785841600387 167.87830676715566 0 167.87830676715566 92.938387648388016 0 0 0 0 358.85955466903397 63.611717236075492 0 63.611717236075492 32.628254259464029 0 0 0 0 226.8491969750321 13.941609895005968 0 13.941609895005968 -5.3747897270604881 0 0 0 0 351.4873093352362 16.52953889021228 0 16.52953889021228 -15.688108776506851 0 0 0 0 29.790022482062341 79.99174140672676 0 79.99174140672676 43.779968127506436 0 0 0 0 320.51893831432972 163.48954947524635 0 163.48954947524635 100.43327659715578 0 0 0 0 535.6292650217656 14.640639022902178 0 14.640639022902178 47.994364418857003 0 0 0 0 942.83426225537551 190.33370047630979 0 190.33370047630979 -81.360224155756441 0 0 0 0 -0.54151498693166644 3.6052933457878567 0 3.6052933457878567 -0.99469445462470674 0 0 0 0 534.93234803172527 14.75299743326832 0 14.75299743326832 129.09499488610891 0 0 0 0 -53.065729770120925 76.087043078212304 0 76.087043078212304 25.978415560282883 0 0 0 0 546.57048316093278 360.92961098508022 0 360.92961098508022 99.65229632161936 0 0 0 0 121.22007875854615 217.45004979163059 0 217.45004979163059 139.82420814441048 0 0 0 0 227.65109446793213 -7.8149293590395246 0 -7.8149293590395246 -48.523335037854849 0 0 0 0 149.91603623247647 51.734542854854226 0 51.734542854854226 60.130947794543317 0 0 0 0 84.227218489657389 -82.151132437711567 0 -82.151132437711567 -51.543427514925497 0 0 0 0 5.8557259663555215 4.8546661522533583 0 4.8546661522533583 -1.927160910743499 0 0 0 0 13.291441050918365 -5.438990594921961 0 -5.438990594921961 -44.268222168113425 0 0 0 0 42.237021053020726 -33.217821451906275 0 -33.217821451906275 -70.961135505947823 0 0 0 0 -93.848570254460355 28.466747969088374 0 28.466747969088374 -33.411331110779429 0 0 0 0 7.6845651461167108 4.1908886715064853 0 4.1908886715064853 -1.7582553118823796 0 0 0 0 -16.16467326899874 165.80252692821159 0 165.80252692821159 -292.98961648303157 0 0 0 0 -88.792207726932247 39.519872805216437 0 39.519872805216437 -2.7581234867548119 0 0 0 0 51.661693031732284 182.07825551663336 0 182.07825551663336 -371.93209871161889 0 0 0 0 -46.231473713181913 171.98136961517775 0 171.98136961517775 -219.2547221687646 0 0 0 0 -1.0166468303901866 2.7642320425051281 0 2.7642320425051281 1.013428678821505 0 0 0 0 13.061602219882843 6.2052242968134124 0 6.2052242968134124 0.50875255749281934 0 0 0 0 87.438739197226823 105.55207179148601 0 105.55207179148601 -79.766648925087793 0 0 0 0 1077.0376249952533 -155.30217198847095 0 -155.30217198847095 -28.936967165248461 0 0 0 0 593.90904602351657 -233.52530373310219 0 -233.52530373310219 13.844595611240948 0 0 0 0 6.172728832011444 1.8833413140839426 0 1.8833413140839426 0.59066844833284193 0 0 0 0 716.48767580842832 195.45042843877309 0 195.45042843877309 53.696827629009931 0 0 0 0 1292.5036454567598 -184.56565050075915 0 -184.56565050075915 -170.46867752000617 0 0 0 0 1494.3917526376172 109.9793421656932 0 109.9793421656932 -917.00316926537198 0 0 0 0 -77.050765018706443 100.996649750909 0 100.996649750909 225.58109235968004 0 0 0 0 -0.71188941666690653 -0.55143306367706657 0 -0.55143306367706657 0.079681674980164985 0 0 0 0 183.28482522530248 94.545765362907332 0 94.545765362907332 -967.2541006267902 0 0 0 0 -2130.050989899144 827.3358599903695 0 827.3358599903695 -194.16281874192828 0 0 0 0 0.43442545510388086 7.7538447127572283 0 7.7538447127572283 -7.1993452430856735 0 0 0 0 -1054.8095165679406 638.59067974676691 0 638.59067974676691 -579.27952083994387 0 0 0 0 -1302.1180303901128 214.7415750356954 0 214.7415750356954 -129.19553184940014 0 0 0 0 -735.13872148547671 195.15513554812424 0 195.15513554812424 -130.03421334354425 0 0 0 0 -642.44200179907784 282.95761330224923 0 282.95761330224923 -52.399430666475382 0 0 0 0 1062.3373541294859 57.428989917315448 0 57.428989917315448 842.28801299532643 0 0 0 0 1.4161634052448555 14.560035413129924 0 14.560035413129924 -19.199422308881879 0 0 0 0 -613.66253711024183 270.73637575816065 0 270.73637575816065 -103.57784324426757 0 0 0 0 -51.397118495521909 194.60039297816184 0 194.60039297816184 572.57547976835849 0 0 0 0 523.62592923580087 791.49494096889612 0 791.49494096889612 88.77977139419454 0 0 0 0 9.4930947370885406 662.94974041076784 0 662.94974041076784 58.958227425760924 0 0 0 0 1176.7556133984908 392.9863329167456 0 392.9863329167456 -320.96742271137191 0 0 0 0 -656.75026609747874 -162.20610164975551 0 -162.20610164975551 -73.438591327838367 0 0 0 0 234.02015230784309 111.66249376305859 0 111.66249376305859 -439.3650576248765 0 0 0 0 -440.29033091981546 300.41087175008943 0 300.41087175008943 -59.449615728844947 0 0 0 0 371.07480236898118 73.313279581559073 0 73.313279581559073 -433.69304471341457 0 0 0 0 249.75145479854837 445.76795071614833 0 445.76795071614833 33.75146525096352 0 0 0 0 996.45084557391237 -72.711238895888528 0 -72.711238895888528 -1430.7334133320546 0 0 0 0 216.4991856891138 100.11226374156831 0 100.11226374156831 -327.50373796079657 0 0 0 0 5.3890043505471503 17.875426987211483 0 17.875426987211483 -29.735539760960052 0 0 0 0 -55.891259193340375 81.228533661165784 0 81.228533661165784 -152.67846364731668 0 0 0 0 134.87635482571204 89.230238637574075 0 89.230238637574075 -41.616770127053314 0 0 0 0 -325.15749165775196 123.75828203564015 0 123.75828203564015 24.666171595108608 0 0 0 0 -440.77407004951965 348.73667093382028 0 348.73667093382028 -153.74932344696208 0 0 0 0 -178.29928044370899 190.8289329135132 0 190.8289329135132 -85.47672658348165 0 0 0 0 -283.80997562203993 344.53786401362231 0 344.53786401362231 -245.47047961608769 0 0 0 0 -286.25427164099528 452.04306326771257 0 452.04306326771257 -407.33814914071263 0 0 0 0 -275.23452447808813 348.74713040591814 0 348.74713040591814 -253.54830384607703 0 0 0 0 -265.60521722846897 369.88185625611732 0 369.88185625611732 -210.37502178658906 0 0 0 0 -362.76489749606117 536.5531740952556 0 536.5531740952556 -221.96583026441658 0 0 0 0 -358.75160770551884 553.54426500689806 0 553.54426500689806 -282.5224470010362 0 0 0 0 -406.91436880998663 551.14812244925633 0 551.14812244925633 -225.41636092490626 0 0 0 0 -551.05697416933253 487.10387232743597 0 487.10387232743597 -166.67150018125812 0 0 0 0 -434.12940490622714 578.48297319841549 0 578.48297319841549 -202.8302335194312 0 0 0 0 -352.35611208614137 410.37246585180037 0 410.37246585180037 -144.13819833083107 0 0 0 0 -398.14273931601201 491.32557707036176 0 491.32557707036176 -270.69280512997466 0 0 0 0 -493.54775124741718 407.33161133479189 0 407.33161133479189 -119.30484224332031 0 0 0 0 -824.18128048141079 483.00221480483424 0 483.00221480483424 -132.3107462502885 0 0 0 0 -455.64596932832501 523.14390383745194 0 523.14390383745194 -213.33814194719162 0 0 0 0 -630.18218516974957 625.39180317845239 0 625.39180317845239 -227.72726134068216 0 0 0 0 -660.22856029315153 482.40569218318888 0 482.40569218318888 -245.03249800362391 0 0 0 0 -1082.1364579207948 700.9973272672969 0 700.9973272672969 -316.49058027129649 0 0 0 0 -412.73661591052951 444.82767734152549 0 444.82767734152549 -401.94926634167859 0 0 0 0 -661.25101906206692 561.2931640612951 0 561.2931640612951 -401.48592742580513 0 0 0 0 -665.02645698896958 532.18085529890232 0 532.18085529890232 -621.81150816347144 0 0 0 0 -319.29304135226994 247.29984084719581 0 247.29984084719581 -296.91317958007835 0 0 0 0 -368.67391567293089 540.4984587739491 0 540.4984587739491 -274.18053248163892 0 0 0 0 -142.15501973420396 426.48939622324519 0 426.48939622324519 -277.75979844340327 0 0 0 0 -335.33267688452179 596.48969451145513 0 596.48969451145513 -212.04878319860291 0 0 0 0 -439.79830062150722 576.09196856162816 0 576.09196856162816 -129.05382954491142 0 0 0 0 -301.85117069750777 442.37823034499434 0 442.37823034499434 -64.091367732224171 0 0 0 0 373.52310421432048 289.13614967859212 0 289.13614967859212 -257.35916929030645 0 0 0 0 -12.12310350838743 123.22835108763275 0 123.22835108763275 -71.662188764275925 0 0 0 0 -109.5231669229106 521.17477410724314 0 521.17477410724314 -183.97099446525681 0 0 0 0 -158.11290722810372 327.93299983741008 0 327.93299983741008 -79.140841645508772 0 0 0 0 22.899750773402047 487.96589603923076 0 487.96589603923076 15.140364845414297 0 0 0 0 -0.44139057938446058 11.924140425428959 0 11.924140425428959 -52.474334319125774 0 0 0 0 59.767102589888964 96.768596297351905 0 96.768596297351905 66.871009142814728 0 0 0 0 1.5563564987818239 7.1164200851571593 0 7.1164200851571593 -10.618417548798362 0 0 0 0 0.69271661988750566 64.116776104534438 0 64.116776104534438 104.26468267535711 0 0 0 0 0.57270504990959381 5.5176894852534701 0 5.5176894852534701 -4.8465888986196859 0 0 0 0 -536.79605469867238 247.29306802705833 0 247.29306802705833 -7.6499016849775217 0 0 0 0 -358.33569470931616 547.16271064109424 0 547.16271064109424 -416.5588709449512 0 0 0 0 -452.50106855164631 609.67085190705075 0 609.67085190705075 -235.69795873021212 0 0 0 0 -1065.914083942509 670.08158528664535 0 670.08158528664535 -179.82307853615202 0 0 0 0 -268.82183088539023 452.26184468540987 0 452.26184468540987 -564.79242493536731 0 0 0 0 -463.73643760339473 527.6388582244399 0 527.6388582244399 -316.83675360149937 0 0 0 0 -449.28626296119819 736.91625383124392 0 736.91625383124392 -685.99268737730017 0 0 0 0 566.28176532222278 348.14554644586042 0 348.14554644586042 -432.41928489663405 0 0 0 0 -77.891638750879792 325.58379466772931 0 325.58379466772931 -410.75792698659279 0 0 0 0 84.73530848370865 434.45694155514138 0 434.45694155514138 -660.30769119069191 0 0 0 0 -97.723654886758595 409.11480436294255 0 409.11480436294255 -662.89291852367205 0 0 0 0 0.02285596176807303 438.77824198131293 0 438.77824198131293 -681.09508552321313 0 0 0 0 -0.039965735209103279 423.45550170370069 0 423.45550170370069 -1167.3947627919042 0 0 0 0 -26.205459018543479 230.91534923463314 0 230.91534923463314 -1039.2354633419873 0 0 0 0 -538.21343747017818 474.41654490904602 0 474.41654490904602 -317.95409062708859 0 0 0 0 770.17796963141336 -118.20857243085698 0 -118.20857243085698 -725.63464681920232 0 0 0 0 0.97548992067783757 4.3240281079013698 0 4.3240281079013698 -6.2495872851594072 0 0 0 0 12.374565352380159 -19.850554977694628 0 -19.850554977694628 35.908957151661241 0 0 0 0 97.822277820770978 441.24329209828556 0 441.24329209828556 -906.27865154940218 0 0 0 0 196.00450527657813 275.60440319723239 0 275.60440319723239 -993.99037471715747 0 0 0 0 131.00151637153613 184.6791242303525 0 184.6791242303525 -736.28912861804565 0 0 0 0 41.353246563237917 213.24225390241565 0 213.24225390241565 -624.49614999090772 0 0 0 0 -233.66790169458545 219.23987499751638 0 219.23987499751638 -601.13082567939182 0 0 0 0 -515.18001267287764 419.75586650697369 0 419.75586650697369 -644.6303650497357 0 0 0 0 -448.46166323001671 512.51937957124755 0 512.51937957124755 -949.29390550646349 0 0 0 0 -306.69722977586207 366.77980760112405 0 366.77980760112405 -694.27585455832741 0 0 0 0 -183.12864061325672 241.66153684347046 0 241.66153684347046 -759.92336176348363 0 0 0 0 -123.99263484959374 259.82951611422141 0 259.82951611422141 -758.42164938233418 0 0 0 0 -418.85098475535779 507.78587517824963 0 507.78587517824963 -706.49845844145602 0 0 0 0 -278.68515309950453 414.2730346443941 0 414.2730346443941 -570.41298208398439 0 0 0 0 -80.305079399025999 393.14888804859856 0 393.14888804859856 -581.3326589114231 0 0 0 0 11.666355557215866 479.87689375435912 0 479.87689375435912 -559.6052597746102 0 0 0 0 90.128661036287667 418.60165418389442 0 418.60165418389442 -642.00733214744469 0 0 0 0 7.5086033686748124 404.53586539013668 0 404.53586539013668 -359.70851756641605 0 0 0 0 145.13591650679882 509.71228228647669 0 509.71228228647669 -531.05258074933499 0 0 0 0 -40.507215868077765 503.46896875810398 0 503.46896875810398 -347.95847276562381 0 0 0 0 -213.65025891730329 618.86582827407801 0 618.86582827407801 -429.75498339935075 0 0 0 0 115.0269220663904 686.64213484953507 0 686.64213484953507 -419.40813964210201 0 0 0 0 -127.86209986520407 741.0068492486098 0 741.0068492486098 -410.82749428696661 0 0 0 0 -311.5222011408332 796.15380361509415 0 796.15380361509415 -326.27836687530908 0 0 0 0 -358.58181886770763 710.55439430352271 0 710.55439430352271 -407.12107941593376 0 0 0 0 -270.71307005159906 709.77984190446659 0 709.77984190446659 -469.65061077350038 0 0 0 0 -254.07601934974082 531.57959619716712 0 531.57959619716712 -515.5452629177471 0 0 0 0 -93.937665819401445 626.15922676820037 0 626.15922676820037 -460.33905390757718 0 0 0 0 -583.59358773144777 398.04748236590422 0 398.04748236590422 -587.8427996829796 0 0 0 0 -174.5719907342791 537.28085604215312 0 537.28085604215312 -540.58449492088766 0 0 0 0 -314.77939099276409 716.99004414450246 0 716.99004414450246 -614.43976462850696 0 0 0 0 -734.27109647271573 448.26564053823677 0 448.26564053823677 -685.27002813518266 0 0 0 0 -524.51851477196033 578.13749020337673 0 578.13749020337673 -1289.1082006060133 0 0 0 0 -1057.7612035610364 1137.0618311179296 0 1137.0618311179296 -1072.5870742988991 0 0 0 0 40.823011288623093 448.94524727640783 0 448.94524727640783 -532.07828089272516 0 0 0 0 1232.5052821877762 654.474891588849 0 654.474891588849 -783.78460459167036 0 0 0 0 -203.70552983414382 783.20009104628116 0 783.20009104628116 -789.28541595695469 0 0 0 0 -784.56354484669282 476.73840252047194 0 476.73840252047194 -663.86895501567778 0 0 0 0 -316.40932013497513 661.26992370755033 0 661.26992370755033 -459.54931954979475 0 0 0 0 -225.23303454575944 682.86751314514186 0 682.86751314514186 -562.49881469022512 0 0 0 0 -192.84171681394218 612.95372678238891 0 612.95372678238891 -431.72747324092052 0 0 0 0 -97.236332638082786 257.17702501645147 0 257.17702501645147 -191.42918799744075 0 0 0 0 -111.33594294422073 400.35670194154955 0 400.35670194154955 -484.81782752538857 0 0 0 0 -243.80904450618254 413.7954502488883 0 413.7954502488883 -331.43803936253244 0 0 0 0 -271.77683317258743 152.44863166097343 0 152.44863166097343 4.0125641553386231 0 0 0 0 -315.94620605169621 480.61933553498056 0 480.61933553498056 -260.72556764314868 0 0 0 0 -461.00631837837864 584.62666776642845 0 584.62666776642845 -231.23637676946237 0 0 0 0 -423.22319200996753 668.86034123733896 0 668.86034123733896 -203.05302066815239 0 0 0 0 -406.65408826655766 720.21142067466189 0 720.21142067466189 -306.86946413743863 0 0 0 0 -279.05711980914566 720.93708599401475 0 720.93708599401475 -332.37869572051022 0 0 0 0 -303.95229645760992 832.96094569618231 0 832.96094569618231 -208.6375186844034 0 0 0 0 -733.66976405738387 965.36460147935441 0 965.36460147935441 42.140757849080387 0 0 0 0 -409.42348364311329 540.28626040063409 0 540.28626040063409 60.995486305237137 0 0 0 0 -468.032577450198 973.50352748907221 0 973.50352748907221 -407.64942212157257 0 0 0 0 -279.23958940707234 981.66248958818142 0 981.66248958818142 -331.84703043654008 0 0 0 0 -426.28885874744446 881.74061618229734 0 881.74061618229734 -227.97770682742112 0 0 0 0 -255.35632367998915 695.9850073639509 0 695.9850073639509 -203.91327058024308 0 0 0 0 -249.42201395962911 679.12063866586641 0 679.12063866586641 -917.57943318972957 0 0 0 0 -763.89515306470275 877.96690166206008 0 877.96690166206008 -367.01302182049585 0 0 0 0 -556.22299348817614 753.71386415930169 0 753.71386415930169 -678.5251042376467 0 0 0 0 -195.18081847620488 373.86545737749566 0 373.86545737749566 -555.38781513519962 0 0 0 0 -348.82859510362323 192.39565421889461 0 192.39565421889461 -741.24827440033187 0 0 0 0 -133.25794768607375 97.996640988667366 0 97.996640988667366 -179.35651426795903 0 0 0 0 -10.684674226780771 221.13871419225097 0 221.13871419225097 -455.67948940273914 0 0 0 0 -41.13226385381131 245.61178139073149 0 245.61178139073149 -188.90222625376282 0 0 0 0 803.10226974735269 299.39019115792735 0 299.39019115792735 -76.62179339889417 0 0 0 0 5.0070140731955917 4.7062421008958495 0 4.7062421008958495 3.4896502235495763 0 0 0 0 292.68219874727947 889.90121002367414 0 889.90121002367414 86.997601174621195 0 0 0 0 -74.77750320420455 194.85865443281295 0 194.85865443281295 463.55363236344056 0 0 0 0 116.52154114027508 565.50987325075903 0 565.50987325075903 -146.37490598156182 0 0 0 0 -45.495903044997249 660.18781551909251 0 660.18781551909251 -41.918572179410148 0 0 0 0 -51.19748025284207 736.83049543647485 0 736.83049543647485 -444.2268146910601 0 0 0 0 -71.681914639761089 835.95220262226121 0 835.95220262226121 -325.07828481559 0 0 0 0 -128.0264516841853 754.08096308688096 0 754.08096308688096 -320.00312290825059 0 0 0 0 259.5965379599802 744.84014151603878 0 744.84014151603878 -364.75891178089751 0 0 0 0 310.58619437921152 539.01971420888367 0 539.01971420888367 -354.10342367394605 0 0 0 0 104.21276405151002 400.56789420970335 0 400.56789420970335 -60.408559172504283 0 0 0 0 163.78304460036452 415.55820050527382 0 415.55820050527382 -359.88845563599602 0 0 0 0 232.26516041440482 400.42815128681968 0 400.42815128681968 -62.242662890782299 0 0 0 0 72.38533143868699 284.51421350389103 0 284.51421350389103 292.27681312336881 0 0 0 0 730.07666112722654 513.02887011834537 0 513.02887011834537 -184.61207488071102 0 0 0 0 349.04986002932856 167.94344091959374 0 167.94344091959374 374.38501289094165 0 0 0 0 353.94340850619483 633.28211307113634 0 633.28211307113634 604.04754098844933 0 0 0 0 194.73762355948566 394.32404660919792 0 394.32404660919792 256.04807370885476 0 0 0 0 252.16806981475384 351.91366005623098 0 351.91366005623098 239.64275101309158 0 0 0 0 147.19593547236582 418.60356179601877 0 418.60356179601877 310.16757436695207 0 0 0 0 342.80064496354316 566.26079651089458 0 566.26079651089458 458.35209404863576 0 0 0 0 23.913598398808972 420.12913691601727 0 420.12913691601727 529.43889670941462 0 0 0 0 -0.086309585130948108 370.84394310303753 0 370.84394310303753 474.03125406205254 0 0 0 0 65.313922048011591 306.83681156119417 0 306.83681156119417 378.35681323413701 0 0 0 0 0.058289511216571555 412.29784993240537 0 412.29784993240537 265.20790695312007 0 0 0 0 41.603105214730022 275.89257109407481 0 275.89257109407481 39.010224989241578 0 0 0 0 91.481685222359374 428.90054232138755 0 428.90054232138755 -16.742248611877585 0 0 0 0 -3.6642158255635877 360.05085774884037 0 360.05085774884037 -47.039517132732726 0 0 0 0 85.455781562734046 375.76749633727013 0 375.76749633727013 -396.96930156249482 0 0 0 0 -0.038610440926277079 437.56656095240714 0 437.56656095240714 -105.763028630181 0 0 0 0 36.962990594925941 99.011103940964858 0 99.011103940964858 16.746229116552968 0 0 0 0 -4.7803631917049643 69.718476372782334 0 69.718476372782334 61.432889204335083 0 0 0 0 17.713761886043358 39.358811746559809 0 39.358811746559809 -33.359890149416515 0 0 0 0 -32.553299900664683 30.841827598247278 0 30.841827598247278 -20.473674819865998 0 0 0 0 332.09950321810902 288.94693674555856 0 288.94693674555856 110.34009995032102 0 0 0 0 -11.027427181008534 36.952772579529892 0 36.952772579529892 18.717851580398928 0 0 0 0 113.30520701810019 519.30509110991625 0 519.30509110991625 1138.1446521077232 0 0 0 0 11.733888139431826 11.72872620870055 0 11.72872620870055 -10.93547368502275 0 0 0 0 12.941704359342111 98.969191968546056 0 98.969191968546056 56.792358636263998 0 0 0 0 -6.2904717833410473 37.31818489750772 0 37.31818489750772 -49.468881682635313 0 0 0 0 10.962502024252899 127.93138597498728 0 127.93138597498728 86.466711581311756 0 0 0 0 -154.59603912213061 43.741293333476278 0 43.741293333476278 -49.226478307904017 0 0 0 0 -103.9830230550433 349.13014544869293 0 349.13014544869293 19.178102918063814 0 0 0 0 283.13593890647098 185.28664214280275 0 185.28664214280275 -135.63921615127401 0 0 0 0 295.95936879262445 231.71652116854239 0 231.71652116854239 -69.207987877633059 0 0 0 0 860.03207441096311 113.29361422780676 0 113.29361422780676 -186.43599354717298 0 0 0 0 -7.6514903638999385 61.956026188682998 0 61.956026188682998 -19.490640084166479 0 0 0 0 421.55332384395297 431.03897501820666 0 431.03897501820666 -123.93579261884224 0 0 0 0 347.29436725541018 -780.97740349425658 0 -780.97740349425658 410.46842767469752 0 0 0 0 -1.0979567681788467 26.435870225663166 0 26.435870225663166 39.593236357339265 0 0 0 0 -21.738828894751521 33.191466204189588 0 33.191466204189588 -2.398197106854866 0 0 0 0 24.985403078575473 77.132170587856621 0 77.132170587856621 24.452832346543119 0 0 0 0 -51.523122847953346 125.78093139341581 0 125.78093139341581 29.818754084916918 0 0 0 0 -24.058925747929607 77.894162119962857 0 77.894162119962857 77.224785790775059 0 0 0 0 6.1864130303692946 112.72737858227475 0 112.72737858227475 86.070304174401372 0 0 0 0 7.4830322285250475 58.414942214585601 0 58.414942214585601 46.152909248422297 0 0 0 0 -42.852299653395789 7.4571049394023419 0 7.4571049394023419 12.912845893865288 0 0 0 0 -25.119116233858165 21.534856328049202 0 21.534856328049202 5.5259511529701015 0 0 0 0 -6.8007695194537519 59.882023784193734 0 59.882023784193734 69.929588174578384 0 0 0 0 -4.9970449612446828 56.47942282785516 0 56.47942282785516 76.120567494930583 0 0 0 0 -61.279044995986624 67.439551743265838 0 67.439551743265838 242.85045527148122 0 0 0 0 -6.2653667858685367 -17.463452793703254 0 -17.463452793703254 29.147874001479067 0 0 0 0 -3.3689706294703683 1.5231194015433402 0 1.5231194015433402 9.0366386477020981 0 0 0 0 -38.893119623558675 1.9510176388806002 0 1.9510176388806002 17.757710373017758 0 0 0 0 -1.6044673527388795 37.59003245206268 0 37.59003245206268 20.805004719682287 0 0 0 0 -5.2186921331210669 -1.2383181246126753 0 -1.2383181246126753 2.060111551006905 0 0 0 0 -9.2481793390179519 -27.14167947792339 0 -27.14167947792339 5.2112607479830331 0 0 0 0 54.970542304130504 210.6293762899586 0 210.6293762899586 571.61334331021135 0 0 0 0 1187.7968014462094 565.59365938470728 0 565.59365938470728 138.12267187549151 0 0 0 0 -6.3948415340511247 5.2262460580436283 0 5.2262460580436283 3.5799011966021155 0 0 0 0 455.85265201950097 699.40955677811144 0 699.40955677811144 769.13194350520098 0 0 0 0 -23.430385311388704 15.220849369756337 0 15.220849369756337 -3.9179548106114055 0 0 0 0 600.3717788644135 404.97608338918872 0 404.97608338918872 253.16940916629756 0 0 0 0 -13.357946005512872 29.380781822558177 0 29.380781822558177 -23.155663220429325 0 0 0 0 23.439752519421745 30.116831222188921 0 30.116831222188921 90.839306200254214 0 0 0 0 -79.646009420030168 94.860949439344949 0 94.860949439344949 -24.91094842745224 0 0 0 0 -7.2215988132520579 -26.48355564794474 0 -26.48355564794474 25.354508984994027 0 0 0 0 598.37769018027348 442.40073648913142 0 442.40073648913142 390.90757914827918 0 0 0 0 -63.50541176344268 410.83362232938634 0 410.83362232938634 2.1838218462507939 0 0 0 0 212.46726913364546 -7.0367017825310541 0 -7.0367017825310541 249.05903492678408 0 0 0 0 -57.143589137558592 134.67371785397881 0 134.67371785397881 708.59262955152735 0 0 0 0 366.31041451939382 882.98979323873755 0 882.98979323873755 286.04570051781047 0 0 0 0 -27.130406443980547 15.277128713586251 0 15.277128713586251 3.841352382118977 0 0 0 0 -444.27116272135754 18.383058841624006 0 18.383058841624006 195.46920102537479 0 0 0 0 -6.8172239712439477 84.750609117843851 0 84.750609117843851 -20.486688591180837 0 0 0 0 367.15135281782932 459.75417853705767 0 459.75417853705767 503.30749078732697 0 0 0 0 -3.1158051415013404 4.2181691965449204 0 4.2181691965449204 -3.3828714632602157 0 0 0 0 108.41415194187721 384.36793777230378 0 384.36793777230378 113.23708743130919 0 0 0 0 257.53842459047155 254.29622584507706 0 254.29622584507706 2.9462068781549533 0 0 0 0 -92.976933258411009 194.54715115184445 0 194.54715115184445 49.282768184850283 0 0 0 0 569.7652275274595 207.95614034397204 0 207.95614034397204 -36.27422422764721 0 0 0 0 344.74697684198327 414.88173749715725 0 414.88173749715725 283.47725052334863 0 0 0 0 312.34763558786653 17.513336036320652 0 17.513336036320652 433.31589128639052 0 0 0 0 555.20265213258244 153.12040226829276 0 153.12040226829276 123.49394539503555 0 0 0 0 111.20652316877386 106.29596027417028 0 106.29596027417028 236.74913407871782 0 0 0 0 219.77716345398221 191.68234900968491 0 191.68234900968491 232.48196852384717 0 0 0 0 251.00088418451924 284.97051026876443 0 284.97051026876443 471.46751024096739 0 0 0 0 1.5207049233847698 5.3171252984193131 0 5.3171252984193131 -5.2583093257217826 0 0 0 0 -86.596978384957765 140.44941474997995 0 140.44941474997995 -130.31487613892659 0 0 0 0 5.734468231736173 3.2828857017408808 0 3.2828857017408808 -0.43377530800775688 0 0 0 0 371.96367401917087 -71.377119823909652 0 -71.377119823909652 13.021001640872782 0 0 0 0 12.029838420479791 53.801770177903563 0 53.801770177903563 319.31714454792473 0 0 0 0 282.27281357249012 365.23285648575711 0 365.23285648575711 233.11958856378988 0 0 0 0 359.89821230381494 418.40974680291947 0 418.40974680291947 100.51955976785212 0 0 0 0 -0.99797650436579488 2.6197106741308289 0 2.6197106741308289 -1.5519898254364861 0 0 0 0 291.98014532550587 299.39061566821056 0 299.39061566821056 66.255704575982236 0 0 0 0 -884.082912861777 356.895178793583 0 356.895178793583 -60.400207687917373 0 0 0 0 373.78562276487355 367.03527286449844 0 367.03527286449844 -59.672261173369407 0 0 0 0 -378.74888162343996 636.36128669725622 0 636.36128669725622 53.812425486984012 0 0 0 0 177.85176096663326 397.38021699735668 0 397.38021699735668 98.408729701966877 0 0 0 0 177.83834755164844 395.82034179106324 0 395.82034179106324 180.40578793013628 0 0 0 0 296.74310728092678 273.17681032864675 0 273.17681032864675 206.39797619176352 0 0 0 0 274.27612068824237 271.93784679322562 0 271.93784679322562 358.46188732607607 0 0 0 0 172.48287911088846 194.19069604471861 0 194.19069604471861 391.1687043501297 0 0 0 0 237.77714983257465 142.84533942794951 0 142.84533942794951 268.54347955241974 0 0 0 0 380.3402377491293 282.27102546489277 0 282.27102546489277 39.928037929672428 0 0 0 0 402.88284448135528 195.3975160271948 0 195.3975160271948 263.20775304579001 0 0 0 0 329.64798283208802 374.49779484454393 0 374.49779484454393 223.44986071590893 0 0 0 0 320.01733516792592 300.62690328148346 0 300.62690328148346 242.3483033659877 0 0 0 0 -24.467814115916951 19.599689341319163 0 19.599689341319163 -13.347481900693346 0 0 0 0 0.95909038452919049 32.784933839736993 0 32.784933839736993 24.624860994024857 0 0 0 0 -17.350336314671551 11.243863411008988 0 11.243863411008988 1.146498996812003 0 0 0 0 5.1461386952723842 61.818886034177012 0 61.818886034177012 42.910439523498098 0 0 0 0 20.33871989211184 36.904993342686794 0 36.904993342686794 22.644893629530998 0 0 0 0 10.508810746903805 28.448002546269663 0 28.448002546269663 -36.909952968614789 0 0 0 0 -42.469264918530826 314.25944475822371 0 314.25944475822371 -3066.3566933709526 0 0 0 0 -6.9191552834963659 -5.3693288698310297 0 -5.3693288698310297 -11.24746333940287 0 0 0 0 16.141286683341605 270.25715916599438 0 270.25715916599438 -1763.2003707396996 0 0 0 0 -19.399428893419099 -8.1306848604565403 0 -8.1306848604565403 -72.692403180017664 0 0 0 0 -647.29211494336778 644.43247224118159 0 644.43247224118159 453.59117685109595 0 0 0 0 -48.468041007465217 153.85074430294571 0 153.85074430294571 845.23638529410073 0 0 0 0 30.88697691418929 406.43045910652791 0 406.43045910652791 311.77944289403786 0 0 0 0 10.47611357292368 18.717039633671504 0 18.717039633671504 -15.951888349747865 0 0 0 0 -110.32282140967436 -596.46039580420802 0 -596.46039580420802 147.26130915931299 0 0 0 0 -4.7221395257184327 5.4317256546887336 0 5.4317256546887336 -8.4807549284943136 0 0 0 0 -642.75853169400943 270.51628632541542 0 270.51628632541542 -73.693170180326888 0 0 0 0 -1489.531709354429 1732.6371826053291 0 1732.6371826053291 -1244.9665493803213 0 0 0 0 -906.85453631906421 1169.6360228257349 0 1169.6360228257349 -3154.1552724289777 0 0 0 0 -181.14532781894286 762.29646629016156 0 762.29646629016156 -1359.3903706826568 0 0 0 0 -955.21913493436296 1450.8879616731406 0 1450.8879616731406 -1796.2414468800666 0 0 0 0 -974.29182169836713 1428.1079978912667 0 1428.1079978912667 -1819.6940240119457 0 0 0 0 -1058.4266224834282 1297.7756720828816 0 1297.7756720828816 -946.2375335780207 0 0 0 0 -5.9350680782369523 2.3260581239997435 0 2.3260581239997435 2.0099353716050086 0 0 0 0 -878.26042467076331 939.14243239428833 0 939.14243239428833 -1345.5616802496234 0 0 0 0 -1078.5914865461091 192.55068764198995 0 192.55068764198995 -865.30801580169191 0 0 0 0 -658.88520222788793 535.44768425360871 0 535.44768425360871 -1130.4898527861515 0 0 0 0 -788.25331018809811 831.10352360236925 0 831.10352360236925 -1562.5249773462865 0 0 0 0 -955.99150978197576 461.09385165504227 0 461.09385165504227 -1420.6383549100319 0 0 0 0 -1458.1776037807867 257.82194318969732 0 257.82194318969732 -1498.1314341633993 0 0 0 0 -1185.0895158945277 1094.6516193922323 0 1094.6516193922323 -1960.9592682385642 0 0 0 0 -473.84386990356143 642.343547132563 0 642.343547132563 -1708.5357712597111 0 0 0 0 -1109.432553514358 401.20961755187523 0 401.20961755187523 -938.54479403038749 0 0 0 0 -277.56114261362649 298.5964189286712 0 298.5964189286712 -925.98306428097021 0 0 0 0 -873.87550560029194 33.116168997558589 0 33.116168997558589 -477.32920134179085 0 0 0 0 -917.90679418055515 512.62622758295242 0 512.62622758295242 -370.60651725659409 0 0 0 0 -994.72048463388637 263.03666956409143 0 263.03666956409143 -815.96857574632986 0 0 0 0 -24.782812568897498 235.01433440261326 0 235.01433440261326 -1731.2313147742248 0 0 0 0 -101.16281226882711 519.55961697069893 0 519.55961697069893 -1210.8420561348148 0 0 0 0 -42.832949990057386 180.1677096409735 0 180.1677096409735 -1897.4825235170085 0 0 0 0 -447.92763600366015 474.96452348957712 0 474.96452348957712 -1044.0795240393372 0 0 0 0 -91.2984132799902 600.58468850654708 0 600.58468850654708 -1837.3918123295366 0 0 0 0 -455.50950442683097 653.18873187362192 0 653.18873187362192 -201.0146882155509 0 0 0 0 -280.73378619814878 811.24687399734 0 811.24687399734 -989.70061735818172 0 0 0 0 0.82056301233205886 695.83770955354157 0 695.83770955354157 -1012.7885539886515 0 0 0 0 56.644081035730778 283.0405855378599 0 283.0405855378599 -1080.2345616845007 0 0 0 0 147.21388551114069 144.01829468346676 0 144.01829468346676 -386.32801679789134 0 0 0 0 200.04608428145002 282.42172504449854 0 282.42172504449854 -1170.7915913566587 0 0 0 0 182.79381654034069 696.69492674350045 0 696.69492674350045 -898.06250658041677 0 0 0 0 -283.98712369786517 434.02163565852425 0 434.02163565852425 -1136.9031469241665 0 0 0 0 -2.6525657385438421 0.8646790976314378 0 0.8646790976314378 -0.030469076620704527 0 0 0 0 272.0547150993807 798.271009456505 0 798.271009456505 -1803.915494475134 0 0 0 0 -7.9380576511030085 20.533060343957914 0 20.533060343957914 -62.577350000793786 0 0 0 0 79.226464490617218 -43.556935081151323 0 -43.556935081151323 -20.514481158563285 0 0 0 0 201.20342140334105 43.880987690792153 0 43.880987690792153 -100.11175291661675 0 0 0 0 15.143415767548504 64.122263897785729 0 64.122263897785729 -99.986068592026641 0 0 0 0 2.064092300747177 33.62726763932902 0 33.62726763932902 -41.231337393821676 0 0 0 0 39.346759543026565 -13.69991235778798 0 -13.69991235778798 -99.131041704301424 0 0 0 0 173.69315671749428 81.533688984789478 0 81.533688984789478 -68.083749983468806 0 0 0 0 59.119691366082407 119.07190710248778 0 119.07190710248778 -32.717862949156142 0 0 0 0 3.0442587108409498 177.17208209155888 0 177.17208209155888 -57.605478438756109 0 0 0 0 127.97796454105992 190.19436529492668 0 190.19436529492668 -89.384346217541406 0 0 0 0 157.20611915240806 142.75112011840417 0 142.75112011840417 -212.26526084317993 0 0 0 0 207.83721015341871 57.628157093914524 0 57.628157093914524 -52.442218699869613 0 0 0 0 -60.151158321416005 512.17751001872318 0 512.17751001872318 374.80435813921758 0 0 0 0 -197.59875206170545 829.74749711035543 0 829.74749711035543 -338.62526015410833 0 0 0 0 133.50670710652776 185.83866665845812 0 185.83866665845812 -64.47270903282606 0 0 0 0 138.58585905814107 213.76517730955345 0 213.76517730955345 40.12760951192422 0 0 0 0 -40.553489145968342 549.62421439834543 0 549.62421439834543 -586.22374640067665 0 0 0 0 300.77868919479806 603.63897392468118 0 603.63897392468118 -585.65452285289302 0 0 0 0 -556.46003995617502 -623.93549491241095 0 -623.93549491241095 -1134.5003592491382 0 0 0 0 29.485321465472225 1017.5402248574537 0 1017.5402248574537 -1177.6006764295205 0 0 0 0 473.71765141953074 134.49473399779072 0 134.49473399779072 -2527.7035974725713 0 0 0 0 -4.5715579629435297 12.413832870518171 0 12.413832870518171 -12.846219240033889 0 0 0 0 781.31879229148763 1023.2210122638985 0 1023.2210122638985 -2089.5999399036218 0 0 0 0 719.45866069867043 -275.98380900650227 0 -275.98380900650227 -1873.2087376918967 0 0 0 0 196.36541144276271 -273.83584740783408 0 -273.83584740783408 -1816.0776570215144 0 0 0 0 117.50821280766104 -628.41592984805266 0 -628.41592984805266 -1348.5911445039001 0 0 0 0 -19.805561789791682 -291.71080681946614 0 -291.71080681946614 -2184.8238457284078 0 0 0 0 455.64829677710077 -633.44579256635188 0 -633.44579256635188 -1941.7360925488283 0 0 0 0 -735.70415062135726 153.0286531472052 0 153.0286531472052 -1922.3455117582271 0 0 0 0 -391.20035331088002 -176.77641458206199 0 -176.77641458206199 -1611.9045442975957 0 0 0 0 -323.56510928513308 1363.9546193335545 0 1363.9546193335545 -194.29995781818025 0 0 0 0 -20.139234237046082 22.805235851036372 0 22.805235851036372 -18.285663075383056 0 0 0 0 160.70338568036095 165.21270560246558 0 165.21270560246558 95.884396668872796 0 0 0 0 206.96900783533056 47.728666003211401 0 47.728666003211401 143.10007274332747 0 0 0 0 244.23279184705098 122.16023659136533 0 122.16023659136533 -15.821897569583598 0 0 0 0 -1213.8186468126733 -144.30580275779266 0 -144.30580275779266 -850.07462799369023 0 0 0 0 -556.27003932517255 1355.4625421742603 0 1355.4625421742603 1657.0671565888379 0 0 0 0 758.97312219755258 476.36650790969361 0 476.36650790969361 -5063.3999336365678 0 0 0 0 -8.3452212924590867 12.120264323416119 0 12.120264323416119 -6.829232134793104 0 0 0 0 -6.7511040547504138 15.780246198804871 0 15.780246198804871 -7.4871618840482288 0 0 0 0 -210.31874712277204 328.40434780948044 0 328.40434780948044 -4013.8824825259517 0 0 0 0 230.93370828244952 599.71291825269145 0 599.71291825269145 2096.5824048599679 0 0 0 0 -66.447301250198507 -188.71547173781164 0 -188.71547173781164 508.75471868240857 0 0 0 0 93.270206281085848 -86.705170571143753 0 -86.705170571143753 135.84931328976199 0 0 0 0 -202.78444448705704 -8.6427132497910861 0 -8.6427132497910861 982.95057461325086 0 0 0 0 -76.204859664227115 176.71382461042595 0 176.71382461042595 486.31051314230353 0 0 0 0 -147.07064228495437 7.0716774120619448 0 7.0716774120619448 726.02356711868197 0 0 0 0 -18.265600430997438 -86.135957704165776 0 -86.135957704165776 604.2447401851532 0 0 0 0 -102.31859507961781 73.626573343923155 0 73.626573343923155 719.19175245462975 0 0 0 0 185.89259205058988 -174.50245547474981 0 -174.50245547474981 907.84014535032111 0 0 0 0 -34.957808390161517 -89.526829033502509 0 -89.526829033502509 927.03767471892934 0 0 0 0 26.50214663999941 104.4428751649998 0 104.4428751649998 779.30611242456507 0 0 0 0 207.40400448165201 -5.4351818558637888 0 -5.4351818558637888 822.43040151465902 0 0 0 0 -22.731275544167858 24.088529680157286 0 24.088529680157286 -13.605694334948815 0 0 0 0 -30.65084790236142 190.3521842284481 0 190.3521842284481 988.13165466363898 0 0 0 0 -9.6638045066501945 58.21314243352208 0 58.21314243352208 -6.9750427465369285 0 0 0 0 12.453647523623658 30.96839562130981 0 30.96839562130981 9.1358870559542993 0 0 0 0 -27.662656622880604 75.838263793386432 0 75.838263793386432 -5.3578651529392118 0 0 0 0 21.456709247951011 15.716589910507381 0 15.716589910507381 3.1774066374263512 0 0 0 0 -34.015983372772098 53.248795193553519 0 53.248795193553519 10.320113811432748 0 0 0 0 43.718437863780835 99.097594781455641 0 99.097594781455641 122.43154150083785 0 0 0 0 -1050.344576022384 64.006390425822246 0 64.006390425822246 -1131.7389344831681 0 0 0 0 786.04627683402214 1598.6517119497221 0 1598.6517119497221 -961.62883473681723 0 0 0 0 -596.10988008986169 98.567299623113286 0 98.567299623113286 -1613.8673140020474 0 0 0 0 4.6524481995215865 4.4078870548384899 0 4.4078870548384899 -2.228585355721588 0 0 0 0 177.04527885920834 78.285053285981121 0 78.285053285981121 -7.8264086578296883 0 0 0 0 219.4177630833874 86.88401572654584 0 86.88401572654584 -86.737798354708502 0 0 0 0 42.045857770252042 84.683771012360921 0 84.683771012360921 59.437804438414332 0 0 0 0 173.84749276942239 63.272040885948741 0 63.272040885948741 -36.089557475128458 0 0 0 0 98.089994616748299 57.625709926776835 0 57.625709926776835 -35.130835487202603 0 0 0 0 66.573613930857391 17.361855018744791 0 17.361855018744791 -60.998528418973365 0 0 0 0 196.1470506832411 -10.280879539305715 0 -10.280879539305715 -45.219522972758568 0 0 0 0 231.40850364077778 81.129483762507334 0 81.129483762507334 -133.91436332076046 0 0 0 0 250.48123301671149 48.836839994061393 0 48.836839994061393 -79.609034187042198 0 0 0 0 662.84004326624927 -271.85150483960024 0 -271.85150483960024 50.291526996450557 0 0 0 0 518.10328115019365 29.306098792318153 0 29.306098792318153 -124.58009218945608 0 0 0 0 162.10745990909345 -78.957805002231908 0 -78.957805002231908 14.587593423646467 0 0 0 0 62.595057208253706 128.99319125120726 0 128.99319125120726 130.77837329445845 0 0 0 0 3.2843543762213301 7.4319806542547155 0 7.4319806542547155 8.1477311829384078 0 0 0 0 -908.39798605247051 504.01634787419061 0 504.01634787419061 104.40382384529948 0 0 0 0 -569.93506085878471 904.61661464788631 0 904.61661464788631 308.8409778917212 0 0 0 0 -27.783675372819474 662.68820211580623 0 662.68820211580623 396.45857531745787 0 0 0 0 -22.677064738429152 -315.13000788043314 0 -315.13000788043314 187.55535735086596 0 0 0 0 17.724766879581011 14.303374245352842 0 14.303374245352842 9.6867654680155368 0 0 0 0 475.61302178428741 796.74894067925197 0 796.74894067925197 -1228.565625399191 0 0 0 0 79.370802811856265 77.111119787932694 0 77.111119787932694 -67.846548555558684 0 0 0 0 41.000972449633991 26.858318829050404 0 26.858318829050404 -9.7144350157914232 0 0 0 0 54.983550595353478 106.31192006550914 0 106.31192006550914 125.00261252265688 0 0 0 0 23.203674273681827 272.8919464074097 0 272.8919464074097 -237.57600814309262 0 0 0 0 -1079.975944894024 -125.29686053817841 0 -125.29686053817841 -390.75911737050774 0 0 0 0 -85.699576700139005 140.42118769313856 0 140.42118769313856 143.18638190017373 0 0 0 0 -41.784450481645763 141.22236394885113 0 141.22236394885113 143.14408399714421 0 0 0 0 -90.442201355755969 139.54133093532073 0 139.54133093532073 256.30044524848199 0 0 0 0 -94.127876160906453 86.696950426704461 0 86.696950426704461 283.17950066874619 0 0 0 0 0.0089945220533991233 306.68628334688765 0 306.68628334688765 616.94261292966985 0 0 0 0 -27.48970028621261 136.52430426492901 0 136.52430426492901 251.5190357065585 0 0 0 0 -73.357223393839377 196.812878635159 0 196.812878635159 346.29465105500822 0 0 0 0 6.1537538515985943 186.63682980729573 0 186.63682980729573 271.17910953962928 0 0 0 0 82.520163578570646 216.08402948636285 0 216.08402948636285 280.6825946850222 0 0 0 0 -36.522177933279409 12.932098693701647 0 12.932098693701647 7.5978283694254856 0 0 0 0 110.92094856646145 173.88312636621686 0 173.88312636621686 155.88175574200432 0 0 0 0 -47.412233277660562 27.908881802512042 0 27.908881802512042 61.435173903824762 0 0 0 0 -32.057710621753358 61.860569048103571 0 61.860569048103571 94.884969028909836 0 0 0 0 -61.527191426659556 42.868981244089809 0 42.868981244089809 50.851363726476848 0 0 0 0 -41.816991634041685 8.3444616063185464 0 8.3444616063185464 62.148118127819842 0 0 0 0 -12.276316187620978 49.101640091023 0 49.101640091023 56.956623124975522 0 0 0 0 -28.274608889349878 24.467405272257366 0 24.467405272257366 1.0207854991773182 0 0 0 0 -66.530632293710994 24.025037087745275 0 24.025037087745275 52.015970619636249 0 0 0 0 -16.561901270160888 50.411635429700937 0 50.411635429700937 86.70663602364948 0 0 0 0 -17.508302887998397 -4.7178787129428059 0 -4.7178787129428059 6.3634504018226892 0 0 0 0 -88.59900549838494 -44.403509767656942 0 -44.403509767656942 97.604085009968912 0 0 0 0 423.75717828301276 363.38066486877506 0 363.38066486877506 269.10335715509063 0 0 0 0 -84.392093806291086 218.7181446109862 0 218.7181446109862 309.04485181275231 0 0 0 0 -29.474509503914305 202.89016220668054 0 202.89016220668054 281.32178350080358 0 0 0 0 9.2642454948691011 194.39885896875785 0 194.39885896875785 347.09289808993708 0 0 0 0 19.882622239179909 305.99125254924729 0 305.99125254924729 386.67688036748586 0 0 0 0 60.118473756912863 309.20409034306067 0 309.20409034306067 139.5825855821131 0 0 0 0 -104.2083595716249 276.28979512261503 0 276.28979512261503 288.19006858200373 0 0 0 0 -269.29159788942968 312.65019361900977 0 312.65019361900977 180.24313174760027 0 0 0 0 -80.881630265965214 181.14831804125788 0 181.14831804125788 270.87155501498637 0 0 0 0 -88.095456634859147 115.15638792821119 0 115.15638792821119 287.52398680830879 0 0 0 0 -59.16099606698117 82.601728739602549 0 82.601728739602549 262.79108203063515 0 0 0 0 17.37125270319666 132.02503196288671 0 132.02503196288671 270.16569967913892 0 0 0 0 -85.943573762036976 127.36122915511805 0 127.36122915511805 263.05234822207422 0 0 0 0 -68.874379332417448 108.77634783650137 0 108.77634783650137 279.2736264683881 0 0 0 0 -137.75285933615669 133.93160376521337 0 133.93160376521337 284.67347296389926 0 0 0 0 -98.591240936875693 101.07325145345385 0 101.07325145345385 287.83932319283178 0 0 0 0 -81.115476036567998 189.27380796976286 0 189.27380796976286 173.39650463705402 0 0 0 0 -73.93437148380508 111.65974353526235 0 111.65974353526235 243.96350088658073 0 0 0 0 -33.938504143065074 132.2902555652563 0 132.2902555652563 27.883131084498018 0 0 0 0 -75.455951166979048 152.45308275894809 0 152.45308275894809 251.41548718000558 0 0 0 0 4.3572576855221996 320.67513722095464 0 320.67513722095464 150.07492303020626 0 0 0 0 -21.799511005814566 183.02243228611042 0 183.02243228611042 265.32921512393114 0 0 0 0 -14.167055972571234 247.94730445762707 0 247.94730445762707 307.19086166708439 0 0 0 0 70.39452936730595 233.74172257404825 0 233.74172257404825 212.23043822986801 0 0 0 0 241.34677324057702 240.1297975014495 0 240.1297975014495 205.0432324443027 0 0 0 0 101.46108219602138 471.53167423800187 0 471.53167423800187 534.79138619001606 0 0 0 0 -1.0324240706188306 5.8841717168023138 0 5.8841717168023138 -2.4665476120565515 0 0 0 0 -108.61018728080307 414.57203430331538 0 414.57203430331538 1079.2521103943654 0 0 0 0 65.730012801521298 312.38451848107707 0 312.38451848107707 -103.87893640547554 0 0 0 0 26.913376237025659 170.06435301336751 0 170.06435301336751 -167.12120653168677 0 0 0 0 383.99705287963479 -6.6450012667919509 0 -6.6450012667919509 -1689.0573039620031 0 0 0 0 -171.58151686748897 273.89845609222721 0 273.89845609222721 -65.089875545032555 0 0 0 0 -56.391156602108822 286.23230282193254 0 286.23230282193254 -37.496594999893205 0 0 0 0 -13.425489162909798 212.32399658585564 0 212.32399658585564 -77.487280076391471 0 0 0 0 42.774986153286591 224.97020496747427 0 224.97020496747427 -97.358083070294015 0 0 0 0 -553.80227940408076 681.67136010663944 0 681.67136010663944 53.370485232442661 0 0 0 0 38.757114549473471 109.26235110026347 0 109.26235110026347 98.817765168470146 0 0 0 0 -147.07303077461256 -299.63242206598898 0 -299.63242206598898 1279.0168476803956 0 0 0 0 36.397053281660192 1087.6760770547407 0 1087.6760770547407 -684.55780673161985 0 0 0 0 -3.2349621644856938 8.2386926241627521 0 8.2386926241627521 5.2213258766819663 0 0 0 0 -1363.198799636637 460.0810722048227 0 460.0810722048227 -823.28687132843697 0 0 0 0 -239.50830034766113 319.02739807049329 0 319.02739807049329 -630.37451183021403 0 0 0 0 41.794450388872065 79.82032374397204 0 79.82032374397204 323.01488105506178 0 0 0 0 -24.139017925051576 18.067472371797358 0 18.067472371797358 -9.3297892368688089 0 0 0 0 -294.91279055934865 439.66943101958896 0 439.66943101958896 685.93873632718714 0 0 0 0 -87.887171033311461 -39.505086582037165 0 -39.505086582037165 920.70747306758494 0 0 0 0 -571.42077613831498 406.52225384909161 0 406.52225384909161 1282.7360269074707 0 0 0 0 -523.33119991692365 53.483440845478981 0 53.483440845478981 1456.863145586427 0 0 0 0 -35.914828932203818 84.680770587019651 0 84.680770587019651 -82.992015174171684 0 0 0 0 404.1213880033938 62.085158191469873 0 62.085158191469873 -244.60588053160245 0 0 0 0 14.042356082478364 122.90657079325956 0 122.90657079325956 -290.49504845591582 0 0 0 0 -32.69317114234957 28.027935570340439 0 28.027935570340439 17.62637272627191 0 0 0 0 92.741656317766683 311.69802453498414 0 311.69802453498414 -763.56475333182971 0 0 0 0 114.96207433431482 199.63665440992827 0 199.63665440992827 -253.42328006859316 0 0 0 0 46.880236548313405 -203.23120066199954 0 -203.23120066199954 -462.62010071981967 0 0 0 0 -12.014871883722662 531.16083414973582 0 531.16083414973582 -431.28414394602441 0 0 0 0 -88.071383688235073 812.95548921862519 0 812.95548921862519 -1381.523052693803 0 0 0 0 -45.503994375504305 199.84299533754316 0 199.84299533754316 -30.064812063847057 0 0 0 0 102.55341509241407 158.66995351960941 0 158.66995351960941 -71.476554838004631 0 0 0 0 3.8978378957256297 121.27747256066596 0 121.27747256066596 -28.416645143602317 0 0 0 0 13.279384862646111 143.17983901806474 0 143.17983901806474 25.096255418327928 0 0 0 0 1.9517016952580946 12.309353785422289 0 12.309353785422289 -34.929625450151875 0 0 0 0 114.59130339030526 280.2524770035634 0 280.2524770035634 -360.24910187417117 0 0 0 0 63.617219600537283 176.57072202302129 0 176.57072202302129 -319.92698927411402 0 0 0 0 180.88312008202774 249.64494272759384 0 249.64494272759384 -286.58175285462494 0 0 0 0 -161.23343794823631 247.67313955750478 0 247.67313955750478 -205.82987101863182 0 0 0 0 -51.689162695020059 170.7660731609285 0 170.7660731609285 -199.10798741470171 0 0 0 0 -59.68913483749202 124.1163158348354 0 124.1163158348354 -41.846310938009083 0 0 0 0 -138.98827665738554 76.843641987278261 0 76.843641987278261 37.60298539694486 0 0 0 0 -177.63639999094448 159.68922476292846 0 159.68922476292846 -37.674157095076225 0 0 0 0 -91.718911887670401 68.894620239912001 0 68.894620239912001 -13.517601879266294 0 0 0 0 -43.676554794735523 92.365785569174449 0 92.365785569174449 -6.7455106223969779 0 0 0 0 -64.32027445111089 46.132955357210449 0 46.132955357210449 2.9525704547113492 0 0 0 0 -199.54312176516578 259.61424648642424 0 259.61424648642424 -120.60995760231162 0 0 0 0 -166.04742675384477 100.01017336295661 0 100.01017336295661 252.44660789576665 0 0 0 0 78.914596585826075 66.419319387944597 0 66.419319387944597 -63.391798763301267 0 0 0 0 41.573164944024029 235.00837318518643 0 235.00837318518643 246.04695692633868 0 0 0 0 -0.59622002196051938 5.9049625658980922 0 5.9049625658980922 -8.1901412417150468 0 0 0 0 171.15867664022153 159.76462384880324 0 159.76462384880324 -13.163023486952397 0 0 0 0 192.27625603073102 20.609008925921444 0 20.609008925921444 -20.374348133354943 0 0 0 0 -60.936100768296455 65.534763565225148 0 65.534763565225148 -28.842028917775679 0 0 0 0 -1.7001112134722263 118.52199952996077 0 118.52199952996077 -49.617493240031983 0 0 0 0 32.742485692670925 -63.113329990973398 0 -63.113329990973398 -240.48219896612318 0 0 0 0 -154.03088783017665 0.99126034236178384 0 0.99126034236178384 -570.04769020319509 0 0 0 0 -135.72677924361778 123.21384500955901 0 123.21384500955901 -50.544362787306454 0 0 0 0 -12.157649933887555 20.788852640643299 0 20.788852640643299 -7.4538797569833903 0 0 0 0 75.25462074778261 -24.443802427165792 0 -24.443802427165792 -867.26754012360107 0 0 0 0 -5.6522793013019879 14.356434257729632 0 14.356434257729632 -5.4395485702898547 0 0 0 0 -147.90458047614084 297.07346801367748 0 297.07346801367748 740.46945588560811 0 0 0 0 196.0302493073068 -23.866635913091159 0 -23.866635913091159 -1215.2696598516777 0 0 0 0 235.40383280644892 61.497802135374513 0 61.497802135374513 475.35194063252857 0 0 0 0 -284.09930003531917 32.291567377789761 0 32.291567377789761 -452.31361166130955 0 0 0 0 -2.8600638364334543 118.76651400179405 0 118.76651400179405 -52.419508930183412 0 0 0 0 19.276392672207294 208.33369712560489 0 208.33369712560489 52.128059446712541 0 0 0 0 -29.50634560341814 217.54408313126964 0 217.54408313126964 83.068551305284927 0 0 0 0 -34.067390327060821 203.15217009186017 0 203.15217009186017 51.65026862527975 0 0 0 0 -0.84858459814763876 181.05115158810531 0 181.05115158810531 146.68961571428008 0 0 0 0 -11.39411307813134 211.32372240690893 0 211.32372240690893 117.02104722520744 0 0 0 0 -0.72083361111799604 204.76179070562648 0 204.76179070562648 82.313860829821351 0 0 0 0 -50.539646772436754 262.76621836337472 0 262.76621836337472 97.956717938082875 0 0 0 0 -23.781203286021992 221.01672020091428 0 221.01672020091428 159.99797052241775 0 0 0 0 67.444815565711906 94.151972927228599 0 94.151972927228599 262.61803919329395 0 0 0 0 128.23653699714669 196.77855660387286 0 196.77855660387286 2.4933459999156184 0 0 0 0 123.68554564758233 142.16467871567693 0 142.16467871567693 69.406568349366353 0 0 0 0 124.11292717097558 128.92195155814989 0 128.92195155814989 135.46874970236604 0 0 0 0 92.119722695464134 320.60553868296915 0 320.60553868296915 64.935486400227092 0 0 0 0 226.65551759395385 233.51551908367037 0 233.51551908367037 132.19366207897059 0 0 0 0 -0.51124455646126421 6.4281889164220249 0 6.4281889164220249 -8.8253835411469623 0 0 0 0 198.26725442122188 24.615510107175396 0 24.615510107175396 -489.5298283965094 0 0 0 0 1.1750752924366878 117.91265058977081 0 117.91265058977081 -50.037624672468482 0 0 0 0 36.957286446337093 -103.09999890652762 0 -103.09999890652762 21.546204043243051 0 0 0 0 8.3526790793530381 -8.681942145793073 0 -8.681942145793073 -620.58042393493088 0 0 0 0 -75.711354679689975 -19.362036163412995 0 -19.362036163412995 -568.02464027749738 0 0 0 0 -41.801179890437197 -20.558575850049237 0 -20.558575850049237 -479.899180493725 0 0 0 0 1.9770801435897383 117.6818880186546 0 117.6818880186546 -49.780619768904927 0 0 0 0 1.8320564601470082 3.3964452237765581 0 3.3964452237765581 -6.1072501582183705 0 0 0 0 -82.875075591740824 311.94315720461236 0 311.94315720461236 246.60880617301291 0 0 0 0 108.97495321579709 150.34119841142228 0 150.34119841142228 -393.12903173485756 0 0 0 0 -136.94272160078617 428.21164570856308 0 428.21164570856308 57.767852434246379 0 0 0 0 46.937244189413832 430.2137394466863 0 430.2137394466863 -340.14468039996063 0 0 0 0 -252.97554405258779 389.69186333710968 0 389.69186333710968 -348.00179938504425 0 0 0 0 347.07651701482337 -36.911387349129654 0 -36.911387349129654 -344.95667194665293 0 0 0 0 26.271475605335581 130.0786434034344 0 130.0786434034344 211.73126809779387 0 0 0 0 49.424007255723154 243.73945854592966 0 243.73945854592966 38.010444494972035 0 0 0 0 -31.67420471960304 -2.5558588810890797 0 -2.5558588810890797 -347.6415363766464 0 0 0 0 4.0072374107074431 115.42363177511204 0 115.42363177511204 -46.867580128113474 0 0 0 0 -5.001510719513135 255.45421798942698 0 255.45421798942698 -35.603935284656473 0 0 0 0 149.8706673720103 251.85424333999526 0 251.85424333999526 -38.592182029980904 0 0 0 0 -1505.7262585265944 281.4340623153148 0 281.4340623153148 410.95581917390518 0 0 0 0 -206.10754452209585 -45.478383614201448 0 -45.478383614201448 -186.68476526650193 0 0 0 0 -96.678750335016957 184.44251081377297 0 184.44251081377297 -15.214927148714196 0 0 0 0 187.10476225882303 35.943055695650401 0 35.943055695650401 -180.44672103483754 0 0 0 0 -91.299400940498799 -71.091621301646228 0 -71.091621301646228 103.97310875852418 0 0 0 0 -277.45107410938363 1104.5062821381071 0 1104.5062821381071 166.42199330381118 0 0 0 0 766.81082349619101 1153.7404495792871 0 1153.7404495792871 32.732121603999985 0 0 0 0 922.85986207928954 -147.21496426096064 0 -147.21496426096064 44.483209000056377 0 0 0 0 100.72038364673426 -14.324433025347389 0 -14.324433025347389 395.99704601290796 0 0 0 0 -15.766405331378337 16.132816407309292 0 16.132816407309292 -436.86123815508108 0 0 0 0 104.35191833655335 -204.02718477062263 0 -204.02718477062263 643.05333294390584 0 0 0 0 -28.295596507631075 30.109617613708764 0 30.109617613708764 -9.9503396353275306 0 0 0 0 191.80826607906056 -135.14144909972674 0 -135.14144909972674 252.50081162051356 0 0 0 0 231.60301001821426 116.28844209826639 0 116.28844209826639 -26.405298385689093 0 0 0 0 260.03771236135435 25.218958272180316 0 25.218958272180316 151.37496680679033 0 0 0 0 2.359342895710391 -1.7008066728778886 0 -1.7008066728778886 0.015635016488204201 0 0 0 0 378.17308061399285 405.25611726954145 0 405.25611726954145 328.22666986999684 0 0 0 0 -218.02413060334584 -96.686648053786485 0 -96.686648053786485 135.76012579926464 0 0 0 0 387.14634879503865 122.9148247842968 0 122.9148247842968 225.88192197604076 0 0 0 0 -6.5450853726433706 88.157261689484585 0 88.157261689484585 377.95086382655427 0 0 0 0 107.01142627050103 387.5386159031541 0 387.5386159031541 526.96384307547851 0 0 0 0 -189.97556172627083 26.844804489286616 0 26.844804489286616 384.7510088908748 0 0 0 0 -19.004744812580455 25.713244022289473 0 25.713244022289473 -8.8048271063132759 0 0 0 0 194.70579436683329 90.62405176248285 0 90.62405176248285 535.67494437962159 0 0 0 0 -74.374478187266504 168.83115698773327 0 168.83115698773327 518.52352766780677 0 0 0 0 -44.388259021116028 31.867498019322738 0 31.867498019322738 114.30960003555811 0 0 0 0 -54.546293586565298 -22.321436318565247 0 -22.321436318565247 -50.224254937667865 0 0 0 0 -40.052727157024492 55.297485833667452 0 55.297485833667452 122.27983903531094 0 0 0 0 -1.1802663003487766 10.033586013462113 0 10.033586013462113 -7.4873878824686813 0 0 0 0 7.8923494288865186 55.598055133256821 0 55.598055133256821 -25.624983229216014 0 0 0 0 121.64405696186077 200.95299545535818 0 200.95299545535818 263.04722826685247 0 0 0 0 -3.495220021283572 12.301423079552734 0 12.301423079552734 -8.1112228946282343 0 0 0 0 102.74490981671261 159.32571803734209 0 159.32571803734209 187.34345139867946 0 0 0 0 121.32706423601303 148.47228723263288 0 148.47228723263288 156.39799220527493 0 0 0 0 21.04454821064428 43.812707163448067 0 43.812707163448067 -48.04307395809235 0 0 0 0 -55.698919654406382 15.156242205773196 0 15.156242205773196 41.705843111121794 0 0 0 0 -0.35795884474413242 -1.1673591311608362 0 -1.1673591311608362 6.3241389976707296 0 0 0 0 306.83448249285721 127.00783801400758 0 127.00783801400758 -32.603760059413617 0 0 0 0 305.7195492377723 221.62037540943857 0 221.62037540943857 5.6006024388952937 0 0 0 0 138.47572418136406 258.1438144461863 0 258.1438144461863 -86.922960845440684 0 0 0 0 134.94115923602294 22.737075296612602 0 22.737075296612602 -100.89215241181955 0 0 0 0 120.56945658275072 162.37856994001777 0 162.37856994001777 166.94181693548308 0 0 0 0 126.50770642186035 15.488170404607445 0 15.488170404607445 148.09782031038776 0 0 0 0 -111.11315228155581 297.67424886402296 0 297.67424886402296 358.07859739242849 0 0 0 0 -5.8122468484937215 6.5425755531492484 0 6.5425755531492484 -2.1233904254856739 0 0 0 0 -51.551157086094463 105.95730489851121 0 105.95730489851121 -196.33355353620573 0 0 0 0 -84.797210202636052 109.51597324333852 0 109.51597324333852 114.91427385321731 0 0 0 0 -605.48591921660227 67.522484545795123 0 67.522484545795123 -0.98943470392259769 0 0 0 0 1.5641450390600795 3.5376553809936979 0 3.5376553809936979 -2.5072683269822988 0 0 0 0 198.92154574625602 -120.03690374119833 0 -120.03690374119833 -405.76091862596149 0 0 0 0 234.03760257578324 332.92745756900149 0 332.92745756900149 262.71736693262574 0 0 0 0 158.6004250604492 531.19230970202261 0 531.19230970202261 801.20409170629136 0 0 0 0 4.0540724074107857 470.27707144216947 0 470.27707144216947 265.54503137002757 0 0 0 0 -66.124126688811884 145.79725575302746 0 145.79725575302746 250.71801504748873 0 0 0 0 221.67416644282639 129.46832411091236 0 129.46832411091236 251.23732574569294 0 0 0 0 -32.525370133897923 43.866133519856248 0 43.866133519856248 330.52419183200982 0 0 0 0 -46.641846146953867 52.620923531344488 0 52.620923531344488 328.50783577109542 0 0 0 0 -106.19589442857978 201.04004860415444 0 201.04004860415444 521.61198987621901 0 0 0 0 40.283573160337255 117.30328575521889 0 117.30328575521889 131.32471998050096 0 0 0 0 39.490882585709187 69.732048428666531 0 69.732048428666531 -19.773869021577411 0 0 0 0 70.604689431287625 29.921889137804101 0 29.921889137804101 -80.80996346970278 0 0 0 0 1.1398696371348649 7.4725719926376399 0 7.4725719926376399 -5.4521127292339671 0 0 0 0 235.02942114393227 391.65124404693415 0 391.65124404693415 490.29509250463525 0 0 0 0 170.83488040601515 229.63351183419149 0 229.63351183419149 253.23629554535728 0 0 0 0 160.75696416928258 271.28302648335739 0 271.28302648335739 334.1871730761286 0 0 0 0 152.58273562565955 289.27249229464542 0 289.27249229464542 438.33294531523279 0 0 0 0 220.1972194207865 263.92491496474941 0 263.92491496474941 186.8663449136875 0 0 0 0 185.0352868043301 244.8066293950551 0 244.8066293950551 419.82242666776438 0 0 0 0 140.40925639999841 311.47371431277497 0 311.47371431277497 389.04969958277616 0 0 0 0 160.60259261298052 234.10225849328526 0 234.10225849328526 195.6909719007017 0 0 0 0 79.302024900036486 198.42008871015059 0 198.42008871015059 109.58682960404258 0 0 0 0 159.58265389751978 269.56672440212969 0 269.56672440212969 62.6425729148541 0 0 0 0 131.43042730438901 208.42278398861527 0 208.42278398861527 -67.054568682418903 0 0 0 0 124.79793174287624 181.51135481116398 0 181.51135481116398 57.659215450723423 0 0 0 0 149.69915467084502 144.79099095931451 0 144.79099095931451 70.826311925491609 0 0 0 0 139.4988559161211 131.24671641527675 0 131.24671641527675 52.860455711130271 0 0 0 0 165.33896811259183 228.51588460307903 0 228.51588460307903 89.241595075543955 0 0 0 0 186.27649452403239 210.65651482269459 0 210.65651482269459 104.45142364053027 0 0 0 0 145.63341073231277 251.33008976435667 0 251.33008976435667 188.35161271491143 0 0 0 0 210.53388895510579 267.2482535075651 0 267.2482535075651 167.8606700211094 0 0 0 0 173.57625683085644 258.76076281566202 0 258.76076281566202 259.86120997283615 0 0 0 0 183.29927281462278 250.66135635190267 0 250.66135635190267 208.94135681562329 0 0 0 0 186.80593598320411 238.86255887683365 0 238.86255887683365 193.39127646593261 0 0 0 0 182.14149723040646 224.44263145462173 0 224.44263145462173 192.9487991841379 0 0 0 0 185.22931240127309 243.22487119376001 0 243.22487119376001 184.18309286571457 0 0 0 0 183.74526964708639 240.87821232189162 0 240.87821232189162 193.75525797036516 0 0 0 0 166.39029785824823 204.946587545277 0 204.946587545277 153.1833503008329 0 0 0 0 144.61869703525736 185.14065774741175 0 185.14065774741175 148.58339004353184 0 0 0 0 193.042127861685 211.40003795608209 0 211.40003795608209 108.99810566732049 0 0 0 0 201.01782506290692 244.57226847685888 0 244.57226847685888 167.74633917210303 0 0 0 0 167.74508368034003 202.11618706726586 0 202.11618706726586 158.55309587655574 0 0 0 0 108.24413683106468 142.27184399238104 0 142.27184399238104 157.14690540830634 0 0 0 0 178.97694155138379 228.45754777699585 0 228.45754777699585 189.69139803684811 0 0 0 0 185.86427678804466 225.02119853457771 0 225.02119853457771 185.88188121132407 0 0 0 0 146.10581580785765 194.50993480785382 0 194.50993480785382 224.9915091231378 0 0 0 0 182.24949644545995 194.16377765870129 0 194.16377765870129 219.01981113063084 0 0 0 0 146.03620647453135 194.30888351070735 0 194.30888351070735 227.79120215513831 0 0 0 0 107.47134026869389 190.87967930646482 0 190.87967930646482 313.2209235159462 0 0 0 0 96.941859485392342 134.06896953591058 0 134.06896953591058 192.04298597808975 0 0 0 0 68.754795992932486 125.42305285479779 0 125.42305285479779 235.59131773959962 0 0 0 0 81.376736535523378 125.11443759204849 0 125.11443759204849 207.12614219869556 0 0 0 0 38.914960815527593 81.251845212205808 0 81.251845212205808 179.71570835641342 0 0 0 0 56.685105619279057 66.619981226584059 0 66.619981226584059 169.53515282479202 0 0 0 0 92.107706087474071 89.735412850110151 0 89.735412850110151 129.80970891730612 0 0 0 0 35.63133659169398 52.03221801215841 0 52.03221801215841 163.22927339634043 0 0 0 0 54.814014080878223 23.057831613746202 0 23.057831613746202 62.940052201804065 0 0 0 0 41.764557595910446 39.150290596782725 0 39.150290596782725 129.93273550763115 0 0 0 0 3.2112569504024577 -16.753662673418148 0 -16.753662673418148 135.02682438914053 0 0 0 0 61.337399745796574 49.33688441652339 0 49.33688441652339 135.15169749567576 0 0 0 0 110.62370155625348 126.05385344778512 0 126.05385344778512 84.066406258425559 0 0 0 0 110.86058563674769 98.239368609052988 0 98.239368609052988 -42.301001505475142 0 0 0 0 38.732295389359933 4.5829527351452271 0 4.5829527351452271 46.245122049531346 0 0 0 0 74.84740665019126 59.973774543717809 0 59.973774543717809 86.586580552648229 0 0 0 0 120.92737294166363 138.72572156492242 0 138.72572156492242 99.40531745111366 0 0 0 0 -144.6946184828048 114.44346463050169 0 114.44346463050169 -80.66381401388935 0 0 0 0 1.650328927647351 -0.73518098561592637 0 -0.73518098561592637 -2.2102153122479109 0 0 0 0 -18.279280998263857 21.147865541432111 0 21.147865541432111 4.4206296018965077 0 0 0 0 3.4870780713613385 -0.78510005313250986 0 -0.78510005313250986 -9.547367191502417 0 0 0 0 156.68819747088492 174.23384899235316 0 174.23384899235316 113.44329887231561 0 0 0 0 85.210265322517444 118.10632607470325 0 118.10632607470325 126.44434500560601 0 0 0 0 -1.4640140830644484 1.9420965850706722 0 1.9420965850706722 -0.16549518473289027 0 0 0 0 138.94137700109059 306.80206845555222 0 306.80206845555222 74.51243304334389 0 0 0 0 225.12506979689897 196.02761667944469 0 196.02761667944469 81.196174536788021 0 0 0 0 160.68563490672386 242.39137283221498 0 242.39137283221498 178.18930591685967 0 0 0 0 161.88185358537521 211.87174416512789 0 211.87174416512789 162.77476974451383 0 0 0 0 148.61223413857442 210.22657881689975 0 210.22657881689975 172.46082410378585 0 0 0 0 127.80067933500322 173.45636780698987 0 173.45636780698987 145.27222065460228 0 0 0 0 142.48083772551399 209.3838397620093 0 209.3838397620093 211.43265893649368 0 0 0 0 162.22642631821145 220.74711573257082 0 220.74711573257082 180.86796417468577 0 0 0 0 167.9451794234119 236.91861268785942 0 236.91861268785942 198.34373315513949 0 0 0 0 178.44989296385029 239.6337626019922 0 239.6337626019922 182.28248713300854 0 0 0 0 159.02608909263745 229.86199070946236 0 229.86199070946236 188.53249625713943 0 0 0 0 185.48561670468916 223.37514375563114 0 223.37514375563114 187.16765020303865 0 0 0 0 172.5503618250641 216.73737470699325 0 216.73737470699325 233.75843175967748 0 0 0 0 187.96445192654937 221.06498439684583 0 221.06498439684583 189.35330081008215 0 0 0 0 177.19049491406986 195.790265665898 0 195.790265665898 296.90607905115758 0 0 0 0 166.23245736811987 146.31251787368637 0 146.31251787368637 350.11598918616801 0 0 0 0 214.20387891813152 194.69984739767096 0 194.69984739767096 230.88691002767018 0 0 0 0 112.42125659324665 210.14338912035055 0 210.14338912035055 275.50225985444558 0 0 0 0 111.8069802978107 213.53634778427431 0 213.53634778427431 361.47145639587688 0 0 0 0 136.76750392432587 137.93860586598021 0 137.93860586598021 350.01743967657274 0 0 0 0 156.98114010593054 243.89443444931749 0 243.89443444931749 207.09774900282355 0 0 0 0 179.78462138303803 203.01099762819831 0 203.01099762819831 243.83860764319252 0 0 0 0 151.91547084450212 250.90997152127056 0 250.90997152127056 234.45576258547226 0 0 0 0 89.428541878249234 280.94617509094314 0 280.94617509094314 238.47077746210789 0 0 0 0 31.511341747875122 231.04082103581823 0 231.04082103581823 405.76285168111644 0 0 0 0 24.696952070724365 243.84172438331007 0 243.84172438331007 420.87661765368512 0 0 0 0 63.636069232674345 309.36400285443415 0 309.36400285443415 409.64680071281327 0 0 0 0 28.196268229483394 390.60089749757753 0 390.60089749757753 476.63336268909916 0 0 0 0 114.88675427013732 206.89684806916921 0 206.89684806916921 555.85923914373961 0 0 0 0 14.318926736481444 296.42906245114136 0 296.42906245114136 571.11829488639341 0 0 0 0 113.39086740947278 310.42575561129706 0 310.42575561129706 232.94897426196985 0 0 0 0 2.4497790380282822 302.5014245690254 0 302.5014245690254 235.71088806356056 0 0 0 0 40.656653127400205 80.406550797035379 0 80.406550797035379 565.41972950533818 0 0 0 0 1.2387660687036259 139.61697289428594 0 139.61697289428594 491.33014136424026 0 0 0 0 -17.609864362326334 98.849170596622571 0 98.849170596622571 404.8013178193869 0 0 0 0 56.482509965426374 18.120506270642672 0 18.120506270642672 6.1164983719628339 0 0 0 0 -865.37668071885491 -141.17472389712202 0 -141.17472389712202 419.04810657688813 0 0 0 0 293.55942036237229 -352.91249475306904 0 -352.91249475306904 -610.99016251172725 0 0 0 0 271.06864063267858 219.74612210838677 0 219.74612210838677 -47.2355624913871 0 0 0 0 357.71879253436919 -89.526920653988782 0 -89.526920653988782 -9.790945321561594 0 0 0 0 88.465843851128639 25.91753376812963 0 25.91753376812963 -10.057558018009704 0 0 0 0 45.933016893422973 41.625429375347267 0 41.625429375347267 142.10416626404185 0 0 0 0 -6.4969272468078998 188.75590771884526 0 188.75590771884526 459.37820544583519 0 0 0 0 40.525909619018421 110.2612327323186 0 110.2612327323186 434.64607974144747 0 0 0 0 85.264822625424131 232.60325311128327 0 232.60325311128327 338.64402726969274 0 0 0 0 79.913709088929863 215.15704517560835 0 215.15704517560835 625.69369898065634 0 0 0 0 351.06449218920898 460.1656465549604 0 460.1656465549604 132.56699766556267 0 0 0 0 242.7507117128589 20.997976475053292 0 20.997976475053292 472.73092276319949 0 0 0 0 350.83282103613601 172.60198727376701 0 172.60198727376701 284.94441580841521 0 0 0 0 191.10448609573814 -119.63157893832431 0 -119.63157893832431 -189.70969257390971 0 0 0 0 61.060077063735662 82.242767636254939 0 82.242767636254939 54.723615817310929 0 0 0 0 7.8275654815978157 18.081082408706237 0 18.081082408706237 16.746183002153785 0 0 0 0 -21.758317345491378 -58.790053544929833 0 -58.790053544929833 -302.68005206236558 0 0 0 0 117.46576614321839 244.85233855807928 0 244.85233855807928 146.52295438788133 0 0 0 0 562.31865554826209 161.61960082896985 0 161.61960082896985 -298.79570183980104 0 0 0 0 -7.239018325127816 54.206603092486944 0 54.206603092486944 -68.425833690919376 0 0 0 0 205.65616621283971 374.32645390398466 0 374.32645390398466 -98.110837130661821 0 0 0 0 69.239376900935895 383.17731177740097 0 383.17731177740097 -62.104310160430032 0 0 0 0 134.95279788569951 227.45775865560063 0 227.45775865560063 -221.36726114738849 0 0 0 0 236.81006177357449 99.924717371643055 0 99.924717371643055 -716.76880292905844 0 0 0 0 204.42588870621057 -24.033465013719251 0 -24.033465013719251 -218.10726607355173 0 0 0 0 441.78622236899264 725.56416614850605 0 725.56416614850605 -232.14202722915797 0 0 0 0 255.70975720446859 46.075291164139344 0 46.075291164139344 -335.86271954386757 0 0 0 0 -17.274438633672517 27.671518065518534 0 27.671518065518534 -51.120865362129791 0 0 0 0 549.7741002188443 70.813734705563547 0 70.813734705563547 -828.65037779197883 0 0 0 0 -415.49010986571739 803.52697461737262 0 803.52697461737262 -170.04594344420912 0 0 0 0 -1135.9993235000265 135.65723543346394 0 135.65723543346394 240.38757298635755 0 0 0 0 -201.96689152030967 -48.792095419570614 0 -48.792095419570614 173.8179046064979 0 0 0 0 -5.2848230109408281 9.4327050919240136 0 9.4327050919240136 -10.787133592966313 0 0 0 0 96.854117286227392 528.41326345749803 0 528.41326345749803 -775.60844734155398 0 0 0 0 131.43022407853732 -89.279675224643142 0 -89.279675224643142 -527.80673023683084 0 0 0 0 20.085490692414169 42.051549949417677 0 42.051549949417677 98.55421057098647 0 0 0 0 3.3705665225352277 12.680887350554258 0 12.680887350554258 150.33500897164413 0 0 0 0 21.757106933974313 51.448662119524656 0 51.448662119524656 8.7467868702448328 0 0 0 0 18.157937033567578 50.157456281269333 0 50.157456281269333 175.83456820072752 0 0 0 0 8.0153531311389088 12.28835495010253 0 12.28835495010253 174.74324028489355 0 0 0 0 6.3068487567043121 18.894092126794021 0 18.894092126794021 158.50888758945803 0 0 0 0 -4.857269039224775 21.845925431360229 0 21.845925431360229 167.65988092096268 0 0 0 0 21.826770566149207 28.982781956163308 0 28.982781956163308 153.43628575147886 0 0 0 0 8.6516683164081769 32.56408867135724 0 32.56408867135724 185.27905565392575 0 0 0 0 4.7826146462757606 44.555085299372877 0 44.555085299372877 229.93280873724939 0 0 0 0 33.00762770849542 40.423857899117138 0 40.423857899117138 158.8463411458506 0 0 0 0 19.756356132718793 32.850916288738517 0 32.850916288738517 321.33106216720262 0 0 0 0 161.57841792553518 245.30190827268234 0 245.30190827268234 387.7059021624591 0 0 0 0 125.80565445109823 156.95241319516299 0 156.95241319516299 275.36355627934245 0 0 0 0 11.818089745138423 69.638298253172252 0 69.638298253172252 338.84658417773244 0 0 0 0 46.111299742842675 76.067657102566955 0 76.067657102566955 213.51983274599479 0 0 0 0 68.146929722810455 151.60957020753995 0 151.60957020753995 418.16306406237891 0 0 0 0 9.9782686134486056 13.189171005335776 0 13.189171005335776 -17.619498384965453 0 0 0 0 25.253907526512421 -50.065038765007102 0 -50.065038765007102 171.80126659978851 0 0 0 0 55.41877547402828 84.565101858556773 0 84.565101858556773 12.323717619636209 0 0 0 0 -11.252240061248813 46.381690376082588 0 46.381690376082588 158.17953061513981 0 0 0 0 5.3357544254197649 54.643851804250062 0 54.643851804250062 22.075588578335367 0 0 0 0 58.703892529782024 37.921372837488889 0 37.921372837488889 31.450255669353282 0 0 0 0 47.329872885524274 48.955326627293502 0 48.955326627293502 23.686063086270792 0 0 0 0 0.74044755518843886 63.982464005093789 0 63.982464005093789 22.909941121091833 0 0 0 0 -2.8986206439076341 80.689605847681378 0 80.689605847681378 -35.337120641627735 0 0 0 0 -252.75416839424952 -353.16850074801914 0 -353.16850074801914 481.62485243687115 0 0 0 0 115.49128518762609 252.34697579160638 0 252.34697579160638 -177.69973668653984 0 0 0 0 87.045572049673865 351.50267842596077 0 351.50267842596077 -49.400926953763701 0 0 0 0 -41.392028355938692 -451.06300650627782 0 -451.06300650627782 -1316.7650542282063 0 0 0 0 -12.853178770113136 12.10343187899015 0 12.10343187899015 -10.971684687242629 0 0 0 0 -57.27529697877435 339.29221049980697 0 339.29221049980697 -285.67060240160936 0 0 0 0 -138.63923117577178 674.57279962285247 0 674.57279962285247 -1716.8376883628953 0 0 0 0 -57.830287251379559 121.45495812390436 0 121.45495812390436 -252.9010957700666 0 0 0 0 513.12183599678337 833.25767489219106 0 833.25767489219106 -2645.2842769231065 0 0 0 0 400.92313564562664 11.288395696981752 0 11.288395696981752 -64.917884455393505 0 0 0 0 -2187.1463426233895 1407.7457770140172 0 1407.7457770140172 1644.181515092263 0 0 0 0 51.452307808147452 701.56725215933693 0 701.56725215933693 416.36440271454194 0 0 0 0 41.06737284683917 54.661730012766178 0 54.661730012766178 49.934099825973959 0 0 0 0 25.973172436486493 93.866185358234361 0 93.866185358234361 15.682265998868388 0 0 0 0 25.372061091673686 100.45613819558571 0 100.45613819558571 45.18322711683868 0 0 0 0 16.003191258627339 67.382521799794631 0 67.382521799794631 12.25285753175649 0 0 0 0 24.081836421348271 87.401623444005963 0 87.401623444005963 33.677403050198336 0 0 0 0 29.359434276142565 80.45320724002886 0 80.45320724002886 18.066466502539697 0 0 0 0 8.8876597281414433 76.330327534684329 0 76.330327534684329 27.295154750303482 0 0 0 0 32.425241127126355 75.631670768217191 0 75.631670768217191 59.959890006248315 0 0 0 0 59.950592025928017 108.74307817410045 0 108.74307817410045 31.823401739777182 0 0 0 0 47.792148049134994 56.470461196484393 0 56.470461196484393 -48.664725081587676 0 0 0 0 1.8883728941998186 6.8410641509148746 0 6.8410641509148746 23.978241501310137 0 0 0 0 26.005338396964362 85.5745823812249 0 85.5745823812249 13.813737571952515 0 0 0 0 -8.9321795270794908 29.636183997236827 0 29.636183997236827 -15.374584802684325 0 0 0 0 45.648436721836333 66.611258498705865 0 66.611258498705865 29.537772966017656 0 0 0 0 -1.3008480594435241 90.080137939741689 0 90.080137939741689 32.15490172007776 0 0 0 0 24.944030379045216 76.478192767890505 0 76.478192767890505 27.562882428253943 0 0 0 0 -10.41951874068036 80.984974785998929 0 80.984974785998929 23.839655627074535 0 0 0 0 -8.1021932474977802 77.369165085758141 0 77.369165085758141 25.381419348603231 0 0 0 0 -8.2723841438295267 81.102858116702933 0 81.102858116702933 24.2135092886171 0 0 0 0 3.5556245378593303 89.276926629921945 0 89.276926629921945 -13.140110562431801 0 0 0 0 -19.426833562414686 37.275652950940639 0 37.275652950940639 230.12896274264494 0 0 0 0 22.913806915889694 37.839242124614316 0 37.839242124614316 0.89984316346743753 0 0 0 0 -23.684050707018429 37.761328077269951 0 37.761328077269951 -13.290580628216389 0 0 0 0 77.959744930551096 99.170241473450005 0 99.170241473450005 181.85965428438431 0 0 0 0 -1.2847741042496637 43.663849467273394 0 43.663849467273394 84.935650968465779 0 0 0 0 11.083990766921758 27.044761679986863 0 27.044761679986863 10.470100549196903 0 0 0 0 37.661712697332405 50.774958119805888 0 50.774958119805888 132.96535508949091 0 0 0 0 -4.6679931469004998 8.0265322176960296 0 8.0265322176960296 77.595083067422095 0 0 0 0 0.51368030230617023 5.2110571860592145 0 5.2110571860592145 5.1543549149904919 0 0 0 0 46.884538836275169 -17.247809420450722 0 -17.247809420450722 46.43317242581179 0 0 0 0 5.8223846716401084 0.35279640501224208 0 0.35279640501224208 3.6069911791291105 0 0 0 0 41.304923563802731 -0.5540721576744545 0 -0.5540721576744545 147.72448419129614 0 0 0 0 65.918061175876574 198.96188057034794 0 198.96188057034794 381.5302032269683 0 0 0 0 -42.895761627776665 8.4018555959737569 0 8.4018555959737569 448.30177055111562 0 0 0 0 4.019295634025184 45.692012479281402 0 45.692012479281402 267.50137934239319 0 0 0 0 -24.391766221895523 -26.416254750307417 0 -26.416254750307417 203.24426828432843 0 0 0 0 -3.2200784862579894 48.758402222800214 0 48.758402222800214 265.76952194661862 0 0 0 0 -77.975008919238462 15.679539454256883 0 15.679539454256883 207.43371440235933 0 0 0 0 -157.88226853997912 49.393428138453601 0 49.393428138453601 249.24216765678648 0 0 0 0 -151.56683450382843 160.7207940935732 0 160.7207940935732 127.62426221982605 0 0 0 0 -128.93596992058156 81.401569549765554 0 81.401569549765554 397.76922977104005 0 0 0 0 -5.9415978725082823 272.45578830791055 0 272.45578830791055 185.77730230033194 0 0 0 0 -0.054196017990761902 -71.011253138443863 0 -71.011253138443863 303.28627321625208 0 0 0 0 -15.653115903201979 80.843825380557973 0 80.843825380557973 186.35551759213376 0 0 0 0 1.2298052363177305 2.7896472367416862 0 2.7896472367416862 -1.9173237412040578 0 0 0 0 19.488328881547204 -24.698323568740307 0 -24.698323568740307 77.265882576775766 0 0 0 0 -149.10028050637629 54.1792682267278 0 54.1792682267278 183.21252955016098 0 0 0 0 44.852769908269693 82.279998324336702 0 82.279998324336702 186.29538642767147 0 0 0 0 -43.167716377094621 -20.650002051805586 0 -20.650002051805586 310.17414936366185 0 0 0 0 -5.7089345219137613 95.845981936668977 0 95.845981936668977 -11.966262115613063 0 0 0 0 -2.7392403431074399 81.135593595711811 0 81.135593595711811 22.0943313552539 0 0 0 0 0.6918962717463728 75.791406587355596 0 75.791406587355596 6.7339091930043651 0 0 0 0 -15.332973988726735 81.816514085916424 0 81.816514085916424 37.629942314015352 0 0 0 0 -11.680077391327359 75.893422516059218 0 75.893422516059218 42.548398932049167 0 0 0 0 -5.8290108716155373 104.2443398563837 0 104.2443398563837 29.495258572889725 0 0 0 0 23.034798181770384 136.70910986066883 0 136.70910986066883 88.329220112034818 0 0 0 0 35.341023684784886 86.45849487092346 0 86.45849487092346 37.110292520112125 0 0 0 0 -13.308784085078514 73.334814498753985 0 73.334814498753985 59.165789739679894 0 0 0 0 -19.933930693717173 61.164063981317526 0 61.164063981317526 -14.064174820782029 0 0 0 0 27.874152278836846 122.44492840284511 0 122.44492840284511 55.021910606745223 0 0 0 0 -35.703843670555216 140.6699168746818 0 140.6699168746818 198.07524833872594 0 0 0 0 -46.677611616658396 174.07657022022977 0 174.07657022022977 161.75873281221357 0 0 0 0 9.0753309122912924 91.305988617126232 0 91.305988617126232 0.89393816450941799 0 0 0 0 -81.027927209914196 69.716912452277029 0 69.716912452277029 330.82134311955633 0 0 0 0 15.692569950493635 84.092368115549107 0 84.092368115549107 166.332578747566 0 0 0 0 3.5179185554217725 82.272711075483031 0 82.272711075483031 24.778680053185433 0 0 0 0 31.794825375254732 95.298630250104907 0 95.298630250104907 -25.880319641713868 0 0 0 0 19.157623036734378 90.890235162059355 0 90.890235162059355 0.30011013020504151 0 0 0 0 188.16545838312595 23.083538601058535 0 23.083538601058535 -707.04485738247604 0 0 0 0 -105.50603046483593 92.250064162770286 0 92.250064162770286 2.9748015650984598 0 0 0 0 201.09304364378477 407.57352911461203 0 407.57352911461203 -466.89673275612586 0 0 0 0 -49.2443900773942 145.22109408946562 0 145.22109408946562 -72.897772134900151 0 0 0 0 -55.217432838813693 -82.544107681322203 0 -82.544107681322203 -310.29307455480739 0 0 0 0 -6.4885781425728055 202.45371651795404 0 202.45371651795404 167.67566465373966 0 0 0 0 15.054811043330119 162.34656881595402 0 162.34656881595402 136.85973354126099 0 0 0 0 -30.880068897570908 65.499825789938839 0 65.499825789938839 -16.005689819679958 0 0 0 0 40.403204939095303 143.51470543899632 0 143.51470543899632 39.336198311295448 0 0 0 0 64.996711218562268 175.18903709070401 0 175.18903709070401 -29.425083774935047 0 0 0 0 10.092649420694215 267.22661602798325 0 267.22661602798325 -55.742543938573363 0 0 0 0 10.767889869894134 149.18210307708068 0 149.18210307708068 136.32143341085612 0 0 0 0 -23.965634676802438 223.89197840198176 0 223.89197840198176 26.140574105996336 0 0 0 0 7.5641202692422667 190.15590791197246 0 190.15590791197246 25.992398338246858 0 0 0 0 -41.723410859602154 174.59003490466421 0 174.59003490466421 134.74388217138494 0 0 0 0 -62.511197126470506 230.61462490667691 0 230.61462490667691 -29.570511456746317 0 0 0 0 -14.235866355877079 231.76325680683658 0 231.76325680683658 -29.732523758328171 0 0 0 0 -21.817348319280427 243.60518260276149 0 243.60518260276149 -156.55963919342321 0 0 0 0 -70.503761644809856 266.30974880831491 0 266.30974880831491 -75.792160736658843 0 0 0 0 8.6833690513885813 250.14081775003069 0 250.14081775003069 -98.575379914960649 0 0 0 0 -47.336548906663666 249.00573567003448 0 249.00573567003448 -98.464992315938161 0 0 0 0 -2.9809409228764707 245.83667820288974 0 245.83667820288974 -47.462527784024132 0 0 0 0 31.955903143505566 245.70088512022267 0 245.70088512022267 -47.589181366551202 0 0 0 0 32.558169608179014 263.04695298858496 0 263.04695298858496 -159.55490493412799 0 0 0 0 64.333297043602215 218.62771594909282 0 218.62771594909282 -114.53902773857772 0 0 0 0 121.34297856113534 94.509398271249552 0 94.509398271249552 31.233802814589236 0 0 0 0 57.105644293056685 190.97713417363775 0 190.97713417363775 -45.346075964607735 0 0 0 0 -48.474893512298877 237.92066873668045 0 237.92066873668045 11.522543963597855 0 0 0 0 -49.428942650250974 96.392798593098632 0 96.392798593098632 97.198637229230371 0 0 0 0 -124.17014538451622 163.54883331020756 0 163.54883331020756 144.51109065430683 0 0 0 0 -16.577251289636479 156.96821487286252 0 156.96821487286252 99.505572854606726 0 0 0 0 -82.324687300162623 208.58509743600371 0 208.58509743600371 82.692483263478607 0 0 0 0 -133.26727240275795 226.6668496758939 0 226.6668496758939 16.970370878341782 0 0 0 0 -50.766345254458429 197.50205027478114 0 197.50205027478114 12.39099765226274 0 0 0 0 -49.54119300567254 226.88715291686822 0 226.88715291686822 -94.679983124588034 0 0 0 0 -142.21794080654217 274.27896119224897 0 274.27896119224897 -47.037637343913957 0 0 0 0 -137.31804341311909 162.40615524946816 0 162.40615524946816 65.642911707240273 0 0 0 0 -114.36449608829571 200.63924795213097 0 200.63924795213097 -46.572156372305471 0 0 0 0 -224.90550120329135 171.98749342065639 0 171.98749342065639 81.48802107222582 0 0 0 0 -235.73438861025352 205.02797215829833 0 205.02797215829833 -40.189894317416474 0 0 0 0 -210.39124596264082 274.1793602722264 0 274.1793602722264 -146.62968961056322 0 0 0 0 -282.45565321471076 403.22990776983715 0 403.22990776983715 -274.25232117568521 0 0 0 0 -349.94764821977878 209.31332160573947 0 209.31332160573947 -176.2880346131642 0 0 0 0 -247.69611921836622 228.02000257961845 0 228.02000257961845 -33.871435156244843 0 0 0 0 -151.64274810654024 312.55301010470066 0 312.55301010470066 -142.25600540790037 0 0 0 0 -102.82130387661164 247.73864575529296 0 247.73864575529296 -84.533160709201184 0 0 0 0 -65.090169201379467 219.68451747712697 0 219.68451747712697 -218.80422265818925 0 0 0 0 -92.882594840870297 301.14475005857003 0 301.14475005857003 -180.8993106018097 0 0 0 0 -107.1819960851135 292.17075300809665 0 292.17075300809665 -127.21870818740717 0 0 0 0 -116.76161306352878 266.9638034632153 0 266.9638034632153 -178.02173803469123 0 0 0 0 31.312362306102642 45.727998370330575 0 45.727998370330575 38.353420449570208 0 0 0 0 19.748345817912195 238.70725934677466 0 238.70725934677466 -603.36268624290824 0 0 0 0 8.8593573321648762 25.024287574067067 0 25.024287574067067 27.481422390293879 0 0 0 0 -219.68002384628926 300.82034808768731 0 300.82034808768731 -247.19700332152206 0 0 0 0 -165.39849305866483 245.11059317434547 0 245.11059317434547 -447.57983978267293 0 0 0 0 -163.03413667511632 275.9109906204676 0 275.9109906204676 -225.45727184596763 0 0 0 0 -457.12878132870537 471.2006495033711 0 471.2006495033711 -294.22294773292015 0 0 0 0 1.2521231626221834 6.0867321049162939 0 6.0867321049162939 11.514496556036846 0 0 0 0 92.023705239640549 133.33406982477027 0 133.33406982477027 43.278578952356838 0 0 0 0 93.879095431679161 143.50705129689868 0 143.50705129689868 38.345847981997395 0 0 0 0 130.62886788012918 91.222497764538076 0 91.222497764538076 47.410573157866914 0 0 0 0 -75.983369856199715 267.96460809843484 0 267.96460809843484 -167.71317168244423 0 0 0 0 155.02274840263999 159.72045236793201 0 159.72045236793201 -171.48431763381086 0 0 0 0 31.648546847340498 24.462438554096323 0 24.462438554096323 -2.4194611226082259 0 0 0 0 -188.63023159683507 333.23802520195022 0 333.23802520195022 -180.48825973192288 0 0 0 0 99.915394038560407 132.04374746069914 0 132.04374746069914 51.71947610744246 0 0 0 0 37.46692857403832 59.422857864967227 0 59.422857864967227 39.869003737384674 0 0 0 0 39.878784963474622 64.981213027954865 0 64.981213027954865 33.399335688403077 0 0 0 0 16.229142440744909 56.563367986313096 0 56.563367986313096 40.119442596092995 0 0 0 0 75.537118493797607 111.45363534559965 0 111.45363534559965 36.138313938269675 0 0 0 0 129.00702495108635 145.94505408603237 0 145.94505408603237 45.520997520150559 0 0 0 0 78.979671993205557 146.85560862522834 0 146.85560862522834 91.989163183870915 0 0 0 0 73.207316855379759 127.22081277374593 0 127.22081277374593 79.13258591023623 0 0 0 0 55.903525105582958 139.87996511189704 0 139.87996511189704 108.61388481041831 0 0 0 0 -12.118145827786066 108.10762531493765 0 108.10762531493765 94.104893657446155 0 0 0 0 -13.114468934792145 52.949998782125533 0 52.949998782125533 50.031053338423881 0 0 0 0 -8.7935805775386449 37.638914166736683 0 37.638914166736683 49.226841598764295 0 0 0 0 -68.520720030940083 43.653246416084812 0 43.653246416084812 58.695307463669451 0 0 0 0 -33.783772684968426 26.694013146101497 0 26.694013146101497 56.097760514370748 0 0 0 0 -7.6777312613630784 58.705736654100292 0 58.705736654100292 62.061596317554631 0 0 0 0 -39.821011653661913 27.937447607200909 0 27.937447607200909 11.868095979599957 0 0 0 0 -2.4195480880521245 34.869410802524271 0 34.869410802524271 29.019861381908413 0 0 0 0 2.5151354591725976 24.920766815283059 0 24.920766815283059 36.083270569877641 0 0 0 0 -1.6148552566228318 43.403358847162963 0 43.403358847162963 40.029824086475855 0 0 0 0 -7.9084477043874983 26.401711550025396 0 26.401711550025396 8.9257286233616568 0 0 0 0 -29.916808661597315 45.617520649277139 0 45.617520649277139 39.978622876793679 0 0 0 0 -31.404258405367727 22.20767803601484 0 22.20767803601484 51.517130889536929 0 0 0 0 -12.643693528891163 47.223365247163201 0 47.223365247163201 57.497623927931272 0 0 0 0 -27.274645152278339 2.9409166819033032 0 2.9409166819033032 6.2143617433460747 0 0 0 0 -4.3487298140971689 27.740182337745864 0 27.740182337745864 49.820653841929015 0 0 0 0 -15.923993552052707 69.949673841449112 0 69.949673841449112 257.32573417660024 0 0 0 0 -15.982888310295124 -3.1035284543091137 0 -3.1035284543091137 14.398494501650731 0 0 0 0 3.6013893510121875 22.744904775538345 0 22.744904775538345 26.064320267495916 0 0 0 0 -116.40508851873892 295.57507115796034 0 295.57507115796034 -452.42208840993408 0 0 0 0 1.9131726102191351 28.286527278710992 0 28.286527278710992 51.895669083063694 0 0 0 0 -381.01036106293031 25.005243413928838 0 25.005243413928838 -454.42473628061271 0 0 0 0 -98.231155722176482 418.25315379662061 0 418.25315379662061 -1012.7409574998383 0 0 0 0 -667.91470254680462 437.07414700496884 0 437.07414700496884 -334.87988257806137 0 0 0 0 -1.1283655219954341 3.4507624566791435 0 3.4507624566791435 5.5380903099190277 0 0 0 0 -247.57135812033084 208.00148063048255 0 208.00148063048255 -736.43487964762608 0 0 0 0 -537.27483294536069 607.17029626438671 0 607.17029626438671 -464.00586726235633 0 0 0 0 -791.47883311455371 445.71830091231823 0 445.71830091231823 -221.94802927380078 0 0 0 0 -265.53513072488568 44.625703691141098 0 44.625703691141098 341.28970993785333 0 0 0 0 -5.1039870822811935 0.81787245083553017 0 0.81787245083553017 7.6659345939961696 0 0 0 0 -39.84893540882149 -33.780455698336937 0 -33.780455698336937 367.17870216891606 0 0 0 0 -162.0369387138926 200.0105646055672 0 200.0105646055672 67.447296767415537 0 0 0 0 -466.80535110790515 401.76888539223728 0 401.76888539223728 -60.63249143701978 0 0 0 0 0.83257753441284876 253.08229879132705 0 253.08229879132705 71.508968890819233 0 0 0 0 -3.9667987522152544 290.34349397335245 0 290.34349397335245 -163.62095554178086 0 0 0 0 52.167423669314303 139.37074259859946 0 139.37074259859946 -202.19978099997024 0 0 0 0 59.565836088819196 101.25334059320448 0 101.25334059320448 -11.475644162164826 0 0 0 0 -88.01945478093694 159.97252757412934 0 159.97252757412934 -376.2933466326358 0 0 0 0 -88.750713266636012 184.1814882073777 0 184.1814882073777 -61.737584819296899 0 0 0 0 -242.85066392099543 278.43592098302543 0 278.43592098302543 -362.83512465230888 0 0 0 0 -389.33872037526453 65.420428875440848 0 65.420428875440848 -203.29730609681064 0 0 0 0 -102.59698108358862 52.667375561210065 0 52.667375561210065 -253.13216833141632 0 0 0 0 -112.87239213486464 92.239678882649969 0 92.239678882649969 -66.704323561949423 0 0 0 0 -42.504569996024657 -32.240184459446027 0 -32.240184459446027 -96.593453557048633 0 0 0 0 32.082288165431237 40.206568302604865 0 40.206568302604865 -28.991993619307323 0 0 0 0 4.3287787479848703 1.0198112313709089 0 1.0198112313709089 152.03249886744015 0 0 0 0 -0.73461518887779675 -72.511316928543238 0 -72.511316928543238 50.529971001917147 0 0 0 0 -79.869193700193136 -60.066733323445078 0 -60.066733323445078 -35.413047322972488 0 0 0 0 -45.599938544704855 29.653026595517076 0 29.653026595517076 84.397886856851983 0 0 0 0 62.461037901353848 -65.282528634215851 0 -65.282528634215851 122.21542335310369 0 0 0 0 21.940604359755525 -93.869333390724933 0 -93.869333390724933 315.96668231593139 0 0 0 0 182.91282953899281 104.49419306772506 0 104.49419306772506 46.149185671994928 0 0 0 0 -37.448219175699705 171.36179635691815 0 171.36179635691815 -73.774073759042949 0 0 0 0 -80.810989101308223 95.308743313540617 0 95.308743313540617 54.148793360778654 0 0 0 0 -148.2020419396722 304.88497562058183 0 304.88497562058183 -46.707006873984938 0 0 0 0 -132.19233776086185 155.36258196881681 0 155.36258196881681 99.988719692017185 0 0 0 0 -150.64598405407742 260.72271259324771 0 260.72271259324771 -31.731338142228196 0 0 0 0 -171.84798125601083 240.18865831755465 0 240.18865831755465 -21.718442717057769 0 0 0 0 -166.09662386064883 142.48958868709815 0 142.48958868709815 112.47547196979212 0 0 0 0 -175.515749936676 293.97935845693428 0 293.97935845693428 -208.72739426752378 0 0 0 0 -168.6725331430689 221.70121216169355 0 221.70121216169355 -70.626524008941487 0 0 0 0 -129.27383281203947 366.65129926763984 0 366.65129926763984 -476.5319912713021 0 0 0 0 -268.42918252419622 384.48135258591719 0 384.48135258591719 -231.97725854014425 0 0 0 0 -139.01781526063132 237.62557862562608 0 237.62557862562608 -136.21852490675519 0 0 0 0 -208.44446736959799 341.50106852329918 0 341.50106852329918 -176.49892250812263 0 0 0 0 -133.27349721440987 325.5223880058038 0 325.5223880058038 -341.19003221334424 0 0 0 0 -175.38216801653471 358.66293374492852 0 358.66293374492852 -341.48957886154676 0 0 0 0 -176.1409527220676 235.68411916960031 0 235.68411916960031 -257.91211096836196 0 0 0 0 -344.46337117352232 191.65148371288706 0 191.65148371288706 -60.106813962695014 0 0 0 0 
</DataArray>
<DataArray type="Float64" Name="cross_section_updated" format="ascii">
1 1 1 0.0098328403265170415 1 1 0.0080486462054286303 1 1 1 1 1 1 1 1 0.010723471763373682 0.0099033725618180267 1 1 1 1 0.0022226200772759892 1 1 0.0046841038351866059 0.01055440205659728 1 0.0094451202422317394 1 0.010902487651736334 1 1 1 0.009933152837701735 1 1 1 1 1 1 1 1 1 1 1 1 1 0.0073872122332485201 0.0090380611815454766 1 1 1 1 1 1 1 1 1 1 1 1 1 1 1 1 1 1 1 1 1 0.016592270397593055 1 1 0.0099539360059223633 1 1 1 1 1 1 1 1 1 1 1 1 1 1 1 2.8076349682659707e-09 1 1 1 1 1 0.0090732805039891243 1 1 1 1 0.0099812544357824537 0.002360333369371425 1 1 1 1 1 1 1 1 0.0094181874537644233 0.011178448437898128 1 1 0.010580821257076926 1 1 0.012648278219495539 1 0.0084300721937547243 1 0.0069188321973240458 1 0.0099812151489344428 1 1 1 0.011277899119197569 1 0.011716087193476728 1 0.0088441976850334864 1 1 0.011248788957890624 1 1 1 1 1 0.012121390524820294 1 1 1 1 0.009245702513717334 0.009238758359489627 1 0.0073699179238563145 1 0.012970438109952999 4.3910534930358125e-13 0.010468890907451366 1 1 1 1 1 1 1 1 1 1 1 1 1 1 1 1 1 0.0012904887154926142 1 1 1 1 1 1 1 1 1 1 1 1 1 1 1 1 1 1 1 1 1 1 1 1 1 0.010269564105292277 1 1 1 1 1 1 0.010540370002735645 1 1 1 1 1 1 1 0.0096163858504115275 1 1 1 1 0.010097407291886663 1 0.0091313059067723839 1 1 1 1 1 1 1 1 1 1 1 1 1 1 1 1 1 1 1 1 1 1 1 0.011195637940266949 1 1 1 1 1 1 1 1 1 1 1 1 1 1 1 0.0097494397356790528 0.010087280702131952 0.01335100944100362 1 1 1 1 1 1 0.015105000855780995 1 1 1 1 0.0098126429204111326 0.010194994657790503 1 1 1 1 0.010017080641782727 0.0099965292807406916 1 1 0.009268676431369062 0.01799227843274407 1 1 0.014458637288562302 1 1 1 1 0.0097684437330830091 0.011469505243200256 1 1 1 1 1 1 1 0.010231393851700202 1 0.010411163379858888 1 1 1 1 1 1 0.010095083767433243 1 1 1 1 1 0.0095644598741414927 1 1 1 1 1 1 1 1 1 1 1 1 0.0099863404941730807 1 1 0.0098990597920411462 1 1 1 1 1 1 1 1 1 1 1 1 1 1 1 1 1 1 1 1 1 1 1 1 1 1 1 1 1 1 1 1 1 1 1 1 1 0.009474390726550725 1 1 1 1 1 1 1 1 1 1 0.0088940266367622464 1 1 1 0.0089840957843530002 1 0.010109378892012836 1 1 1 1 1 0.010204462659446085 1 1 1 1 0.0099294501675002023 1 1 1 1 1 1 1 1 1 0.0093852716186766799 1 1 1 0.0091594386581518514 1 1 1 0.0089849105791992637 1 1 1 0.0095996389605225892 1 1 1 1 1 1 1 1 1 1 0.0075539644613158256 1 1 1 1 1 1 1 1 1 1 1 0.0083945258031639831 1 1 1 1 1 1 1 0.0098081963704380378 1 1 1 1 1 1 0.0075942307442300669 0.007752262486214103 1 1 1 0.0073334663036053026 1 1 1 1 1 1 1 1 1 1 1 1 1 1 1 1 1 1 1 1 1 1 1 1 1 1 1 1 1 1 1 0.010271255681549178 1 1 1 1 1 1 1 1 1 1 1 1 1 1 1 1 1 1 1 1 1 1 0.010157493860394426 1 0.0056659146939978464 1 1 1 1 1 0.0096493622713980619 1 1 1 1 0.0070056119620611687 1 1 1 0.010002679212440274 1 1 1 1 1 1 1 1 1 1 1 1 0.010137728735447667 1 1 1 1 1 1 1 1 1 1 1 1 1 1 1 1 1 0.0051216289800559145 1 1 1 1 1 1 1 1 1 1 1 1 1 1 1 1 1 1 0.0099870786480581314 0.0051808015598709956 1 1 1 1 1 1 1 1 1 1 1 1 1 1 1 1 1 1 1 1 1 1 1 1 1 1 1 1 1 1 1 1 1 1 1 1 1 1 1 1 1 1 1 1 1 1 1 1 1 0.0023735031830152903 1 0.010524572195557441 1 1 1 1 1 1 1 1 0.010206981561962931 1 0.0012223983044037292 0.0085865391666354318 1 1 1 1 1 1 1 -3.2006990981214845e-10 1 1 0.010924953315618824 1 0.0059411423484921812 1 1 1 3.1708413845976668e-10 1 1.5871732365890789e-09 0.0008211166946267617 1 1 1 0.014861450360631238 1 0.010042699097575755 1 1 1 1 1 1 1 1 1 1 1 1 1 1 1 1 1 1 1 1 1 1 1 1 1 1 1 1 1 1 1 1 1 1 1 1 1 1 1 1 1 1 1 1 1 1 1 1 1 1 1 1 1 1 1 1 1 1 1 1 1 1 1 1 1 1 1 1 1 1 1 1 1 1 1 1 1 1 1 1 0.0086027989440164553 1 1 1 1 0.0055289744901314657 1 1 1 1 1 1 1 0.0022931145306466982 1 1 1 1 1 1 1 1 1 1 1 1 1 1 1 1 0.0079624242318851804 1 1 0.010135315313877069 1 0.0096668937359278943 1 -7.8698870597387893e-09 1 1 1 1 1 1 1 1 0.0044514735231078011 1 1 1 0.0066866488025723106 1 0.0075216655923100173 1 1 0.0079735927510525897 1 1 1 0.0092219762830473492 0.0072656477948099818 1 1 1 1 1 1 1 1 1 1 1 1 1 1 1 1 1 1 1 1 1 1 1 1 1 1 2.3707508161469049e-09 1 1 1 1 1 1 0.01044530399998032 1 1 1 0.0098755671844403658 1 1 1 1 1 1 0.011068602210683846 1 1 1 1 1 1 1 1 1 1 0.01293738173690228 1 1 0.0098197157827193057 1 1 -1.9016249287046039e-09 1 1 1 1 1 1 1 1 0.014352493526467164 1 1 1 1 1 1 1 1 1 1 1 2.7735157850927727e-09 1 1 1 1 0.0047445423072619477 1 1 1 0.0079726249156565759 1 1 1 1 1 1 1 1 1 1 1 1 1 1 1 1 1 1 1 1 1 1 1 1 1 1 0.0079599158099105134 0.005925222736364557 1 1 1 1 0.010561651704773731 1 0.0071739931037754431 0.0083805616185677872 1 1 1 1 1 0.01078624714316246 0.0087149376871681321 1 0.011463859749753176 1 0.0099884431809277585 1 1 1 1 1 1 1 0.0092608826872846595 1 1 1 1 1 1 1 1 1 1 1 1 1 1 1 1 1 0.012830431600739219 1 1 1 1 1 1 1 1 1 1 0.011062085600671985 1 1 1 0.01041399057122051 1 1 0.010036900381034013 1 1 1 1 1 1 1 1 1 1 1 1 1 1 1 1 1 1 1 1 1 1 1 1 0.00080166960293600806 0.0093169433346296689 1 1 1 0.0108862842502108 1 1 1 1 0.0034564480554490733 1 1 1 1 0.0028182731609516856 1 1 1 1 1 1 1 1 1 0.0060314157388871945 1 1 1 1 1 1 1 1 1 1 1 1 0.010065488613455242 1 1 1 1 1 1 0.010317569671766497 1 1 1 0.0030216358487073613 0.0068219350912024634 1 1 1 1 0.0090315249922998352 1 1 0.0062730645354587902 1 1 1 1 1 1 1 1 1 1 1 1 1 1 1 1 1 1 1 1 1 1 1 1 0.007932530664479371 1 1 1 1 1 1 1 1 1 0.0082074928221684031 1 0.005974593715345141 1 1 1 1 1 1 1 0.0075101846986041845 1 1 0.0076647345173901441 1 1 1 1 1 1 1 1 1 0.013452809434556311 1 1 1 0.01136724218567511 1 1 1 1 1 1 1 1 1 1 1 1 1 1 1 1 1 1 1 1 0.014702402003369915 1 2.792390644571624e-05 1 1 1 0.010045795336822455 1 1 1 6.3162855432064013e-09 1 1 1 1 1 1 0.010522013842256012 0.00031257958089417684 1 0.0039179622351764934 0.009841104215314686 1 1 1 1 1 1 1 1 1 1 1 1 1 1 0.0041385194923835057 1 0.012925122005490782 1 1 1 1 0.01089364047980191 1 1 1 1 1 0.0091737689241169484 1 1 1 1 0.013517900685001994 1 1 1 0.0075709995157438557 0.011842384845603645 1 1 0.0079101923637620447 1 1 1 1 1 1 1 0.0094147694444054412 1 1 1 1 1 1 1 1 0.01232645935042939 1 1 1 1 1 1 1 1 0.01012009793411307 1 0.010199883934665404 0.010156167216640465 1 1 1 1 0.0099125648177902387 1 0.010411260573722325 1 1 1 1 1 1 1 1 1 1 1 1 1 1 1 1 1 0.010383107233739922 1 1 1 1 1 1 1 1 1 1 1 0.010000557865580822 1 1 1 1 0.015274520008341926 1 1 0.011086336653057301 1 1 1 0.011066821609944225 1 1 0.017578089207290155 1 1 1 1 1 1 1 1 1 1 1 1 1 1 1 1 1 1 1 1 1 1 1 1 1 1 1 1 1 1 1 1 1 0.012066291876894021 1 1 1 1 1 1 1 1 1 1 1 1 1 1 1 1 1 1 1 1 1 1 1 1 1 1 1 1 1 1 1 1 1 1 1 1 1 1 1 1 1 1 1 1 1 1 1 2.0867130238288838e-06 1 1 1 1 1 1 1 1 1 1 1 1.0407159361722207e-09 1 1 1 1 1 1 1 1 1 1 1 2.0523090223795171e-09 1 1 2.7381723190916807e-10 1 1 0.0079342592824027183 1 0.0099933441620882052 1 0.010873025221665271 1 1 0.023223932860650835 1 0.0036449050075365429 1 0.026385013608794115 0.006329146059537518 0.0046396331676863706 1 1 1 0.012417725810499028 1 1 1 1 0.0041700993244311677 1 1 1 1 0.0075581323113433326 1 1 1 1 1 1 1 1 1 1 1 1 1 1 1 1 0.010362644016022621 1 1 1 1 1 1 1 1 1 1 1 1 1 1 1 1 1 1 1 1 1 1 1 1 1 1 1 1 1 1 1 1 1 1 1 0.0096092485020303035 1 1 1 1 1 1 1 1 1 1 1 1 1 1 1 1 1 1 1 1 0.0099235550124483797 1 1 1 1 1 1 1 1 0.011602752720749242 1 1 1 1 1 0.010712208479990383 1 1 1 1 1 0.0099868460640046668 1 1 1 1 1 1 1 1 1 1 1 1 1 0.0063072446130255852 1 1 1 1 1 1 1 1 1 1 1 1 0.010890544240758858 1 1 1 1 1 1 1 1 1 1 1 1 1 1 1 1 1 1 1 1 1 1 1 1 1 1 1 1 1 1 1 1 1 1 1 1 1 1 0.0097152221201202843 1 1 1 1 1 1 1 1 1 0.010823229411081126 0.0090032301804772001 1 1 1 0.0092935316198067691 1 1 0.0093467427510889253 1 1 0.0095159888856455009 1 1 0.0091045556842761256 1 1 0.010137034159109392 1 1 1 1 1 1 0.011523271637127236 1 1 1 0.011879708773904225 1 0.016989774986290302 1 1 0.0095723285401699918 1 0.012516373188773106 1 0.013969561206498565 1 0.0099803123022764728 1 1 0.011753796569934642 1 0.010063291051556275 1 1 1 1 1 0.010734642176703276 1 1 1 1 1 1 1 1 1 0.010256064809221085 1 1 0.010843856334054915 1 1 1 1 1 1 1 1 1 1 0.011849699369951467 1 1 1 1 1 1 1 1 1 0.015707520321325864 1 1 1 1 0.0093761593208216351 0.0099708763632113274 1 0.0097449225040203997 1 0.019623315820364001 1 0.011037692056087126 1 1 1 1 1 1 1 1 1 1 1 0.01018462767067424 1 1 1 1 1 1 1 1 1 1 1 1 1 1 1 1 0.0098967631884080542 1 1 0.017023499431844169 1 1 1 1 0.0098073856509793278 1 1 1 1 1 1 1 0.018319984164847494 1 1 1 1 1 1 1 1 1 1 1 1 1 0.011499665260122928 0.0097081077485697328 1 0.0099010527150819871 1 1 1 1 1 1 1 0.011583996025829319 1 1 1 0.013056317846569958 1 0.010022887651506444 1 1 1 1 1 1 1 1 1 1 1 1 1 0.0049723982731624591 1 1 1 1 0.005635790604743212 1 1 1 0.0089630920453533294 1 1 1 1 1 1 0.010071176251212906 1 1 1 1 0.008668110700016364 1 0.0063941433703421889 1 1 1 1 1 0.0059102699707782175 0.00781151073230958 1 1 1 0.0073618226790795448 1 1 1 1 1 1 1 1 1 1 1 0.0064309709903713139 1 1 1 0.0097003560447121075 1 1 1 0.010267229625566466 1 1 1 1 1 1 1 1 1 1 1 1 1 1 1 0.0061603190141928388 0.0069448856830062865 1 1 1 0.0098015385876968186 1 1 1 1 1 1 0.0098217448740393065 1 1 1 1 1 1 1 0.0059467915160089403 1 0.0054882464704099684 1 1 1 1 0.005853866596970847 0.0115592978705172 1 1 0.0093126243496690908 1 0.0094057493501055415 1 0.0084065360199210692 1 1 0.014390400963453348 2.5945145858130569e-10 1 1 1 1 1 0.013316246422312765 1 0.0057662042321758641 1 1 0.013424571178544177 1 0.0064763582876528093 0.002608679287811555 1 0.012473693524179295 1 1 1 1 0.0030304034855803234 1 1 1 0.0097085888535881366 1 1 1 0.011602295320926074 1 0.003303079255622815 1 1 0.014225780955365365 1 1 0.010143468509088387 1 -1.0245307358568156e-09 1 0.0099977667740720217 1 1 1 1 1 0.0049036649419767642 0.0098046887980317715 1 1 1 1 1 1 0.010830544976720109 1 1 1 1 0.0019436675472239134 1 1 0.0068140888197637042 1 0.015534621063865609 1 1 1 0.0091961917991324662 1 1 1 0.0096809762288343516 1 1 1 1 1 -1.8107213454326976e-09 1 1 0.008363384510035014 1 1 1 1 0.0099919933683877329 1 1 1 1 1 0.0043591152331262581 0.0036570119767359022 1 1 0.0048069763476648961 1 1 1 0.0038960000825048399 0.015998518718472257 1 1 0.01455637911650667 0.0095628223488052888 0.012847737121810178 1 1 0.012575393064955262 0.0056603292075385787 1 1 1 0.021328774188396009 1 0.013810179041065646 1 1 0.012581713060191367 1 1 0.010591159682843309 1 1 1 1 1 1 1 1 0.013828065125237656 1 1 0.010364055859462427 1 1 1 1 1 1 1 1 0.012139848352116749 1 1 1 0.01477310346353536 1 1 1 1 0.018008414675419252 1 1 1 0.0047353648107092104 1 0.015117460207119744 1 0.0031668293851643547 1 1 1 1 1 1 0.0062024610927040001 1 1 1 1 1 1 1 1 1 1 1 1 1 0.004125886625336174 0.009890716161486502 1 1 1 0.015362784484342189 1 1 1 1 1 0.017269639344280725 1 1 1 0.0082548892013606656 1 1 1 1 1 0.010038781920693816 1 1 0.0089835084533062652 1 1 1 1 1 1 1 1 1 0.011868115855348995 1 1 1 1 1 1 1 1 1 1 1 1 1 1 1 1 1 1 1 1 1 1 1 1 1 1 1 0.0094640181162712368 1 1 1 1 1 1 0.0080446769888594463 1 1 1 1 1 1 1 1 1 0.0054913183427345372 1 1 0.0092641095591134773 1 1 1 1 0.0060367603311107312 1 1 1 1 1 1 1 1 1 1 1 1 1 1 1 1 1 1 1 1 1 1 1 1 1 1 1 1 1 1 1 0.010209632093402152 1 1 1 1 1 1 1 1 0.0029986545557910138 1 1 1 1 1 1 0.0063335335949501088 1 1 1 1 1 1 1 1 1 1 1 1 1 1 1 1 0.010069802647416238 1 1 1 1 1 0.0049520681443102066 1 1 1 1 1 0.010142060125584331 1 1 1 1 1 1 1 1 1 1 1 1 1 1 1 1 1 1 1 1 1 1 1 0.0056457986094333862 1 1 1 1 1 1 1 1 0.0072211331444867119 1 1 1 1 1 1 1 1 1 1 1 1 1 1 1 1 1 1 1 1 1 1 1 1 1 0.0063962524872904283 1 1 1 1 0.0066719758403019185 1 1 1 1 0.0075271594752788912 1 1 1 1 1 1 1 1 1 1 1 1 1 1 0.0090441601791966392 1 1 1 1 1 1 1 1 1 1 1 1 1 1 1 1 1 1 1 1 1 1 1 1 1 1 0.010770218568332782 1 0.0063261793775423285 1 1 1 1 1 0.010235842254808558 1 1 1 1 1 1 1 1 1 1 1 1 1 1 1 1 1 1 1 0.0081848712324668251 1 1 1 0.0093007806214396947 1 1 1 1 1 1 1 0.010718843274777484 1 1 1 1 0.011048041865584654 1 0.0074709530633179505 1 0.0078891404790112987 1 0.0092476308205183561 1 1 1 1 1 1 1 1 1 1 1 1 1 1 1 1 1 1 1 1 1 1 1 1 1 1 1 1 1 1 1 1 1 1 1 1 1 1 1 1 1 1 1 1 1 1 1 1 1 1 1 1 1 1 1 1 1 1 1 1 1 1 1 1 1 1 1 1 1 1 0.0084897992242616224 1 0.0062626880962709779 1 1 1 1 1 1 1 1 1 1 1 1 1 0.0096892773732360597 1 1 1 1 0.0094828110940190797 1 1 1 1 1 1 1 1 1 1 1 1 1 1 1 1 1 1 1 1 1 1 1 1 1 1 1 1 1 1 1 1 1 1 1 1 1 0.0060378955400521295 1 1 1 1 1 1 1 1 0.0066955617863182493 1 1 1 1 1 1 1 1 1 1 1 1 1 0.013447386676279227 1 1 0.0071691818643685803 1 1 1 1 1 0.013647327760519135 1 1 1 1 1 0.011532123836985026 1 1 1 1 1 0.012145340760898626 1 1 1 1 1 1 1 1 1 1 1 1 1 1 1 1 0.0051691167856156408 1 1 0.0044237790050242493 1 1 1 1 1 1 1 1 1 1 1 1 1 1 1 1 1 1 1 1 1 1 1 1 1 1 1 1 1 1 1 1 1 1 1 1 0.0094857717613349296 1 1 1 1 1 1 1 1 1 1 1 0.0083572708506064984 1 1 0.0089215302970085397 1 0.0074616127952498723 1 1 0.010119490705594085 1 1 1 1 1 1 1 1 1 1 1 1 1 1 1 1 1 0.0097238101879912088 0.0087722340648865964 1 1 1 1 0.0086937724854051907 1 0.0095389825175697922 1 0.0098561414464859894 1 1 0.0099293779605107435 1 1 1 1 0.010048241914718963 1 1 0.008565627402522074 1 0.0099873013870113922 1 1 1 1 1 1 1 1 1 1 1 1 1 1 1 1 1 1 1 1 1 1 1 1 1 1 1 1 1 1 1 1 1 1 1 1 1 1 1 1 1 1 1 1 1 1 1 0.0097410121039525864 1 1 1 0.0091527328392728945 1 1 1 0.010400415266674533 1 0.0097750344836659408 1 1 0.011072118888034955 1 1 0.0099578288299138912 1 1 1 1 1 1 1 0.012054356378102728 1 1 1 1 0.010957598423785395 0.011402485862494781 1 1 1 1 1 1 1 1 1 1 1 1 1 1 1 1 1 1 1 1 1 0.010364362401697372 1 1 1 1 1 1 1 1 1 1 1 1 1 1 1 1 1 1 1 1 1 1 1 1 1 1 1 1 1 1 1 1 1 1 1 1 1 1 1 0.0098890577371032965 1 1 0.0098896038245472519 1 1 1 1 1 1 1 1 1 1 1 1 1 1 1 0.0087951974671028246 1 1 1 1 1 1 1 1 1 1 1 1 1 1 1 1 1 1 1 1 1 1 1 1 1 1 1 1 1 1 1 1 1 1 1 1 1 1 1 1 1 1 1 1 1 1 1 1 1 1 1 1 1 1 1 1 1 1 1 1 0.0081375856791049278 1 1 1 1 1 1 1 1 1 0.0092366945994930144 1 1 1 1 1 1 1 1 1 1 1 0.0068496505503002347 1 1 1 1 1 1 1 1 1 1 1 1 1 0.010259629107703028 0.015866679823113114 0.0055500867808337684 1 1 1 1 1 1 1 0.014934996315403754 1 1 1 1 1 0.013641251107764873 1 1 1 1 1 1 1 1 1 1 1 1 1 1 1 1 1 1 1 1 1 1 1 1 1 1 1 1 1 1 1 1 1 1 1 1 1 0.011431091651819492 1 1 1 0.012982845428905286 1 1 1 1 1 1 1 1 1 1 1 1 1 1 1 1 0.01578698068833264 0.012532101439775982 1 1 1 0.016941011691217769 0.010138788608884871 1 1 1 1 1 1 1 1 1 1 1 1 0.017986051286877955 1 1 1 1 1 1 1 1 1 1 1 1 1 1 1 1 1 1 1 1 1 1 1 1 1 1 1 1 1 1 1 1 1 1 1 1 1 0.010670526011804508 1 1 1 1 1 1 1 1 0.0092160604940334859 1 1 1 1 1 1 1 0.0083650614520804842 1 1 1 1 1 1 1 1 1 1 1 1 1 1 0.0096188629363705598 1 1 1 0.0083586054105821775 1 0.0093023541618578003 1 1 1 1 1 1 1 1 1 0.0087792256115062049 1 1 1 1 1 0.0089340704316055383 1 1 1 1 1 1 1 1 1 1 1 1 1 1 1 1 1 1 1 1 0.010874633857864788 1 1 1 1 1 0.011430310119182548 1 1 1 1 1 1 1 0.010510271456167397 1 1 0.012021825446984949 1 1 1 1 1 1 0.009757767069307241 1 1 1 1 1 1 0.0079653915670008513 1 1 1 1 1 1 1 1 1 1 1 1 1 1 1 1 1 1 1 1 1 1 1 1 1 1 1 1 1 0.0096077296017906058 1 1 1 1 0.009134167286021122 1 1 0.0092327093893589743 1 1 1 0.0091808218199215599 1 1 0.0081465726415898346 1 1 1 1 1 1 1 1 1 1 1 1 1 1 1 1 1 1 0.01301160850485799 1 1 1 1 0.002949455684695991 1 1 1 0.0051775489238248887 1 1 0.01102050230683916 1 1 1 1 1 1 1 1 1 1 1 1 1 1 1 1 1 1 1 1 1 1 1 1 1 1 1 1 1 1 1 1 1 1 1 1 1 1 1 1 1 1 1 1 1 1 1 1 1 1 1 1 1 1 1 1 1 1 1 1 1 0.016886874627491714 1 1 1 1 1 1 1 1 0.016516027574804231 1 1 1 1 1 1 1 1 1 1 1 1 1 1 1 1 1 1 1 1 1 1 1 1 1 1 1 1 0.010636115730743835 1 1 1 1 1 1 1 1 1 1 1 1 1 1 1 1 1 1 1 1 1 0.011139117754470098 1 0.011547169728247568 1 1 0.013427228799066 0.0093124950375344379 1 1 0.010064708402298372 0.0075062948763609041 1 1 0.010279479887925101 1 1 1 1 0.010107598043968678 1 1 0.0067778022718917724 1 1 0.008766004429152513 1 1 1 1 1 1 1 1 1 1 1 1 1 1 0.0098355335955935888 1 1 1 1 1 1 1 1 1 1 0.0097020915691022266 1 1 0.0094307749132950883 1 1 1 1 1 0.009293888521527939 1 0.0088572872372189165 1 1 0.016422083004293195 1 0.0098726860632851604 1 0.0090433329838576146 1 1 1 1 1 1 1 1 1 1 1 1 1 1 1 1 0.0064786793746648697 1 1 0.016192594752335983 1 1 1 1 0.012315611629593116 1 1 1 1 1 1 1 1 1 1 1 1 1 1 1 1 1 0.011551753777085789 1 1 1 1 1 1 1 1 1 0.010744209427496015 1 1 1 1 1 1 1 1 1 1 1 1 1 1 0.018609554656869823 1 1 0.011635591928130191 1 1 0.015941655037618893 1 1 1 0.018599056055292412 1 1 1 1 1 1 1 1 1 1 0.016663580748555534 1 0.014023275978288799 1 1 1 1 1 0.011278317823542562 1 1 1 1 1 1 1 1 1 0.008780560229229746 1 1 1 1 1 1 1 1 1 1 1 0.010646639690002324 1 1 0.017937767380492915 1 1 1 1 1 1 1 1 1 0.011898791942968182 1 1 1 1 1 1 1 1 0.016609297995417733 0.012540070732787524 1 1 1 1 1 1 1 1 1 1 1 1 1 1 1 1 1 1 1 1 1 1 1 1 1 0.0098137476600103982 1 1 1 1 1 1 1 1 1 1 1 1 1 1 1 1 1 1 1 1 1 1 1 1 1 1 1 1 1 1 1 1 1 1 1 1 1 1 1 1 1 1 1 1 1 1 1 1 1 1 1 1 1 0.018439613729423647 1 1 0.020748301700805227 1 1 0.010487300673278433 0.012973121610816499 1 1 1 1 0.012918198551886563 1 1 1 1 1 1 1 1 1 1 1 1 1 0.013114759562911664 1 1 1 1 1 1 1 1 1 1 1 1 1 1 1 1 1 0.013072852734039818 1 0.0099217627286333522 1 1 0.01112197798641916 1 1 1 1 1 1 1 1 1 0.0052102092254214718 1 1 0.010173853532897357 1 1 1 0.0096449606845682781 1 0.013355867057793069 1 1 1 1 1 1 1 1 1 1 1 1 1 1 1 1 1 0.012618616338587775 1 1 1 1 0.014194547201953931 1 1 1 1 1 1 1 1 1 1 1 1 1 0.014636203861315955 1 1 1 1 1 1 1 1 1 1 1 1 1 1 1 1 1 1 1 1 1 1 1 1 1 1 1 1 1 1 1 1 1 1 1 1 1 0.0094991950199966591 1 0.0097836982646403864 1 0.01016027727130607 1 1 0.0063676667070620835 1 1 0.0092370079140502645 1 1 1 0.010850866653026113 1 1 1 0.010455158228385011 1 1 1 1 1 0.0059863330962619636 1 1 0.0084041498901240574 1 1 1 1 0.010123260962368291 1 1 1 1 1 1 1 1 1 1 1 1 1 1 0.009443431690147254 1 1 1 1 1 1 1 1 1 1 1 1 1 1 1 1 1 1 1 1 1 1 1 1 1 0.020617050363147316 0.011515076917994457 1 1 1 1 1 1 1 1 1 1 1 1 0.0085425363553119638 0.0082609524692557543 1 1 1 1 1 1 1 1 1 1 1 1 1 1 1 1 1 1 1 1 1 1 1 1 1 1 1 1 1 1 1 1 1 1 1 1 1 1 1 1 1 1 1 1 1 1 1 1 1 1 1 1 0.0093107978667078019 1 1 1 1 1 0.010440485338202899 1 1 1 0.0075688415084245626 1 1 0.0095265071880035468 0.014849011517002887 1 0.010009504494711656 0.0078671572720273308 1 1 1 1 0.015492847449213337 1 1 1 1 1 1 1 1 1 1 1 1 1 1 1 1 0.011106664466942568 1 1 1 0.01006089453215814 1 1 1 1 1 1 1 1 1 1 1 0.019831877471464823 1 1 0.015932377669429891 1 0.020456611060946935 1 1 0.017810174604160914 1 1 0.020011265606215259 1 1 1 1 1 1 1 1 1 1 1 1 1 1 1 1 1 1 1 1 1 1 1 1 1 0.01357765074885506 0.01041852484701406 1 1 1 0.012748886139440835 1 1 0.010182033675638573 1 1 1 1 1 1 1 1 1 1 1 1 1 1 1 1 1 1 1 1 1 1 1 1 1 0.0050037991292506273 1 1 0.0058478166753629483 1 1 1 1 1 0.0064075313046812882 1 1 0.0085840698675902251 1 1 1 1 1 1 0.0084864898278558323 1 1 1 1 1 0.0095416856690933166 1 1 1 1 1 1 1 1 1 1 1 1 1 1 1 1 1 1 1 1 1 1 1 1 1 1 1 1 1 1 1 1 1 1 1 1 1 1 1 1 1 1 1 1 1 1 1 1 1 1 1 1 1 1 1 1 1 1 1 0.0090756422613759782 1 1 1 0.0090566355367181148 1 1 1 1 0.0080014396954806305 1 1 1 1 1 1 1 1 1 1 1 1 1 1 1 1 1 1 1 1 1 1 1 1 1 1 1 1 1 1 1 1 1 1 1 1 1 0.0081160181637847592 1 1 1 1 1 1 1 1 1 1 1 1 0.0095954584348512117 1 1 1 1 1 1 1 1 1 0.0082641944117814864 1 0.0088482950496253238 1 1 1 1 1 1 1 0.0096672169288544579 0.011411227464611038 1 1 0.0098444637487232825 1 1 1 1 1 1 1 1 0.0096239939895535476 1 1 1 1 1 1 1 1 1 1 1 1 1 1 1 1 1 1 1 1 1 1 1 1 1 1 1 1 1 1 1 1 0.020066108309933224 1 1 0.012611200225152632 1 1 1 1 0.023801326859291996 1 1 1 0.0108442939773888 1 1 1 0.024170378997554792 1 1 1 1 1 0.010673886239340399 0.010418675375254401 1 1 1 1 1 0.015087279069201183 1 0.01302085414909668 0.010160659650341242 1 1 1 1 1 1 1 1 1 1 1 1 1 1 1 1 1 1 1 1 1 1 1 1 1 1 1 1 1 1 1 1 1 1 0.012218727948559091 1 1 1 1 1 1 1 1 0.013457575052678738 1 1 1 1 1 1 1 1 1 1 1 1 1 1 1 1 1 1 1 1 1 1 1 1 1 1 1 1 1 1 1 1 1 1 1 1 1 1 1 1 1 1 1 1 1 1 1 1 1 1 1 1 1 0.0097337111273374799 1 1 1 1 1 1 0.014611053317186344 1 1 1 1 1 0.0097250290279110568 0.0099898997457173837 1 1 1 1 1 1 1 1 1 1 1 0.014886779626268942 1 1 1 1 1 1 1 0.023634787576226862 1 1 1 1 1 1 1 1 0.014144457488263018 1 1 1 1 1 0.014925011134773609 1 1 1 1 1 1 1 1 1 1 1 1 1 1 0.012653962889458914 1 1 1 1 1 1 1 1 0.017737040871949071 1 1 1 0.013732481447680647 1 1 1 1 1 1 0.0085269700165921235 1 1 1 1 1 1 1 1 1 1 1 1 1 1 0.0085867220267414925 0.010216863636344015 1 0.0099916656055750487 1 1 1 1 1 1 1 1 0.0099404824140892703 1 1 1 0.016910880074715001 1 0.022706845350717122 1 0.010035646418120686 0.016291323646532234 0.0095014885354733694 1 1 1 1 0.016364368336164965 1 0.014176921265452445 1 1 0.020300647532296823 1 1 1 1 1 0.023266200998994725 1 1 0.03105456883152663 1 1 1 1 1 1 1 0.018337191928041542 1 1 1 0.020008888344684082 0.015204509635549528 1 1 1 0.027181080450690075 0.024399461815284344 1 1 1 0.010537075597865764 1 0.020800126961590205 1 1 0.011798118777178283 1 1 1 1 0.021078627180196853 1 1 1 0.01336986344726538 1 1 0.0098034993084578255 1 1 1 1 1 1 0.0092820530294816551 1 1 1 1 1 1 1 1 1 1 1 1 1 0.0091580685078984439 1 1 1 1 1 0.0094785537210238316 1 1 1 1 1 1 1 1 1 1 1 1 1 1 1 1 0.011123704762410253 1 1 1 1 1 1 1 1 1 1 1 1 0.012987601880698427 1 1 1 0.010113259600897645 1 1 0.01267729797683168 1 1 1 1 1 1 1 1 1 1 1 0.0097529546423424634 1 0.0094699430864647709 1 1 1 1 1 1 1 1 1 1 1 1 1 1 1 1 0.0097169884441223216 1 1 1 1 1 1 1 1 0.009523882259096738 1 1 1 1 1 1 1 1 1 1 1 1 1 1 1 1 1 1 1 1 1 1 1 1 1 1 1 1 1 1 1 1 1 1 1 1 1 1 1 1 1 1 1 1 1 1 1 1 1 1 1 1 1 1 1 0.0077085906412803981 1 1 0.0085391783383710063 1 1 1 1 1 1 1 1 1 1 1 1 1 1 1 1 1 1 1 1 0.01049549149653399 1 1 1 1 0.011735899780401876 1 1 1 1 1 0.0068254163768935866 0.010311087046823111 1 1 0.0099638091298690345 0.0079639880487889763 1 0.00794978746739421 1 1 1 1 1 1 1 1 1 1 1 1 1 1 1 1 1 1 1 1 1 1 1 1 1 1 1 1 1 0.0094939723091710428 1 1 1 0.011112439230486687 1 1 0.0098187979150396523 1 1 1 1 0.013635476554873032 1 1 0.0035250493427562042 1 1 1 0.0086498510485617276 0.0094572509340424965 1 1 1 1 1 1 1 1 1 1 1 1 1 0.017204739837077446 1 1 0.0026035270147944413 1 1 1 1 1 0.020541641128368794 1 0.015394593300058861 1 1 1 1 0.020877114961599396 1 1 1 0.010648636352239345 1 1 1 1 1 1 1 1 1 0.011679003583769346 1 0.0098635607888597591 0.020519299170072169 1 0.018733375364561655 0.011100873289643466 1 1 1 1 1 1 1 1 1 1 1 1 0.0093651983959697222 1 1 1 1 1 0.013424038670360709 0.0065820128509656191 2.3324979516207642e-09 1 1 1 1 1 -1.2453512470388117e-09 1 1 0.0098301123111127573 1 1 1 1 1 1 1 1 1 1 0.000317334332005253 1 1 1 1 1 1 1 1 1 1 0.0010970377087948235 1 1 1 0.0023086079812408601 1 1 1 1 1 1 1 1 1 1 0.0097158434552177125 1 1 0.0058658610759160946 1 0.008949794976827968 1 1 0.0070962227950319414 1 1 0.0063639742055625979 1 0.0090512601401873879 1 1 0.0038517571539408747 1 0.0094276116146614075 1 1 0.0068886261081895972 1 1 1 0.0090887269669400819 1 1 1 1 0.0089724960199934218 1 1 1 1 0.0097468672073139032 0.0067733951626747632 1 1 1 1 1 1 0.0070006927270609351 1 1 1 1 1 1 1 1 1 1 0.0020048022802112431 1 1 1 1 0.0048153684536868724 1 1 1 1 1 1 1 0.0033137876044890364 1 1 1 0.0030809687221782789 0.012673280836068095 1 0.0071377418277913827 1 1 1 1 1 0.003519223917948875 1 0.015703768446671412 1 0.0028133986732765473 0.0099657551862303052 0.0091499857798721385 1 0.015294843386997249 1 1 1 0.010487317032004742 1 1 1 1 1 1 1 0.010146740735898611 1 1 1 1 1 1 1 1 1 0.010610992539759403 1 1 1 1 0.011268077926348083 1 1 1 1 1 1 1 1 1 1 1 0.010060039823789953 1 1 1 1 1 1 0.0031300338462412619 1 1 1 0.0045184135123184088 1 1 1 1 1 1 1 1 1 1 1 1 1 1 0.010076262846684616 1 1 1 1 1 0.0090210191870796763 1 1 1 1 1 1 0.0091289502549351462 1 0.0096452261653312762 1 1 0.0061032736395512863 1 1 1 1 1 0.0075447496170638478 1 0.012225623252628435 1 1 1 1 0.0098509343153398848 1 1 1 0.010059835555481213 1 1 1 1 1 1 1 1 1 0.0099528352712643306 1 0.010340813185505135 1 1 1 1 1 0.012160554920003354 1 1 1 1 0.0027233865667915594 1 1 1 1 0.017868637657149553 0.0067673037686711845 1 0.0070448436933331637 1 1 0.0083186394782635009 1 1 0.0063946446674754097 1 0.0055939858321892855 1 1 1 1 1 0.0099437111088694179 1 1 1 1 1 1 1 1 1 1 1 1 1 0.010920923265707424 1 1 1 1 1 1 1 0.0067159605090798824 1 1 1 1 1 1 1 1 1 1 1 1 1 1 0.011417157084332831 1 0.014593797046957202 0.010061376005090536 1 1 1 1 1 1 1 1 1 1 1 1 1 1 1 1 1 1 1 1 0.010022204117618561 1 1 1 1 0.0099574002432885906 1 1 1 1 1 1 1 1 1 1 1 1 1 1 1 1 0.0087906180947272591 1 1 1 1 1 1 1 0.005308129194383825 1 1 1 1 1 1 0.0094212171739547074 1 0.01002705897025058 1 1 0.0084416224431857478 1 1 1 1 0.013191667701319628 1 1 1 1 0.012403077897130823 1 1 1 0.0088667315834875336 1 1 1 1 1 1 1 0.0095283195053749159 1 1 1 1 1 1 0.0091330616864459466 1 1 1 1 0.0091501721374446232 1 1 1 1 1 1 1 1 1 0.0056520837517951882 1 1 1 1 0.006037415170057946 1 1 1 0.0096448748804230464 1 1 1 1 1 1 1 0.0066772914051186748 1 0.0096631286015327195 1 1 1 1 -2.5288819562735432e-10 1 1 0.021449645591020205 0.0021866383341139755 1 1 0.0099031040485593261 1 0.016330676924801078 1 1 0.0069299879592141754 0.0052379924599947354 1 1 0.018407220466365108 1 1 1 1 0.0061573757275145569 1 1 1 1 1 0.0076542235416808078 0.003934160829832908 1 1 1 1 1 1 1 1 0.012571430325334882 1 1 0.0099597868810341311 7.8209422878922075e-11 0.012766632929177048 1 1 1 0.011815009638157651 1 0.012060849985951208 1 1 1 1 0.010680850020942 1 1 1 1 1 1 1 1 1 1 1 1 1 1 1 1 1 0.01115373936406374 1 1 0.013405880117767915 1 1 1 1 1 1 1 1 1 1 1 0.009929493780548488 1 1 1 1 1 1 1 1 1 1 0.0048445805899160321 1 1 0.0097721813191278782 1 1 1 1 1 1 1 1 1 1 1 1 0.0095301718275216333 1 1 1 1 1 1 1 0.0056045452931242582 1 1 1 1 0.0045572751733571944 1 1 1 1 1 1 1 0.0054903043990973035 0.01689230534765148 1 1 1 1 0.011300521871068342 0.013815670191413956 1 0.010500907255052747 0.0042645976469081861 1 1 1 1 1 1 0.0021758764560582443 0.015716305394786016 1 1 1 1 0.0013273607344877342 1 0.0026386396006845905 1 1 1 1 1 1 1 1 1 1 0.0024758214718242078 1 1 1 1 1 0.0091712690672982756 1 1 1 1 1 1 1 1 1 1 1 1 1 0.0093795642131951351 1 1 0.0093726723811430046 0.010158088745387837 1 1 0.0099188857982981313 0.0061947302970249089 1 1 1 0.0099654043812113652 0.0081258648187115048 1 1 1 0.01148202548777582 1 1 0.0099968775918651415 0.01403287920068543 1 1 1 1 1 1 1 1 1 0.013396927397056205 1 1 1 0.01000209574194752 1 0.010047461610496491 1 0.0093073488666933143 1 0.013967795462456717 1 1 1 1 1 1 0.01108529694782949 1 0.010287061655002844 1 1 0.010004733154810394 1 1 1 1 1 1 1 1 1 0.012854634516132019 1 1 1 0.013569398663629805 1 1 1 1 1 1 1 1 1 1 1 1 1 1 1 1 0.010011786467372698 1 0.011024398167318655 1 1 1 1 1 1 1 1 1 0.0099817839031031419 1 0.010075748986554811 1 1 1 0.0095265101005287955 1 1 0.010283273342697297 1 1 1 1 1 1 1 1 1 1 0.014115953269787151 1 1 0.013693723721856392 1 1 1 1 1 0.01320720611933357 1 1 0.010026686332024221 1 1 1 1 1 1 1 1 1 1 1 1 1 1 1 1 1 1 0.025211801126899185 1 1 1 0.0047036886834750241 1 1 0.02485383743811299 1 1 0.010020405832504789 1 1 1 1 1 1 0.0095514104067311659 1 1 1 1 1 1 1 1 1 1 1 1 0.014560262317856627 1 1 1 1 1 1 1 1 1 1 1 1 1 0.010182493268154819 1 1 0.0098398261465843587 1 1 1 0.0095936309923931526 1 1 1 1 1 1 1 1 1 1 0.010032175862925319 1 1 1 1 1 1 1 1 1 1 1 1 1 0.0099698260145869716 1 1 1 1 1 1 1 1 1 1 1 1 1 1 1 1 1 1 1 1 1 1 1 1 1 1 0.0095372950974757925 1 1 0.0099904537484936905 1 1 1 0.010020627733906735 1 1 1 1 1 1 1 1 1 1 1 1 1 1 0.0098206116998384718 1 1 1 1 1 0.0056682174500622962 0.0043240654645458759 0.0063039298730373783 1 1 1 0.0044159023938032324 1 1 1 1 1 1 1 1 1 0.0091998774046536183 1 1 1 1 1 1 1 1 0.010296042250952986 1 1 1 1 1 0.010697000710109976 1 1 1 1 1 0.0094681665496435339 1 1 0.0099849590876744648 1 1 1 1 0.0082224239996500983 1 1 1 1 1 1 1 1 1 1 1 1 1 1 1 1 1 1 1 1 1 1 1 1 1 1 1 0.0099422832327475882 1 0.0096876951653204514 1 1 1 1 1 1 0.010596400722289123 1 1 1 1 1 1 1 1 1 1 1 1 1 1 1 1 1 1 1 1 1 1 1 0.012123600127851238 1 1 1 1 0.0089857192070146238 1 1 1 1 1 1 1 1 1 1 1 1 0.0099459510019613059 1 1 0.0085773821474733544 1 1 1 1 1 1 0.004830556820049868 0.0082934398924941113 1 1 1 1 0.015584533600696037 0.004443544562834599 1 1 1 1 1 1 1 1 1 1 1 0.0052349854341219235 0.0080930529234702342 1 1 0.0012731092258275699 0.010034237020377389 1 1 1 1 0.0028748173037317706 1 1 1 1 1 1 1 1 1 0.0049351990750143952 1 1 1 1 1 1 1 1 1 1 1 1 1 1 1 1 1 1 1 1 1 1 1 1 0.0090843264159285106 1 1 0.010142838673193369 1 1 0.015152132612151266 1 0.0084172443413723583 1 1 0.012280443900499594 0.0083638814955624766 1 0.0040144399840812955 1 1 0.0072319321283417642 0.014045973474719725 1 1 1 1 1 1 1 1 1 1 1 1 1 1 1 1 1 1 1 1 1 1 1 1 1 1 1 1 1 1 0.0043023365916425096 1 1 1 1 0.010533685509559958 1 1 0.01001402413638991 1 1 1 1 0.0044720010582469071 1 1 1 1 1 1 1 1 0.0093495729818519335 0.0093749571536515253 1 1 0.011979717762518785 0.0059710716917482053 1 0.018721856811748976 1 1 1 1 0.016229931121560362 1 1 1 1 1 1 1 1 1 0.010114279386415813 1 0.0092964531874690434 1 1 1 1 1 1 1 1 1 1 1 1 1 1 1 1 1 1 1 1 1 1 0.011012325144784285 1 1 1 0.0089664596888999262 1 1 1 1 0.013459671201528758 1 1 1 1 1 0.0069689830356449572 1 0.010407010667518118 1 1 1 1 0.010993092203842605 1 0.0098121265512415359 1 1 0.0097542780090302539 1 1 1 1 1 0.0099275121410762179 0.0097677487859661599 0.0062989852114922022 1 1 0.02158885621796814 1 1 1 1 0.0071313621057887272 0.0066434180040983049 1 1 0.014175818855990535 0.012032803187645214 1 1 1 1 0.0072952927659442213 0.01620102525681457 1 1 0.014473178323581311 1 1 1 0.0088968151712988143 1 1 0.010681408308477795 1 1 0.0098951210784340941 1 1 1 1 1 0.011302551946033551 0.01078852814721556 1 1 1 1 1 1 1 1 1 1 1 1 1 1 1 0.0085944829095171288 1 1 1 0.0060704399820489113 1 1 1 1 0.010042883097168569 1 1 1 1 1 1 1 1 1 1 1 1 1 1 1 1 1 0.002974830716746501 1 0.0099978752252052432 0.0098835926784727537 1 1 0.0082989088173395145 1 1 1 0.010022871051055256 1 1 1 1 1 1 1 1 1 1 0.010221923127542165 1 1 1 1 1 1 1 1 1 1 1 1 1 1 1 1 1 1 1 1 1 1 1 1 1 1 1 1 1 1 1 1 1 1 1 1 1 1 1 1 1 1 1 1 0.0071873254923235479 1 1 0.0090353077717225706 1 1 1 1 1 1 1 1 1 1 1 0.0080140049396640912 1 1 1 1 1 0.0063161191461043858 1 0.0088735245802014813 1 1 1 1 1 1 1 1 0.0095838524444842327 1 1 1 1 1 1 0.00068831084090516682 1 1 0.011295922732796851 1 0.0147035929587125 1 1 0.010023745875164292 1 0.0060743313178878953 1 1 1 1 1 0.010468188686841136 1 1 1 1 1 1 1 1 1 1 1 1 1 1 0.0019393594474952924 1 1 1 1 0.0033809453145088354 1 1 1 1 1 1 1 1 1 0.010205409232673414 1 1 1 1 1 1 1 1 1 1 1 1 1 1 1 1 1 1 1 1 1 1 1 1 1 1 1 0.00069624226838602317 1 1 1 1 1 1 1 1 1 1 1 1 1 1 0.0079262615214223588 1 0.010781348587384911 1 1 1 0.0084365069660932001 1 0.0081052099930779067 1 0.009962997298418836 1 1 1 1 1 1 1 1 1 1 1 1 1 1 1 1 1 1 1 1 1 1 1 1 1 1 1 1 1 1 1 1 0.0092475643203942335 1 1 0.0093005537742636042 1 1 1 1 1 1 1 0.010237578560575628 1 1 1 1 1 1 1 1 1 1 1 1 1 1 1 1 1 1 1 1 1 1 1 0.010393392406132077 1 1 0.011203292330392307 1 1 1 1 0.00010998835779643668 1 1 1 1 1 1 1 1 1 1 1 1 0.0096133725731162908 1 1 1 1 1 1.1069405858946113e-08 1 1 1 1 0.0091265127559826825 1 1 1 1 1 1 1 1 1 1 1 1 1 0.0085867594799704794 1 1 1 1 1 1 1 1 1 1 1 1 1 0.0077628073800946398 1 1 1 1 1 1 1 1 1 1 1 1 1 1 1 1 1 1 0.0094602467239877849 1 1 1 1 1 1 1 1 1 1 1 1 1 1 1 0.0059208169250924148 0.0071566944599637528 1 1 1 1 1 1 1 1 1 0.0099150405843267345 1 1 1 1 1 1 1 0.0098425836656130736 1 1 1 1 1 1 1 0.0089277866400424115 1 1 1 1 0.010114741570207156 1 1 1 0.0075596364684184306 1 1 1 1 1 0.010497879365229452 1 1 1 1 1 0.01007202236300494 1 1 1 1 1 1 1 1 0.010114677611774914 1 0.0078192346026404232 1 1 1 1 1 0.0089634529260051877 1 1 1 1 1 1 0.009519207147280058 1 1 1 0.0089475953785961293 1 1 0.010662894416363179 1 1 1 1 1 1 0.0081347137149733253 1 1 0.0093752506013900141 1 1 1 1 0.010442103145161447 1 1 1 1 1 1 1 1 1 1 1 1 1 1 1 1 1 1 0.0098401891161393109 1 1 1 1 1 1 1 1 1 1 1 1 1 1 1 1 1 0.012675335522371184 1 1 1 0.0041484204806987949 1 1 0.021865466115303427 0.00078183249197912377 1 1 1 1 1 1 1 1 1 1 1 0.011007458631750587 1 1 1 1 1 1 1 1 0.0099622984522877815 1 0.0092942539574068974 1 1 1 0.0097147312468322949 1 1 1 1 1 0.0098103202754040442 1 1 0.0097559695332986272 1 1 1 1 1 1 1 1 1 1 1 1 1 1 0.0094569846888781939 0.0087789824494926248 1 1 1 1 1 0.0093207627002166102 1 1 1 1 1 1 1 1 0.0081528043620271284 1 1 0.009259394296988006 1 1 1 0.0050398780239514392 1 0.0027893260208306774 1 1 1 1 1 1 1 1 1 1 1 0.00774646710726834 1 1 1 0.011831051925526141 1 0.0092988332290242087 1 1 0.015520648148619136 1 0.010064072213686645 1 1 0.0095723451164126359 1 1 1 1 1 1 1 1 1 1 1 1 0.0018713283582459956 1 1 0.01045125026667295 1 1 1 0.0047330901451447163 1 0.011603816050958681 1 1 1 1 1 1 1 1 1 1 1 1 1 0.010118970268648129 0.0058457180309468663 1 1 1 1 1 0.0097030678970518591 1 1 0.0084650390668423239 1 1 0.0093322049647789965 1 1 1 0.016059954629362019 1 1 1 1 1 1 1 1 0.0099639863913622492 1 1 0.010053816047327226 0.013698517855941485 1 1 1 1 1 0.014753631743207327 1 1 0.010711709858306018 1 1 1 0.0067405559217440236 0.0074108131037760802 1 1 1 1 1 0.0099752801978900685 1 0.0047156085753863458 1 1 1 1 1 1 1 1 1 0.0091418745337626395 1 1 0.010015050253937102 1 1 1 1 1 1 1 1 0.0077801881439097456 1 1 1 1 1 1 0.009258984498051584 1 1 1 0.019755427785460446 1 1 1 1 0.010062886630750049 1 1 1 1 1 1 1 1 1 1 1 0.018840637867332054 1 1 0.003485132151380195 1 1 1 1 1 1 0.021150849663062778 1 1 1 1 1 1 1 1 0.011321897340388557 1 1 0.022403929271132526 0.0069662798685959024 1 1 1 1 1 0.0073089973211765552 1 1 1 1 1 1 1 0.0095467470719252604 1 1 0.0075496564777650169 1 1 1 1 1 1 0.0097630545720014845 1 1 1 0.018300241452163933 1 1 1 1 1 1 1 1 1 1 1 1 0.0027837295026993236 1 0.0033408850931778335 1 0.009575675638306469 1 1 1 0.0075720887438881796 1 1 1 1 1 1 0.0098443497220409536 1 1 1 1 1 1 1 1 1 1 1 1 0.0096619853314217352 1 1 0.001534937723432387 0.01218152387194681 1 1 1 1 0.0029822474375325383 1 1 1 0.010100935131000473 0.0040723739828838774 1 1 1 1 0.009554904080087431 1 1 1 0.0075281152767793149 1 0.0044960437117910982 0.007014852173805243 1 1 0.010548794315968798 0.016951616237749531 1 1 1 1 1 0.010568578548115173 1 0.0044715073622244167 1 0.0053624844263565306 0.013890767713537588 1 1 1 1 1 1 1 1 1 0.0018625937013006348 0.0083272388738190734 0.0089168733397379605 1 1 0.0009085257172766828 1 1 0.0041155328687836144 1 1 1 1 1 1 1 1 0.021393782686728598 0.0099803183209533283 1 1 1 0.0098946575837597431 1 1 1 0.020958406305704967 1 1 0.014249304588454255 1 1 1 1 1 1 1 1 1 1 1 1 1 1 1 1 1 1 0.0098238072546690293 1 1 1 1 1 1 1 1 1 0.0094103161692574294 1 1 1 1 1 1 1 1 1 1 0.010814238499582667 0.0075783841975378564 1 1 1 1 1 0.0097836924999237639 1 1 1 1 1 1 1 1 1 1 1 0.0083934767610307354 1 0.010282090391596601 1 1 0.011003985035094945 1 1 0.0099532363643712891 1 1 1 1 1 1 1 1 1 1 1 1 1 1 1 1 1 0.010208869901360908 1 1 1 1 1 1 1 1 1 1 1 1 1 1 1 1 1 1 1 1 1 1 1 1 1 0.0099004124507018915 1 1 1 1 1 1 1 1 1 1 1 1 1 0.0099131249608078505 1 0.010872238905911456 1 1 1 1 1 1 1 1 1 1 1 1 1 1 1 1 1 1 1 1 1 1 1 1 1 1 1 1 1 1 1 1 1 1 0.012610854356710874 1 0.017656788606644561 1 1 0.0099200418517631783 1 1 1 0.014250334036188465 1 1 1 1 1 1 1 1 1 1 1 1 1 1 1 1 1 1 1 0.0016691453745284884 0.0098781660864997109 1 1 1 1 1 1 0.0099459499468627505 1 0.0061950615512106569 1 1 1 1 1 1 0.0057655570463377923 1 1 0.0098733146951069783 1 0.0022396014105199209 1 1 1 1 1 1 1 1 1 1 1 1 1 1 1 1 0.0099993710197924333 1 0.01005454014418343 1 1 1 1 1 1 1 1 0.0099882925861720494 0.0013430370215036704 1 1 0.0095058548339070625 1 1 1 1 0.010184330777358374 1 0.010933503582434181 1 1 0.0098728286861899245 1 1 1 1 1 1 1 0.0070649126853336054 0.010005016848033628 1 1 1 0.0099958924892748543 1 1 0.0060245453927432078 1 0.010000580382156968 1 0.0078410908732426329 0.0099966698564519299 1 1 1 1 1 0.010010578117293226 1 1 1 1 1 1 0.0099985725428499705 1 1 0.012333347068541108 1 1 1 1 1 1 1 1 1 0.012312623777444465 0.0099950172346081109 1 0.011962312682922447 1 0.0098553078961931898 1 1 0.010138375140525492 1 1 1 1 1 1 1 1 1 0.011074118263236175 1 1 1 1 0.010511882930524326 1 1 1 1 1 1 1 1 1 0.0034672296038822659 0.0049470512911901493 1 1 1 1 1 1 1 1 1 1 1 1 1 1 1 1 1 1 1 1 1 1 1 1 1 1 1 1 1 1 0.010360702453573151 1 0.0073297928927379616 1 1 1 1 1 0.0080275626232593003 0.012103042744000909 1 0.0099750174444358311 0.0098510274301233294 1 1 1 1 1 1 1 1 1 1 1 1 1 0.010020886472453555 1 1 1 1 1 1 1 1 1 1 1 1 1 1 1 1 1 0.011334897506937973 1 1 0.010685654089854132 1 1 1 1 1 1 1 0.01076378820646982 1 1 1 1 1 1 1 1 1 1 1 1 1 0.011028122257013231 1 1 1 1 1 1 0.010378878839929379 1 1 1 1 1 1 1 1 1 1 1 1 1 1 1 1 1 0.0097963858509263098 1 1 1 1 1 1 1 1 1 1 1 1 1 0.010012082758920056 1 1 1 0.010003432133700467 1 1 1 1 1 1 1 1 0.0068445310064221936 1 1 1 1 1 1 0.0082824733631555528 1 1 1 1 0.0099248872946574897 1 1 1 0.010062406442742838 1 1 1 1 0.012610618959361462 1 1 1 1 1 1 1 0.0087135622305150179 1 1 1 0.0086138398053629377 1 1 1 0.0097097493247725649 1 1 1 1 1 1 1 0.010008650625219599 1 1 0.0091054508201870599 1 1 1 1 1 1 1 1 1 1 1 1 1 1 1 1 1 1 1 1 1 1 1 1 1 1 1 1 1 1 1 1 1 1 1 1 1 1 1 1 1 1 0.0093967967312938213 1 1 0.0097394558896556262 1 1 0.0099906479575954752 1 1 1 0.0027023545694315684 1 1 1 1 1 0.010082712046911033 0.016095553961191875 1 0.013141735196356332 0.0071238152744253699 1 1 1 1 1 1 1 1 1 1 1 1 1 1 1 1 1 0.013163404461842096 1 1 1 1 1 1 1 1 1 1 1 1 1 1 1 1 1 1 1 1 1 1 1 1 1 1 1 1 1 0.013177807097295331 1 1 1 1 0.011494765815251273 1 1 1 1 1 1 1 0.011037321509272505 1 0.0098736975966187239 1 1 1 0.010012253410210805 1 1 1 1 1 1 1 1 1 1 1 1 1 1 1 1 1 1 1 1 1 1 1 1 1 1 1 1 1 1 1 1 1 1 1 1 1 1 1 1 1 1 1 0.017852002340223126 0.013225487711441714 1 0.015168159458827515 1 0.017527456245502913 1 1 1 1 0.0080199360255507942 1 1 1 1 1 1 1 1 1 1 1 1 1 1 1 1 0.0098400669479255399 1 1 0.0097090803924991687 1 1 1 1 1 1 1 1 1 1 1 1 1 1 1 0.0035119320942717733 1 1 1 1 0.0054638798330148026 1 1 1 1 1 0.0076657793310563327 1 1 1 1 1 1 1 1 1 1 1 1 0.017698684815354832 1 1 0.018513161491996326 1 1 1 1 2.7255775414403161e-10 1 1 1 1 1 1 1 1 1 0.00092786513993484143 1 1 1 1 1 1 1 1 1 1 1 1 1 1 1 1 1 1 1 1 1 1 1 1 1 1 1 0.0096723194100213974 1 1 1 1 0.008984948695376159 1 1 1 1 1 1 1 1 0.003923969151530815 1 0.0082488739545909535 1 1 1 0.0052596492113481386 1 1 1 1 1 1 1 1 1 1 1 0.0038060828736653923 1 1 1 0.009998805913930698 1 1 1 1 1 1 0.0043485969356999235 0.012234222661757711 1 1 1 1 1 1 1 1 1 1 1 1 1 1 1 1 1 0.02122385765014188 1 1 1 1 1 1 1 0.010380077855600904 1 1 1 1 1 1 1 1 1 1 1 1 0.012929363438549557 1 1 1 1 1 0.01842134341003843 0.021775116689111581 1 0.0099844922198129588 1 1 0.010916623608930439 1 1 1 1 1 0.0092883354298653482 1 1 1 0.0078191292066235804 1 0.024223695337131049 1 1 1 0.011328060979906081 0.0093399349955887324 1 1 1 1 1 1 1 1 1 1 1 1 1 1 1 1 1 1 1 1 1 1 0.0060079326642030265 1 1 1 1 1 1 1 0.014492652175924107 1 1 1 1 0.008380918122214906 1 1 0.010291763597725235 1 1 1 1 1 1 0.01082136841692494 1 1 1 1 1 1 0.008217529265347261 1 1 1 1 1 1 1 0.0092182803368557782 1 1 1 1 1 1 1 1 0.0097886675491533556 1 1 1 1 1 1 0.0099004345570206237 1 1 1 1 1 0.017058259083629877 1 1 1 0.0099719797764310208 1 1 1 0.016572230352824645 1 1 1 1 1 1 1 1 1 1 1 1 1 1 1 1 1 1 1 1 0.017336223856722663 1 1 1 1 1 0.019320572245067232 1 1 0.0089874773786667028 0.0088827616375885942 1 1 1 1 0.0095512083730927341 1 1 0.011726616410189218 1 1 1 1 1 1 1 1 0.016043507119079668 1 1 1 0.009989069919992967 1 1 1 1 1 0.015126634716857656 1 1 1 0.0022721970894369649 1 1 0.0047456922684069635 1 1 1 1 1 1 1 1 1 1 1 1 1 1 1 1 1 1 1 0.00979269517264293 1 1 1 1 1 0.0095895197704451898 1 1 0.0099410042216442687 1 1 1 1 1 1 1 0.0099971255954271754 1 1 1 1 1 1 1 1 1 1 1 0.0099263665192308032 1 1 1 1 0.009889307210816746 0.010090227325022884 1 1 1 1 0.0099650731166523662 1 1 0.010497783604166267 1 1 1 1 1 1 0.010225049795200777 1 1 1 1 1 1 1 1 1 1 1 1 1 1 1 1 1 1 1 1 1 1 1 1 1 1 1 0.010073955493219114 1 1 0.012944689758337001 1 1 1 0.0092174991172517887 1 1 1 1 1 1 1 1 1 1 0.013322987184507943 1 1 1 0.016342164863862654 1 1 1 1 1 0.0062586590604829032 0.0193791287525466 1 1 1 1 0.0072264282941865363 1 1 1 0.0088471784597934575 1 1 1 1 1 1 1 1 1 1 1 0.012130556692494077 1 1 1 1 1 1 1 1 1 1 1 1 1 1 0.011321544467058273 1 1 1 0.0078232249475171031 1 1 1 1 1 0.0079907624990639484 1 1 1 0.0040443220986880468 0.023150156913320834 1 1 0.018851010005592229 1 1 1 1 1 1 1 0.008577258951601309 1 1 1 1 0.0069799900250385599 1 1 1 1 1 1 1 1 0.0074197636521094734 1 1 0.0090170325786722016 1 1 1 1 1 1 1 1 1 1 1 1 1 1 1 1 1 1 1 1 1 1 1 1 1 1 0.0092121165703610286 1 1 1 0.0066583320951992611 1 1 1 1 1 1 1 1 1 1 1 1 1 1 1 1 1 1 1 0.0028898551342737971 1 1 0.015302000331453635 1 0.016159597717946145 1 1 1 1 1 1 1 0.012674689485279358 1 1 0.011184298290946512 1 1 1 0.012073800661639917 1 1 1 1 1 0.0094158578178972149 1 1 1 1 1 1 1 1 1 0.0083988967344683779 1 0.012789013023079771 0.009051731866674316 0.023102608826315492 1 1 1 0.0076289278926431059 1 1 0.0091269269146303459 1 1 1 1 1 1 1 1 1 1 1 1 1 0.019853056874539615 1 1 1 1 1 1 1 1 0.013952829807638014 1 1 1 1 0.013020923579551404 1 1 1 1 0.012689673656528844 1 1 1 1 1 1 1 1 1 0.020099049170338452 1 1 1 1 0.020499972007975951 1 1 0.0099995518470456374 1 1 1 1 0.011516026432814283 1 1 0.0071909535251308901 1 0.010742499455289732 1 1 1 1 1 1 1 1 1 1 1 1 1 1 1 1 1 1 1 1 1 1 1 1 1 1 1 1 1 1 1 1 1 1 1 1 1 1 1 1 1 1 1 1 1 1 1 1 0.015954837491831703 1 0.002019135614312835 1 1 0.0050266668572671591 1 1 1 1 1 1 1 0.010061025160725642 1 1 0.011307230422200665 1 1 1 1 1 0.0091131100965110012 1 1 1 0.0072592925136637787 1 1 1 1 1 1 1 1 0.011103208085861731 1 1 0.013762555689853379 1 1 1 1 1 1 1 1 1 1 1 1 0.019850463871793032 1 1 1 1 1 0.0097938170526953462 1 1 1 1 1 0.01679081571023526 1 1 1 1 1 1 1 0.013867142840926222 1 0.0098358715815362041 1 1 1 0.010192478807805527 1 1 1 0.0098019931239656799 1 1 1 1 1 1 1 0.0196841113606709 1 1 1 1 1 0.015667826424090325 1 1 1 1 1 0.020896521837258701 1 1 0.00043974622683957618 1 1 0.018014704145306863 1 0.0099373813482844537 1 1 1 1 0.0097824620330391188 1 1 1 -2.3962053868897826e-10 1 1 1 1 0.010619891866051204 1 1 1 1 1 1 1 1 1 1 1 1 0.018428532584863926 1 0.017853637655948384 0.017147413410889281 1 1 1 0.012968767755694957 1 1 1 1 1 1 1 0.010993020214540674 1 1 1 1 1 1 0.011766530388532859 1 0.010803441532502893 1 1 1 0.010293919511837965 1 1 1 1 1 1 1 1 1 1 1 1 1 1 1 1 1 1 1 0.0097965672774617228 1 0.0093974907928984133 1 1 0.0099622782648806849 1 1 0.009718237585829289 1 1 1 1 1 1 1 1 1 1 1 1 0.0075482640686914473 1 1 1 1 1 1 0.005246454978341069 1 1 1 1 0.0026049624562143707 1 1 1 1 1 1 1 1 1 1 1 1 1 1 1 0.01046514859517577 1 1 1 1 1 0.0099273958721512248 1 1 1 1 0.0099856982795160712 1 1 1 1 1 1 1 0.01234876444144754 1 1 0.011375085333964863 1 1 1 1 1 1 0.010953459310284866 1 1 1 0.0063680872113927277 1 1 0.0081223834343144251 1 1 1 1 1 1 1 1 0.010065018154138974 0.010002834549258578 1 1 0.0080917428378949469 1 0.010000830061139386 1 0.010024935028157558 1 1 1 1 1 0.0069508719607272243 1 0.0052587963248411709 1 1 1 0.010483498193875769 1 1 1 1 1 1 1 1 0.0087299681537172016 1 1 1 1 1 1 1 1 1 1 1 1 1 1 0.0098227653078206828 1 1 1 1 1 1 1 0.010281155257027594 1 1 1 0.010886344706670964 1 1 1 1 0.0097708244897078689 0.011519079491425954 1 1 1 0.010634301125226234 1 1 1 1 0.0099627335055693031 1 1 0.0093637834355205559 1 1 1 1 1 0.0082390057524127543 1 1 1 1 1 1 1 1 1 1 1 1 0.0072243121685257837 1 1 1 1 1 1 1 1 1 1 1 1 1 1 1 1 1 1 1 1 1 1 1 1 1 1 1 1 1 1 1 1 1 1 1 1 1 1 0.0090712625145313863 1 0.0096154769154071715 1 1 1 1 1 1 1 1 1 1 1 1 1 1 1 1 0.0094557855991242064 1 1 1 1 1 1 1 1 1 1 1 1 1 1 1 1 1 1 1 1 1 1 1 1 1 1 1 1 1 1 1 1 1 1 1 1 1 1 1 1 1 1 1 1 1 1 1 1 1 1 1 1 1 1 1 1 1 1 1 1 1 1 1 1 1 0.010851108422788781 1 1 1 1 1 1 1 1 1 1 1 1 1 1 1 1 1 1 1 1 1 1 1 1 1 1 1 1 1 1 1 1 0.0043114571723587986 1 1 1 0.010032292599522763 1 0.0048763828119439204 1 1 1 1 1 1 0.003399906708424414 1 1 1 0.0057832307928648991 1 1 1 1 0.017599619000374364 0.006929060058475163 0.0064197812015718836 1 1 1 1 0.0099461459469101024 0.008223296503205 0.014164170502577803 0.0099898293084174777 1 1 1 0.010195182202930992 1 0.0071787419399002537 1 0.0064733920411750856 1 1 1 1 1 1 1 1 0.0074141907986275332 1 1 1 0.0093163186308231737 1 1 1 1 1 1 1 1 1 1 0.0093421055047272009 1 0.010698791867842897 1 1 1 1 0.0097744626649256885 1 1 1 1 1 1 1 1 1 1 1 1 1 1 0.0061905772318213113 1 0.0081294087875202724 1 1 0.0072303346476377157 1 0.0089672659050251124 1 1 1 1 1 0.01187343205899203 1 0.0089422680417703751 1 1 1 1 1 1 1 0.0096071024649233838 1 1 1 1 1 1 1 1 1 1 1 1 1 1 1 1 1 1 1 1 1 1 1 1 1 1 0.0098064259531828249 1 1 1 1 1 0.0060370897664677146 1 1 1 1 1 1 1 1 1 1 1 1 1 1 1 1 0.0083101252077472931 1 1 1 1 1 1 1 1 1 0.0061120232971667819 1 1 1 1 1 1 0.0086892966436205206 0.0087531118083185467 1 1 1 1 1 1 1 1 1 1 1 1 1 0.0059115023531758348 1 1 1 1 0.01302690343940708 1 0.026440881766948147 1 1 1 0.0099372411284187039 1 1 1 1 1 1 1 1 1 1 1 1 0.030803164634438589 0.011177625742784789 1 1 1 1 0.012849752029415141 1 1 1 0.027955185398572599 1 1 1 1 1 1 1 1 1 1 1 0.0063964891133602569 1 1 1 1 0.016266000777633599 1 0.0058802808628078476 0.0044319263781053587 1 0.010593258005290701 1 1 1 1 1 1 1 1 1 1 1 1 1 1 1 1 1 1 1 1 1 1 1 1 1 1 1 0.0096842026371650944 1 1 1 1 1 1 1 1 1 0.026273259768787006 1 1 0.010716006764311694 1 1 1 0.0069281141041268868 1 1 1 1 1 1 1 0.0058229449631556872 1 1 1 1 1 1 1 0.0054288395104516978 1 0.010106607678104109 1 1 1 1 1 1 1 1 1 1 1 1 1 1 1 0.0090638197075801931 1 1 1 0.004914258040829865 1 1 1 0.0080647936082779408 1 0.0089281455451204993 1 1 1 1 0.0047817452883946072 1 1 1 1 1 1 1 1 1 1 1 1 1 1 0.0089927808878927686 1 0.0052124162043229987 1 1 1 1 0.0052995503350813534 0.0095382096823428929 1 1 1 1 1 1 1 1 1 0.0055961034190525998 1 1 1 1 1 1 1 1 1 1 1 1 1 0.0061656362962655645 1 1 1 0.010194031964030542 1 1 1 1 1 1 0.0072238006259993832 1 1 1 1 1 0.0090919375207673559 1 1 0.0087261349837603978 1 1 1 1 0.010582126640649904 1 1 1 1 1 1 1 0.0090144089079730906 1 1 1 0.0098516240572847184 1 1 1 1 1 1 1 1 1 1 1 1 0.0094986960586115401 1 1 1 1 1 1 1 1 1 1 1 1 1 1 1 1 1 1 1 1 1 1 1 1 1 1 1 1 1 1 1 1 1 1 1 1 1 1 1 1 1 1 1 1 1 1 1 1 1 1 1 1 1 0.0099248157889141458 1 1 1 1 0.0097939849150205267 1 1 1 1 1 1 1 1 1 1 1 1 1 1 1 1 1 1 1 1 1 1 1 1 1 1 1 1 1 1 1 1 1 1 1 0.016041438926196822 1 1 1 1 0.019360618481500599 1 1 1 1 1 1 1 1 1 1 0.0099381588597729689 1 1 1 1.7651757208692054e-09 1 1 1 1 1 1 1 0.0033369538188270306 1 1 1 1 0.0084220112197929808 1 1 1 1 0.013529312061137447 1 1 1 1 1 1 1 1 1 1 1 1 1 1 0.01046437341264508 1 0.017727141572684572 1 0.012027011928717364 1 0.017869566662219574 1 1 1 1 1 1 0.007594860475126643 1 1 1 1 1 1 1 0.019899055666214797 1 1 1 1 1 1 1 1 1 0.0099960566655281444 1 0.0058035891503517428 1 1 1 1 1 0.011403276768771705 1 1 0.013264208415652439 0.0044537710779830042 1 1 0.0098076484089683943 1 0.013294528892723116 0.0098298839172387513 1 0.010424383704479049 1 1 1 1 1 1 1 1 1 1 1 1 1 0.009969921137443237 1 1 1 1 1 0.011943501568143462 1 1 1 1 1 1 1 0.0027426781027966515 1 1 1 0.013336978766657067 1 1 0.012593138941123135 1 0.014314593164935623 1 1 1 1 1 1 1 0.0015055503369563288 1 1 1 1 1 1 1 1 1 1 1 1 1 1 1 1 1 0.028094768890396582 1 1 1 1 1 1 1 1 1 1 1 1 1 1 1 1 1 1 1 1 1 1 1 1 0.017394854610149064 1 0.013621540410898265 1 1 1 1 0.009900498053239672 1 1 0.028918419640137593 1 1 0.0099661095422809258 1 1 1 0.013878226830437995 1 1 1 1 1 1 1 0.015430023672561483 0.01522390649041669 1 1 1 0.0051446414546749766 1 1 1 0.0072798319412141713 1 1 1 0.0079212795726556276 1 1 0.0095038285764285774 0.012997421984258888 1 1 1 1 1 0.0097613369134238997 1 1 1 1 0.009910339241343399 1 1 1 1 1 1 1 1 1 1 1 1 1 1 1 1 1 1 1 1 1 1 1 1 1 1 1 1 1 1 1 1 1 1 1 1 1 1 1 
</DataArray>
</CellData>
</Piece>
</UnstructuredGrid>
</VTKFile>
